<?xml version="1.0"?>
<VTKFile type="UnstructuredGrid" version="0.1" byte_order="LittleEndian">
<UnstructuredGrid>
<Piece NumberOfPoints="30095" NumberOfCells="10598">
<Points>
<DataArray type="Float64" NumberOfComponents="3" format="ascii">
-0.5 -0.5 0 -0.46833512168037489 -0.48599365290500102 0 -0.48267020241711872 -0.44889552808599659 0 -0.5 -0.5 0 -0.46833512168037489 -0.48599365290500102 0 -0.45170182487410532 -0.5 0 -0.5 -0.5 0 -0.48267020241711872 -0.44889552808599659 0 -0.50000000000000111 -0.43226180181301332 0 -0.46833512168037489 -0.48599365290500102 0 -0.44945724395605308 -0.49444265695663508 0 -0.45170182487410532 -0.5 0 -0.46833512168037489 -0.48599365290500102 0 -0.44801060725135278 -0.48216298063196222 0 -0.44945724395605308 -0.49444265695663508 0 -0.46833512168037489 -0.48599365290500102 0 -0.44801060725135278 -0.48216298063196222 0 -0.46534040483423572 -0.46552925435897929 0 -0.44801060725135278 -0.48216298063196222 0 -0.45744208655262719 -0.46312976840587983 0 -0.46534040483423572 -0.46552925435897929 0 -0.44801060725135278 -0.48216298063196222 0 -0.46534040483423572 -0.46552925435897929 0 -0.44801060725135278 -0.48216298063196222 0 -0.44053572124271739 -0.47147334132918672 0 -0.44559588103414971 -0.46166574296087493 0 -0.44801060725135278 -0.48216298063196222 0 -0.44559588103414971 -0.46166574296087493 0 -0.45744208655262719 -0.46312976840587983 0 -0.44801060725135278 -0.48216298063196222 0 -0.44559588103414971 -0.46166574296087493 0 -0.44801060725135278 -0.48216298063196222 0 -0.44053572124271739 -0.47147334132918672 0 -0.43727276302294132 -0.47953242095139459 0 -0.44801060725135278 -0.48216298063196222 0 -0.44105419339184743 -0.48883998210455182 0 -0.43727276302294132 -0.47953242095139459 0 -0.44801060725135278 -0.48216298063196222 0 -0.44105419339184743 -0.48883998210455182 0 -0.44105419339184743 -0.48883998210455182 0 -0.44945724395605308 -0.49444265695663508 0 -0.45170182487410532 -0.5 0 -0.44801060725135278 -0.48216298063196222 0 -0.44105419339184743 -0.48883998210455182 0 -0.44945724395605308 -0.49444265695663508 0 -0.44801060725135278 -0.48216298063196222 0 -0.44945724395605308 -0.49444265695663508 0 -0.44318115481694809 -0.44116850528978752 0 -0.44372874441645088 -0.45858668082044218 0 -0.43448279014183022 -0.43882331209734371 0 -0.44372874441645088 -0.45858668082044218 0 -0.43448279014183022 -0.43882331209734371 0 -0.44318115481694809 -0.44116850528978752 0 -0.45744208655262719 -0.46312976840587983 0 -0.43830886432492278 -0.45336063797264742 0 -0.44372874441645088 -0.45858668082044218 0 -0.43448279014183022 -0.43882331209734371 0 -0.44318115481694809 -0.44116850528978752 0 -0.44559588103414971 -0.46166574296087493 0 -0.43830886432492278 -0.45336063797264742 0 -0.43914703897766288 -0.45886196070206531 0 -0.44372874441645088 -0.45858668082044218 0 -0.44318115481694809 -0.44116850528978752 0 -0.44559588103414971 -0.46166574296087493 0 -0.45744208655262719 -0.46312976840587983 0 -0.44318115481694809 -0.44116850528978752 0 -0.44372874441645088 -0.45858668082044218 0 -0.44559588103414971 -0.46166574296087493 0 -0.43914703897766288 -0.45886196070206531 0 -0.43963734188520842 -0.46358574266201252 0 -0.43461596797707869 -0.45953252397386601 0 -0.43914703897766288 -0.45886196070206531 0 -0.44372874441645088 -0.45858668082044218 0 -0.43963734188520842 -0.46358574266201252 0 -0.44053572124271739 -0.47147334132918672 0 -0.43963734188520842 -0.46358574266201252 0 -0.44559588103414971 -0.46166574296087493 0 -0.44053572124271739 -0.47147334132918672 0 -0.43963734188520842 -0.46358574266201252 0 -0.43248861077492412 -0.46919240368091092 0 -0.44372874441645088 -0.45858668082044218 0 -0.43963734188520842 -0.46358574266201252 0 -0.44559588103414971 -0.46166574296087493 0 -0.45744208655262719 -0.46312976840587983 0 -0.46534040483423572 -0.46552925435897929 0 -0.46226408612207842 -0.45177793485149997 0 -0.44318115481694809 -0.44116850528978752 0 -0.46226408612207842 -0.45177793485149997 0 -0.46268658198946427 -0.44016661811685681 0 -0.44318115481694809 -0.44116850528978752 0 -0.45744208655262719 -0.46312976840587983 0 -0.46226408612207842 -0.45177793485149997 0 -0.46268658198946427 -0.44016661811685681 0 -0.48267020241711872 -0.44889552808599659 0 -0.46980426626823818 -0.426938967031886 0 -0.46226408612207842 -0.45177793485149997 0 -0.46268658198946427 -0.44016661811685681 0 -0.48267020241711872 -0.44889552808599659 0 -0.46833512168037489 -0.48599365290500102 0 -0.46534040483423572 -0.46552925435897929 0 -0.48267020241711872 -0.44889552808599659 0 -0.46534040483423572 -0.46552925435897929 0 -0.48267020241711872 -0.44889552808599659 0 -0.46534040483423572 -0.46552925435897929 0 -0.46226408612207842 -0.45177793485149997 0 -0.48267020241711872 -0.44889552808599659 0 -0.48267020241711872 -0.44889552808599659 0 -0.50000000000000111 -0.43226180181301332 0 -0.48267020241711872 -0.44889552808599659 0 -0.50000000000000111 -0.43226180181301332 0 -0.48625744784290298 -0.42054309738734169 0 -0.50000000000000111 -0.43226180181301332 0 -0.48625744784290298 -0.42054309738734169 0 -0.5 -0.40269129651438729 0 -0.48625744784290298 -0.42054309738734169 0 -0.5 -0.40269129651438729 0 -0.47571583455138189 -0.4049312907656229 0 -0.48625744784290298 -0.42054309738734169 0 -0.46980426626823818 -0.426938967031886 0 -0.47571583455138189 -0.4049312907656229 0 -0.48267020241711872 -0.44889552808599659 0 -0.48625744784290298 -0.42054309738734169 0 -0.46980426626823818 -0.426938967031886 0 -0.4883321049493678 -0.38790604386507432 0 -0.5 -0.40269129651438729 0 -0.5 -0.37312079121576153 0 -0.4883321049493678 -0.38790604386507432 0 -0.5 -0.40269129651438729 0 -0.47571583455138189 -0.4049312907656229 0 -0.4883321049493678 -0.38790604386507432 0 -0.47571583455138189 -0.4049312907656229 0 -0.47075676975463171 -0.38113470252016701 0 -0.4883321049493678 -0.38790604386507432 0 -0.47075676975463171 -0.38113470252016701 0 -0.48537838487731622 -0.36234249421865139 0 -0.47075676975463171 -0.38113470252016701 0 -0.45613515463194709 -0.39992691082168258 0 -0.47075676975463171 -0.38113470252016701 0 -0.45534916411423582 -0.38028783056125859 0 -0.45613515463194709 -0.39992691082168258 0 -0.47571583455138189 -0.4049312907656229 0 -0.47075676975463171 -0.38113470252016701 0 -0.45613515463194709 -0.39992691082168258 0 -0.43967067534511428 -0.41137004136415273 0 -0.43616019587328209 -0.38157157743851777 0 -0.45613515463194709 -0.39992691082168258 0 -0.43967067534511428 -0.41137004136415273 0 -0.43616019587328209 -0.38157157743851777 0 -0.45534916411423582 -0.38028783056125859 0 -0.45613515463194709 -0.39992691082168258 0 -0.43616019587328209 -0.38157157743851777 0 -0.44318115481694809 -0.44116850528978752 0 -0.46268658198946427 -0.44016661811685681 0 -0.45455732640465168 -0.42831779812497112 0 -0.46268658198946427 -0.44016661811685681 0 -0.46980426626823818 -0.426938967031886 0 -0.45455732640465168 -0.42831779812497112 0 -0.46980426626823818 -0.426938967031886 0 -0.45455732640465168 -0.42831779812497112 0 -0.45872509841258602 -0.41537801721882228 0 -0.46980426626823818 -0.426938967031886 0 -0.47571583455138189 -0.4049312907656229 0 -0.45872509841258602 -0.41537801721882228 0 -0.47571583455138189 -0.4049312907656229 0 -0.45613515463194709 -0.39992691082168258 0 -0.45872509841258602 -0.41537801721882228 0 -0.45455732640465168 -0.42831779812497112 0 -0.45872509841258602 -0.41537801721882228 0 -0.44151353950926259 -0.41871911912319809 0 -0.45613515463194709 -0.39992691082168258 0 -0.44151353950926259 -0.41871911912319809 0 -0.45613515463194709 -0.39992691082168258 0 -0.45872509841258602 -0.41537801721882228 0 -0.44151353950926259 -0.41871911912319809 0 -0.45613515463194709 -0.39992691082168258 0 -0.44151353950926259 -0.41871911912319809 0 -0.43967067534511428 -0.41137004136415273 0 -0.44318115481694809 -0.44116850528978752 0 -0.45455732640465168 -0.42831779812497112 0 -0.44151353950926259 -0.41871911912319809 0 -0.44318115481694809 -0.44116850528978752 0 -0.43967067534511428 -0.41137004136415273 0 -0.44318115481694809 -0.44116850528978752 0 -0.44151353950926259 -0.41871911912319809 0 -0.43967067534511428 -0.41137004136415273 0 -0.42958601820476888 -0.42023253997046672 0 -0.42523683586720928 -0.41905994337424513 0 -0.43448279014183022 -0.43882331209734371 0 -0.44318115481694809 -0.44116850528978752 0 -0.42958601820476888 -0.42023253997046672 0 -0.43448279014183022 -0.43882331209734371 0 -0.44318115481694809 -0.44116850528978752 0 -0.42958601820476888 -0.42023253997046672 0 -0.44318115481694809 -0.44116850528978752 0 -0.43967067534511428 -0.41137004136415273 0 -0.42958601820476888 -0.42023253997046672 0 -0.42490216476393322 -0.43567900940143311 0 -0.42523683586720928 -0.41905994337424513 0 -0.43448279014183022 -0.43882331209734371 0 -0.42523683586720928 -0.41905994337424513 0 -0.43448279014183022 -0.43882331209734371 0 -0.42490216476393322 -0.43567900940143311 0 -0.42523683586720928 -0.41905994337424513 0 -0.42058264281736202 -0.42800776586195732 0 -0.42958601820476888 -0.42023253997046672 0 -0.42523683586720928 -0.41905994337424513 0 -0.41599088159258829 -0.39929657465114682 0 -0.42958601820476888 -0.42023253997046672 0 -0.41599088159258829 -0.39929657465114682 0 -0.42855375631878118 -0.40727222670987978 0 -0.42958601820476888 -0.42023253997046672 0 -0.41599088159258829 -0.39929657465114682 0 -0.43967067534511428 -0.41137004136415273 0 -0.42855375631878118 -0.40727222670987978 0 -0.42958601820476888 -0.42023253997046672 0 -0.42523683586720928 -0.41905994337424513 0 -0.41315812841981869 -0.42256507299705021 0 -0.41599088159258829 -0.39929657465114682 0 -0.41315812841981869 -0.42256507299705021 0 -0.41599088159258829 -0.39929657465114682 0 -0.40110216636634061 -0.41727494389252778 0 -0.42523683586720928 -0.41905994337424513 0 -0.41599088159258829 -0.39929657465114682 0 -0.41315812841981869 -0.42256507299705021 0 -0.4049277652127074 -0.4371005851744828 0 -0.40110216636634061 -0.41727494389252778 0 -0.41315812841981869 -0.42256507299705021 0 -0.41688536925431752 -0.43373319133613553 0 -0.4049277652127074 -0.4371005851744828 0 -0.42490216476393322 -0.43567900940143311 0 -0.41688536925431752 -0.43373319133613553 0 -0.42058264281736202 -0.42800776586195732 0 -0.41315812841981869 -0.42256507299705021 0 -0.41688536925431752 -0.43373319133613553 0 -0.42058264281736202 -0.42800776586195732 0 -0.42523683586720928 -0.41905994337424513 0 -0.41315812841981869 -0.42256507299705021 0 -0.42058264281736202 -0.42800776586195732 0 -0.43616019587328209 -0.38157157743851777 0 -0.42300397252629368 -0.38816276168079711 0 -0.41788829201222921 -0.37272081648283412 0 -0.43616019587328209 -0.38157157743851777 0 -0.42300397252629368 -0.38816276168079711 0 -0.42896745013265319 -0.39818975085375308 0 -0.43967067534511428 -0.41137004136415273 0 -0.43616019587328209 -0.38157157743851777 0 -0.42896745013265319 -0.39818975085375308 0 -0.42300397252629368 -0.38816276168079711 0 -0.42896745013265319 -0.39818975085375308 0 -0.41599088159258829 -0.39929657465114682 0 -0.43967067534511428 -0.41137004136415273 0 -0.42855375631878118 -0.40727222670987978 0 -0.42896745013265319 -0.39818975085375308 0 -0.42855375631878118 -0.40727222670987978 0 -0.42896745013265319 -0.39818975085375308 0 -0.41599088159258829 -0.39929657465114682 0 -0.41599088159258829 -0.39929657465114682 0 -0.41021701552400669 -0.38695484759065352 0 -0.42300397252629368 -0.38816276168079711 0 -0.41599088159258829 -0.39929657465114682 0 -0.41021701552400669 -0.38695484759065352 0 -0.41021701552400669 -0.38695484759065352 0 -0.41788829201222921 -0.37272081648283412 0 -0.39980969622557327 -0.37437819793062271 0 -0.41599088159258829 -0.39929657465114682 0 -0.39980969622557327 -0.37437819793062271 0 -0.41599088159258829 -0.39929657465114682 0 -0.41021701552400669 -0.38695484759065352 0 -0.39980969622557327 -0.37437819793062271 0 -0.42300397252629368 -0.38816276168079711 0 -0.41021701552400669 -0.38695484759065352 0 -0.41788829201222921 -0.37272081648283412 0 -0.41599088159258829 -0.39929657465114682 0 -0.3868188233733249 -0.39623745417092721 0 -0.39980969622557327 -0.37437819793062271 0 -0.41599088159258829 -0.39929657465114682 0 -0.3868188233733249 -0.39623745417092721 0 -0.40110216636634061 -0.41727494389252778 0 -0.3868188233733249 -0.39623745417092721 0 -0.39980969622557327 -0.37437819793062271 0 -0.38013556338091581 -0.36944098472372 0 -0.3868188233733249 -0.39623745417092721 0 -0.38013556338091581 -0.36944098472372 0 -0.36428762858488373 -0.38290996655623272 0 -0.4049277652127074 -0.4371005851744828 0 -0.40110216636634061 -0.41727494389252778 0 -0.4049277652127074 -0.4371005851744828 0 -0.40110216636634061 -0.41727494389252778 0 -0.39003941294935218 -0.42697439570044832 0 -0.4049277652127074 -0.4371005851744828 0 -0.39003941294935218 -0.42697439570044832 0 -0.38582952478426069 -0.43756146822127828 0 -0.3868188233733249 -0.39623745417092721 0 -0.40110216636634061 -0.41727494389252778 0 -0.38456322398183912 -0.41477434320696749 0 -0.40110216636634061 -0.41727494389252778 0 -0.38456322398183912 -0.41477434320696749 0 -0.39003941294935218 -0.42697439570044832 0 -0.3868188233733249 -0.39623745417092721 0 -0.38456322398183912 -0.41477434320696749 0 -0.36461124845074838 -0.40862347358398821 0 -0.38456322398183912 -0.41477434320696749 0 -0.37575964801685602 -0.42649861044394921 0 -0.39003941294935218 -0.42697439570044832 0 -0.37575964801685602 -0.42649861044394921 0 -0.39003941294935218 -0.42697439570044832 0 -0.38582952478426069 -0.43756146822127828 0 -0.37575964801685602 -0.42649861044394921 0 -0.38582952478426069 -0.43756146822127828 0 -0.37330325838241318 -0.44026344580857918 0 -0.38789901887864597 -0.45108905240975561 0 -0.36704467369823218 -0.44525187836306068 0 -0.38789901887864597 -0.45108905240975561 0 -0.38582952478426069 -0.43756146822127828 0 -0.37330325838241318 -0.44026344580857918 0 -0.38789901887864597 -0.45108905240975561 0 -0.36704467369823218 -0.44525187836306068 0 -0.37330325838241318 -0.44026344580857918 0 -0.4049277652127074 -0.4371005851744828 0 -0.38789901887864597 -0.45108905240975561 0 -0.40875336405906282 -0.45692622645643999 0 -0.4049277652127074 -0.4371005851744828 0 -0.38789901887864597 -0.45108905240975561 0 -0.38582952478426069 -0.43756146822127828 0 -0.38789901887864597 -0.45108905240975561 0 -0.39301730484311231 -0.46841622779014758 0 -0.40875336405906282 -0.45692622645643999 0 -0.39301730484311231 -0.46841622779014758 0 -0.41290916855572091 -0.47846311322821772 0 -0.40875336405906282 -0.45692622645643999 0 -0.38789901887864597 -0.45108905240975561 0 -0.40875336405906282 -0.45692622645643999 0 -0.38789901887864597 -0.45108905240975561 0 -0.39301730484311231 -0.46841622779014758 0 -0.37135216357044099 -0.47060606781224179 0 -0.38789901887864597 -0.45108905240975561 0 -0.37135216357044099 -0.47060606781224179 0 -0.36704467369823218 -0.44525187836306068 0 -0.39301730484311231 -0.46841622779014758 0 -0.38712457560232588 -0.48349708176612138 0 -0.37135216357044099 -0.47060606781224179 0 -0.38712457560232588 -0.48349708176612138 0 -0.39180307136490761 -0.5 0 -0.36654116967744782 -0.5 0 -0.38712457560232588 -0.48349708176612138 0 -0.36654116967744782 -0.5 0 -0.37135216357044099 -0.47060606781224179 0 -0.38712457560232588 -0.48349708176612138 0 -0.39180307136490761 -0.5 0 -0.41290916855572091 -0.47846311322821772 0 -0.39301730484311231 -0.46841622779014758 0 -0.38712457560232588 -0.48349708176612138 0 -0.41290916855572091 -0.47846311322821772 0 -0.41290916855572091 -0.47846311322821772 0 -0.4236300404285448 -0.46992097595011151 0 -0.41845770237828922 -0.45964249068278412 0 -0.44105419339184743 -0.48883998210455182 0 -0.45170182487410532 -0.5 0 -0.41706497305236723 -0.49999999999999772 0 -0.41290916855572091 -0.47846311322821772 0 -0.4236300404285448 -0.46992097595011151 0 -0.42726909075136998 -0.48193663678883453 0 -0.41290916855572091 -0.47846311322821772 0 -0.41706497305236723 -0.49999999999999772 0 -0.39180307136490761 -0.5 0 -0.41290916855572091 -0.47846311322821772 0 -0.41706497305236723 -0.49999999999999772 0 -0.41290916855572091 -0.47846311322821772 0 -0.41706497305236723 -0.49999999999999772 0 -0.42726909075136998 -0.48193663678883453 0 -0.44105419339184743 -0.48883998210455182 0 -0.41706497305236723 -0.49999999999999772 0 -0.42726909075136998 -0.48193663678883453 0 -0.4236300404285448 -0.46992097595011151 0 -0.42726909075136998 -0.48193663678883453 0 -0.43248861077492412 -0.46919240368091092 0 -0.42726909075136998 -0.48193663678883453 0 -0.43727276302294132 -0.47953242095139459 0 -0.43248861077492412 -0.46919240368091092 0 -0.44105419339184743 -0.48883998210455182 0 -0.42726909075136998 -0.48193663678883453 0 -0.43727276302294132 -0.47953242095139459 0 -0.44053572124271739 -0.47147334132918672 0 -0.43727276302294132 -0.47953242095139459 0 -0.43248861077492412 -0.46919240368091092 0 -0.43963734188520842 -0.46358574266201252 0 -0.43248861077492412 -0.46919240368091092 0 -0.43461596797707869 -0.45953252397386601 0 -0.43248861077492412 -0.46919240368091092 0 -0.42702562968241953 -0.46037023536981031 0 -0.43461596797707869 -0.45953252397386601 0 -0.4236300404285448 -0.46992097595011151 0 -0.42702562968241953 -0.46037023536981031 0 -0.41845770237828922 -0.45964249068278412 0 -0.4236300404285448 -0.46992097595011151 0 -0.43248861077492412 -0.46919240368091092 0 -0.42702562968241953 -0.46037023536981031 0 -0.42702562968241953 -0.46037023536981031 0 -0.42471313106572423 -0.45299129073151773 0 -0.41845770237828922 -0.45964249068278412 0 -0.42702562968241953 -0.46037023536981031 0 -0.4310123478790383 -0.45287911507959422 0 -0.42471313106572423 -0.45299129073151773 0 -0.42702562968241953 -0.46037023536981031 0 -0.43461596797707869 -0.45953252397386601 0 -0.4310123478790383 -0.45287911507959422 0 -0.43830886432492278 -0.45336063797264742 0 -0.43914703897766288 -0.45886196070206531 0 -0.43461596797707869 -0.45953252397386601 0 -0.43830886432492278 -0.45336063797264742 0 -0.43461596797707869 -0.45953252397386601 0 -0.4310123478790383 -0.45287911507959422 0 -0.43830886432492278 -0.45336063797264742 0 -0.43301367222987092 -0.4476905893015462 0 -0.4310123478790383 -0.45287911507959422 0 -0.43830886432492278 -0.45336063797264742 0 -0.43301367222987092 -0.4476905893015462 0 -0.43448279014183022 -0.43882331209734371 0 -0.43301367222987092 -0.4476905893015462 0 -0.4310123478790383 -0.45287911507959422 0 -0.4282506865736922 -0.44569929205659969 0 -0.43301367222987092 -0.4476905893015462 0 -0.43448279014183022 -0.43882331209734371 0 -0.4282506865736922 -0.44569929205659969 0 -0.42490216476393322 -0.43567900940143311 0 -0.43448279014183022 -0.43882331209734371 0 -0.4282506865736922 -0.44569929205659969 0 -0.42490216476393322 -0.43567900940143311 0 -0.4282506865736922 -0.44569929205659969 0 -0.41881928881518138 -0.4463653204688004 0 -0.4282506865736922 -0.44569929205659969 0 -0.42471313106572423 -0.45299129073151773 0 -0.41881928881518138 -0.4463653204688004 0 -0.4310123478790383 -0.45287911507959422 0 -0.4282506865736922 -0.44569929205659969 0 -0.42471313106572423 -0.45299129073151773 0 -0.4049277652127074 -0.4371005851744828 0 -0.41881928881518138 -0.4463653204688004 0 -0.40875336405906282 -0.45692622645643999 0 -0.42471313106572423 -0.45299129073151773 0 -0.41881928881518138 -0.4463653204688004 0 -0.41845770237828922 -0.45964249068278412 0 -0.4049277652127074 -0.4371005851744828 0 -0.40875336405906282 -0.45692622645643999 0 -0.42490216476393322 -0.43567900940143311 0 -0.41688536925431752 -0.43373319133613553 0 -0.41881928881518138 -0.4463653204688004 0 -0.41688536925431752 -0.43373319133613553 0 -0.4049277652127074 -0.4371005851744828 0 -0.41881928881518138 -0.4463653204688004 0 -0.41290916855572091 -0.47846311322821772 0 -0.40875336405906282 -0.45692622645643999 0 -0.40875336405906282 -0.45692622645643999 0 -0.41845770237828922 -0.45964249068278412 0 -0.41290916855572091 -0.47846311322821772 0 -0.40875336405906282 -0.45692622645643999 0 -0.41845770237828922 -0.45964249068278412 0 -0.41881928881518138 -0.4463653204688004 0 -0.40875336405906282 -0.45692622645643999 0 -0.41845770237828922 -0.45964249068278412 0 -0.44193441075943318 -0.2576287881938828 0 -0.44923049372044499 -0.27222599658557978 0 -0.46031532898616162 -0.26145303659922459 0 -0.44193441075943318 -0.2576287881938828 0 -0.46031532898616162 -0.26145303659922459 0 -0.45580677800631703 -0.24459137081616669 0 -0.44923049372044499 -0.27222599658557978 0 -0.44603258944368562 -0.28901161139440978 0 -0.43164948357153182 -0.27409120386146812 0 -0.44193441075943318 -0.2576287881938828 0 -0.44923049372044499 -0.27222599658557978 0 -0.43164948357153182 -0.27409120386146812 0 -0.44923049372044499 -0.27222599658557978 0 -0.46031532898616162 -0.26145303659922459 0 -0.47373574145645858 -0.28100669547773371 0 -0.44923049372044499 -0.27222599658557978 0 -0.47373574145645858 -0.28100669547773371 0 -0.44603258944368562 -0.28901161139440978 0 -0.46031532898616162 -0.26145303659922459 0 -0.46862277139851172 -0.25111975325190861 0 -0.45580677800631703 -0.24459137081616669 0 -0.46031532898616162 -0.26145303659922459 0 -0.46862277139851172 -0.25111975325190861 0 -0.47724993060684179 -0.26037923252663592 0 -0.46862277139851172 -0.25111975325190861 0 -0.47724993060684179 -0.26037923252663592 0 -0.48386395273398258 -0.24618543112483249 0 -0.47724993060684179 -0.26037923252663592 0 -0.5 -0.26182123415195058 0 -0.48386395273398258 -0.24618543112483249 0 -0.5 -0.26182123415195058 0 -0.47373574145645858 -0.28100669547773371 0 -0.5 -0.2890642514070122 0 -0.46031532898616162 -0.26145303659922459 0 -0.47724993060684179 -0.26037923252663592 0 -0.47373574145645858 -0.28100669547773371 0 -0.47724993060684179 -0.26037923252663592 0 -0.5 -0.26182123415195058 0 -0.47373574145645858 -0.28100669547773371 0 -0.47373574145645858 -0.28100669547773371 0 -0.48477318522969792 -0.30287385462554878 0 -0.46476243513656251 -0.3067215398684815 0 -0.47373574145645858 -0.28100669547773371 0 -0.5 -0.2890642514070122 0 -0.48477318522969792 -0.30287385462554878 0 -0.5 -0.2890642514070122 0 -0.48477318522969792 -0.30287385462554878 0 -0.5 -0.31630726866207393 0 -0.48477318522969792 -0.30287385462554878 0 -0.46476243513656251 -0.3067215398684815 0 -0.48228606405114133 -0.32394196566145228 0 -0.47373574145645858 -0.28100669547773371 0 -0.46476243513656251 -0.3067215398684815 0 -0.44603258944368562 -0.28901161139440978 0 -0.46476243513656251 -0.3067215398684815 0 -0.44603258944368562 -0.28901161139440978 0 -0.43725969470805848 -0.31284853876858759 0 -0.44403122776101861 -0.33461555202865251 0 -0.46427043802040058 -0.33083466787416271 0 -0.43725969470805848 -0.31284853876858759 0 -0.44403122776101861 -0.33461555202865251 0 -0.46427043802040058 -0.33083466787416271 0 -0.4583445361970821 -0.35851813146466682 0 -0.46476243513656251 -0.3067215398684815 0 -0.46427043802040058 -0.33083466787416271 0 -0.43725969470805848 -0.31284853876858759 0 -0.46476243513656251 -0.3067215398684815 0 -0.46427043802040058 -0.33083466787416271 0 -0.48228606405114133 -0.32394196566145228 0 -0.48477318522969792 -0.30287385462554878 0 -0.48228606405114133 -0.32394196566145228 0 -0.5 -0.31630726866207393 0 -0.48228606405114133 -0.32394196566145228 0 -0.5 -0.31630726866207393 0 -0.50000000000000044 -0.34355028591713549 0 -0.48228606405114133 -0.32394196566145228 0 -0.50000000000000044 -0.34355028591713549 0 -0.48003313406807752 -0.34309911658647241 0 -0.46427043802040058 -0.33083466787416271 0 -0.48228606405114133 -0.32394196566145228 0 -0.48003313406807752 -0.34309911658647241 0 -0.48003313406807752 -0.34309911658647241 0 -0.48537838487731622 -0.36234249421865139 0 -0.4583445361970821 -0.35851813146466682 0 -0.50000000000000044 -0.34355028591713549 0 -0.48003313406807752 -0.34309911658647241 0 -0.48537838487731622 -0.36234249421865139 0 -0.50000000000000044 -0.34355028591713549 0 -0.48537838487731622 -0.36234249421865139 0 -0.4883321049493678 -0.38790604386507432 0 -0.48537838487731622 -0.36234249421865139 0 -0.5 -0.37312079121576153 0 -0.50000000000000044 -0.34355028591713549 0 -0.48537838487731622 -0.36234249421865139 0 -0.5 -0.37312079121576153 0 -0.47075676975463171 -0.38113470252016701 0 -0.48537838487731622 -0.36234249421865139 0 -0.47075676975463171 -0.38113470252016701 0 -0.48537838487731622 -0.36234249421865139 0 -0.4583445361970821 -0.35851813146466682 0 -0.47075676975463171 -0.38113470252016701 0 -0.45534916411423582 -0.38028783056125859 0 -0.4583445361970821 -0.35851813146466682 0 -0.46427043802040058 -0.33083466787416271 0 -0.48003313406807752 -0.34309911658647241 0 -0.4583445361970821 -0.35851813146466682 0 -0.44403122776101861 -0.33461555202865251 0 -0.4583445361970821 -0.35851813146466682 0 -0.43264971640145011 -0.35177311351288282 0 -0.43616019587328209 -0.38157157743851777 0 -0.4583445361970821 -0.35851813146466682 0 -0.43264971640145011 -0.35177311351288282 0 -0.45534916411423582 -0.38028783056125859 0 -0.43616019587328209 -0.38157157743851777 0 -0.4583445361970821 -0.35851813146466682 0 -0.43616019587328209 -0.38157157743851777 0 -0.43264971640145011 -0.35177311351288282 0 -0.41788829201222921 -0.37272081648283412 0 -0.43616019587328209 -0.38157157743851777 0 -0.43264971640145011 -0.35177311351288282 0 -0.43264971640145011 -0.35177311351288282 0 -0.40695425668811269 -0.35493513241763769 0 -0.41247654984925081 -0.33272295519062561 0 -0.43264971640145011 -0.35177311351288282 0 -0.40695425668811269 -0.35493513241763769 0 -0.41788829201222921 -0.37272081648283412 0 -0.40695425668811269 -0.35493513241763769 0 -0.41788829201222921 -0.37272081648283412 0 -0.39980969622557327 -0.37437819793062271 0 -0.39980969622557327 -0.37437819793062271 0 -0.38362851085855842 -0.34945982121009861 0 -0.40695425668811269 -0.35493513241763769 0 -0.39980969622557327 -0.37437819793062271 0 -0.38362851085855842 -0.34945982121009861 0 -0.39980969622557327 -0.37437819793062271 0 -0.38013556338091581 -0.36944098472372 0 -0.38362851085855842 -0.34945982121009861 0 -0.38013556338091581 -0.36944098472372 0 -0.38362851085855842 -0.34945982121009861 0 -0.36396400871901879 -0.35719645952847712 0 -0.40695425668811269 -0.35493513241763769 0 -0.38362851085855842 -0.34945982121009861 0 -0.41247654984925081 -0.33272295519062561 0 -0.38362851085855842 -0.34945982121009861 0 -0.38966830201910818 -0.32283827683275468 0 -0.41247654984925081 -0.33272295519062561 0 -0.38362851085855842 -0.34945982121009861 0 -0.38966830201910818 -0.32283827683275468 0 -0.36744732549154352 -0.32454144448957428 0 -0.38362851085855842 -0.34945982121009861 0 -0.36744732549154352 -0.32454144448957428 0 -0.38966830201910818 -0.32283827683275468 0 -0.37928082433367249 -0.30325537234122701 0 -0.36744732549154352 -0.32454144448957428 0 -0.38966830201910818 -0.32283827683275468 0 -0.41247654984925081 -0.33272295519062561 0 -0.40550829956251588 -0.30421179093224793 0 -0.41247654984925081 -0.33272295519062561 0 -0.43725969470805848 -0.31284853876858759 0 -0.40550829956251588 -0.30421179093224793 0 -0.44403122776101861 -0.33461555202865251 0 -0.43264971640145011 -0.35177311351288282 0 -0.41247654984925081 -0.33272295519062561 0 -0.44403122776101861 -0.33461555202865251 0 -0.41247654984925081 -0.33272295519062561 0 -0.43725969470805848 -0.31284853876858759 0 -0.43725969470805848 -0.31284853876858759 0 -0.42592742839393849 -0.29116856846121192 0 -0.40550829956251588 -0.30421179093224793 0 -0.44603258944368562 -0.28901161139440978 0 -0.43725969470805848 -0.31284853876858759 0 -0.42592742839393849 -0.29116856846121192 0 -0.44603258944368562 -0.28901161139440978 0 -0.42592742839393849 -0.29116856846121192 0 -0.43164948357153182 -0.27409120386146812 0 -0.42592742839393849 -0.29116856846121192 0 -0.40550829956251588 -0.30421179093224793 0 -0.40918707468390031 -0.27567969734934578 0 -0.38966830201910818 -0.32283827683275468 0 -0.40550829956251588 -0.30421179093224793 0 -0.37928082433367249 -0.30325537234122701 0 -0.37928082433367249 -0.30325537234122701 0 -0.38693023636611201 -0.28172831869762638 0 -0.36174965573705348 -0.27928123273452921 0 -0.40550829956251588 -0.30421179093224793 0 -0.37928082433367249 -0.30325537234122701 0 -0.38693023636611201 -0.28172831869762638 0 -0.40550829956251588 -0.30421179093224793 0 -0.38693023636611201 -0.28172831869762638 0 -0.40918707468390031 -0.27567969734934578 0 -0.39176374497672323 -0.26434019072901749 0 -0.40370709189037229 -0.25715661138904972 0 -0.40918707468390031 -0.27567969734934578 0 -0.38693023636611201 -0.28172831869762638 0 -0.39176374497672323 -0.26434019072901749 0 -0.40918707468390031 -0.27567969734934578 0 -0.38693023636611201 -0.28172831869762638 0 -0.39176374497672323 -0.26434019072901749 0 -0.37082043854602398 -0.25836979014094658 0 -0.39176374497672323 -0.26434019072901749 0 -0.37082043854602398 -0.25836979014094658 0 -0.38817388339720738 -0.2487665360681196 0 -0.39176374497672323 -0.26434019072901749 0 -0.40370709189037229 -0.25715661138904972 0 -0.38817388339720738 -0.2487665360681196 0 -0.40370709189037229 -0.25715661138904972 0 -0.42084211708157182 -0.25502193243370908 0 -0.40918707468390031 -0.27567969734934578 0 -0.40370709189037229 -0.25715661138904972 0 -0.42084211708157182 -0.25502193243370908 0 -0.40418092522890731 -0.243695377048708 0 -0.42084211708157182 -0.25502193243370908 0 -0.40918707468390031 -0.27567969734934578 0 -0.43164948357153182 -0.27409120386146812 0 -0.42592742839393849 -0.29116856846121192 0 -0.40918707468390031 -0.27567969734934578 0 -0.43164948357153182 -0.27409120386146812 0 -0.44193441075943318 -0.2576287881938828 0 -0.42084211708157182 -0.25502193243370908 0 -0.438414761385786 -0.24141568151772891 0 -0.44193441075943318 -0.2576287881938828 0 -0.42084211708157182 -0.25502193243370908 0 -0.43164948357153182 -0.27409120386146812 0 -0.33508495475751371 -0.27470469104852607 0 -0.3189037693904988 -0.24978631432800211 0 -0.33508495475751371 -0.27470469104852607 0 -0.3100812481319446 -0.26514203783175311 0 -0.3189037693904988 -0.24978631432800211 0 -0.33508495475751371 -0.27470469104852607 0 -0.30920298641626931 -0.28465622879909752 0 -0.3100812481319446 -0.26514203783175311 0 -0.33508495475751371 -0.27470469104852607 0 -0.34533675118298179 -0.25622516502635118 0 -0.3189037693904988 -0.24978631432800211 0 -0.34533675118298179 -0.25622516502635118 0 -0.37082043854602398 -0.25836979014094658 0 -0.35226490790162379 -0.23807996287696501 0 -0.34533675118298179 -0.25622516502635118 0 -0.37082043854602398 -0.25836979014094658 0 -0.36174965573705348 -0.27928123273452921 0 -0.38693023636611201 -0.28172831869762638 0 -0.37082043854602398 -0.25836979014094658 0 -0.36174965573705348 -0.27928123273452921 0 -0.33508495475751371 -0.27470469104852607 0 -0.34533675118298179 -0.25622516502635118 0 -0.36174965573705348 -0.27928123273452921 0 -0.33508495475751371 -0.27470469104852607 0 -0.36174965573705348 -0.27928123273452921 0 -0.3512661401245285 -0.29962306776905018 0 -0.37928082433367249 -0.30325537234122701 0 -0.36174965573705348 -0.27928123273452921 0 -0.3512661401245285 -0.29962306776905018 0 -0.37928082433367249 -0.30325537234122701 0 -0.3512661401245285 -0.29962306776905018 0 -0.36744732549154352 -0.32454144448957428 0 -0.3512661401245285 -0.29962306776905018 0 -0.36744732549154352 -0.32454144448957428 0 -0.3512661401245285 -0.29962306776905018 0 -0.32555296372067932 -0.30136356962659511 0 -0.33247271848405452 -0.32029207987076558 0 -0.33508495475751371 -0.27470469104852607 0 -0.3512661401245285 -0.29962306776905018 0 -0.32555296372067932 -0.30136356962659511 0 -0.33508495475751371 -0.27470469104852607 0 -0.3512661401245285 -0.29962306776905018 0 -0.33508495475751371 -0.27470469104852607 0 -0.32555296372067932 -0.30136356962659511 0 -0.30920298641626931 -0.28465622879909752 0 -0.32555296372067932 -0.30136356962659511 0 -0.30383941978591961 -0.31159696005529208 0 -0.30920298641626931 -0.28465622879909752 0 -0.32555296372067932 -0.30136356962659511 0 -0.32016422140559608 -0.32178759332460533 0 -0.30383941978591961 -0.31159696005529208 0 -0.32555296372067932 -0.30136356962659511 0 -0.32016422140559608 -0.32178759332460533 0 -0.33247271848405452 -0.32029207987076558 0 -0.32016422140559608 -0.32178759332460533 0 -0.3174888352055536 -0.33389453222350429 0 -0.30383941978591961 -0.31159696005529208 0 -0.32016422140559608 -0.32178759332460533 0 -0.32723159436537469 -0.32939334071665161 0 -0.33247271848405452 -0.32029207987076558 0 -0.3208967479677059 -0.33416495433803811 0 -0.32887849459998042 -0.33832318458547589 0 -0.32843851460801321 -0.35178183795704859 0 -0.3174888352055536 -0.33389453222350429 0 -0.32843851460801321 -0.35178183795704859 0 -0.3174888352055536 -0.33389453222350429 0 -0.3208967479677059 -0.33416495433803811 0 -0.32843851460801321 -0.35178183795704859 0 -0.32016422140559608 -0.32178759332460533 0 -0.3174888352055536 -0.33389453222350429 0 -0.3208967479677059 -0.33416495433803811 0 -0.3174888352055536 -0.33389453222350429 0 -0.3208967479677059 -0.33416495433803811 0 -0.32723159436537469 -0.32939334071665161 0 -0.3208967479677059 -0.33416495433803811 0 -0.32887849459998042 -0.33832318458547589 0 -0.32016422140559608 -0.32178759332460533 0 -0.32723159436537469 -0.32939334071665161 0 -0.3208967479677059 -0.33416495433803811 0 -0.32723159436537469 -0.32939334071665161 0 -0.33374578936953653 -0.33239889146437329 0 -0.32887849459998042 -0.33832318458547589 0 -0.33504633106463449 -0.34085817350142572 0 -0.32887849459998042 -0.33832318458547589 0 -0.32843851460801321 -0.35178183795704859 0 -0.33374578936953653 -0.33239889146437329 0 -0.33504633106463449 -0.34085817350142572 0 -0.32887849459998042 -0.33832318458547589 0 -0.33504633106463449 -0.34085817350142572 0 -0.34242832719896199 -0.33537006363835598 0 -0.34303387276714659 -0.34683718437178779 0 -0.33374578936953653 -0.33239889146437329 0 -0.33504633106463449 -0.34085817350142572 0 -0.34242832719896199 -0.33537006363835598 0 -0.33374578936953653 -0.33239889146437329 0 -0.34242832719896199 -0.33537006363835598 0 -0.34048878138025152 -0.32687063331395111 0 -0.34048878138025152 -0.32687063331395111 0 -0.33247271848405452 -0.32029207987076558 0 -0.35053366149026749 -0.31978014520071391 0 -0.33374578936953653 -0.33239889146437329 0 -0.34048878138025152 -0.32687063331395111 0 -0.33247271848405452 -0.32029207987076558 0 -0.32723159436537469 -0.32939334071665161 0 -0.33374578936953653 -0.33239889146437329 0 -0.33247271848405452 -0.32029207987076558 0 -0.3512661401245285 -0.29962306776905018 0 -0.35053366149026749 -0.31978014520071391 0 -0.36744732549154352 -0.32454144448957428 0 -0.3512661401245285 -0.29962306776905018 0 -0.33247271848405452 -0.32029207987076558 0 -0.35053366149026749 -0.31978014520071391 0 -0.35053366149026749 -0.31978014520071391 0 -0.35654714823429318 -0.32767327457409129 0 -0.36744732549154352 -0.32454144448957428 0 -0.34048878138025152 -0.32687063331395111 0 -0.35053366149026749 -0.31978014520071391 0 -0.34857105182930892 -0.32841119419887882 0 -0.35053366149026749 -0.31978014520071391 0 -0.35654714823429318 -0.32767327457409129 0 -0.34857105182930892 -0.32841119419887882 0 -0.35654714823429318 -0.32767327457409129 0 -0.36744732549154352 -0.32454144448957428 0 -0.36364038885315408 -0.33148295250072168 0 -0.36994338812964012 -0.34242788177023642 0 -0.36364038885315408 -0.33148295250072168 0 -0.36396400871901879 -0.35719645952847712 0 -0.38362851085855842 -0.34945982121009861 0 -0.36744732549154352 -0.32454144448957428 0 -0.36994338812964012 -0.34242788177023642 0 -0.36744732549154352 -0.32454144448957428 0 -0.36994338812964012 -0.34242788177023642 0 -0.36364038885315408 -0.33148295250072168 0 -0.36364038885315408 -0.33148295250072168 0 -0.35254331350719242 -0.33415063648056759 0 -0.35352779610631679 -0.34474568744966899 0 -0.35654714823429318 -0.32767327457409129 0 -0.36364038885315408 -0.33148295250072168 0 -0.35254331350719242 -0.33415063648056759 0 -0.35654714823429318 -0.32767327457409129 0 -0.35254331350719242 -0.33415063648056759 0 -0.34857105182930892 -0.32841119419887882 0 -0.34242832719896199 -0.33537006363835598 0 -0.34048878138025152 -0.32687063331395111 0 -0.34857105182930892 -0.32841119419887882 0 -0.34242832719896199 -0.33537006363835598 0 -0.35254331350719242 -0.33415063648056759 0 -0.34857105182930892 -0.32841119419887882 0 -0.34242832719896199 -0.33537006363835598 0 -0.35254331350719242 -0.33415063648056759 0 -0.34821775864965449 -0.34021599445143519 0 -0.34242832719896199 -0.33537006363835598 0 -0.34821775864965449 -0.34021599445143519 0 -0.34303387276714659 -0.34683718437178779 0 -0.35254331350719242 -0.33415063648056759 0 -0.34821775864965449 -0.34021599445143519 0 -0.35352779610631679 -0.34474568744966899 0 -0.34821775864965449 -0.34021599445143519 0 -0.35352779610631679 -0.34474568744966899 0 -0.34303387276714659 -0.34683718437178779 0 -0.34463086268060389 -0.35886381424224839 0 -0.35352779610631679 -0.34474568744966899 0 -0.36396400871901879 -0.35719645952847712 0 -0.34463086268060389 -0.35886381424224839 0 -0.35352779610631679 -0.34474568744966899 0 -0.34303387276714659 -0.34683718437178779 0 -0.36364038885315408 -0.33148295250072168 0 -0.36396400871901879 -0.35719645952847712 0 -0.38362851085855842 -0.34945982121009861 0 -0.36994338812964012 -0.34242788177023642 0 -0.36396400871901879 -0.35719645952847712 0 -0.36364038885315408 -0.33148295250072168 0 -0.35352779610631679 -0.34474568744966899 0 -0.36396400871901879 -0.35719645952847712 0 -0.36396400871901879 -0.35719645952847712 0 -0.3514981406589372 -0.37274301664105541 0 -0.36428762858488373 -0.38290996655623272 0 -0.36396400871901879 -0.35719645952847712 0 -0.36428762858488373 -0.38290996655623272 0 -0.38013556338091581 -0.36944098472372 0 -0.36396400871901879 -0.35719645952847712 0 -0.36428762858488373 -0.38290996655623272 0 -0.34463086268060389 -0.35886381424224839 0 -0.3514981406589372 -0.37274301664105541 0 -0.33778932708296439 -0.37474807844114272 0 -0.34463086268060389 -0.35886381424224839 0 -0.36396400871901879 -0.35719645952847712 0 -0.3514981406589372 -0.37274301664105541 0 -0.34463086268060389 -0.35886381424224839 0 -0.33778932708296439 -0.37474807844114272 0 -0.32978215628937202 -0.36497610263420599 0 -0.33778932708296439 -0.37474807844114272 0 -0.32978215628937202 -0.36497610263420599 0 -0.32464683095828362 -0.37545780533972212 0 -0.34463086268060389 -0.35886381424224839 0 -0.32978215628937202 -0.36497610263420599 0 -0.32843851460801321 -0.35178183795704859 0 -0.34463086268060389 -0.35886381424224839 0 -0.34303387276714659 -0.34683718437178779 0 -0.32843851460801321 -0.35178183795704859 0 -0.33504633106463449 -0.34085817350142572 0 -0.34303387276714659 -0.34683718437178779 0 -0.32843851460801321 -0.35178183795704859 0 -0.3174888352055536 -0.33389453222350429 0 -0.32843851460801321 -0.35178183795704859 0 -0.31123666809736078 -0.34956404808576691 0 -0.32843851460801321 -0.35178183795704859 0 -0.31340524611699477 -0.36402897719086802 0 -0.31123666809736078 -0.34956404808576691 0 -0.32978215628937202 -0.36497610263420599 0 -0.32843851460801321 -0.35178183795704859 0 -0.31340524611699477 -0.36402897719086802 0 -0.32978215628937202 -0.36497610263420599 0 -0.31340524611699477 -0.36402897719086802 0 -0.32464683095828362 -0.37545780533972212 0 -0.31340524611699477 -0.36402897719086802 0 -0.31312815795657251 -0.37699599517614241 0 -0.32464683095828362 -0.37545780533972212 0 -0.31340524611699477 -0.36402897719086802 0 -0.2994842500877567 -0.36731222773309269 0 -0.29835090422819582 -0.35596481158252252 0 -0.2994842500877567 -0.36731222773309269 0 -0.30404857326831358 -0.37555070314648481 0 -0.29508629445085349 -0.37590731650566728 0 -0.31340524611699477 -0.36402897719086802 0 -0.2994842500877567 -0.36731222773309269 0 -0.30404857326831358 -0.37555070314648481 0 -0.31340524611699477 -0.36402897719086802 0 -0.31312815795657251 -0.37699599517614241 0 -0.30404857326831358 -0.37555070314648481 0 -0.31340524611699477 -0.36402897719086802 0 -0.31123666809736078 -0.34956404808576691 0 -0.29835090422819582 -0.35596481158252252 0 -0.31123666809736078 -0.34956404808576691 0 -0.29798517029818289 -0.34472962781916278 0 -0.29835090422819582 -0.35596481158252252 0 -0.29798517029818289 -0.34472962781916278 0 -0.29835090422819582 -0.35596481158252252 0 -0.28494247518401777 -0.35579248255706952 0 -0.29798517029818289 -0.34472962781916278 0 -0.28494247518401777 -0.35579248255706952 0 -0.28157091378684052 -0.34110573889256213 0 -0.29835090422819582 -0.35596481158252252 0 -0.28494247518401777 -0.35579248255706952 0 -0.29003220663510743 -0.36625038364732337 0 -0.28494247518401777 -0.35579248255706952 0 -0.29003220663510743 -0.36625038364732337 0 -0.28109815828678197 -0.36443749288784072 0 -0.2994842500877567 -0.36731222773309269 0 -0.29835090422819582 -0.35596481158252252 0 -0.29003220663510743 -0.36625038364732337 0 -0.29003220663510743 -0.36625038364732337 0 -0.28506311374312993 -0.37443088688932152 0 -0.29508629445085349 -0.37590731650566728 0 -0.2994842500877567 -0.36731222773309269 0 -0.29003220663510743 -0.36625038364732337 0 -0.29508629445085349 -0.37590731650566728 0 -0.28506311374312993 -0.37443088688932152 0 -0.27856746430867613 -0.37454199244620301 0 -0.28109815828678197 -0.36443749288784072 0 -0.29003220663510743 -0.36625038364732337 0 -0.28506311374312993 -0.37443088688932152 0 -0.28109815828678197 -0.36443749288784072 0 -0.27856746430867613 -0.37454199244620301 0 -0.26688553156297862 -0.351171718899286 0 -0.26688553156297862 -0.351171718899286 0 -0.26761411299937182 -0.37710458038493011 0 -0.27856746430867613 -0.37454199244620301 0 -0.26688553156297862 -0.351171718899286 0 -0.26761411299937182 -0.37710458038493011 0 -0.27856746430867613 -0.37454199244620301 0 -0.28109815828678197 -0.36443749288784072 0 -0.26688553156297862 -0.351171718899286 0 -0.25718802529817569 -0.35632830299104301 0 -0.26761411299937182 -0.37710458038493011 0 -0.2452151844951698 -0.37172913242620642 0 -0.25718802529817569 -0.35632830299104301 0 -0.26688553156297862 -0.351171718899286 0 -0.26761411299937182 -0.37710458038493011 0 -0.25718802529817569 -0.35632830299104301 0 -0.25837684828802121 -0.34782469575198333 0 -0.24660059497272549 -0.35005426434992792 0 -0.25837684828802121 -0.34782469575198333 0 -0.25527054836466467 -0.33970649141258402 0 -0.24660059497272549 -0.35005426434992792 0 -0.25718802529817569 -0.35632830299104301 0 -0.26616031637965709 -0.34972089072011892 0 -0.26688553156297862 -0.351171718899286 0 -0.25718802529817569 -0.35632830299104301 0 -0.25837684828802121 -0.34782469575198333 0 -0.26616031637965709 -0.34972089072011892 0 -0.25837684828802121 -0.34782469575198333 0 -0.26616031637965709 -0.34972089072011892 0 -0.2666647564248828 -0.34331352928624259 0 -0.28494247518401777 -0.35579248255706952 0 -0.26688553156297862 -0.351171718899286 0 -0.27482976757456729 -0.3470163301598238 0 -0.26688553156297862 -0.351171718899286 0 -0.2666647564248828 -0.34331352928624259 0 -0.28494247518401777 -0.35579248255706952 0 -0.28109815828678197 -0.36443749288784072 0 -0.26688553156297862 -0.351171718899286 0 -0.26616031637965709 -0.34972089072011892 0 -0.26688553156297862 -0.351171718899286 0 -0.2666647564248828 -0.34331352928624259 0 -0.26688553156297862 -0.351171718899286 0 -0.27482976757456729 -0.3470163301598238 0 -0.2666647564248828 -0.34331352928624259 0 -0.26616031637965709 -0.34972089072011892 0 -0.26688553156297862 -0.351171718899286 0 -0.27482976757456729 -0.3470163301598238 0 -0.2666647564248828 -0.34331352928624259 0 -0.28157091378684052 -0.34110573889256213 0 -0.28494247518401777 -0.35579248255706952 0 -0.27482976757456729 -0.3470163301598238 0 -0.28157091378684052 -0.34110573889256213 0 -0.27115361536870541 -0.33021777492360049 0 -0.2666647564248828 -0.34331352928624259 0 -0.28157091378684052 -0.34110573889256213 0 -0.27115361536870541 -0.33021777492360049 0 -0.2666647564248828 -0.34331352928624259 0 -0.25527054836466467 -0.33970649141258402 0 -0.27115361536870541 -0.33021777492360049 0 -0.24798600545028121 -0.32837939627364943 0 -0.27115361536870541 -0.33021777492360049 0 -0.25527054836466467 -0.33970649141258402 0 -0.24798600545028121 -0.32837939627364943 0 -0.25837684828802121 -0.34782469575198333 0 -0.2666647564248828 -0.34331352928624259 0 -0.25527054836466467 -0.33970649141258402 0 -0.25942175835488829 -0.31144766870469182 0 -0.24838889559803151 -0.32207614467911672 0 -0.24943431263974661 -0.30572050363919068 0 -0.2704771497283201 -0.31816111970868372 0 -0.24838889559803151 -0.32207614467911672 0 -0.27115361536870541 -0.33021777492360049 0 -0.25998324817153928 -0.32475506786800667 0 -0.24798600545028121 -0.32837939627364943 0 -0.25998324817153928 -0.32475506786800667 0 -0.2704771497283201 -0.31816111970868372 0 -0.24838889559803151 -0.32207614467911672 0 -0.2704771497283201 -0.31816111970868372 0 -0.25942175835488829 -0.31144766870469182 0 -0.24838889559803151 -0.32207614467911672 0 -0.25998324817153928 -0.32475506786800667 0 -0.24798600545028121 -0.32837939627364943 0 -0.24838889559803151 -0.32207614467911672 0 -0.2704771497283201 -0.31816111970868372 0 -0.2667122578417972 -0.30865307118202212 0 -0.25942175835488829 -0.31144766870469182 0 -0.27115361536870541 -0.33021777492360049 0 -0.25998324817153928 -0.32475506786800667 0 -0.2704771497283201 -0.31816111970868372 0 -0.27115361536870541 -0.33021777492360049 0 -0.2704771497283201 -0.31816111970868372 0 -0.28359175958363969 -0.32349323858758322 0 -0.29256540385860941 -0.31424609473825338 0 -0.28359175958363969 -0.32349323858758322 0 -0.2993813925689166 -0.32276526352010559 0 -0.2704771497283201 -0.31816111970868372 0 -0.29256540385860941 -0.31424609473825338 0 -0.28359175958363969 -0.32349323858758322 0 -0.29432122528712951 -0.33205615357355228 0 -0.2993813925689166 -0.32276526352010559 0 -0.2704771497283201 -0.31816111970868372 0 -0.29256540385860941 -0.31424609473825338 0 -0.28359175958363969 -0.32349323858758322 0 -0.27115361536870541 -0.33021777492360049 0 -0.28359175958363969 -0.32349323858758322 0 -0.29432122528712951 -0.33205615357355228 0 -0.29798517029818289 -0.34472962781916278 0 -0.29432122528712951 -0.33205615357355228 0 -0.28157091378684052 -0.34110573889256213 0 -0.27115361536870541 -0.33021777492360049 0 -0.29432122528712951 -0.33205615357355228 0 -0.27115361536870541 -0.33021777492360049 0 -0.29432122528712951 -0.33205615357355228 0 -0.28157091378684052 -0.34110573889256213 0 -0.3174888352055536 -0.33389453222350429 0 -0.31123666809736078 -0.34956404808576691 0 -0.29798517029818289 -0.34472962781916278 0 -0.3174888352055536 -0.33389453222350429 0 -0.29798517029818289 -0.34472962781916278 0 -0.29432122528712951 -0.33205615357355228 0 -0.3174888352055536 -0.33389453222350429 0 -0.29432122528712951 -0.33205615357355228 0 -0.2993813925689166 -0.32276526352010559 0 -0.3174888352055536 -0.33389453222350429 0 -0.29432122528712951 -0.33205615357355228 0 -0.3174888352055536 -0.33389453222350429 0 -0.30383941978591961 -0.31159696005529208 0 -0.3174888352055536 -0.33389453222350429 0 -0.2993813925689166 -0.32276526352010559 0 -0.30383941978591961 -0.31159696005529208 0 -0.29256540385860941 -0.31424609473825338 0 -0.2993813925689166 -0.32276526352010559 0 -0.30383941978591961 -0.31159696005529208 0 -0.30383941978591961 -0.31159696005529208 0 -0.29019000436628589 -0.28929938788707982 0 -0.30383941978591961 -0.31159696005529208 0 -0.30920298641626931 -0.28465622879909752 0 -0.29019000436628589 -0.28929938788707982 0 -0.29256540385860941 -0.31424609473825338 0 -0.29019000436628589 -0.28929938788707982 0 -0.27457987526904032 -0.30353212795570578 0 -0.29256540385860941 -0.31424609473825338 0 -0.30383941978591961 -0.31159696005529208 0 -0.29019000436628589 -0.28929938788707982 0 -0.2704771497283201 -0.31816111970868372 0 -0.29256540385860941 -0.31424609473825338 0 -0.27457987526904032 -0.30353212795570578 0 -0.27457987526904032 -0.30353212795570578 0 -0.26237024801494019 -0.30147136835900717 0 -0.26543825985268399 -0.28820558990375061 0 -0.27457987526904032 -0.30353212795570578 0 -0.2667122578417972 -0.30865307118202212 0 -0.26237024801494019 -0.30147136835900717 0 -0.2704771497283201 -0.31816111970868372 0 -0.27457987526904032 -0.30353212795570578 0 -0.2667122578417972 -0.30865307118202212 0 -0.2667122578417972 -0.30865307118202212 0 -0.25942175835488829 -0.31144766870469182 0 -0.26237024801494019 -0.30147136835900717 0 -0.26237024801494019 -0.30147136835900717 0 -0.25047972968146048 -0.28936486259926458 0 -0.24943431263974661 -0.30572050363919068 0 -0.25942175835488829 -0.31144766870469182 0 -0.26237024801494019 -0.30147136835900717 0 -0.24943431263974661 -0.30572050363919068 0 -0.26237024801494019 -0.30147136835900717 0 -0.25047972968146048 -0.28936486259926458 0 -0.26543825985268399 -0.28820558990375061 0 -0.25047972968146048 -0.28936486259926458 0 -0.26543825985268399 -0.28820558990375061 0 -0.29019000436628589 -0.28929938788707982 0 -0.26543825985268399 -0.28820558990375061 0 -0.27654058894665179 -0.26700181571886777 0 -0.29019000436628589 -0.28929938788707982 0 -0.27457987526904032 -0.30353212795570578 0 -0.26543825985268399 -0.28820558990375061 0 -0.27654058894665179 -0.26700181571886777 0 -0.25198058485566999 -0.2658838521481427 0 -0.25047972968146048 -0.28936486259926458 0 -0.25198058485566999 -0.2658838521481427 0 -0.26543825985268399 -0.28820558990375061 0 -0.27654058894665179 -0.26700181571886777 0 -0.25198058485566999 -0.2658838521481427 0 -0.25047972968146048 -0.28936486259926458 0 -0.26543825985268399 -0.28820558990375061 0 -0.25198058485566999 -0.2658838521481427 0 -0.25198058485566999 -0.2658838521481427 0 -0.26178616389492437 -0.25675349054478341 0 -0.26929413739218899 -0.26178342190567377 0 -0.25198058485566999 -0.2658838521481427 0 -0.26178616389492437 -0.25675349054478341 0 -0.25322281665070667 -0.2464490270809187 0 -0.25198058485566999 -0.2658838521481427 0 -0.25322281665070667 -0.2464490270809187 0 -0.27505490634448831 -0.25489516949870428 0 -0.25322281665070667 -0.2464490270809187 0 -0.25198058485566999 -0.2658838521481427 0 -0.2508749388500553 -0.2455407076959211 0 -0.25322281665070667 -0.2464490270809187 0 -0.26178616389492437 -0.25675349054478341 0 -0.27505490634448831 -0.25489516949870428 0 -0.25322281665070667 -0.2464490270809187 0 -0.26178616389492437 -0.25675349054478341 0 -0.26929413739218899 -0.26178342190567377 0 -0.27505490634448831 -0.25489516949870428 0 -0.27654058894665179 -0.26700181571886777 0 -0.25198058485566999 -0.2658838521481427 0 -0.26929413739218899 -0.26178342190567377 0 -0.26929413739218899 -0.26178342190567377 0 -0.27485786501698589 -0.26036600585048908 0 -0.27505490634448831 -0.25489516949870428 0 -0.27654058894665179 -0.26700181571886777 0 -0.27485786501698589 -0.26036600585048908 0 -0.2820820575756039 -0.25873353960661022 0 -0.27654058894665179 -0.26700181571886777 0 -0.26929413739218899 -0.26178342190567377 0 -0.27485786501698589 -0.26036600585048908 0 -0.27485786501698589 -0.26036600585048908 0 -0.27505490634448831 -0.25489516949870428 0 -0.2820820575756039 -0.25873353960661022 0 -0.27505490634448831 -0.25489516949870428 0 -0.2820820575756039 -0.25873353960661022 0 -0.2793983659123363 -0.24680434812365951 0 -0.2820820575756039 -0.25873353960661022 0 -0.29205543735114969 -0.26770804668109988 0 -0.29515909274429147 -0.24885490830203999 0 -0.2820820575756039 -0.25873353960661022 0 -0.29515909274429147 -0.24885490830203999 0 -0.2793983659123363 -0.24680434812365951 0 -0.27654058894665179 -0.26700181571886777 0 -0.2820820575756039 -0.25873353960661022 0 -0.29205543735114969 -0.26770804668109988 0 -0.27654058894665179 -0.26700181571886777 0 -0.29205543735114969 -0.26770804668109988 0 -0.29019000436628589 -0.28929938788707982 0 -0.27654058894665179 -0.26700181571886777 0 -0.29019000436628589 -0.28929938788707982 0 -0.27654058894665179 -0.26700181571886777 0 -0.29205543735114969 -0.26770804668109988 0 -0.30920298641626931 -0.28465622879909752 0 -0.29019000436628589 -0.28929938788707982 0 -0.29205543735114969 -0.26770804668109988 0 -0.30920298641626931 -0.28465622879909752 0 -0.29205543735114969 -0.26770804668109988 0 -0.3100812481319446 -0.26514203783175311 0 -0.3100812481319446 -0.26514203783175311 0 -0.29515909274429147 -0.24885490830203999 0 -0.3189037693904988 -0.24978631432800211 0 -0.29205543735114969 -0.26770804668109988 0 -0.3100812481319446 -0.26514203783175311 0 -0.29515909274429147 -0.24885490830203999 0 -0.32905033780901422 -0.47553543153031441 0 -0.3480475057536192 -0.4603936549466825 0 -0.33351204832956882 -0.44865088086465432 0 -0.32905033780901422 -0.47553543153031441 0 -0.3480475057536192 -0.4603936549466825 0 -0.33351204832956882 -0.44865088086465432 0 -0.3480475057536192 -0.4603936549466825 0 -0.34690193474071163 -0.43961388435966359 0 -0.33351204832956882 -0.44865088086465432 0 -0.34690193474071163 -0.43961388435966359 0 -0.3267591957831924 -0.43397589035626111 0 -0.31876577479992968 -0.4587245234531715 0 -0.31124630943522058 -0.43991760848764372 0 -0.33351204832956882 -0.44865088086465432 0 -0.32291646929252482 -0.44506772492938451 0 -0.31876577479992968 -0.4587245234531715 0 -0.32291646929252482 -0.44506772492938451 0 -0.31876577479992968 -0.4587245234531715 0 -0.31124630943522058 -0.43991760848764372 0 -0.31333973111258528 -0.45578348792971751 0 -0.31876577479992968 -0.4587245234531715 0 -0.31124630943522058 -0.43991760848764372 0 -0.33351204832956882 -0.44865088086465432 0 -0.32291646929252482 -0.44506772492938451 0 -0.3267591957831924 -0.43397589035626111 0 -0.32291646929252482 -0.44506772492938451 0 -0.3267591957831924 -0.43397589035626111 0 -0.31124630943522058 -0.43991760848764372 0 -0.31876577479992968 -0.4587245234531715 0 -0.32905033780901422 -0.47553543153031441 0 -0.31876577479992968 -0.4587245234531715 0 -0.3180778318635803 -0.46597238902575477 0 -0.32905033780901422 -0.47553543153031441 0 -0.33351204832956882 -0.44865088086465432 0 -0.31876577479992968 -0.4587245234531715 0 -0.32905033780901422 -0.47553543153031441 0 -0.31333973111258528 -0.45578348792971751 0 -0.31616846139980681 -0.46038193246827858 0 -0.31876577479992968 -0.4587245234531715 0 -0.31333973111258528 -0.45578348792971751 0 -0.31616846139980681 -0.46038193246827858 0 -0.31416255483058508 -0.46192534587239081 0 -0.31616846139980681 -0.46038193246827858 0 -0.31876577479992968 -0.4587245234531715 0 -0.3180778318635803 -0.46597238902575477 0 -0.31616846139980681 -0.46038193246827858 0 -0.3180778318635803 -0.46597238902575477 0 -0.31416255483058508 -0.46192534587239081 0 -0.3180778318635803 -0.46597238902575477 0 -0.31416255483058508 -0.46192534587239081 0 -0.31085015914977743 -0.46509742160688627 0 -0.3180778318635803 -0.46597238902575477 0 -0.31085015914977743 -0.46509742160688627 0 -0.31087555393683258 -0.4702526784341558 0 -0.31431567213297879 -0.47635213299439028 0 -0.32905033780901422 -0.47553543153031441 0 -0.30569335903137551 -0.49415221458717562 0 -0.3180778318635803 -0.46597238902575477 0 -0.31431567213297879 -0.47635213299439028 0 -0.31087555393683258 -0.4702526784341558 0 -0.3180778318635803 -0.46597238902575477 0 -0.31431567213297879 -0.47635213299439028 0 -0.32905033780901422 -0.47553543153031441 0 -0.32905033780901422 -0.47553543153031441 0 -0.30569335903137551 -0.49415221458717562 0 -0.31294058388513291 -0.5 0 -0.34127926798998809 -0.50000000000000455 0 -0.32905033780901422 -0.47553543153031441 0 -0.31294058388513291 -0.5 0 -0.32905033780901422 -0.47553543153031441 0 -0.30569335903137551 -0.49415221458717562 0 -0.34127926798998809 -0.50000000000000455 0 -0.32905033780901422 -0.47553543153031441 0 -0.34127926798998809 -0.50000000000000455 0 -0.32905033780901422 -0.47553543153031441 0 -0.35125408896010191 -0.48130703085784882 0 -0.32905033780901422 -0.47553543153031441 0 -0.35125408896010191 -0.48130703085784882 0 -0.3480475057536192 -0.4603936549466825 0 -0.35125408896010191 -0.48130703085784882 0 -0.37135216357044099 -0.47060606781224179 0 -0.3480475057536192 -0.4603936549466825 0 -0.34127926798998809 -0.50000000000000455 0 -0.35125408896010191 -0.48130703085784882 0 -0.36654116967744782 -0.5 0 -0.35125408896010191 -0.48130703085784882 0 -0.36654116967744782 -0.5 0 -0.37135216357044099 -0.47060606781224179 0 -0.37135216357044099 -0.47060606781224179 0 -0.3480475057536192 -0.4603936549466825 0 -0.36704467369823218 -0.44525187836306068 0 -0.34690193474071163 -0.43961388435966359 0 -0.36704467369823218 -0.44525187836306068 0 -0.34690193474071163 -0.43961388435966359 0 -0.36704467369823218 -0.44525187836306068 0 -0.36033688928553431 -0.43041587391044589 0 -0.3480475057536192 -0.4603936549466825 0 -0.36704467369823218 -0.44525187836306068 0 -0.3480475057536192 -0.4603936549466825 0 -0.34690193474071163 -0.43961388435966359 0 -0.36704467369823218 -0.44525187836306068 0 -0.36704467369823218 -0.44525187836306068 0 -0.37330325838241318 -0.44026344580857918 0 -0.36033688928553431 -0.43041587391044589 0 -0.36704467369823218 -0.44525187836306068 0 -0.37330325838241318 -0.44026344580857918 0 -0.37575964801685602 -0.42649861044394921 0 -0.37330325838241318 -0.44026344580857918 0 -0.36033688928553431 -0.43041587391044589 0 -0.37575964801685602 -0.42649861044394921 0 -0.36033688928553431 -0.43041587391044589 0 -0.36461124845074838 -0.40862347358398821 0 -0.38456322398183912 -0.41477434320696749 0 -0.37575964801685602 -0.42649861044394921 0 -0.36461124845074838 -0.40862347358398821 0 -0.36033688928553431 -0.43041587391044589 0 -0.36461124845074838 -0.40862347358398821 0 -0.35178232956435451 -0.4181451878061655 0 -0.36461124845074838 -0.40862347358398821 0 -0.35178232956435451 -0.4181451878061655 0 -0.34420593391995769 -0.40673362909477812 0 -0.35178232956435451 -0.4181451878061655 0 -0.34420593391995769 -0.40673362909477812 0 -0.33746982363463329 -0.41680293895614667 0 -0.36033688928553431 -0.43041587391044589 0 -0.35178232956435451 -0.4181451878061655 0 -0.34121659006652461 -0.42799594653213813 0 -0.34690193474071163 -0.43961388435966359 0 -0.36033688928553431 -0.43041587391044589 0 -0.34121659006652461 -0.42799594653213813 0 -0.3868188233733249 -0.39623745417092721 0 -0.36461124845074838 -0.40862347358398821 0 -0.36428762858488373 -0.38290996655623272 0 -0.36461124845074838 -0.40862347358398821 0 -0.36428762858488373 -0.38290996655623272 0 -0.36461124845074838 -0.40862347358398821 0 -0.36428762858488373 -0.38290996655623272 0 -0.34681887622721519 -0.38999676443717579 0 -0.36461124845074838 -0.40862347358398821 0 -0.34420593391995769 -0.40673362909477812 0 -0.34681887622721519 -0.38999676443717579 0 -0.3514981406589372 -0.37274301664105541 0 -0.33778932708296439 -0.37474807844114272 0 -0.34681887622721519 -0.38999676443717579 0 -0.3514981406589372 -0.37274301664105541 0 -0.36428762858488373 -0.38290996655623272 0 -0.34681887622721519 -0.38999676443717579 0 -0.33778932708296439 -0.37474807844114272 0 -0.33173939359807358 -0.38557913459320592 0 -0.32464683095828362 -0.37545780533972212 0 -0.33778932708296439 -0.37474807844114272 0 -0.34681887622721519 -0.38999676443717579 0 -0.33173939359807358 -0.38557913459320592 0 -0.34681887622721519 -0.38999676443717579 0 -0.33173939359807358 -0.38557913459320592 0 -0.33031241292630581 -0.39830520309499068 0 -0.34420593391995769 -0.40673362909477812 0 -0.34681887622721519 -0.38999676443717579 0 -0.33031241292630581 -0.39830520309499068 0 -0.33031241292630581 -0.39830520309499068 0 -0.32199171537488552 -0.40611463268051312 0 -0.33297128399350989 -0.40851053731481968 0 -0.34420593391995769 -0.40673362909477812 0 -0.33031241292630581 -0.39830520309499068 0 -0.33297128399350989 -0.40851053731481968 0 -0.33031241292630581 -0.39830520309499068 0 -0.32199171537488552 -0.40611463268051312 0 -0.31636312098346042 -0.39836090138096958 0 -0.32199171537488552 -0.40611463268051312 0 -0.31636312098346042 -0.39836090138096958 0 -0.31167076278691003 -0.40567377380089209 0 -0.31636312098346042 -0.39836090138096958 0 -0.31831978184625209 -0.38687201255389381 0 -0.30699970321256981 -0.3930401081684704 0 -0.33031241292630581 -0.39830520309499068 0 -0.31636312098346042 -0.39836090138096958 0 -0.31831978184625209 -0.38687201255389381 0 -0.33173939359807358 -0.38557913459320592 0 -0.33031241292630581 -0.39830520309499068 0 -0.31831978184625209 -0.38687201255389381 0 -0.31831978184625209 -0.38687201255389381 0 -0.31312815795657251 -0.37699599517614241 0 -0.30691944493147988 -0.38430128390744622 0 -0.31831978184625209 -0.38687201255389381 0 -0.31312815795657251 -0.37699599517614241 0 -0.32464683095828362 -0.37545780533972212 0 -0.33173939359807358 -0.38557913459320592 0 -0.31831978184625209 -0.38687201255389381 0 -0.32464683095828362 -0.37545780533972212 0 -0.34690193474071163 -0.43961388435966359 0 -0.34121659006652461 -0.42799594653213813 0 -0.3267591957831924 -0.43397589035626111 0 -0.34690193474071163 -0.43961388435966359 0 -0.3267591957831924 -0.43397589035626111 0 -0.32873101807543292 -0.42423242329410821 0 -0.34121659006652461 -0.42799594653213813 0 -0.33746982363463329 -0.41680293895614667 0 -0.32873101807543292 -0.42423242329410821 0 -0.34121659006652461 -0.42799594653213813 0 -0.3267591957831924 -0.43397589035626111 0 -0.35178232956435451 -0.4181451878061655 0 -0.34121659006652461 -0.42799594653213813 0 -0.33746982363463329 -0.41680293895614667 0 -0.34420593391995769 -0.40673362909477812 0 -0.33746982363463329 -0.41680293895614667 0 -0.33297128399350989 -0.40851053731481968 0 -0.33746982363463329 -0.41680293895614667 0 -0.33297128399350989 -0.40851053731481968 0 -0.32511263441019322 -0.41534640197834732 0 -0.32873101807543292 -0.42423242329410821 0 -0.33746982363463329 -0.41680293895614667 0 -0.32511263441019322 -0.41534640197834732 0 -0.32873101807543292 -0.42423242329410821 0 -0.32511263441019322 -0.41534640197834732 0 -0.32131697100375411 -0.42160560179579221 0 -0.32511263441019322 -0.41534640197834732 0 -0.32131697100375411 -0.42160560179579221 0 -0.31823136986878331 -0.41783793353448412 0 -0.32199171537488552 -0.40611463268051312 0 -0.32511263441019322 -0.41534640197834732 0 -0.31603189347818411 -0.41152256936292692 0 -0.32199171537488552 -0.40611463268051312 0 -0.33297128399350989 -0.40851053731481968 0 -0.32511263441019322 -0.41534640197834732 0 -0.32199171537488552 -0.40611463268051312 0 -0.31603189347818411 -0.41152256936292692 0 -0.31167076278691003 -0.40567377380089209 0 -0.32511263441019322 -0.41534640197834732 0 -0.31603189347818411 -0.41152256936292692 0 -0.31823136986878331 -0.41783793353448412 0 -0.32131697100375411 -0.42160560179579221 0 -0.31823136986878331 -0.41783793353448412 0 -0.31603288145060238 -0.42076726091804562 0 -0.31603189347818411 -0.41152256936292692 0 -0.31823136986878331 -0.41783793353448412 0 -0.31339969235371762 -0.41749744094558439 0 -0.31603189347818411 -0.41152256936292692 0 -0.31339969235371762 -0.41749744094558439 0 -0.30957358016137032 -0.41430511956611488 0 -0.31823136986878331 -0.41783793353448412 0 -0.31339969235371762 -0.41749744094558439 0 -0.31603288145060238 -0.42076726091804562 0 -0.31339969235371762 -0.41749744094558439 0 -0.31603288145060238 -0.42076726091804562 0 -0.31181049690629409 -0.42149517800592462 0 -0.32208397319386323 -0.43266728595152809 0 -0.30431275410608383 -0.4225761115647535 0 -0.31603288145060238 -0.42076726091804562 0 -0.31636151167829318 -0.42460197339880212 0 -0.31181049690629409 -0.42149517800592462 0 -0.31636151167829318 -0.42460197339880212 0 -0.32208397319386323 -0.43266728595152809 0 -0.30431275410608383 -0.4225761115647535 0 -0.32131697100375411 -0.42160560179579221 0 -0.31603288145060238 -0.42076726091804562 0 -0.31636151167829318 -0.42460197339880212 0 -0.32873101807543292 -0.42423242329410821 0 -0.32343241053922012 -0.42684761765096668 0 -0.3267591957831924 -0.43397589035626111 0 -0.32131697100375411 -0.42160560179579221 0 -0.31636151167829318 -0.42460197339880212 0 -0.32343241053922012 -0.42684761765096668 0 -0.31636151167829318 -0.42460197339880212 0 -0.32343241053922012 -0.42684761765096668 0 -0.32208397319386323 -0.43266728595152809 0 -0.32873101807543292 -0.42423242329410821 0 -0.32131697100375411 -0.42160560179579221 0 -0.32343241053922012 -0.42684761765096668 0 -0.3267591957831924 -0.43397589035626111 0 -0.32208397319386323 -0.43266728595152809 0 -0.32343241053922012 -0.42684761765096668 0 -0.3267591957831924 -0.43397589035626111 0 -0.32208397319386323 -0.43266728595152809 0 -0.32208397319386323 -0.43266728595152809 0 -0.30661645682567251 -0.42833789635286129 0 -0.3267591957831924 -0.43397589035626111 0 -0.32208397319386323 -0.43266728595152809 0 -0.31124630943522058 -0.43991760848764372 0 -0.32208397319386323 -0.43266728595152809 0 -0.30661645682567251 -0.42833789635286129 0 -0.31124630943522058 -0.43991760848764372 0 -0.29886429512377649 -0.43587364466474648 0 -0.30661645682567251 -0.42833789635286129 0 -0.2870126885815768 -0.42285076135908189 0 -0.30661645682567251 -0.42833789635286129 0 -0.31124630943522058 -0.43991760848764372 0 -0.29886429512377649 -0.43587364466474648 0 -0.30661645682567251 -0.42833789635286129 0 -0.31124630943522058 -0.43991760848764372 0 -0.32208397319386323 -0.43266728595152809 0 -0.30431275410608383 -0.4225761115647535 0 -0.30661645682567251 -0.42833789635286129 0 -0.30661645682567251 -0.42833789635286129 0 -0.3019313298000712 -0.42128253954003692 0 -0.2870126885815768 -0.42285076135908189 0 -0.30431275410608383 -0.4225761115647535 0 -0.30661645682567251 -0.42833789635286129 0 -0.3019313298000712 -0.42128253954003692 0 -0.30661645682567251 -0.42833789635286129 0 -0.3019313298000712 -0.42128253954003692 0 -0.30431275410608383 -0.4225761115647535 0 -0.3019313298000712 -0.42128253954003692 0 -0.30431275410608383 -0.4225761115647535 0 -0.30661645682567251 -0.42833789635286129 0 -0.31636151167829318 -0.42460197339880212 0 -0.30431275410608383 -0.4225761115647535 0 -0.31181049690629409 -0.42149517800592462 0 -0.31339969235371762 -0.41749744094558439 0 -0.31181049690629409 -0.42149517800592462 0 -0.30821247999377932 -0.41838332799774169 0 -0.30431275410608383 -0.4225761115647535 0 -0.30821247999377932 -0.41838332799774169 0 -0.30340196797411673 -0.4134627756573126 0 -0.30431275410608383 -0.4225761115647535 0 -0.3019313298000712 -0.42128253954003692 0 -0.29468793392460629 -0.39850349922703771 0 -0.30431275410608383 -0.4225761115647535 0 -0.29468793392460629 -0.39850349922703771 0 -0.30431275410608383 -0.4225761115647535 0 -0.30340196797411673 -0.4134627756573126 0 -0.29468793392460629 -0.39850349922703771 0 -0.31339969235371762 -0.41749744094558439 0 -0.30957358016137032 -0.41430511956611488 0 -0.30821247999377932 -0.41838332799774169 0 -0.30957358016137032 -0.41430511956611488 0 -0.30821247999377932 -0.41838332799774169 0 -0.30340196797411673 -0.4134627756573126 0 -0.30431275410608383 -0.4225761115647535 0 -0.31181049690629409 -0.42149517800592462 0 -0.30821247999377932 -0.41838332799774169 0 -0.30957358016137032 -0.41430511956611488 0 -0.30657492978464962 -0.40966346303794082 0 -0.31167076278691003 -0.40567377380089209 0 -0.31603189347818411 -0.41152256936292692 0 -0.30957358016137032 -0.41430511956611488 0 -0.31167076278691003 -0.40567377380089209 0 -0.30957358016137032 -0.41430511956611488 0 -0.30657492978464962 -0.40966346303794082 0 -0.30340196797411673 -0.4134627756573126 0 -0.30657492978464962 -0.40966346303794082 0 -0.30385486178662119 -0.40849862214451083 0 -0.30465648501896381 -0.40466462083004578 0 -0.30657492978464962 -0.40966346303794082 0 -0.31167076278691003 -0.40567377380089209 0 -0.30465648501896381 -0.40466462083004578 0 -0.30385486178662119 -0.40849862214451083 0 -0.30340196797411673 -0.4134627756573126 0 -0.30078606436875482 -0.40620362905274388 0 -0.30385486178662119 -0.40849862214451083 0 -0.30465648501896381 -0.40466462083004578 0 -0.30078606436875482 -0.40620362905274388 0 -0.30657492978464962 -0.40966346303794082 0 -0.30385486178662119 -0.40849862214451083 0 -0.30340196797411673 -0.4134627756573126 0 -0.3019313298000712 -0.42128253954003692 0 -0.28513701211791709 -0.41215999070530612 0 -0.3019313298000712 -0.42128253954003692 0 -0.28513701211791709 -0.41215999070530612 0 -0.29024939705437391 -0.39791226599311991 0 -0.3019313298000712 -0.42128253954003692 0 -0.28513701211791709 -0.41215999070530612 0 -0.2870126885815768 -0.42285076135908189 0 -0.3019313298000712 -0.42128253954003692 0 -0.29024939705437391 -0.39791226599311991 0 -0.2870126885815768 -0.42285076135908189 0 -0.27767573738424689 -0.43336509016320079 0 -0.29009342070196759 -0.44074726533176839 0 -0.29886429512377649 -0.43587364466474648 0 -0.2870126885815768 -0.42285076135908189 0 -0.29009342070196759 -0.44074726533176839 0 -0.30661645682567251 -0.42833789635286129 0 -0.2870126885815768 -0.42285076135908189 0 -0.30404857326831358 -0.37555070314648481 0 -0.29922981137526461 -0.38302308802237972 0 -0.29508629445085349 -0.37590731650566728 0 -0.30404857326831358 -0.37555070314648481 0 -0.30691944493147988 -0.38430128390744622 0 -0.29922981137526461 -0.38302308802237972 0 -0.31312815795657251 -0.37699599517614241 0 -0.30404857326831358 -0.37555070314648481 0 -0.30691944493147988 -0.38430128390744622 0 -0.31831978184625209 -0.38687201255389381 0 -0.30691944493147988 -0.38430128390744622 0 -0.30699970321256981 -0.3930401081684704 0 -0.30691944493147988 -0.38430128390744622 0 -0.29979064192990668 -0.3903257963773063 0 -0.30699970321256981 -0.3930401081684704 0 -0.30691944493147988 -0.38430128390744622 0 -0.29922981137526461 -0.38302308802237972 0 -0.29979064192990668 -0.3903257963773063 0 -0.29922981137526461 -0.38302308802237972 0 -0.29979064192990668 -0.3903257963773063 0 -0.29470599986151158 -0.38655812730937339 0 -0.29979064192990668 -0.3903257963773063 0 -0.29696435242129843 -0.39327490469440318 0 -0.29470599986151158 -0.38655812730937339 0 -0.29979064192990668 -0.3903257963773063 0 -0.29696435242129843 -0.39327490469440318 0 -0.29975039591749791 -0.39609416580550982 0 -0.29696435242129843 -0.39327490469440318 0 -0.29975039591749791 -0.39609416580550982 0 -0.29468793392460629 -0.39850349922703771 0 -0.29975039591749791 -0.39609416580550982 0 -0.29842803248568472 -0.40071333414412241 0 -0.29468793392460629 -0.39850349922703771 0 -0.29975039591749791 -0.39609416580550982 0 -0.30699970321256981 -0.3930401081684704 0 -0.3031568977949381 -0.3998231339992292 0 -0.29979064192990668 -0.3903257963773063 0 -0.29975039591749791 -0.39609416580550982 0 -0.30699970321256981 -0.3930401081684704 0 -0.31636312098346042 -0.39836090138096958 0 -0.30699970321256981 -0.3930401081684704 0 -0.30876956994535881 -0.4002153739232327 0 -0.30699970321256981 -0.3930401081684704 0 -0.30876956994535881 -0.4002153739232327 0 -0.3031568977949381 -0.3998231339992292 0 -0.30876956994535881 -0.4002153739232327 0 -0.30465648501896381 -0.40466462083004578 0 -0.3031568977949381 -0.3998231339992292 0 -0.31636312098346042 -0.39836090138096958 0 -0.30876956994535881 -0.4002153739232327 0 -0.31167076278691003 -0.40567377380089209 0 -0.30876956994535881 -0.4002153739232327 0 -0.31167076278691003 -0.40567377380089209 0 -0.30465648501896381 -0.40466462083004578 0 -0.30465648501896381 -0.40466462083004578 0 -0.30175686991708528 -0.40285117950653532 0 -0.3031568977949381 -0.3998231339992292 0 -0.30340196797411673 -0.4134627756573126 0 -0.30078606436875482 -0.40620362905274388 0 -0.29468793392460629 -0.39850349922703771 0 -0.30465648501896381 -0.40466462083004578 0 -0.30078606436875482 -0.40620362905274388 0 -0.30175686991708528 -0.40285117950653532 0 -0.30175686991708528 -0.40285117950653532 0 -0.3031568977949381 -0.3998231339992292 0 -0.29842803248568472 -0.40071333414412241 0 -0.30078606436875482 -0.40620362905274388 0 -0.29842803248568472 -0.40071333414412241 0 -0.29468793392460629 -0.39850349922703771 0 -0.29975039591749791 -0.39609416580550982 0 -0.3031568977949381 -0.3998231339992292 0 -0.29842803248568472 -0.40071333414412241 0 -0.30078606436875482 -0.40620362905274388 0 -0.30175686991708528 -0.40285117950653532 0 -0.29842803248568472 -0.40071333414412241 0 -0.3019313298000712 -0.42128253954003692 0 -0.29024939705437391 -0.39791226599311991 0 -0.29468793392460629 -0.39850349922703771 0 -0.29696435242129843 -0.39327490469440318 0 -0.29468793392460629 -0.39850349922703771 0 -0.29470599986151158 -0.38655812730937339 0 -0.28506311374312993 -0.37443088688932152 0 -0.29024939705437391 -0.39791226599311991 0 -0.29468793392460629 -0.39850349922703771 0 -0.28506311374312993 -0.37443088688932152 0 -0.29468793392460629 -0.39850349922703771 0 -0.28506311374312993 -0.37443088688932152 0 -0.27856746430867613 -0.37454199244620301 0 -0.29024939705437391 -0.39791226599311991 0 -0.28506311374312993 -0.37443088688932152 0 -0.29468793392460629 -0.39850349922703771 0 -0.29470599986151158 -0.38655812730937339 0 -0.27856746430867613 -0.37454199244620301 0 -0.29024939705437391 -0.39791226599311991 0 -0.27636896011706358 -0.38983527919215211 0 -0.27856746430867613 -0.37454199244620301 0 -0.29024939705437391 -0.39791226599311991 0 -0.28506311374312993 -0.37443088688932152 0 -0.29470599986151158 -0.38655812730937339 0 -0.29508629445085349 -0.37590731650566728 0 -0.29922981137526461 -0.38302308802237972 0 -0.29470599986151158 -0.38655812730937339 0 -0.29508629445085349 -0.37590731650566728 0 -0.26761411299937182 -0.37710458038493011 0 -0.27636896011706358 -0.38983527919215211 0 -0.26834269443576342 -0.40303744187057428 0 -0.26761411299937182 -0.37710458038493011 0 -0.26834269443576342 -0.40303744187057428 0 -0.27856746430867613 -0.37454199244620301 0 -0.26761411299937182 -0.37710458038493011 0 -0.27636896011706358 -0.38983527919215211 0 -0.29024939705437391 -0.39791226599311991 0 -0.27636896011706358 -0.38983527919215211 0 -0.26834269443576342 -0.40303744187057428 0 -0.28513701211791709 -0.41215999070530612 0 -0.29024939705437391 -0.39791226599311991 0 -0.26834269443576342 -0.40303744187057428 0 -0.26761411299937182 -0.37710458038493011 0 -0.26834269443576342 -0.40303744187057428 0 -0.25376367050922388 -0.39511822417744458 0 -0.26413144522171161 -0.4017176597398246 0 -0.24382977401761469 -0.39340400050248481 0 -0.26413144522171161 -0.4017176597398246 0 -0.25376367050922388 -0.39511822417744458 0 -0.24382977401761469 -0.39340400050248481 0 -0.26413144522171161 -0.4017176597398246 0 -0.24951387374856759 -0.3997540431003424 0 -0.24382977401761469 -0.39340400050248481 0 -0.26834269443576342 -0.40303744187057428 0 -0.25376367050922388 -0.39511822417744458 0 -0.26834269443576342 -0.40303744187057428 0 -0.26413144522171161 -0.4017176597398246 0 -0.25376367050922388 -0.39511822417744458 0 -0.26413144522171161 -0.4017176597398246 0 -0.25386187522231229 -0.40472486177198302 0 -0.24951387374856759 -0.3997540431003424 0 -0.26761411299937182 -0.37710458038493011 0 -0.25123018245347961 -0.38332219211110918 0 -0.2452151844951698 -0.37172913242620642 0 -0.26761411299937182 -0.37710458038493011 0 -0.25376367050922388 -0.39511822417744458 0 -0.25123018245347961 -0.38332219211110918 0 -0.2870126885815768 -0.42285076135908189 0 -0.26889358720226858 -0.4226457177524216 0 -0.27767573738424689 -0.43336509016320079 0 -0.26889358720226858 -0.4226457177524216 0 -0.26743689113091601 -0.43296733417069272 0 -0.27767573738424689 -0.43336509016320079 0 -0.26743689113091601 -0.43296733417069272 0 -0.27767573738424689 -0.43336509016320079 0 -0.27004827474979548 -0.4430588357698243 0 -0.28513701211791709 -0.41215999070530612 0 -0.26834269443576342 -0.40303744187057428 0 -0.26875577877139872 -0.41774061480714197 0 -0.2870126885815768 -0.42285076135908189 0 -0.26875577877139872 -0.41774061480714197 0 -0.28513701211791709 -0.41215999070530612 0 -0.26834269443576342 -0.40303744187057428 0 -0.28513701211791709 -0.41215999070530612 0 -0.2870126885815768 -0.42285076135908189 0 -0.26875577877139872 -0.41774061480714197 0 -0.26834269443576342 -0.40303744187057428 0 -0.26413144522171161 -0.4017176597398246 0 -0.26875577877139872 -0.41774061480714197 0 -0.2870126885815768 -0.42285076135908189 0 -0.26889358720226858 -0.4226457177524216 0 -0.26875577877139872 -0.41774061480714197 0 -0.26834269443576342 -0.40303744187057428 0 -0.26875577877139872 -0.41774061480714197 0 -0.26889358720226858 -0.4226457177524216 0 -0.26875577877139872 -0.41774061480714197 0 -0.26875577877139872 -0.41774061480714197 0 -0.24633948040819589 -0.41146624685664551 0 -0.25769896422944888 -0.42098725772292522 0 -0.24633948040819589 -0.41146624685664551 0 -0.24720114439379309 -0.42834506083176899 0 -0.25386187522231229 -0.40472486177198302 0 -0.26875577877139872 -0.41774061480714197 0 -0.24633948040819589 -0.41146624685664551 0 -0.26413144522171161 -0.4017176597398246 0 -0.25386187522231229 -0.40472486177198302 0 -0.26875577877139872 -0.41774061480714197 0 -0.26875577877139872 -0.41774061480714197 0 -0.25769896422944888 -0.42098725772292522 0 -0.24633948040819589 -0.41146624685664551 0 -0.26889358720226858 -0.4226457177524216 0 -0.26875577877139872 -0.41774061480714197 0 -0.25769896422944888 -0.42098725772292522 0 -0.27004827474979548 -0.4430588357698243 0 -0.24720114439379309 -0.42834506083176899 0 -0.25769896422944888 -0.42098725772292522 0 -0.26030764673910672 -0.42623634261945209 0 -0.24720114439379309 -0.42834506083176899 0 -0.26743689113091601 -0.43296733417069272 0 -0.27004827474979548 -0.4430588357698243 0 -0.24720114439379309 -0.42834506083176899 0 -0.26743689113091601 -0.43296733417069272 0 -0.26030764673910672 -0.42623634261945209 0 -0.24720114439379309 -0.42834506083176899 0 -0.26889358720226858 -0.4226457177524216 0 -0.25769896422944888 -0.42098725772292522 0 -0.26030764673910672 -0.42623634261945209 0 -0.26889358720226858 -0.4226457177524216 0 -0.26743689113091601 -0.43296733417069272 0 -0.26030764673910672 -0.42623634261945209 0 -0.27004827474979548 -0.4430588357698243 0 -0.2492638626398096 -0.45023720461659739 0 -0.24720114439379309 -0.42834506083176899 0 -0.27351550904504007 -0.45969927365977598 0 -0.27004827474979548 -0.4430588357698243 0 -0.2492638626398096 -0.45023720461659739 0 -0.27351550904504007 -0.45969927365977598 0 -0.25707712074889261 -0.47201807393107731 0 -0.2492638626398096 -0.45023720461659739 0 -0.27351550904504007 -0.45969927365977598 0 -0.27004827474979548 -0.4430588357698243 0 -0.28068482114671262 -0.44775466322676072 0 -0.27767573738424689 -0.43336509016320079 0 -0.27004827474979548 -0.4430588357698243 0 -0.28068482114671262 -0.44775466322676072 0 -0.27767573738424689 -0.43336509016320079 0 -0.28068482114671262 -0.44775466322676072 0 -0.29009342070196759 -0.44074726533176839 0 -0.29886429512377649 -0.43587364466474648 0 -0.29009342070196759 -0.44074726533176839 0 -0.30069945850836322 -0.44789168023421438 0 -0.29009342070196759 -0.44074726533176839 0 -0.29035200559280389 -0.45496641410151412 0 -0.30069945850836322 -0.44789168023421438 0 -0.28068482114671262 -0.44775466322676072 0 -0.29009342070196759 -0.44074726533176839 0 -0.29035200559280389 -0.45496641410151412 0 -0.27351550904504007 -0.45969927365977598 0 -0.28068482114671262 -0.44775466322676072 0 -0.29035200559280389 -0.45496641410151412 0 -0.27351550904504007 -0.45969927365977598 0 -0.29103563648654213 -0.46868263205084609 0 -0.29035200559280389 -0.45496641410151412 0 -0.29103563648654213 -0.46868263205084609 0 -0.29035200559280389 -0.45496641410151412 0 -0.30289413901210632 -0.4603148327146554 0 -0.30289413901210632 -0.4603148327146554 0 -0.30864634226027449 -0.45339928413525332 0 -0.30069945850836322 -0.44789168023421438 0 -0.29035200559280389 -0.45496641410151412 0 -0.30289413901210632 -0.4603148327146554 0 -0.30069945850836322 -0.44789168023421438 0 -0.29103563648654213 -0.46868263205084609 0 -0.30289413901210632 -0.4603148327146554 0 -0.30380184698299129 -0.46921013033376779 0 -0.30289413901210632 -0.4603148327146554 0 -0.31085015914977743 -0.46509742160688627 0 -0.30997858527306571 -0.45930407445178068 0 -0.30289413901210632 -0.4603148327146554 0 -0.31085015914977743 -0.46509742160688627 0 -0.30380184698299129 -0.46921013033376779 0 -0.31085015914977743 -0.46509742160688627 0 -0.31087555393683258 -0.4702526784341558 0 -0.30380184698299129 -0.46921013033376779 0 -0.31416255483058508 -0.46192534587239081 0 -0.31085015914977743 -0.46509742160688627 0 -0.30997858527306571 -0.45930407445178068 0 -0.30289413901210632 -0.4603148327146554 0 -0.30997858527306571 -0.45930407445178068 0 -0.30864634226027449 -0.45339928413525332 0 -0.31333973111258528 -0.45578348792971751 0 -0.31416255483058508 -0.46192534587239081 0 -0.30997858527306571 -0.45930407445178068 0 -0.31333973111258528 -0.45578348792971751 0 -0.30997858527306571 -0.45930407445178068 0 -0.30864634226027449 -0.45339928413525332 0 -0.30864634226027449 -0.45339928413525332 0 -0.31124630943522058 -0.43991760848764372 0 -0.30069945850836322 -0.44789168023421438 0 -0.31333973111258528 -0.45578348792971751 0 -0.30864634226027449 -0.45339928413525332 0 -0.31124630943522058 -0.43991760848764372 0 -0.29886429512377649 -0.43587364466474648 0 -0.31124630943522058 -0.43991760848764372 0 -0.30069945850836322 -0.44789168023421438 0 -0.31294058388513291 -0.5 0 -0.30569335903137551 -0.49415221458717562 0 -0.28460189978027778 -0.5 0 -0.30569335903137551 -0.49415221458717562 0 -0.30376428083929491 -0.48181695653452911 0 -0.29312230992549182 -0.4838185169633461 0 -0.31431567213297879 -0.47635213299439028 0 -0.30733225955483517 -0.47463131820997939 0 -0.30376428083929491 -0.48181695653452911 0 -0.31431567213297879 -0.47635213299439028 0 -0.30569335903137551 -0.49415221458717562 0 -0.30376428083929491 -0.48181695653452911 0 -0.31431567213297879 -0.47635213299439028 0 -0.31087555393683258 -0.4702526784341558 0 -0.30733225955483517 -0.47463131820997939 0 -0.31087555393683258 -0.4702526784341558 0 -0.30733225955483517 -0.47463131820997939 0 -0.30380184698299129 -0.46921013033376779 0 -0.29103563648654213 -0.46868263205084609 0 -0.29866206572064258 -0.47548557947109588 0 -0.30380184698299129 -0.46921013033376779 0 -0.30733225955483517 -0.47463131820997939 0 -0.29866206572064258 -0.47548557947109588 0 -0.30380184698299129 -0.46921013033376779 0 -0.30733225955483517 -0.47463131820997939 0 -0.29866206572064258 -0.47548557947109588 0 -0.30376428083929491 -0.48181695653452911 0 -0.29866206572064258 -0.47548557947109588 0 -0.30376428083929491 -0.48181695653452911 0 -0.29312230992549182 -0.4838185169633461 0 -0.29103563648654213 -0.46868263205084609 0 -0.29312230992549182 -0.4838185169633461 0 -0.27602443497861667 -0.48068888548123501 0 -0.29103563648654213 -0.46868263205084609 0 -0.29866206572064258 -0.47548557947109588 0 -0.29312230992549182 -0.4838185169633461 0 -0.29312230992549182 -0.4838185169633461 0 -0.28460189978027778 -0.5 0 -0.27602443497861667 -0.48068888548123501 0 -0.30569335903137551 -0.49415221458717562 0 -0.29312230992549182 -0.4838185169633461 0 -0.28460189978027778 -0.5 0 -0.28460189978027778 -0.5 0 -0.27602443497861667 -0.48068888548123501 0 -0.25626321567542271 -0.5 0 -0.27351550904504007 -0.45969927365977598 0 -0.27602443497861667 -0.48068888548123501 0 -0.25707712074889261 -0.47201807393107731 0 -0.27351550904504007 -0.45969927365977598 0 -0.29103563648654213 -0.46868263205084609 0 -0.27602443497861667 -0.48068888548123501 0 -0.25707712074889261 -0.47201807393107731 0 -0.25626321567542271 -0.5 0 -0.2389825997922439 -0.47949626820413072 0 -0.27602443497861667 -0.48068888548123501 0 -0.25707712074889261 -0.47201807393107731 0 -0.25626321567542271 -0.5 0 -0.25626321567542271 -0.5 0 -0.2389825997922439 -0.47949626820413072 0 -0.2279245315705675 -0.5 0 -0.25707712074889261 -0.47201807393107731 0 -0.2389825997922439 -0.47949626820413072 0 -0.24314977621112069 -0.46523951754230658 0 -0.2389825997922439 -0.47949626820413072 0 -0.22150807757290519 -0.47819387545883102 0 -0.22833735954582149 -0.46005332103752322 0 -0.2389825997922439 -0.47949626820413072 0 -0.22150807757290519 -0.47819387545883102 0 -0.2279245315705675 -0.5 0 -0.2492638626398096 -0.45023720461659739 0 -0.23085579089533631 -0.44035451366452699 0 -0.24720114439379309 -0.42834506083176899 0 -0.2492638626398096 -0.45023720461659739 0 -0.22833735954582149 -0.46005332103752322 0 -0.23085579089533631 -0.44035451366452699 0 -0.25707712074889261 -0.47201807393107731 0 -0.2492638626398096 -0.45023720461659739 0 -0.24314977621112069 -0.46523951754230658 0 -0.2492638626398096 -0.45023720461659739 0 -0.24314977621112069 -0.46523951754230658 0 -0.22833735954582149 -0.46005332103752322 0 -0.2389825997922439 -0.47949626820413072 0 -0.24314977621112069 -0.46523951754230658 0 -0.22833735954582149 -0.46005332103752322 0 -0.22150807757290519 -0.47819387545883102 0 -0.22833735954582149 -0.46005332103752322 0 -0.21115948871797369 -0.46054934588120189 0 -0.22833735954582149 -0.46005332103752322 0 -0.23085579089533631 -0.44035451366452699 0 -0.21198831953969241 -0.4432910470757162 0 -0.23085579089533631 -0.44035451366452699 0 -0.21198831953969241 -0.4432910470757162 0 -0.22164799283074779 -0.43395773131222709 0 -0.21198831953969241 -0.4432910470757162 0 -0.21115948871797369 -0.46054934588120189 0 -0.19453062956950279 -0.4544390542544911 0 -0.22833735954582149 -0.46005332103752322 0 -0.21198831953969241 -0.4432910470757162 0 -0.21115948871797369 -0.46054934588120189 0 -0.21115948871797369 -0.46054934588120189 0 -0.19453062956950279 -0.4544390542544911 0 -0.20215040086129091 -0.4749919424652948 0 -0.19453062956950279 -0.4544390542544911 0 -0.1792048180605178 -0.43719049368537449 0 -0.20009539894298889 -0.43071676645322748 0 -0.21198831953969241 -0.4432910470757162 0 -0.19453062956950279 -0.4544390542544911 0 -0.20009539894298889 -0.43071676645322748 0 -0.22150807757290519 -0.47819387545883102 0 -0.2279245315705675 -0.5 0 -0.19958584746571231 -0.5 0 -0.22150807757290519 -0.47819387545883102 0 -0.20215040086129091 -0.4749919424652948 0 -0.19958584746571231 -0.5 0 -0.22150807757290519 -0.47819387545883102 0 -0.21115948871797369 -0.46054934588120189 0 -0.20215040086129091 -0.4749919424652948 0 -0.19453062956950279 -0.4544390542544911 0 -0.20215040086129091 -0.4749919424652948 0 -0.18093129907103669 -0.47747354456835001 0 -0.20215040086129091 -0.4749919424652948 0 -0.19958584746571231 -0.5 0 -0.18093129907103669 -0.47747354456835001 0 -0.19958584746571231 -0.5 0 -0.17124716336085699 -0.5 0 -0.18093129907103669 -0.47747354456835001 0 -0.15791263205112541 -0.48540552509350549 0 -0.17124716336085699 -0.5 0 -0.1429084792560017 -0.5 0 -0.15791263205112541 -0.48540552509350549 0 -0.17124716336085699 -0.5 0 -0.18093129907103669 -0.47747354456835001 0 -0.15791263205112541 -0.48540552509350549 0 -0.16516020300901749 -0.4699607293471017 0 -0.18093129907103669 -0.47747354456835001 0 -0.15791263205112541 -0.48540552509350549 0 -0.16516020300901749 -0.4699607293471017 0 -0.14810708640850229 -0.46932738540364888 0 -0.16516020300901749 -0.4699607293471017 0 -0.18093129907103669 -0.47747354456835001 0 -0.1758817601396151 -0.45841353973819637 0 -0.19453062956950279 -0.4544390542544911 0 -0.18093129907103669 -0.47747354456835001 0 -0.1758817601396151 -0.45841353973819637 0 -0.19453062956950279 -0.4544390542544911 0 -0.1758817601396151 -0.45841353973819637 0 -0.1792048180605178 -0.43719049368537449 0 -0.1758817601396151 -0.45841353973819637 0 -0.15958185098800101 -0.45300387683566479 0 -0.1792048180605178 -0.43719049368537449 0 -0.15958185098800101 -0.45300387683566479 0 -0.1580515299113682 -0.43460630329767591 0 -0.1792048180605178 -0.43719049368537449 0 -0.16516020300901749 -0.4699607293471017 0 -0.1758817601396151 -0.45841353973819637 0 -0.15958185098800101 -0.45300387683566479 0 -0.16516020300901749 -0.4699607293471017 0 -0.15958185098800101 -0.45300387683566479 0 -0.14810708640850229 -0.46932738540364888 0 -0.15958185098800101 -0.45300387683566479 0 -0.14113783471680449 -0.45379814283086012 0 -0.14810708640850229 -0.46932738540364888 0 -0.14113783471680449 -0.45379814283086012 0 -0.1580515299113682 -0.43460630329767591 0 -0.14113783471680449 -0.45379814283086012 0 -0.14485370483809329 -0.43886794235135762 0 -0.1580515299113682 -0.43460630329767591 0 -0.15958185098800101 -0.45300387683566479 0 -0.14113783471680449 -0.45379814283086012 0 -0.1580515299113682 -0.43460630329767591 0 -0.14113783471680449 -0.45379814283086012 0 -0.14485370483809329 -0.43886794235135762 0 -0.13869161742967681 -0.44455643244597809 0 -0.13538098600730969 -0.43791496709366512 0 -0.13166251044381599 -0.44946357566313011 0 -0.13021254006614369 -0.42569250990204588 0 -0.13166251044381599 -0.44946357566313011 0 -0.13045105657935471 -0.46495914480149059 0 -0.1211967384117625 -0.44370290430188669 0 -0.13166251044381599 -0.44946357566313011 0 -0.13021254006614369 -0.42569250990204588 0 -0.13166251044381599 -0.44946357566313011 0 -0.13021254006614369 -0.42569250990204588 0 -0.1211967384117625 -0.44370290430188669 0 -0.13538098600730969 -0.43791496709366512 0 -0.13869161742967681 -0.44455643244597809 0 -0.13166251044381599 -0.44946357566313011 0 -0.14485370483809329 -0.43886794235135762 0 -0.13538098600730969 -0.43791496709366512 0 -0.13869161742967681 -0.44455643244597809 0 -0.14113783471680449 -0.45379814283086012 0 -0.13869161742967681 -0.44455643244597809 0 -0.13166251044381599 -0.44946357566313011 0 -0.14113783471680449 -0.45379814283086012 0 -0.13045105657935471 -0.46495914480149059 0 -0.14810708640850229 -0.46932738540364888 0 -0.13045105657935471 -0.46495914480149059 0 -0.1211967384117625 -0.44370290430188669 0 -0.14113783471680449 -0.45379814283086012 0 -0.13166251044381599 -0.44946357566313011 0 -0.13045105657935471 -0.46495914480149059 0 -0.13045105657935471 -0.46495914480149059 0 -0.133932716092861 -0.48326153465856359 0 -0.14810708640850229 -0.46932738540364888 0 -0.13045105657935471 -0.46495914480149059 0 -0.133932716092861 -0.48326153465856359 0 -0.1155548340309195 -0.47643349291920761 0 -0.133932716092861 -0.48326153465856359 0 -0.1429084792560017 -0.5 0 -0.1145697951511464 -0.5 0 -0.15791263205112541 -0.48540552509350549 0 -0.133932716092861 -0.48326153465856359 0 -0.1429084792560017 -0.5 0 -0.15791263205112541 -0.48540552509350549 0 -0.133932716092861 -0.48326153465856359 0 -0.14810708640850229 -0.46932738540364888 0 -0.14742531600596359 -0.38377996909037332 0 -0.14140315100664699 -0.41084746809202161 0 -0.1549642748889159 -0.39966096500475939 0 -0.14742531600596359 -0.38377996909037332 0 -0.14140315100664699 -0.41084746809202161 0 -0.14742531600596359 -0.38377996909037332 0 -0.15125735243725449 -0.36655632239699759 0 -0.12731259931081801 -0.37815037837987642 0 -0.12876256968847141 -0.40192144414096181 0 -0.14742531600596359 -0.38377996909037332 0 -0.12731259931081801 -0.37815037837987642 0 -0.12876256968847141 -0.40192144414096181 0 -0.12731259931081801 -0.37815037837987642 0 -0.12876256968847141 -0.40192144414096181 0 -0.120538249786524 -0.39049335028714738 0 -0.14742531600596359 -0.38377996909037332 0 -0.12731259931081801 -0.37815037837987642 0 -0.13783629615235199 -0.37436465409455028 0 -0.14742531600596359 -0.38377996909037332 0 -0.12731259931081801 -0.37815037837987642 0 -0.12731259931081801 -0.37815037837987642 0 -0.13783629615235199 -0.37436465409455028 0 -0.12703088625481179 -0.37353192569784421 0 -0.12731259931081801 -0.37815037837987642 0 -0.12703088625481179 -0.37353192569784421 0 -0.14742531600596359 -0.38377996909037332 0 -0.12876256968847141 -0.40192144414096181 0 -0.14140315100664699 -0.41084746809202161 0 -0.12876256968847141 -0.40192144414096181 0 -0.13021254006614369 -0.42569250990204588 0 -0.12876256968847141 -0.40192144414096181 0 -0.13021254006614369 -0.42569250990204588 0 -0.14140315100664699 -0.41084746809202161 0 -0.12876256968847141 -0.40192144414096181 0 -0.13021254006614369 -0.42569250990204588 0 -0.12164930739674711 -0.41331108322626531 0 -0.13538098600730969 -0.43791496709366512 0 -0.14140315100664699 -0.41084746809202161 0 -0.13538098600730969 -0.43791496709366512 0 -0.13021254006614369 -0.42569250990204588 0 -0.14140315100664699 -0.41084746809202161 0 -0.14754368869993961 -0.42710166239880948 0 -0.15538557392256061 -0.41752617251155161 0 -0.1580515299113682 -0.43460630329767591 0 -0.13538098600730969 -0.43791496709366512 0 -0.14754368869993961 -0.42710166239880948 0 -0.14140315100664699 -0.41084746809202161 0 -0.14485370483809329 -0.43886794235135762 0 -0.13538098600730969 -0.43791496709366512 0 -0.14754368869993961 -0.42710166239880948 0 -0.14485370483809329 -0.43886794235135762 0 -0.14754368869993961 -0.42710166239880948 0 -0.1580515299113682 -0.43460630329767591 0 -0.1549642748889159 -0.39966096500475939 0 -0.14140315100664699 -0.41084746809202161 0 -0.15538557392256061 -0.41752617251155161 0 -0.14754368869993961 -0.42710166239880948 0 -0.14140315100664699 -0.41084746809202161 0 -0.15538557392256061 -0.41752617251155161 0 -0.1549642748889159 -0.39966096500475939 0 -0.15538557392256061 -0.41752617251155161 0 -0.1749652251059319 -0.41541446376449159 0 -0.1580515299113682 -0.43460630329767591 0 -0.1792048180605178 -0.43719049368537449 0 -0.1749652251059319 -0.41541446376449159 0 -0.15538557392256061 -0.41752617251155161 0 -0.1580515299113682 -0.43460630329767591 0 -0.1749652251059319 -0.41541446376449159 0 -0.1580515299113682 -0.43460630329767591 0 -0.1749652251059319 -0.41541446376449159 0 -0.1792048180605178 -0.43719049368537449 0 -0.1749652251059319 -0.41541446376449159 0 -0.19177275059653959 -0.41582139717288341 0 -0.1749652251059319 -0.41541446376449159 0 -0.191878920300495 -0.39622262423130711 0 -0.19177275059653959 -0.41582139717288341 0 -0.1749652251059319 -0.41541446376449159 0 -0.16965211815322939 -0.39000129666083988 0 -0.191878920300495 -0.39622262423130711 0 -0.1749652251059319 -0.41541446376449159 0 -0.191878920300495 -0.39622262423130711 0 -0.16965211815322939 -0.39000129666083988 0 -0.191878920300495 -0.39622262423130711 0 -0.1549642748889159 -0.39966096500475939 0 -0.14742531600596359 -0.38377996909037332 0 -0.16965211815322939 -0.39000129666083988 0 -0.1549642748889159 -0.39966096500475939 0 -0.1749652251059319 -0.41541446376449159 0 -0.16965211815322939 -0.39000129666083988 0 -0.14742531600596359 -0.38377996909037332 0 -0.16965211815322939 -0.39000129666083988 0 -0.14742531600596359 -0.38377996909037332 0 -0.1746819960720867 -0.38164202152317139 0 -0.15125735243725449 -0.36655632239699759 0 -0.14742531600596359 -0.38377996909037332 0 -0.16965211815322939 -0.39000129666083988 0 -0.1746819960720867 -0.38164202152317139 0 -0.1746819960720867 -0.38164202152317139 0 -0.191878920300495 -0.39622262423130711 0 -0.193813233430078 -0.39396272510326191 0 -0.1746819960720867 -0.38164202152317139 0 -0.193813233430078 -0.39396272510326191 0 -0.1746819960720867 -0.38164202152317139 0 -0.18554251269988009 -0.37727479363527711 0 -0.193813233430078 -0.39396272510326191 0 -0.16965211815322939 -0.39000129666083988 0 -0.1746819960720867 -0.38164202152317139 0 -0.191878920300495 -0.39622262423130711 0 -0.19664250086743781 -0.38227501852136342 0 -0.2063730469289137 -0.37806524035653372 0 -0.18764468338456289 -0.37039586028355892 0 -0.18554251269988009 -0.37727479363527711 0 -0.1981066397069203 -0.39672772064934342 0 -0.18554251269988009 -0.37727479363527711 0 -0.19664250086743781 -0.38227501852136342 0 -0.1981066397069203 -0.39672772064934342 0 -0.18554251269988009 -0.37727479363527711 0 -0.193813233430078 -0.39396272510326191 0 -0.1981066397069203 -0.39672772064934342 0 -0.18554251269988009 -0.37727479363527711 0 -0.19664250086743781 -0.38227501852136342 0 -0.18764468338456289 -0.37039586028355892 0 -0.19664250086743781 -0.38227501852136342 0 -0.2063730469289137 -0.37806524035653372 0 -0.20554562161691181 -0.38891147768210338 0 -0.19664250086743781 -0.38227501852136342 0 -0.1981066397069203 -0.39672772064934342 0 -0.20554562161691181 -0.38891147768210338 0 -0.191878920300495 -0.39622262423130711 0 -0.193813233430078 -0.39396272510326191 0 -0.191878920300495 -0.39622262423130711 0 -0.193813233430078 -0.39396272510326191 0 -0.1981066397069203 -0.39672772064934342 0 -0.19908272426168749 -0.39823898375522943 0 -0.1989791829295835 -0.40749813483323888 0 -0.2074615640426469 -0.41121186747649818 0 -0.191878920300495 -0.39622262423130711 0 -0.19908272426168749 -0.39823898375522943 0 -0.1989791829295835 -0.40749813483323888 0 -0.20150688368178871 -0.39891751095565808 0 -0.19908272426168749 -0.39823898375522943 0 -0.2074615640426469 -0.41121186747649818 0 -0.20150688368178871 -0.39891751095565808 0 -0.19908272426168749 -0.39823898375522943 0 -0.20150688368178871 -0.39891751095565808 0 -0.1981066397069203 -0.39672772064934342 0 -0.20554562161691181 -0.38891147768210338 0 -0.191878920300495 -0.39622262423130711 0 -0.1981066397069203 -0.39672772064934342 0 -0.19908272426168749 -0.39823898375522943 0 -0.193813233430078 -0.39396272510326191 0 -0.1981066397069203 -0.39672772064934342 0 -0.191878920300495 -0.39622262423130711 0 -0.19908272426168749 -0.39823898375522943 0 -0.1981066397069203 -0.39672772064934342 0 -0.19908272426168749 -0.39823898375522943 0 -0.20150688368178871 -0.39891751095565808 0 -0.1981066397069203 -0.39672772064934342 0 -0.19908272426168749 -0.39823898375522943 0 -0.20150688368178871 -0.39891751095565808 0 -0.1981066397069203 -0.39672772064934342 0 -0.20150688368178871 -0.39891751095565808 0 -0.22435401403779079 -0.4136312858937139 0 -0.22392318204499231 -0.40519187890615149 0 -0.20150688368178871 -0.39891751095565808 0 -0.22392318204499231 -0.40519187890615149 0 -0.20554562161691181 -0.38891147768210338 0 -0.22510141047326451 -0.3857346204295084 0 -0.22392318204499231 -0.40519187890615149 0 -0.20150688368178871 -0.39891751095565808 0 -0.20554562161691181 -0.38891147768210338 0 -0.22392318204499231 -0.40519187890615149 0 -0.19908272426168749 -0.39823898375522943 0 -0.2074615640426469 -0.41121186747649818 0 -0.2063730469289137 -0.37806524035653372 0 -0.22510141047326451 -0.3857346204295084 0 -0.2063730469289137 -0.37806524035653372 0 -0.22510141047326451 -0.3857346204295084 0 -0.22213026073888681 -0.36220800050491908 0 -0.2063730469289137 -0.37806524035653372 0 -0.20554562161691181 -0.38891147768210338 0 -0.22510141047326451 -0.3857346204295084 0 -0.1792048180605178 -0.43719049368537449 0 -0.20009539894298889 -0.43071676645322748 0 -0.19177275059653959 -0.41582139717288341 0 -0.20009539894298889 -0.43071676645322748 0 -0.19177275059653959 -0.41582139717288341 0 -0.2074615640426469 -0.41121186747649818 0 -0.191878920300495 -0.39622262423130711 0 -0.19177275059653959 -0.41582139717288341 0 -0.1989791829295835 -0.40749813483323888 0 -0.19177275059653959 -0.41582139717288341 0 -0.1989791829295835 -0.40749813483323888 0 -0.2074615640426469 -0.41121186747649818 0 -0.20150688368178871 -0.39891751095565808 0 -0.2074615640426469 -0.41121186747649818 0 -0.22435401403779079 -0.4136312858937139 0 -0.20150688368178871 -0.39891751095565808 0 -0.22435401403779079 -0.4136312858937139 0 -0.2074615640426469 -0.41121186747649818 0 -0.2158404038236075 -0.42418475119776627 0 -0.22435401403779079 -0.4136312858937139 0 -0.2074615640426469 -0.41121186747649818 0 -0.2158404038236075 -0.42418475119776627 0 -0.21198831953969241 -0.4432910470757162 0 -0.2158404038236075 -0.42418475119776627 0 -0.22164799283074779 -0.43395773131222709 0 -0.20009539894298889 -0.43071676645322748 0 -0.2074615640426469 -0.41121186747649818 0 -0.2158404038236075 -0.42418475119776627 0 -0.21198831953969241 -0.4432910470757162 0 -0.20009539894298889 -0.43071676645322748 0 -0.2158404038236075 -0.42418475119776627 0 -0.22790745706435489 -0.42800061331089873 0 -0.22435401403779079 -0.4136312858937139 0 -0.24720114439379309 -0.42834506083176899 0 -0.23085579089533631 -0.44035451366452699 0 -0.22164799283074779 -0.43395773131222709 0 -0.22790745706435489 -0.42800061331089873 0 -0.2158404038236075 -0.42418475119776627 0 -0.22164799283074779 -0.43395773131222709 0 -0.22790745706435489 -0.42800061331089873 0 -0.2158404038236075 -0.42418475119776627 0 -0.22790745706435489 -0.42800061331089873 0 -0.22435401403779079 -0.4136312858937139 0 -0.22435401403779079 -0.4136312858937139 0 -0.24633948040819589 -0.41146624685664551 0 -0.22392318204499231 -0.40519187890615149 0 -0.24633948040819589 -0.41146624685664551 0 -0.22392318204499231 -0.40519187890615149 0 -0.22435401403779079 -0.4136312858937139 0 -0.24633948040819589 -0.41146624685664551 0 -0.24720114439379309 -0.42834506083176899 0 -0.24633948040819589 -0.41146624685664551 0 -0.22392318204499231 -0.40519187890615149 0 -0.24211889347768259 -0.40235323345098012 0 -0.22435401403779079 -0.4136312858937139 0 -0.24720114439379309 -0.42834506083176899 0 -0.23085579089533631 -0.44035451366452699 0 -0.22790745706435489 -0.42800061331089873 0 -0.24720114439379309 -0.42834506083176899 0 -0.22510141047326451 -0.3857346204295084 0 -0.2362602657262767 -0.38071576898148241 0 -0.22213026073888681 -0.36220800050491908 0 -0.22392318204499231 -0.40519187890615149 0 -0.23640706701796271 -0.39696310078054592 0 -0.24211889347768259 -0.40235323345098012 0 -0.22510141047326451 -0.3857346204295084 0 -0.22392318204499231 -0.40519187890615149 0 -0.23640706701796271 -0.39696310078054592 0 -0.22510141047326451 -0.3857346204295084 0 -0.23640706701796271 -0.39696310078054592 0 -0.24382977401761469 -0.39340400050248481 0 -0.23640706701796271 -0.39696310078054592 0 -0.24382977401761469 -0.39340400050248481 0 -0.24362738080351659 -0.39657046003643959 0 -0.23640706701796271 -0.39696310078054592 0 -0.24211889347768259 -0.40235323345098012 0 -0.24362738080351659 -0.39657046003643959 0 -0.25386187522231229 -0.40472486177198302 0 -0.24211889347768259 -0.40235323345098012 0 -0.24951387374856759 -0.3997540431003424 0 -0.25386187522231229 -0.40472486177198302 0 -0.24633948040819589 -0.41146624685664551 0 -0.24211889347768259 -0.40235323345098012 0 -0.24211889347768259 -0.40235323345098012 0 -0.24951387374856759 -0.3997540431003424 0 -0.24362738080351659 -0.39657046003643959 0 -0.24382977401761469 -0.39340400050248481 0 -0.24362738080351659 -0.39657046003643959 0 -0.24951387374856759 -0.3997540431003424 0 -0.24382977401761469 -0.39340400050248481 0 -0.24362738080351659 -0.39657046003643959 0 -0.25376367050922388 -0.39511822417744458 0 -0.25123018245347961 -0.38332219211110918 0 -0.24382977401761469 -0.39340400050248481 0 -0.24382977401761469 -0.39340400050248481 0 -0.2452151844951698 -0.37172913242620642 0 -0.25123018245347961 -0.38332219211110918 0 -0.24382977401761469 -0.39340400050248481 0 -0.2452151844951698 -0.37172913242620642 0 -0.24382977401761469 -0.39340400050248481 0 -0.2362602657262767 -0.38071576898148241 0 -0.2452151844951698 -0.37172913242620642 0 -0.22510141047326451 -0.3857346204295084 0 -0.24382977401761469 -0.39340400050248481 0 -0.2362602657262767 -0.38071576898148241 0 -0.22510141047326451 -0.3857346204295084 0 -0.24382977401761469 -0.39340400050248481 0 -0.2362602657262767 -0.38071576898148241 0 -0.2452151844951698 -0.37172913242620642 0 -0.22213026073888681 -0.36220800050491908 0 -0.2452151844951698 -0.37172913242620642 0 -0.24660059497272549 -0.35005426434992792 0 -0.2452151844951698 -0.37172913242620642 0 -0.23559662257404429 -0.35661291650890148 0 -0.24660059497272549 -0.35005426434992792 0 -0.2452151844951698 -0.37172913242620642 0 -0.22213026073888681 -0.36220800050491908 0 -0.23559662257404429 -0.35661291650890148 0 -0.22213026073888681 -0.36220800050491908 0 -0.23559662257404429 -0.35661291650890148 0 -0.23048401005839519 -0.34337940702464792 0 -0.22213026073888681 -0.36220800050491908 0 -0.23048401005839519 -0.34337940702464792 0 -0.21467287986980971 -0.33923724769727842 0 -0.23559662257404429 -0.35661291650890148 0 -0.24660059497272549 -0.35005426434992792 0 -0.23048401005839519 -0.34337940702464792 0 -0.25718802529817569 -0.35632830299104301 0 -0.2452151844951698 -0.37172913242620642 0 -0.24660059497272549 -0.35005426434992792 0 -0.24660059497272549 -0.35005426434992792 0 -0.24798600545028121 -0.32837939627364943 0 -0.24660059497272549 -0.35005426434992792 0 -0.24798600545028121 -0.32837939627364943 0 -0.23645969765535799 -0.33307037913276039 0 -0.25527054836466467 -0.33970649141258402 0 -0.24660059497272549 -0.35005426434992792 0 -0.24798600545028121 -0.32837939627364943 0 -0.24798600545028121 -0.32837939627364943 0 -0.23645969765535799 -0.33307037913276039 0 -0.22578191981833859 -0.32608922991734979 0 -0.24660059497272549 -0.35005426434992792 0 -0.23645969765535799 -0.33307037913276039 0 -0.23048401005839519 -0.34337940702464792 0 -0.24838889559803151 -0.32207614467911672 0 -0.24943431263974661 -0.30572050363919068 0 -0.24798600545028121 -0.32837939627364943 0 -0.22991212161638691 -0.32535105409859288 0 -0.22578191981833859 -0.32608922991734979 0 -0.24798600545028121 -0.32837939627364943 0 -0.24838889559803151 -0.32207614467911672 0 -0.22991212161638691 -0.32535105409859288 0 -0.24838889559803151 -0.32207614467911672 0 -0.2381642835306472 -0.31432837930097041 0 -0.24943431263974661 -0.30572050363919068 0 -0.24838889559803151 -0.32207614467911672 0 -0.22991212161638691 -0.32535105409859288 0 -0.24838889559803151 -0.32207614467911672 0 -0.23371325453872679 -0.31973213811739581 0 -0.22991212161638691 -0.32535105409859288 0 -0.24798600545028121 -0.32837939627364943 0 -0.22578191981833859 -0.32608922991734979 0 -0.24798600545028121 -0.32837939627364943 0 -0.24838889559803151 -0.32207614467911672 0 -0.24838889559803151 -0.32207614467911672 0 -0.2381642835306472 -0.31432837930097041 0 -0.23371325453872679 -0.31973213811739581 0 -0.2381642835306472 -0.31432837930097041 0 -0.23371325453872679 -0.31973213811739581 0 -0.22796967592192341 -0.31532996419906878 0 -0.23371325453872679 -0.31973213811739581 0 -0.22796967592192341 -0.31532996419906878 0 -0.22413129602664411 -0.32157514830923012 0 -0.23371325453872679 -0.31973213811739581 0 -0.22991212161638691 -0.32535105409859288 0 -0.22413129602664411 -0.32157514830923012 0 -0.22991212161638691 -0.32535105409859288 0 -0.22578191981833859 -0.32608922991734979 0 -0.22991212161638691 -0.32535105409859288 0 -0.22578191981833859 -0.32608922991734979 0 -0.22413129602664411 -0.32157514830923012 0 -0.22578191981833859 -0.32608922991734979 0 -0.22413129602664411 -0.32157514830923012 0 -0.2112477342690765 -0.32868687159259702 0 -0.22796967592192341 -0.31532996419906878 0 -0.21859999825495921 -0.31851311263594623 0 -0.2212284953044189 -0.30993101853692051 0 -0.22796967592192341 -0.31532996419906878 0 -0.22413129602664411 -0.32157514830923012 0 -0.21859999825495921 -0.31851311263594623 0 -0.23048401005839519 -0.34337940702464792 0 -0.22287407281458041 -0.33466783361728403 0 -0.21467287986980971 -0.33923724769727842 0 -0.23645969765535799 -0.33307037913276039 0 -0.23048401005839519 -0.34337940702464792 0 -0.22914371894036989 -0.33384445978902533 0 -0.23048401005839519 -0.34337940702464792 0 -0.22914371894036989 -0.33384445978902533 0 -0.22287407281458041 -0.33466783361728403 0 -0.23645969765535799 -0.33307037913276039 0 -0.22578191981833859 -0.32608922991734979 0 -0.22914371894036989 -0.33384445978902533 0 -0.22578191981833859 -0.32608922991734979 0 -0.22287407281458041 -0.33466783361728403 0 -0.2112477342690765 -0.32868687159259702 0 -0.22578191981833859 -0.32608922991734979 0 -0.22914371894036989 -0.33384445978902533 0 -0.22287407281458041 -0.33466783361728403 0 -0.22287407281458041 -0.33466783361728403 0 -0.21467287986980971 -0.33923724769727842 0 -0.2112477342690765 -0.32868687159259702 0 -0.21467287986980971 -0.33923724769727842 0 -0.2112477342690765 -0.32868687159259702 0 -0.21467287986980971 -0.33923724769727842 0 -0.2112477342690765 -0.32868687159259702 0 -0.2018303739944674 -0.33058137455637832 0 -0.21467287986980971 -0.33923724769727842 0 -0.2016070615234456 -0.34262798154079072 0 -0.2018303739944674 -0.33058137455637832 0 -0.21859999825495921 -0.31851311263594623 0 -0.20721549900073249 -0.31626649488963782 0 -0.2212284953044189 -0.30993101853692051 0 -0.22578191981833859 -0.32608922991734979 0 -0.2112477342690765 -0.32868687159259702 0 -0.2112477342690765 -0.32868687159259702 0 -0.21859999825495921 -0.31851311263594623 0 -0.20721549900073249 -0.31626649488963782 0 -0.22413129602664411 -0.32157514830923012 0 -0.2112477342690765 -0.32868687159259702 0 -0.21859999825495921 -0.31851311263594623 0 -0.2112477342690765 -0.32868687159259702 0 -0.20721549900073249 -0.31626649488963782 0 -0.2018303739944674 -0.33058137455637832 0 -0.2112477342690765 -0.32868687159259702 0 -0.20721549900073249 -0.31626649488963782 0 -0.20721549900073249 -0.31626649488963782 0 -0.19463208907838861 -0.32255209108556182 0 -0.18987584451123249 -0.31165373602639779 0 -0.20721549900073249 -0.31626649488963782 0 -0.19463208907838861 -0.32255209108556182 0 -0.2018303739944674 -0.33058137455637832 0 -0.19463208907838861 -0.32255209108556182 0 -0.18833426705090819 -0.33502361246445911 0 -0.1838206615512771 -0.32394913890676857 0 -0.19463208907838861 -0.32255209108556182 0 -0.18987584451123249 -0.31165373602639779 0 -0.1838206615512771 -0.32394913890676857 0 -0.2016070615234456 -0.34262798154079072 0 -0.2018303739944674 -0.33058137455637832 0 -0.18833426705090819 -0.33502361246445911 0 -0.19463208907838861 -0.32255209108556182 0 -0.2018303739944674 -0.33058137455637832 0 -0.18833426705090819 -0.33502361246445911 0 -0.2016070615234456 -0.34262798154079072 0 -0.18833426705090819 -0.33502361246445911 0 -0.18990120990022041 -0.34648794901607272 0 -0.2016070615234456 -0.34262798154079072 0 -0.18990120990022041 -0.34648794901607272 0 -0.1988021527556896 -0.35371085626778898 0 -0.18990120990022041 -0.34648794901607272 0 -0.1988021527556896 -0.35371085626778898 0 -0.18629685877200139 -0.35712758532036831 0 -0.1988021527556896 -0.35371085626778898 0 -0.1927361442600477 -0.36152278858751818 0 -0.18629685877200139 -0.35712758532036831 0 -0.2063730469289137 -0.37806524035653372 0 -0.18764468338456289 -0.37039586028355892 0 -0.19820088212793721 -0.36485685247835647 0 -0.1927361442600477 -0.36152278858751818 0 -0.18764468338456289 -0.37039586028355892 0 -0.18629685877200139 -0.35712758532036831 0 -0.1927361442600477 -0.36152278858751818 0 -0.18764468338456289 -0.37039586028355892 0 -0.19820088212793721 -0.36485685247835647 0 -0.2063730469289137 -0.37806524035653372 0 -0.18764468338456289 -0.37039586028355892 0 -0.1988021527556896 -0.35371085626778898 0 -0.19820088212793721 -0.36485685247835647 0 -0.2071524249601352 -0.36209998066841348 0 -0.1988021527556896 -0.35371085626778898 0 -0.1927361442600477 -0.36152278858751818 0 -0.19820088212793721 -0.36485685247835647 0 -0.2063730469289137 -0.37806524035653372 0 -0.19820088212793721 -0.36485685247835647 0 -0.2071524249601352 -0.36209998066841348 0 -0.2063730469289137 -0.37806524035653372 0 -0.22213026073888681 -0.36220800050491908 0 -0.2071524249601352 -0.36209998066841348 0 -0.22213026073888681 -0.36220800050491908 0 -0.21467287986980971 -0.33923724769727842 0 -0.22213026073888681 -0.36220800050491908 0 -0.2071524249601352 -0.36209998066841348 0 -0.21025578224924871 -0.35165895373446943 0 -0.22213026073888681 -0.36220800050491908 0 -0.21467287986980971 -0.33923724769727842 0 -0.21025578224924871 -0.35165895373446943 0 -0.2016070615234456 -0.34262798154079072 0 -0.1988021527556896 -0.35371085626778898 0 -0.21025578224924871 -0.35165895373446943 0 -0.21467287986980971 -0.33923724769727842 0 -0.2016070615234456 -0.34262798154079072 0 -0.21025578224924871 -0.35165895373446943 0 -0.1988021527556896 -0.35371085626778898 0 -0.2071524249601352 -0.36209998066841348 0 -0.21025578224924871 -0.35165895373446943 0 -0.23844635295844299 -0.26526777821905068 0 -0.21114915929045841 -0.26402521864980799 0 -0.21906731033578741 -0.25070158993507968 0 -0.23844635295844299 -0.26526777821905068 0 -0.23447079457332121 -0.24898436209678301 0 -0.21906731033578741 -0.25070158993507968 0 -0.23844635295844299 -0.26526777821905068 0 -0.21114915929045841 -0.26402521864980799 0 -0.23844635295844299 -0.26526777821905068 0 -0.2508749388500553 -0.2455407076959211 0 -0.25198058485566999 -0.2658838521481427 0 -0.23844635295844299 -0.26526777821905068 0 -0.2508749388500553 -0.2455407076959211 0 -0.23844635295844299 -0.26526777821905068 0 -0.23447079457332121 -0.24898436209678301 0 -0.2508749388500553 -0.2455407076959211 0 -0.25198058485566999 -0.2658838521481427 0 -0.23844635295844299 -0.26526777821905068 0 -0.25047972968146048 -0.28936486259926458 0 -0.23844635295844299 -0.26526777821905068 0 -0.23015692905030791 -0.27842503130142121 0 -0.25047972968146048 -0.28936486259926458 0 -0.25198058485566999 -0.2658838521481427 0 -0.23844635295844299 -0.26526777821905068 0 -0.23844635295844299 -0.26526777821905068 0 -0.23015692905030791 -0.27842503130142121 0 -0.21114915929045841 -0.26402521864980799 0 -0.23844635295844299 -0.26526777821905068 0 -0.23015692905030791 -0.27842503130142121 0 -0.25047972968146048 -0.28936486259926458 0 -0.23015692905030791 -0.27842503130142121 0 -0.22186750514217199 -0.29158228438379119 0 -0.23015692905030791 -0.27842503130142121 0 -0.22186750514217199 -0.29158228438379119 0 -0.21130557265160729 -0.28032869856598502 0 -0.23015692905030791 -0.27842503130142121 0 -0.22186750514217199 -0.29158228438379119 0 -0.25047972968146048 -0.28936486259926458 0 -0.22186750514217199 -0.29158228438379119 0 -0.25047972968146048 -0.28936486259926458 0 -0.22186750514217199 -0.29158228438379119 0 -0.23679751432824139 -0.29841200568039478 0 -0.25047972968146048 -0.28936486259926458 0 -0.23679751432824139 -0.29841200568039478 0 -0.24943431263974661 -0.30572050363919068 0 -0.25047972968146048 -0.28936486259926458 0 -0.24943431263974661 -0.30572050363919068 0 -0.2381642835306472 -0.31432837930097041 0 -0.24943431263974661 -0.30572050363919068 0 -0.2321120825558266 -0.30759957124153958 0 -0.23679751432824139 -0.29841200568039478 0 -0.24943431263974661 -0.30572050363919068 0 -0.2321120825558266 -0.30759957124153958 0 -0.22796967592192341 -0.31532996419906878 0 -0.2321120825558266 -0.30759957124153958 0 -0.2212284953044189 -0.30993101853692051 0 -0.2381642835306472 -0.31432837930097041 0 -0.22796967592192341 -0.31532996419906878 0 -0.2321120825558266 -0.30759957124153958 0 -0.22186750514217199 -0.29158228438379119 0 -0.23679751432824139 -0.29841200568039478 0 -0.22522043893513971 -0.30228828221141318 0 -0.23679751432824139 -0.29841200568039478 0 -0.2321120825558266 -0.30759957124153958 0 -0.22522043893513971 -0.30228828221141318 0 -0.22186750514217199 -0.29158228438379119 0 -0.22522043893513971 -0.30228828221141318 0 -0.21409659734503891 -0.30391653121441958 0 -0.2321120825558266 -0.30759957124153958 0 -0.22522043893513971 -0.30228828221141318 0 -0.2212284953044189 -0.30993101853692051 0 -0.22522043893513971 -0.30228828221141318 0 -0.2212284953044189 -0.30993101853692051 0 -0.21409659734503891 -0.30391653121441958 0 -0.20721549900073249 -0.31626649488963782 0 -0.21409659734503891 -0.30391653121441958 0 -0.199758118131655 -0.29329574208199721 0 -0.20721549900073249 -0.31626649488963782 0 -0.199758118131655 -0.29329574208199721 0 -0.20721549900073249 -0.31626649488963782 0 -0.2212284953044189 -0.30993101853692051 0 -0.21409659734503891 -0.30391653121441958 0 -0.22186750514217199 -0.29158228438379119 0 -0.21409659734503891 -0.30391653121441958 0 -0.18987584451123249 -0.31165373602639779 0 -0.199758118131655 -0.29329574208199721 0 -0.18021945718615731 -0.30451139671038963 0 -0.20721549900073249 -0.31626649488963782 0 -0.18987584451123249 -0.31165373602639779 0 -0.199758118131655 -0.29329574208199721 0 -0.199758118131655 -0.29329574208199721 0 -0.19359615164344271 -0.27431521641290713 0 -0.199758118131655 -0.29329574208199721 0 -0.21130557265160729 -0.28032869856598502 0 -0.19359615164344271 -0.27431521641290713 0 -0.199758118131655 -0.29329574208199721 0 -0.19359615164344271 -0.27431521641290713 0 -0.18072412887709319 -0.28174085196009779 0 -0.22186750514217199 -0.29158228438379119 0 -0.199758118131655 -0.29329574208199721 0 -0.22186750514217199 -0.29158228438379119 0 -0.199758118131655 -0.29329574208199721 0 -0.21130557265160729 -0.28032869856598502 0 -0.22186750514217199 -0.29158228438379119 0 -0.21409659734503891 -0.30391653121441958 0 -0.199758118131655 -0.29329574208199721 0 -0.23015692905030791 -0.27842503130142121 0 -0.21130557265160729 -0.28032869856598502 0 -0.21114915929045841 -0.26402521864980799 0 -0.21130557265160729 -0.28032869856598502 0 -0.19359615164344271 -0.27431521641290713 0 -0.21114915929045841 -0.26402521864980799 0 -0.19359615164344271 -0.27431521641290713 0 -0.2005593250693537 -0.25610476117175518 0 -0.18743418515523 -0.25533469074381721 0 -0.2005593250693537 -0.25610476117175518 0 -0.18743418515523 -0.25533469074381721 0 -0.18964217591845089 -0.24002307996666741 0 -0.19359615164344271 -0.27431521641290713 0 -0.2005593250693537 -0.25610476117175518 0 -0.21114915929045841 -0.26402521864980799 0 -0.19359615164344271 -0.27431521641290713 0 -0.18743418515523 -0.25533469074381721 0 -0.21906731033578741 -0.25070158993507968 0 -0.2005593250693537 -0.25610476117175518 0 -0.2048048756623756 -0.2446353592032969 0 -0.21906731033578741 -0.25070158993507968 0 -0.2005593250693537 -0.25610476117175518 0 -0.21114915929045841 -0.26402521864980799 0 -0.14822282342019369 -0.26280282871250987 0 -0.16530228257869631 -0.23865896338888859 0 -0.1626250131987477 -0.25874771931983431 0 -0.14822282342019369 -0.26280282871250987 0 -0.16530228257869631 -0.23865896338888859 0 -0.1626250131987477 -0.25874771931983431 0 -0.17428661347802599 -0.26042132977434251 0 -0.16530228257869631 -0.23865896338888859 0 -0.15830334119345399 -0.26434472980180851 0 -0.1626250131987477 -0.25874771931983431 0 -0.14822282342019369 -0.26280282871250987 0 -0.15830334119345399 -0.26434472980180851 0 -0.1626250131987477 -0.25874771931983431 0 -0.1651781839882509 -0.26652842887930539 0 -0.1626250131987477 -0.25874771931983431 0 -0.17428661347802599 -0.26042132977434251 0 -0.1651781839882509 -0.26652842887930539 0 -0.18743418515523 -0.25533469074381721 0 -0.17428661347802599 -0.26042132977434251 0 -0.16530228257869631 -0.23865896338888859 0 -0.18743418515523 -0.25533469074381721 0 -0.17428661347802599 -0.26042132977434251 0 -0.1813245861597782 -0.26919251569644848 0 -0.17428661347802599 -0.26042132977434251 0 -0.1813245861597782 -0.26919251569644848 0 -0.17058185164509931 -0.27415048959107818 0 -0.19359615164344271 -0.27431521641290713 0 -0.18743418515523 -0.25533469074381721 0 -0.1813245861597782 -0.26919251569644848 0 -0.19359615164344271 -0.27431521641290713 0 -0.1813245861597782 -0.26919251569644848 0 -0.18072412887709319 -0.28174085196009779 0 -0.1813245861597782 -0.26919251569644848 0 -0.17058185164509931 -0.27415048959107818 0 -0.18072412887709319 -0.28174085196009779 0 -0.17058185164509931 -0.27415048959107818 0 -0.16737396565035409 -0.28369971881203598 0 -0.18072412887709319 -0.28174085196009779 0 -0.17058185164509931 -0.27415048959107818 0 -0.1604490312087879 -0.27249071138321368 0 -0.16167744036089629 -0.27879295859507769 0 -0.17058185164509931 -0.27415048959107818 0 -0.16167744036089629 -0.27879295859507769 0 -0.16737396565035409 -0.28369971881203598 0 -0.17428661347802599 -0.26042132977434251 0 -0.17058185164509931 -0.27415048959107818 0 -0.1651781839882509 -0.26652842887930539 0 -0.17058185164509931 -0.27415048959107818 0 -0.1651781839882509 -0.26652842887930539 0 -0.1604490312087879 -0.27249071138321368 0 -0.15830334119345399 -0.26434472980180851 0 -0.1651781839882509 -0.26652842887930539 0 -0.1604490312087879 -0.27249071138321368 0 -0.15830334119345399 -0.26434472980180851 0 -0.1604490312087879 -0.27249071138321368 0 -0.1541642447230627 -0.27078627017161372 0 -0.1604490312087879 -0.27249071138321368 0 -0.15644906016658011 -0.27666650364079598 0 -0.1541642447230627 -0.27078627017161372 0 -0.1604490312087879 -0.27249071138321368 0 -0.15644906016658011 -0.27666650364079598 0 -0.16167744036089629 -0.27879295859507769 0 -0.15644906016658011 -0.27666650364079598 0 -0.16167744036089629 -0.27879295859507769 0 -0.15504716152935891 -0.28382839026119427 0 -0.16983254804336009 -0.2956149469707039 0 -0.1522383678877024 -0.29023306065241261 0 -0.15504716152935891 -0.28382839026119427 0 -0.16167744036089629 -0.27879295859507769 0 -0.16737396565035409 -0.28369971881203598 0 -0.15504716152935891 -0.28382839026119427 0 -0.16983254804336009 -0.2956149469707039 0 -0.16737396565035409 -0.28369971881203598 0 -0.15504716152935891 -0.28382839026119427 0 -0.199758118131655 -0.29329574208199721 0 -0.16983254804336009 -0.2956149469707039 0 -0.16983254804336009 -0.2956149469707039 0 -0.16737396565035409 -0.28369971881203598 0 -0.18072412887709319 -0.28174085196009779 0 -0.199758118131655 -0.29329574208199721 0 -0.16983254804336009 -0.2956149469707039 0 -0.18072412887709319 -0.28174085196009779 0 -0.18987584451123249 -0.31165373602639779 0 -0.18021945718615731 -0.30451139671038963 0 -0.17397343924175071 -0.31683386078711778 0 -0.199758118131655 -0.29329574208199721 0 -0.16983254804336009 -0.2956149469707039 0 -0.18021945718615731 -0.30451139671038963 0 -0.16983254804336009 -0.2956149469707039 0 -0.18021945718615731 -0.30451139671038963 0 -0.16897673094698129 -0.30625392306038118 0 -0.18021945718615731 -0.30451139671038963 0 -0.16897673094698129 -0.30625392306038118 0 -0.17397343924175071 -0.31683386078711778 0 -0.16897673094698129 -0.30625392306038118 0 -0.17397343924175071 -0.31683386078711778 0 -0.16210377498835191 -0.31321926126348199 0 -0.16983254804336009 -0.2956149469707039 0 -0.16897673094698129 -0.30625392306038118 0 -0.1587544352752864 -0.30109014957021268 0 -0.16897673094698129 -0.30625392306038118 0 -0.1587544352752864 -0.30109014957021268 0 -0.16210377498835191 -0.31321926126348199 0 -0.1587544352752864 -0.30109014957021268 0 -0.16210377498835191 -0.31321926126348199 0 -0.1495501087207281 -0.31390710050209142 0 -0.1587544352752864 -0.30109014957021268 0 -0.13478732859181281 -0.30908655472834828 0 -0.1399069779550651 -0.29793415185940902 0 -0.1587544352752864 -0.30109014957021268 0 -0.13478732859181281 -0.30908655472834828 0 -0.16983254804336009 -0.2956149469707039 0 -0.1587544352752864 -0.30109014957021268 0 -0.1399069779550651 -0.29793415185940902 0 -0.1587544352752864 -0.30109014957021268 0 -0.13478732859181281 -0.30908655472834828 0 -0.1495501087207281 -0.31390710050209142 0 -0.13478732859181281 -0.30908655472834828 0 -0.1399069779550651 -0.29793415185940902 0 -0.1169256129609467 -0.30704519185296641 0 -0.1399069779550651 -0.29793415185940902 0 -0.13257421819057011 -0.28492401028273812 0 -0.1169256129609467 -0.30704519185296641 0 -0.1399069779550651 -0.29793415185940902 0 -0.13257421819057011 -0.28492401028273812 0 -0.1441667840230256 -0.28355475351834308 0 -0.16983254804336009 -0.2956149469707039 0 -0.1399069779550651 -0.29793415185940902 0 -0.1522383678877024 -0.29023306065241261 0 -0.16983254804336009 -0.2956149469707039 0 -0.1399069779550651 -0.29793415185940902 0 -0.1399069779550651 -0.29793415185940902 0 -0.1441667840230256 -0.28355475351834308 0 -0.1522383678877024 -0.29023306065241261 0 -0.1441667840230256 -0.28355475351834308 0 -0.15504716152935891 -0.28382839026119427 0 -0.15122281225989881 -0.27678231710807449 0 -0.1441667840230256 -0.28355475351834308 0 -0.1522383678877024 -0.29023306065241261 0 -0.15504716152935891 -0.28382839026119427 0 -0.13257421819057011 -0.28492401028273812 0 -0.14692265979381269 -0.27386237969630628 0 -0.14822282342019369 -0.26280282871250987 0 -0.15122281225989881 -0.27678231710807449 0 -0.1541642447230627 -0.27078627017161372 0 -0.14692265979381269 -0.27386237969630628 0 -0.15644906016658011 -0.27666650364079598 0 -0.15504716152935891 -0.28382839026119427 0 -0.15122281225989881 -0.27678231710807449 0 -0.15644906016658011 -0.27666650364079598 0 -0.15122281225989881 -0.27678231710807449 0 -0.1541642447230627 -0.27078627017161372 0 -0.14692265979381269 -0.27386237969630628 0 -0.14822282342019369 -0.26280282871250987 0 -0.15118507614612539 -0.26432409838455878 0 -0.1541642447230627 -0.27078627017161372 0 -0.14692265979381269 -0.27386237969630628 0 -0.15118507614612539 -0.26432409838455878 0 -0.15830334119345399 -0.26434472980180851 0 -0.1541642447230627 -0.27078627017161372 0 -0.15118507614612539 -0.26432409838455878 0 -0.13257421819057011 -0.28492401028273812 0 -0.1441667840230256 -0.28355475351834308 0 -0.14692265979381269 -0.27386237969630628 0 -0.1441667840230256 -0.28355475351834308 0 -0.15122281225989881 -0.27678231710807449 0 -0.14692265979381269 -0.27386237969630628 0 -0.13257421819057011 -0.28492401028273812 0 -0.14822282342019369 -0.26280282871250987 0 -0.13257421819057011 -0.28492401028273812 0 -0.13374798070478441 -0.26837309096382661 0 -0.1243063921770825 -0.27198804626285372 0 -0.13257421819057011 -0.28492401028273812 0 -0.13374798070478441 -0.26837309096382661 0 -0.14822282342019369 -0.26280282871250987 0 -0.13257421819057011 -0.28492401028273812 0 -0.1243063921770825 -0.27198804626285372 0 -0.1221626902126717 -0.2819873119560653 0 -0.13374798070478441 -0.26837309096382661 0 -0.12745105800744411 -0.26390907244020551 0 -0.1243063921770825 -0.27198804626285372 0 -0.13300922847988161 -0.25498986245784899 0 -0.14822282342019369 -0.26280282871250987 0 -0.13374798070478441 -0.26837309096382661 0 -0.13300922847988161 -0.25498986245784899 0 -0.14822282342019369 -0.26280282871250987 0 -0.13374798070478441 -0.26837309096382661 0 -0.12745105800744411 -0.26390907244020551 0 -0.13300922847988161 -0.25498986245784899 0 -0.12745105800744411 -0.26390907244020551 0 -0.13300922847988161 -0.25498986245784899 0 -0.12360456238295239 -0.25801993517505117 0 -0.13300922847988161 -0.25498986245784899 0 -0.1177956335395702 -0.247176896203187 0 -0.13300922847988161 -0.25498986245784899 0 -0.14822282342019369 -0.26280282871250987 0 -0.14624722887204919 -0.24812456183528761 0 -0.15830334119345399 -0.26434472980180851 0 -0.14822282342019369 -0.26280282871250987 0 -0.15118507614612539 -0.26432409838455878 0 -0.14822282342019369 -0.26280282871250987 0 -0.15118507614612539 -0.26432409838455878 0 -0.17297838569283969 -0.35782186662121102 0 -0.17769775428775639 -0.34518283948514822 0 -0.15698701933099601 -0.34080349879568439 0 -0.17297838569283969 -0.35782186662121102 0 -0.15698701933099601 -0.34080349879568439 0 -0.15125735243725449 -0.36655632239699759 0 -0.1746819960720867 -0.38164202152317139 0 -0.15125735243725449 -0.36655632239699759 0 -0.1746819960720867 -0.38164202152317139 0 -0.17297838569283969 -0.35782186662121102 0 -0.15125735243725449 -0.36655632239699759 0 -0.18554251269988009 -0.37727479363527711 0 -0.18764468338456289 -0.37039586028355892 0 -0.17297838569283969 -0.35782186662121102 0 -0.1746819960720867 -0.38164202152317139 0 -0.18554251269988009 -0.37727479363527711 0 -0.17297838569283969 -0.35782186662121102 0 -0.18554251269988009 -0.37727479363527711 0 -0.17297838569283969 -0.35782186662121102 0 -0.18764468338456289 -0.37039586028355892 0 -0.18629685877200139 -0.35712758532036831 0 -0.17297838569283969 -0.35782186662121102 0 -0.18629685877200139 -0.35712758532036831 0 -0.17297838569283969 -0.35782186662121102 0 -0.17769775428775639 -0.34518283948514822 0 -0.18990120990022041 -0.34648794901607272 0 -0.18629685877200139 -0.35712758532036831 0 -0.17769775428775639 -0.34518283948514822 0 -0.18833426705090819 -0.33502361246445911 0 -0.18990120990022041 -0.34648794901607272 0 -0.17769775428775639 -0.34518283948514822 0 -0.18833426705090819 -0.33502361246445911 0 -0.17769775428775639 -0.34518283948514822 0 -0.17168878497957279 -0.33383252469309388 0 -0.18833426705090819 -0.33502361246445911 0 -0.1838206615512771 -0.32394913890676857 0 -0.17168878497957279 -0.33383252469309388 0 -0.18987584451123249 -0.31165373602639779 0 -0.1838206615512771 -0.32394913890676857 0 -0.17397343924175071 -0.31683386078711778 0 -0.1838206615512771 -0.32394913890676857 0 -0.17397343924175071 -0.31683386078711778 0 -0.17168878497957279 -0.33383252469309388 0 -0.17397343924175071 -0.31683386078711778 0 -0.16447325678470859 -0.32465258025190241 0 -0.17168878497957279 -0.33383252469309388 0 -0.17397343924175071 -0.31683386078711778 0 -0.16447325678470859 -0.32465258025190241 0 -0.16210377498835191 -0.31321926126348199 0 -0.16447325678470859 -0.32465258025190241 0 -0.16210377498835191 -0.31321926126348199 0 -0.1527116180424582 -0.32442884054650928 0 -0.17769775428775639 -0.34518283948514822 0 -0.17168878497957279 -0.33383252469309388 0 -0.15698701933099601 -0.34080349879568439 0 -0.16447325678470859 -0.32465258025190241 0 -0.15698701933099601 -0.34080349879568439 0 -0.1527116180424582 -0.32442884054650928 0 -0.16447325678470859 -0.32465258025190241 0 -0.17168878497957279 -0.33383252469309388 0 -0.15698701933099601 -0.34080349879568439 0 -0.14294323083671021 -0.33974513864826622 0 -0.1527116180424582 -0.32442884054650928 0 -0.13939338670573129 -0.32171069640190458 0 -0.15698701933099601 -0.34080349879568439 0 -0.14294323083671021 -0.33974513864826622 0 -0.1527116180424582 -0.32442884054650928 0 -0.16210377498835191 -0.31321926126348199 0 -0.1495501087207281 -0.31390710050209142 0 -0.1527116180424582 -0.32442884054650928 0 -0.1495501087207281 -0.31390710050209142 0 -0.1527116180424582 -0.32442884054650928 0 -0.13939338670573129 -0.32171069640190458 0 -0.13478732859181281 -0.30908655472834828 0 -0.1495501087207281 -0.31390710050209142 0 -0.13939338670573129 -0.32171069640190458 0 -0.13478732859181281 -0.30908655472834828 0 -0.13939338670573129 -0.32171069640190458 0 -0.12621108921675661 -0.32105341454128111 0 -0.13939338670573129 -0.32171069640190458 0 -0.12621108921675661 -0.32105341454128111 0 -0.12752073513736489 -0.33224080380229382 0 -0.14294323083671021 -0.33974513864826622 0 -0.13939338670573129 -0.32171069640190458 0 -0.12752073513736489 -0.33224080380229382 0 -0.14294323083671021 -0.33974513864826622 0 -0.12752073513736489 -0.33224080380229382 0 -0.12978927336645751 -0.35273066994620572 0 -0.15698701933099601 -0.34080349879568439 0 -0.14294323083671021 -0.33974513864826622 0 -0.15125735243725449 -0.36655632239699759 0 -0.14294323083671021 -0.33974513864826622 0 -0.12978927336645751 -0.35273066994620572 0 -0.15125735243725449 -0.36655632239699759 0 -0.15698701933099601 -0.34080349879568439 0 -0.15125735243725449 -0.36655632239699759 0 -0.14742531600596359 -0.38377996909037332 0 -0.15125735243725449 -0.36655632239699759 0 -0.13783629615235199 -0.37436465409455028 0 -0.15125735243725449 -0.36655632239699759 0 -0.13783629615235199 -0.37436465409455028 0 -0.13433214091169149 -0.36644396550764052 0 -0.13783629615235199 -0.37436465409455028 0 -0.13433214091169149 -0.36644396550764052 0 -0.12703088625481179 -0.37353192569784421 0 -0.12978927336645751 -0.35273066994620572 0 -0.15125735243725449 -0.36655632239699759 0 -0.12978927336645751 -0.35273066994620572 0 -0.15125735243725449 -0.36655632239699759 0 -0.13433214091169149 -0.36644396550764052 0 -0.12978927336645751 -0.35273066994620572 0 -0.13433214091169149 -0.36644396550764052 0 -0.12574689634758279 -0.3650362554026032 0 -0.13433214091169149 -0.36644396550764052 0 -0.12574689634758279 -0.3650362554026032 0 -0.12703088625481179 -0.37353192569784421 0 -0.1202193409875652 -0.37017809234613291 0 -0.116549508231926 -0.3624189048983526 0 -0.10445681479268561 -0.37175299735199402 0 -0.12731259931081801 -0.37815037837987642 0 -0.10445681479268561 -0.37175299735199402 0 -0.12731259931081801 -0.37815037837987642 0 -0.1202193409875652 -0.37017809234613291 0 -0.10445681479268561 -0.37175299735199402 0 -0.12731259931081801 -0.37815037837987642 0 -0.12703088625481179 -0.37353192569784421 0 -0.1202193409875652 -0.37017809234613291 0 -0.12574689634758279 -0.3650362554026032 0 -0.12703088625481179 -0.37353192569784421 0 -0.1202193409875652 -0.37017809234613291 0 -0.12574689634758279 -0.3650362554026032 0 -0.1202193409875652 -0.37017809234613291 0 -0.116549508231926 -0.3624189048983526 0 -0.12978927336645751 -0.35273066994620572 0 -0.12574689634758279 -0.3650362554026032 0 -0.116549508231926 -0.3624189048983526 0 -0.116549508231926 -0.3624189048983526 0 -0.10445681479268561 -0.37175299735199402 0 -0.1043546792729013 -0.35321865146658771 0 -0.10445681479268561 -0.37175299735199402 0 -0.1043546792729013 -0.35321865146658771 0 -0.092676203453425324 -0.3587216162109409 0 -0.1043546792729013 -0.35321865146658771 0 -0.096371713194957853 -0.34290656444041068 0 -0.083009622468826205 -0.35016436019561342 0 -0.1043546792729013 -0.35321865146658771 0 -0.1083211942956615 -0.33890501749541208 0 -0.096371713194957853 -0.34290656444041068 0 -0.12978927336645751 -0.35273066994620572 0 -0.1043546792729013 -0.35321865146658771 0 -0.1083211942956615 -0.33890501749541208 0 -0.12978927336645751 -0.35273066994620572 0 -0.116549508231926 -0.3624189048983526 0 -0.1043546792729013 -0.35321865146658771 0 -0.12978927336645751 -0.35273066994620572 0 -0.1083211942956615 -0.33890501749541208 0 -0.12752073513736489 -0.33224080380229382 0 -0.1183728229236959 -0.32625549209349369 0 -0.1083211942956615 -0.33890501749541208 0 -0.12752073513736489 -0.33224080380229382 0 -0.12978927336645751 -0.35273066994620572 0 -0.1083211942956615 -0.33890501749541208 0 -0.13478732859181281 -0.30908655472834828 0 -0.11082022190833909 -0.31708295988648388 0 -0.1183728229236959 -0.32625549209349369 0 -0.11082022190833909 -0.31708295988648388 0 -0.1083211942956615 -0.33890501749541208 0 -0.13478732859181281 -0.30908655472834828 0 -0.12621108921675661 -0.32105341454128111 0 -0.11082022190833909 -0.31708295988648388 0 -0.12621108921675661 -0.32105341454128111 0 -0.1183728229236959 -0.32625549209349369 0 -0.11082022190833909 -0.31708295988648388 0 -0.12621108921675661 -0.32105341454128111 0 -0.12752073513736489 -0.33224080380229382 0 -0.1183728229236959 -0.32625549209349369 0 -0.11082022190833909 -0.31708295988648388 0 -0.086853115224865357 -0.3250793650446191 0 -0.11082022190833909 -0.31708295988648388 0 -0.086853115224865357 -0.3250793650446191 0 -0.091026365486778393 -0.30653046617934882 0 -0.11082022190833909 -0.31708295988648388 0 -0.1083211942956615 -0.33890501749541208 0 -0.086853115224865357 -0.3250793650446191 0 -0.1083211942956615 -0.33890501749541208 0 -0.086853115224865357 -0.3250793650446191 0 -0.1083211942956615 -0.33890501749541208 0 -0.096371713194957853 -0.34290656444041068 0 -0.086853115224865357 -0.3250793650446191 0 -0.096371713194957853 -0.34290656444041068 0 -0.086609498105586519 -0.33805253717800521 0 -0.086853115224865357 -0.3250793650446191 0 -0.096371713194957853 -0.34290656444041068 0 -0.086609498105586519 -0.33805253717800521 0 -0.083009622468826205 -0.35016436019561342 0 -0.086609498105586519 -0.33805253717800521 0 -0.08225402606434104 -0.33201580887082932 0 -0.074658016699990087 -0.33761988120731729 0 -0.086609498105586519 -0.33805253717800521 0 -0.08225402606434104 -0.33201580887082932 0 -0.086853115224865357 -0.3250793650446191 0 -0.08225402606434104 -0.33201580887082932 0 -0.079661005129346124 -0.32600010933688039 0 -0.074953244706148503 -0.32865309907241702 0 -0.086609498105586519 -0.33805253717800521 0 -0.074658016699990087 -0.33761988120731729 0 -0.083009622468826205 -0.35016436019561342 0 -0.086853115224865357 -0.3250793650446191 0 -0.07568266178057409 -0.31788548400248218 0 -0.091026365486778393 -0.30653046617934882 0 -0.086853115224865357 -0.3250793650446191 0 -0.079661005129346124 -0.32600010933688039 0 -0.07568266178057409 -0.31788548400248218 0 -0.086853115224865357 -0.3250793650446191 0 -0.07568266178057409 -0.31788548400248218 0 -0.08225402606434104 -0.33201580887082932 0 -0.086853115224865357 -0.3250793650446191 0 -0.079661005129346124 -0.32600010933688039 0 -0.07568266178057409 -0.31788548400248218 0 -0.058001085320626929 -0.33097063082807571 0 -0.07568266178057409 -0.31788548400248218 0 -0.074953244706148503 -0.32865309907241702 0 -0.058001085320626929 -0.33097063082807571 0 -0.071177311977466282 -0.31498399475690653 0 -0.07568266178057409 -0.31788548400248218 0 -0.058001085320626929 -0.33097063082807571 0 -0.071177311977466282 -0.31498399475690653 0 -0.07568266178057409 -0.31788548400248218 0 -0.079184192874685311 -0.30738249380854621 0 -0.071177311977466282 -0.31498399475690653 0 -0.07568266178057409 -0.31788548400248218 0 -0.079661005129346124 -0.32600010933688039 0 -0.07568266178057409 -0.31788548400248218 0 -0.074953244706148503 -0.32865309907241702 0 -0.074658016699990087 -0.33761988120731729 0 -0.074953244706148503 -0.32865309907241702 0 -0.058001085320626929 -0.33097063082807571 0 -0.074658016699990087 -0.33761988120731729 0 -0.061664565664751043 -0.34711006892463903 0 -0.058001085320626929 -0.33097063082807571 0 -0.08225402606434104 -0.33201580887082932 0 -0.074658016699990087 -0.33761988120731729 0 -0.074953244706148503 -0.32865309907241702 0 -0.071255116041136532 -0.35539707018515282 0 -0.083009622468826205 -0.35016436019561342 0 -0.061664565664751043 -0.34711006892463903 0 -0.083009622468826205 -0.35016436019561342 0 -0.061664565664751043 -0.34711006892463903 0 -0.074658016699990087 -0.33761988120731729 0 -0.083009622468826205 -0.35016436019561342 0 -0.061664565664751043 -0.34711006892463903 0 -0.071255116041136532 -0.35539707018515282 0 -0.058745245756417368 -0.35895823529624099 0 -0.061664565664751043 -0.34711006892463903 0 -0.071255116041136532 -0.35539707018515282 0 -0.081601030274551511 -0.3653556163241175 0 -0.058745245756417368 -0.35895823529624099 0 -0.081601030274551511 -0.3653556163241175 0 -0.058745245756417368 -0.35895823529624099 0 -0.06683076037414025 -0.37223170670979222 0 -0.081601030274551511 -0.3653556163241175 0 -0.07629227901192398 -0.38380234867392782 0 -0.06683076037414025 -0.37223170670979222 0 -0.081601030274551511 -0.3653556163241175 0 -0.058745245756417368 -0.35895823529624099 0 -0.10445681479268561 -0.37175299735199402 0 -0.081601030274551511 -0.3653556163241175 0 -0.093433783908985796 -0.37993418280307473 0 -0.10445681479268561 -0.37175299735199402 0 -0.081601030274551511 -0.3653556163241175 0 -0.10445681479268561 -0.37175299735199402 0 -0.081601030274551511 -0.3653556163241175 0 -0.092676203453425324 -0.3587216162109409 0 -0.1043546792729013 -0.35321865146658771 0 -0.092676203453425324 -0.3587216162109409 0 -0.083009622468826205 -0.35016436019561342 0 -0.1043546792729013 -0.35321865146658771 0 -0.083009622468826205 -0.35016436019561342 0 -0.071255116041136532 -0.35539707018515282 0 -0.081601030274551511 -0.3653556163241175 0 -0.083009622468826205 -0.35016436019561342 0 -0.081601030274551511 -0.3653556163241175 0 -0.092676203453425324 -0.3587216162109409 0 -0.083009622468826205 -0.35016436019561342 0 -0.09681974899521055 -0.25229235668335998 0 -0.10742645245257949 -0.26529452768222023 0 -0.1158055047269833 -0.24615486233701511 0 -0.09681974899521055 -0.25229235668335998 0 -0.10742645245257949 -0.26529452768222023 0 -0.083941362524087071 -0.26873007638502028 0 -0.10742645245257949 -0.26529452768222023 0 -0.1158055047269833 -0.24615486233701511 0 -0.12360456238295239 -0.25801993517505117 0 -0.1153301019417515 -0.2659818218084874 0 -0.1177956335395702 -0.247176896203187 0 -0.10742645245257949 -0.26529452768222023 0 -0.1153301019417515 -0.2659818218084874 0 -0.1177956335395702 -0.247176896203187 0 -0.1153301019417515 -0.2659818218084874 0 -0.1177956335395702 -0.247176896203187 0 -0.10742645245257949 -0.26529452768222023 0 -0.1177956335395702 -0.247176896203187 0 -0.1158055047269833 -0.24615486233701511 0 -0.13300922847988161 -0.25498986245784899 0 -0.12360456238295239 -0.25801993517505117 0 -0.1177956335395702 -0.247176896203187 0 -0.12745105800744411 -0.26390907244020551 0 -0.12360456238295239 -0.25801993517505117 0 -0.1153301019417515 -0.2659818218084874 0 -0.1153301019417515 -0.2659818218084874 0 -0.11084599987304811 -0.27175918355376882 0 -0.1151311056054678 -0.27768564531103801 0 -0.10742645245257949 -0.26529452768222023 0 -0.1153301019417515 -0.2659818218084874 0 -0.11084599987304811 -0.27175918355376882 0 -0.12745105800744411 -0.26390907244020551 0 -0.1153301019417515 -0.2659818218084874 0 -0.1243063921770825 -0.27198804626285372 0 -0.1153301019417515 -0.2659818218084874 0 -0.1243063921770825 -0.27198804626285372 0 -0.1151311056054678 -0.27768564531103801 0 -0.1243063921770825 -0.27198804626285372 0 -0.1151311056054678 -0.27768564531103801 0 -0.1221626902126717 -0.2819873119560653 0 -0.10742645245257949 -0.26529452768222023 0 -0.11084599987304811 -0.27175918355376882 0 -0.099047400178174733 -0.28443419302742501 0 -0.11084599987304811 -0.27175918355376882 0 -0.1151311056054678 -0.27768564531103801 0 -0.099047400178174733 -0.28443419302742501 0 -0.10742645245257949 -0.26529452768222023 0 -0.099047400178174733 -0.28443419302742501 0 -0.1151311056054678 -0.27768564531103801 0 -0.099047400178174733 -0.28443419302742501 0 -0.10742645245257949 -0.26529452768222023 0 -0.099047400178174733 -0.28443419302742501 0 -0.083941362524087071 -0.26873007638502028 0 -0.1151311056054678 -0.27768564531103801 0 -0.099047400178174733 -0.28443419302742501 0 -0.1110855781070965 -0.2865983512269577 0 -0.097813066669135418 -0.28725369212036822 0 -0.1063700691929786 -0.29517544835620968 0 -0.091026365486778393 -0.30653046617934882 0 -0.097813066669135418 -0.28725369212036822 0 -0.099047400178174733 -0.28443419302742501 0 -0.1042831695718473 -0.28852381466028859 0 -0.097813066669135418 -0.28725369212036822 0 -0.099047400178174733 -0.28443419302742501 0 -0.1063700691929786 -0.29517544835620968 0 -0.1042831695718473 -0.28852381466028859 0 -0.1110855781070965 -0.2865983512269577 0 -0.097813066669135418 -0.28725369212036822 0 -0.1063700691929786 -0.29517544835620968 0 -0.1042831695718473 -0.28852381466028859 0 -0.099047400178174733 -0.28443419302742501 0 -0.1042831695718473 -0.28852381466028859 0 -0.1110855781070965 -0.2865983512269577 0 -0.13257421819057011 -0.28492401028273812 0 -0.1169256129609467 -0.30704519185296641 0 -0.1151311056054678 -0.27768564531103801 0 -0.1110855781070965 -0.2865983512269577 0 -0.1221626902126717 -0.2819873119560653 0 -0.13257421819057011 -0.28492401028273812 0 -0.11983016797403891 -0.29147211375001703 0 -0.1169256129609467 -0.30704519185296641 0 -0.1110855781070965 -0.2865983512269577 0 -0.1221626902126717 -0.2819873119560653 0 -0.11983016797403891 -0.29147211375001703 0 -0.13257421819057011 -0.28492401028273812 0 -0.1221626902126717 -0.2819873119560653 0 -0.11983016797403891 -0.29147211375001703 0 -0.1110855781070965 -0.2865983512269577 0 -0.11983016797403891 -0.29147211375001703 0 -0.11228121886716699 -0.29713855322775329 0 -0.1063700691929786 -0.29517544835620968 0 -0.1110855781070965 -0.2865983512269577 0 -0.11228121886716699 -0.29713855322775329 0 -0.11983016797403891 -0.29147211375001703 0 -0.11228121886716699 -0.29713855322775329 0 -0.1169256129609467 -0.30704519185296641 0 -0.13478732859181281 -0.30908655472834828 0 -0.11082022190833909 -0.31708295988648388 0 -0.1169256129609467 -0.30704519185296641 0 -0.11228121886716699 -0.29713855322775329 0 -0.1169256129609467 -0.30704519185296641 0 -0.1071946661007742 -0.30540166095261578 0 -0.11082022190833909 -0.31708295988648388 0 -0.1169256129609467 -0.30704519185296641 0 -0.1071946661007742 -0.30540166095261578 0 -0.1063700691929786 -0.29517544835620968 0 -0.1071946661007742 -0.30540166095261578 0 -0.091026365486778393 -0.30653046617934882 0 -0.11082022190833909 -0.31708295988648388 0 -0.1071946661007742 -0.30540166095261578 0 -0.091026365486778393 -0.30653046617934882 0 -0.1063700691929786 -0.29517544835620968 0 -0.11228121886716699 -0.29713855322775329 0 -0.1071946661007742 -0.30540166095261578 0 -0.1063700691929786 -0.29517544835620968 0 -0.091026365486778393 -0.30653046617934882 0 -0.091026365486778393 -0.30653046617934882 0 -0.079184192874685311 -0.30738249380854621 0 -0.075222044552467338 -0.29443105289449711 0 -0.07568266178057409 -0.31788548400248218 0 -0.091026365486778393 -0.30653046617934882 0 -0.079184192874685311 -0.30738249380854621 0 -0.07568266178057409 -0.31788548400248218 0 -0.091026365486778393 -0.30653046617934882 0 -0.075222044552467338 -0.29443105289449711 0 -0.051396688926760623 -0.30442791276157039 0 -0.071177311977466282 -0.31498399475690653 0 -0.075222044552467338 -0.29443105289449711 0 -0.051396688926760623 -0.30442791276157039 0 -0.071177311977466282 -0.31498399475690653 0 -0.079184192874685311 -0.30738249380854621 0 -0.075222044552467338 -0.29443105289449711 0 -0.075222044552467338 -0.29443105289449711 0 -0.065814553524763383 -0.27803782868466648 0 -0.051396688926760623 -0.30442791276157039 0 -0.099047400178174733 -0.28443419302742501 0 -0.075222044552467338 -0.29443105289449711 0 -0.083941362524087071 -0.26873007638502028 0 -0.099047400178174733 -0.28443419302742501 0 -0.075222044552467338 -0.29443105289449711 0 -0.097813066669135418 -0.28725369212036822 0 -0.091026365486778393 -0.30653046617934882 0 -0.075222044552467338 -0.29443105289449711 0 -0.097813066669135418 -0.28725369212036822 0 -0.099047400178174733 -0.28443419302742501 0 -0.075222044552467338 -0.29443105289449711 0 -0.075222044552467338 -0.29443105289449711 0 -0.083941362524087071 -0.26873007638502028 0 -0.065814553524763383 -0.27803782868466648 0 -0.083941362524087071 -0.26873007638502028 0 -0.065814553524763383 -0.27803782868466648 0 -0.061985605076137887 -0.25827780968425201 0 -0.083941362524087071 -0.26873007638502028 0 -0.061985605076137887 -0.25827780968425201 0 -0.081273732889275266 -0.24834276603872149 0 -0.09681974899521055 -0.25229235668335998 0 -0.083941362524087071 -0.26873007638502028 0 -0.081273732889275266 -0.24834276603872149 0 -0.041572738466587093 -0.25922856357412682 0 -0.020248400191203789 -0.25532804206607279 0 -0.047544673664052163 -0.23857510946018851 0 -0.041572738466587093 -0.25922856357412682 0 -0.032806650150975482 -0.27102410124642928 0 -0.020248400191203789 -0.25532804206607279 0 -0.041572738466587093 -0.25922856357412682 0 -0.061985605076137887 -0.25827780968425201 0 -0.047544673664052163 -0.23857510946018851 0 -0.041572738466587093 -0.25922856357412682 0 -0.061985605076137887 -0.25827780968425201 0 -0.047648137906679502 -0.27579971050544078 0 -0.065814553524763383 -0.27803782868466648 0 -0.061985605076137887 -0.25827780968425201 0 -0.047648137906679502 -0.27579971050544078 0 -0.041572738466587093 -0.25922856357412682 0 -0.047648137906679502 -0.27579971050544078 0 -0.032806650150975482 -0.27102410124642928 0 -0.047648137906679502 -0.27579971050544078 0 -0.032806650150975482 -0.27102410124642928 0 -0.034644477901925867 -0.2854207582602904 0 -0.047648137906679502 -0.27579971050544078 0 -0.034644477901925867 -0.2854207582602904 0 -0.051396688926760623 -0.30442791276157039 0 -0.034644477901925867 -0.2854207582602904 0 -0.051396688926760623 -0.30442791276157039 0 -0.023745414794765909 -0.29688410222742723 0 -0.065814553524763383 -0.27803782868466648 0 -0.047648137906679502 -0.27579971050544078 0 -0.051396688926760623 -0.30442791276157039 0 -0.051396688926760623 -0.30442791276157039 0 -0.027571333301051638 -0.31442477262863872 0 -0.051396688926760623 -0.30442791276157039 0 -0.023745414794765909 -0.29688410222742723 0 -0.027571333301051638 -0.31442477262863872 0 -0.023745414794765909 -0.29688410222742723 0 -0.027571333301051638 -0.31442477262863872 0 -0.018883535252547209 -0.31807007811783661 0 -0.023745414794765909 -0.29688410222742723 0 -0.027571333301051638 -0.31442477262863872 0 -0.023745414794765909 -0.29688410222742723 0 -0.0111586100417972 -0.29085337535245642 0 -0.018883535252547209 -0.31807007811783661 0 -0.0067545365319594307 -0.30879114732062579 0 -0.0111586100417972 -0.29085337535245642 0 -0.018883535252547209 -0.31807007811783661 0 -0.0067545365319594307 -0.30879114732062579 0 -0.0111586100417972 -0.29085337535245642 0 0.003323148759076668 -0.3022104613585353 0 -0.0111586100417972 -0.29085337535245642 0 -0.018883535252547209 -0.31807007811783661 0 -0.034644477901925867 -0.2854207582602904 0 -0.023745414794765909 -0.29688410222742723 0 -0.02000125804030296 -0.27932559819772562 0 -0.023745414794765909 -0.29688410222742723 0 -0.02000125804030296 -0.27932559819772562 0 -0.023745414794765909 -0.29688410222742723 0 -0.0111586100417972 -0.29085337535245642 0 -0.02000125804030296 -0.27932559819772562 0 -0.02000125804030296 -0.27932559819772562 0 -0.020248400191203789 -0.25532804206607279 0 -0.02000125804030296 -0.27932559819772562 0 -0.01394704743379436 -0.25196157393351171 0 -0.032806650150975482 -0.27102410124642928 0 -0.02000125804030296 -0.27932559819772562 0 -0.020248400191203789 -0.25532804206607279 0 -0.032806650150975482 -0.27102410124642928 0 -0.034644477901925867 -0.2854207582602904 0 -0.02000125804030296 -0.27932559819772562 0 -0.0111586100417972 -0.29085337535245642 0 -0.0034336848310450759 -0.26363667258707679 0 0.012301823433282221 -0.28445531933498941 0 -0.0111586100417972 -0.29085337535245642 0 -0.02000125804030296 -0.27932559819772562 0 -0.0034336848310450759 -0.26363667258707679 0 -0.0111586100417972 -0.29085337535245642 0 -0.0034336848310450759 -0.26363667258707679 0 -0.02000125804030296 -0.27932559819772562 0 -0.01394704743379436 -0.25196157393351171 0 -0.0034336848310450759 -0.26363667258707679 0 -0.01394704743379436 -0.25196157393351171 0 -0.0034336848310450759 -0.26363667258707679 0 0.0042912403797070262 -0.2364199698216973 0 -0.02000125804030296 -0.27932559819772562 0 -0.01394704743379436 -0.25196157393351171 0 -0.020248400191203789 -0.25532804206607279 0 -0.040319508860675958 -0.34405577765366391 0 -0.035889461238286118 -0.35256085426835421 0 -0.04915469538003181 -0.35067123403572698 0 -0.034907883452695639 -0.34806061925751541 0 -0.035889461238286118 -0.35256085426835421 0 -0.034907883452695639 -0.34806061925751541 0 -0.033831876232445497 -0.34312745406626188 0 -0.030765028221893059 -0.35112651494250308 0 -0.040319508860675958 -0.34405577765366391 0 -0.034907883452695639 -0.34806061925751541 0 -0.035889461238286118 -0.35256085426835421 0 -0.040319508860675958 -0.34405577765366391 0 -0.034907883452695639 -0.34806061925751541 0 -0.033831876232445497 -0.34312745406626188 0 -0.040319508860675958 -0.34405577765366391 0 -0.034907883452695639 -0.34806061925751541 0 -0.034907883452695639 -0.34806061925751541 0 -0.033831876232445497 -0.34312745406626188 0 -0.034907883452695639 -0.34806061925751541 0 -0.030765028221893059 -0.35112651494250308 0 -0.034907883452695639 -0.34806061925751541 0 -0.035889461238286118 -0.35256085426835421 0 -0.030765028221893059 -0.35112651494250308 0 -0.035889461238286118 -0.35256085426835421 0 -0.030765028221893059 -0.35112651494250308 0 -0.035889461238286118 -0.35256085426835421 0 -0.030765028221893059 -0.35112651494250308 0 -0.02916404981963797 -0.36465575649723009 0 -0.035889461238286118 -0.35256085426835421 0 -0.02916404981963797 -0.36465575649723009 0 -0.041723054893971143 -0.3793061033896894 0 -0.048114528341656623 -0.36026265743910912 0 -0.041723054893971143 -0.3793061033896894 0 -0.035889461238286118 -0.35256085426835421 0 -0.048114528341656623 -0.36026265743910912 0 -0.041723054893971143 -0.3793061033896894 0 -0.035889461238286118 -0.35256085426835421 0 -0.041723054893971143 -0.3793061033896894 0 -0.02916404981963797 -0.36465575649723009 0 -0.02299046663820915 -0.37708661041322122 0 -0.041723054893971143 -0.3793061033896894 0 -0.048114528341656623 -0.36026265743910912 0 -0.054894417169568388 -0.37230984417605001 0 -0.041723054893971143 -0.3793061033896894 0 -0.048114528341656623 -0.36026265743910912 0 -0.054894417169568388 -0.37230984417605001 0 -0.058745245756417368 -0.35895823529624099 0 -0.06683076037414025 -0.37223170670979222 0 -0.054894417169568388 -0.37230984417605001 0 -0.058745245756417368 -0.35895823529624099 0 -0.058745245756417368 -0.35895823529624099 0 -0.04915469538003181 -0.35067123403572698 0 -0.061664565664751043 -0.34711006892463903 0 -0.035889461238286118 -0.35256085426835421 0 -0.058745245756417368 -0.35895823529624099 0 -0.035889461238286118 -0.35256085426835421 0 -0.048114528341656623 -0.36026265743910912 0 -0.058745245756417368 -0.35895823529624099 0 -0.040319508860675958 -0.34405577765366391 0 -0.061664565664751043 -0.34711006892463903 0 -0.040319508860675958 -0.34405577765366391 0 -0.04915469538003181 -0.35067123403572698 0 -0.061664565664751043 -0.34711006892463903 0 -0.035889461238286118 -0.35256085426835421 0 -0.058745245756417368 -0.35895823529624099 0 -0.04915469538003181 -0.35067123403572698 0 -0.040319508860675958 -0.34405577765366391 0 -0.061664565664751043 -0.34711006892463903 0 -0.058001085320626929 -0.33097063082807571 0 -0.040319508860675958 -0.34405577765366391 0 -0.058001085320626929 -0.33097063082807571 0 -0.058001085320626929 -0.33097063082807571 0 -0.055011098357084259 -0.31931156667285798 0 -0.039469307203483232 -0.32686372834487931 0 -0.051396688926760623 -0.30442791276157039 0 -0.055011098357084259 -0.31931156667285798 0 -0.039469307203483232 -0.32686372834487931 0 -0.071177311977466282 -0.31498399475690653 0 -0.058001085320626929 -0.33097063082807571 0 -0.055011098357084259 -0.31931156667285798 0 -0.071177311977466282 -0.31498399475690653 0 -0.051396688926760623 -0.30442791276157039 0 -0.055011098357084259 -0.31931156667285798 0 -0.051396688926760623 -0.30442791276157039 0 -0.039469307203483232 -0.32686372834487931 0 -0.027571333301051638 -0.31442477262863872 0 -0.040319508860675958 -0.34405577765366391 0 -0.058001085320626929 -0.33097063082807571 0 -0.039469307203483232 -0.32686372834487931 0 -0.039469307203483232 -0.32686372834487931 0 -0.033831876232445497 -0.34312745406626188 0 -0.027571333301051638 -0.31442477262863872 0 -0.040319508860675958 -0.34405577765366391 0 -0.039469307203483232 -0.32686372834487931 0 -0.033831876232445497 -0.34312745406626188 0 -0.040319508860675958 -0.34405577765366391 0 -0.033831876232445497 -0.34312745406626188 0 -0.033831876232445497 -0.34312745406626188 0 -0.0164178869995209 -0.33526179740717582 0 -0.008920340904456675 -0.3395628308564359 0 -0.033831876232445497 -0.34312745406626188 0 -0.022040231955932899 -0.33322819604217002 0 -0.023392444229599609 -0.32638111119723162 0 -0.033831876232445497 -0.34312745406626188 0 -0.027571333301051638 -0.31442477262863872 0 -0.033831876232445497 -0.34312745406626188 0 -0.022040231955932899 -0.33322819604217002 0 -0.0164178869995209 -0.33526179740717582 0 -0.033831876232445497 -0.34312745406626188 0 -0.008920340904456675 -0.3395628308564359 0 -0.022040231955932899 -0.33322819604217002 0 -0.016032148567680531 -0.3287750353085237 0 -0.023392444229599609 -0.32638111119723162 0 -0.022040231955932899 -0.33322819604217002 0 -0.016032148567680531 -0.3287750353085237 0 -0.0164178869995209 -0.33526179740717582 0 -0.033831876232445497 -0.34312745406626188 0 -0.027571333301051638 -0.31442477262863872 0 -0.023392444229599609 -0.32638111119723162 0 -0.027571333301051638 -0.31442477262863872 0 -0.023392444229599609 -0.32638111119723162 0 -0.01937014742273559 -0.31978452562854348 0 -0.016032148567680531 -0.3287750353085237 0 -0.023392444229599609 -0.32638111119723162 0 -0.01695512845568909 -0.32428673993316709 0 -0.023392444229599609 -0.32638111119723162 0 -0.01695512845568909 -0.32428673993316709 0 -0.01937014742273559 -0.31978452562854348 0 -0.01937014742273559 -0.31978452562854348 0 -0.018883535252547209 -0.31807007811783661 0 -0.0090257736027406291 -0.32220628759836972 0 -0.027571333301051638 -0.31442477262863872 0 -0.01937014742273559 -0.31978452562854348 0 -0.018883535252547209 -0.31807007811783661 0 -0.027571333301051638 -0.31442477262863872 0 -0.018883535252547209 -0.31807007811783661 0 -0.01937014742273559 -0.31978452562854348 0 -0.018883535252547209 -0.31807007811783661 0 -0.0067545365319594307 -0.30879114732062579 0 -0.018883535252547209 -0.31807007811783661 0 -0.0090257736027406291 -0.32220628759836972 0 -0.018883535252547209 -0.31807007811783661 0 -0.0090257736027406291 -0.32220628759836972 0 -0.016032148567680531 -0.3287750353085237 0 -0.01695512845568909 -0.32428673993316709 0 -0.0090257736027406291 -0.32220628759836972 0 -0.016032148567680531 -0.3287750353085237 0 -0.0090257736027406291 -0.32220628759836972 0 -0.0075933607006537247 -0.330918097490561 0 -0.01695512845568909 -0.32428673993316709 0 -0.01937014742273559 -0.31978452562854348 0 -0.0090257736027406291 -0.32220628759836972 0 -0.0090257736027406291 -0.32220628759836972 0 0.002036169775394434 -0.33074387099242142 0 0.0036753886295589318 -0.31760360145895911 0 -0.0090257736027406291 -0.32220628759836972 0 -0.0075933607006537247 -0.330918097490561 0 0.002036169775394434 -0.33074387099242142 0 -0.0067545365319594307 -0.30879114732062579 0 -0.0090257736027406291 -0.32220628759836972 0 0.0036753886295589318 -0.31760360145895911 0 -0.0164178869995209 -0.33526179740717582 0 -0.008920340904456675 -0.3395628308564359 0 -0.0075933607006537247 -0.330918097490561 0 -0.016032148567680531 -0.3287750353085237 0 -0.0164178869995209 -0.33526179740717582 0 -0.0075933607006537247 -0.330918097490561 0 -0.008920340904456675 -0.3395628308564359 0 -0.0075933607006537247 -0.330918097490561 0 0.002036169775394434 -0.33074387099242142 0 -0.008920340904456675 -0.3395628308564359 0 -0.0032626783328855158 -0.34342855072419909 0 0.002036169775394434 -0.33074387099242142 0 -0.008920340904456675 -0.3395628308564359 0 -0.0032626783328855158 -0.34342855072419909 0 -0.030765028221893059 -0.35112651494250308 0 -0.0032626783328855158 -0.34342855072419909 0 -0.0042055800094244816 -0.35594650712409043 0 -0.030765028221893059 -0.35112651494250308 0 -0.0032626783328855158 -0.34342855072419909 0 -0.030765028221893059 -0.35112651494250308 0 -0.030765028221893059 -0.35112651494250308 0 -0.014452238105836689 -0.36319869947236821 0 -0.0042055800094244816 -0.35594650712409043 0 -0.030765028221893059 -0.35112651494250308 0 -0.014452238105836689 -0.36319869947236821 0 -0.033831876232445497 -0.34312745406626188 0 -0.008920340904456675 -0.3395628308564359 0 -0.030765028221893059 -0.35112651494250308 0 -0.030765028221893059 -0.35112651494250308 0 -0.02916404981963797 -0.36465575649723009 0 -0.014452238105836689 -0.36319869947236821 0 -0.02916404981963797 -0.36465575649723009 0 -0.014452238105836689 -0.36319869947236821 0 -0.02299046663820915 -0.37708661041322122 0 -0.014452238105836689 -0.36319869947236821 0 -0.00049818021965669299 -0.36793998380101861 0 -0.0091625555842868977 -0.37864897017850219 0 -0.014452238105836689 -0.36319869947236821 0 -0.0091625555842868977 -0.37864897017850219 0 -0.02299046663820915 -0.37708661041322122 0 -0.0042055800094244816 -0.35594650712409043 0 -0.014452238105836689 -0.36319869947236821 0 -0.00049818021965669299 -0.36793998380101861 0 -0.00049818021965669299 -0.36793998380101861 0 -0.0091625555842868977 -0.37864897017850219 0 0.0063160394866382131 -0.39658058355250198 0 -0.014187932444370161 -0.38843897365340102 0 -0.0091625555842868977 -0.37864897017850219 0 0.0063160394866382131 -0.39658058355250198 0 -0.014187932444370161 -0.38843897365340102 0 -0.0091625555842868977 -0.37864897017850219 0 -0.02299046663820915 -0.37708661041322122 0 -0.014187932444370161 -0.38843897365340102 0 -0.010997450813427481 -0.40058352836793287 0 0.0063160394866382131 -0.39658058355250198 0 -0.010997450813427481 -0.40058352836793287 0 -0.0069005692177502602 -0.41485602653172571 0 0.0063160394866382131 -0.39658058355250198 0 -0.014187932444370161 -0.38843897365340102 0 -0.010997450813427481 -0.40058352836793287 0 -0.033621455661523907 -0.40344488271175161 0 -0.014187932444370161 -0.38843897365340102 0 -0.02299046663820915 -0.37708661041322122 0 -0.033621455661523907 -0.40344488271175161 0 -0.02299046663820915 -0.37708661041322122 0 -0.041723054893971143 -0.3793061033896894 0 -0.033621455661523907 -0.40344488271175161 0 -0.041723054893971143 -0.3793061033896894 0 -0.045501965724792218 -0.3966312579245182 0 -0.041723054893971143 -0.3793061033896894 0 -0.045501965724792218 -0.3966312579245182 0 -0.052921398555225208 -0.38465876514529279 0 -0.041723054893971143 -0.3793061033896894 0 -0.033621455661523907 -0.40344488271175161 0 -0.041723054893971143 -0.3793061033896894 0 -0.033621455661523907 -0.40344488271175161 0 -0.045501965724792218 -0.3966312579245182 0 -0.033621455661523907 -0.40344488271175161 0 -0.045501965724792218 -0.3966312579245182 0 -0.049280876555615659 -0.4139564124593465 0 -0.045501965724792218 -0.3966312579245182 0 -0.059758784724302252 -0.40642168719310068 0 -0.049280876555615659 -0.4139564124593465 0 -0.045501965724792218 -0.3966312579245182 0 -0.049280876555615659 -0.4139564124593465 0 -0.045501965724792218 -0.3966312579245182 0 -0.059866725329556648 -0.39431413115758179 0 -0.052921398555225208 -0.38465876514529279 0 -0.045501965724792218 -0.3966312579245182 0 -0.059866725329556648 -0.39431413115758179 0 -0.059758784724302252 -0.40642168719310068 0 -0.059866725329556648 -0.39431413115758179 0 -0.052921398555225208 -0.38465876514529279 0 -0.062620829658239993 -0.38073248907862461 0 -0.054894417169568388 -0.37230984417605001 0 -0.052921398555225208 -0.38465876514529279 0 -0.062620829658239993 -0.38073248907862461 0 -0.06683076037414025 -0.37223170670979222 0 -0.054894417169568388 -0.37230984417605001 0 -0.062620829658239993 -0.38073248907862461 0 -0.054894417169568388 -0.37230984417605001 0 -0.041723054893971143 -0.3793061033896894 0 -0.052921398555225208 -0.38465876514529279 0 -0.05583106242747779 -0.42715365531609761 0 -0.050837327835113577 -0.44104489701053962 0 -0.068083297190238576 -0.43666111615527647 0 -0.05583106242747779 -0.42715365531609761 0 -0.049280876555615659 -0.4139564124593465 0 -0.041798958374846588 -0.4272503188121069 0 -0.05583106242747779 -0.42715365531609761 0 -0.041798958374846588 -0.4272503188121069 0 -0.050837327835113577 -0.44104489701053962 0 -0.059758784724302252 -0.40642168719310068 0 -0.049280876555615659 -0.4139564124593465 0 -0.067569164098457743 -0.4172573341241147 0 -0.05583106242747779 -0.42715365531609761 0 -0.049280876555615659 -0.4139564124593465 0 -0.067569164098457743 -0.4172573341241147 0 -0.033621455661523907 -0.40344488271175161 0 -0.049280876555615659 -0.4139564124593465 0 -0.041798958374846588 -0.4272503188121069 0 -0.033621455661523907 -0.40344488271175161 0 -0.041798958374846588 -0.4272503188121069 0 -0.025519856429074041 -0.42758366203381282 0 -0.041798958374846588 -0.4272503188121069 0 -0.025519856429074041 -0.42758366203381282 0 -0.037800118792926121 -0.4511204530918852 0 -0.033621455661523907 -0.40344488271175161 0 -0.025519856429074041 -0.42758366203381282 0 -0.0069005692177502602 -0.41485602653172571 0 -0.010997450813427481 -0.40058352836793287 0 -0.033621455661523907 -0.40344488271175161 0 -0.0069005692177502602 -0.41485602653172571 0 -0.033621455661523907 -0.40344488271175161 0 -0.025519856429074041 -0.42758366203381282 0 -0.025519856429074041 -0.42758366203381282 0 -0.0032746580085849359 -0.4322889095963432 0 -0.017418257196624171 -0.45172244135587403 0 -0.025519856429074041 -0.42758366203381282 0 -0.0069005692177502602 -0.41485602653172571 0 -0.0032746580085849359 -0.4322889095963432 0 -0.0032746580085849359 -0.4322889095963432 0 -0.017418257196624171 -0.45172244135587403 0 0.001716639485354166 -0.44953294239826891 0 -0.017418257196624171 -0.45172244135587403 0 0.001716639485354166 -0.44953294239826891 0 0.0037264172664160612 -0.46476221296183129 0 -0.017418257196624171 -0.45172244135587403 0 -0.0093166579641743019 -0.47586122067793529 0 0.0037264172664160612 -0.46476221296183129 0 -0.017418257196624171 -0.45172244135587403 0 -0.0093166579641743019 -0.47586122067793529 0 -0.017418257196624171 -0.45172244135587403 0 -0.034765769956175759 -0.47661528403520143 0 -0.037800118792926121 -0.4511204530918852 0 -0.017418257196624171 -0.45172244135587403 0 -0.0093166579641743019 -0.47586122067793529 0 -0.034765769956175759 -0.47661528403520143 0 -0.025519856429074041 -0.42758366203381282 0 -0.017418257196624171 -0.45172244135587403 0 -0.037800118792926121 -0.4511204530918852 0 -0.025519856429074041 -0.42758366203381282 0 -0.017418257196624171 -0.45172244135587403 0 -0.0012150587317253359 -0.49999999999999689 0 -0.0093166579641743019 -0.47586122067793529 0 -0.02955374283658058 -0.5 0 -0.0012150587317253359 -0.49999999999999689 0 -0.0093166579641743019 -0.47586122067793529 0 -0.0093166579641743019 -0.47586122067793529 0 -0.02955374283658058 -0.5 0 -0.034765769956175759 -0.47661528403520143 0 -0.02955374283658058 -0.5 0 -0.034765769956175759 -0.47661528403520143 0 -0.057892426941435933 -0.5 0 -0.034765769956175759 -0.47661528403520143 0 -0.060493098404131813 -0.48128096473191367 0 -0.046527643832088281 -0.46730596501106741 0 -0.034765769956175759 -0.47661528403520143 0 -0.060493098404131813 -0.48128096473191367 0 -0.057892426941435933 -0.5 0 -0.041798958374846588 -0.4272503188121069 0 -0.037800118792926121 -0.4511204530918852 0 -0.050837327835113577 -0.44104489701053962 0 -0.034765769956175759 -0.47661528403520143 0 -0.037800118792926121 -0.4511204530918852 0 -0.046527643832088281 -0.46730596501106741 0 -0.037800118792926121 -0.4511204530918852 0 -0.046527643832088281 -0.46730596501106741 0 -0.060107654401864129 -0.45714707297643609 0 -0.060493098404131813 -0.48128096473191367 0 -0.046527643832088281 -0.46730596501106741 0 -0.060107654401864129 -0.45714707297643609 0 -0.037800118792926121 -0.4511204530918852 0 -0.060107654401864129 -0.45714707297643609 0 -0.050837327835113577 -0.44104489701053962 0 -0.060107654401864129 -0.45714707297643609 0 -0.050837327835113577 -0.44104489701053962 0 -0.068083297190238576 -0.43666111615527647 0 -0.076215960986966091 -0.45064351749524267 0 -0.085238693344377295 -0.43919349547655318 0 -0.068083297190238576 -0.43666111615527647 0 -0.060107654401864129 -0.45714707297643609 0 -0.076215960986966091 -0.45064351749524267 0 -0.068083297190238576 -0.43666111615527647 0 -0.060107654401864129 -0.45714707297643609 0 -0.076215960986966091 -0.45064351749524267 0 -0.080796133771584483 -0.47197259733912739 0 -0.076215960986966091 -0.45064351749524267 0 -0.090455867387084138 -0.45492837382284063 0 -0.080796133771584483 -0.47197259733912739 0 -0.090455867387084138 -0.45492837382284063 0 -0.080796133771584483 -0.47197259733912739 0 -0.10136153491973419 -0.46615706817959068 0 -0.076215960986966091 -0.45064351749524267 0 -0.090455867387084138 -0.45492837382284063 0 -0.085238693344377295 -0.43919349547655318 0 -0.090455867387084138 -0.45492837382284063 0 -0.085238693344377295 -0.43919349547655318 0 -0.098675274990616915 -0.44122073313743448 0 -0.060493098404131813 -0.48128096473191367 0 -0.080796133771584483 -0.47197259733912739 0 -0.086231111046291165 -0.5 0 -0.060493098404131813 -0.48128096473191367 0 -0.057892426941435933 -0.5 0 -0.086231111046291165 -0.5 0 -0.060493098404131813 -0.48128096473191367 0 -0.060107654401864129 -0.45714707297643609 0 -0.080796133771584483 -0.47197259733912739 0 -0.080796133771584483 -0.47197259733912739 0 -0.098514161029900488 -0.48342727467041952 0 -0.10136153491973419 -0.46615706817959068 0 -0.080796133771584483 -0.47197259733912739 0 -0.086231111046291165 -0.5 0 -0.098514161029900488 -0.48342727467041952 0 -0.086231111046291165 -0.5 0 -0.098514161029900488 -0.48342727467041952 0 -0.1145697951511464 -0.5 0 -0.098514161029900488 -0.48342727467041952 0 -0.1155548340309195 -0.47643349291920761 0 -0.10136153491973419 -0.46615706817959068 0 -0.098514161029900488 -0.48342727467041952 0 -0.1155548340309195 -0.47643349291920761 0 -0.1145697951511464 -0.5 0 -0.133932716092861 -0.48326153465856359 0 -0.1155548340309195 -0.47643349291920761 0 -0.1145697951511464 -0.5 0 -0.1058990074454743 -0.45050349201487738 0 -0.098675274990616915 -0.44122073313743448 0 -0.107966846099008 -0.43675202388278311 0 -0.090455867387084138 -0.45492837382284063 0 -0.1058990074454743 -0.45050349201487738 0 -0.098675274990616915 -0.44122073313743448 0 -0.1058990074454743 -0.45050349201487738 0 -0.10136153491973419 -0.46615706817959068 0 -0.1157377828646399 -0.46025984876472881 0 -0.090455867387084138 -0.45492837382284063 0 -0.1058990074454743 -0.45050349201487738 0 -0.10136153491973419 -0.46615706817959068 0 -0.13045105657935471 -0.46495914480149059 0 -0.1155548340309195 -0.47643349291920761 0 -0.1157377828646399 -0.46025984876472881 0 -0.1155548340309195 -0.47643349291920761 0 -0.10136153491973419 -0.46615706817959068 0 -0.1157377828646399 -0.46025984876472881 0 -0.13045105657935471 -0.46495914480149059 0 -0.1157377828646399 -0.46025984876472881 0 -0.1211967384117625 -0.44370290430188669 0 -0.1058990074454743 -0.45050349201487738 0 -0.1157377828646399 -0.46025984876472881 0 -0.1211967384117625 -0.44370290430188669 0 -0.1058990074454743 -0.45050349201487738 0 -0.1211967384117625 -0.44370290430188669 0 -0.107966846099008 -0.43675202388278311 0 -0.13021254006614369 -0.42569250990204588 0 -0.1211967384117625 -0.44370290430188669 0 -0.1119424202441703 -0.4224466638022828 0 -0.1211967384117625 -0.44370290430188669 0 -0.1119424202441703 -0.4224466638022828 0 -0.107966846099008 -0.43675202388278311 0 -0.1211967384117625 -0.44370290430188669 0 -0.1119424202441703 -0.4224466638022828 0 -0.1119424202441703 -0.4224466638022828 0 -0.107966846099008 -0.43675202388278311 0 -0.096703381333705485 -0.4261020298886522 0 -0.098675274990616915 -0.44122073313743448 0 -0.107966846099008 -0.43675202388278311 0 -0.096703381333705485 -0.4261020298886522 0 -0.096703381333705485 -0.4261020298886522 0 -0.10268810207657809 -0.40119042330267879 0 -0.085311023742514341 -0.4102908943412984 0 -0.1119424202441703 -0.4224466638022828 0 -0.10268810207657809 -0.40119042330267879 0 -0.1119424202441703 -0.4224466638022828 0 -0.096703381333705485 -0.4261020298886522 0 -0.10268810207657809 -0.40119042330267879 0 -0.13021254006614369 -0.42569250990204588 0 -0.1119424202441703 -0.4224466638022828 0 -0.12164930739674711 -0.41331108322626531 0 -0.1119424202441703 -0.4224466638022828 0 -0.1156796995882033 -0.40318371505977069 0 -0.10268810207657809 -0.40119042330267879 0 -0.1119424202441703 -0.4224466638022828 0 -0.12164930739674711 -0.41331108322626531 0 -0.1156796995882033 -0.40318371505977069 0 -0.12876256968847141 -0.40192144414096181 0 -0.12164930739674711 -0.41331108322626531 0 -0.1156796995882033 -0.40318371505977069 0 -0.12876256968847141 -0.40192144414096181 0 -0.1156796995882033 -0.40318371505977069 0 -0.120538249786524 -0.39049335028714738 0 -0.1156796995882033 -0.40318371505977069 0 -0.120538249786524 -0.39049335028714738 0 -0.10698558987010361 -0.38667678426898439 0 -0.12731259931081801 -0.37815037837987642 0 -0.120538249786524 -0.39049335028714738 0 -0.10698558987010361 -0.38667678426898439 0 -0.12731259931081801 -0.37815037837987642 0 -0.10445681479268561 -0.37175299735199402 0 -0.10698558987010361 -0.38667678426898439 0 -0.10698558987010361 -0.38667678426898439 0 -0.10268810207657809 -0.40119042330267879 0 -0.093433783908985796 -0.37993418280307473 0 -0.10268810207657809 -0.40119042330267879 0 -0.093433783908985796 -0.37993418280307473 0 -0.10445681479268561 -0.37175299735199402 0 -0.10698558987010361 -0.38667678426898439 0 -0.093433783908985796 -0.37993418280307473 0 -0.10268810207657809 -0.40119042330267879 0 -0.086332130246573616 -0.39503035759251959 0 -0.093433783908985796 -0.37993418280307473 0 -0.1156796995882033 -0.40318371505977069 0 -0.10698558987010361 -0.38667678426898439 0 -0.10268810207657809 -0.40119042330267879 0 -0.10268810207657809 -0.40119042330267879 0 -0.086332130246573616 -0.39503035759251959 0 -0.085311023742514341 -0.4102908943412984 0 -0.086332130246573616 -0.39503035759251959 0 -0.07629227901192398 -0.38380234867392782 0 -0.073565648989695656 -0.40111059421273593 0 -0.086332130246573616 -0.39503035759251959 0 -0.073565648989695656 -0.40111059421273593 0 -0.085311023742514341 -0.4102908943412984 0 -0.081601030274551511 -0.3653556163241175 0 -0.093433783908985796 -0.37993418280307473 0 -0.07629227901192398 -0.38380234867392782 0 -0.086332130246573616 -0.39503035759251959 0 -0.093433783908985796 -0.37993418280307473 0 -0.07629227901192398 -0.38380234867392782 0 -0.059866725329556648 -0.39431413115758179 0 -0.07629227901192398 -0.38380234867392782 0 -0.062620829658239993 -0.38073248907862461 0 -0.06683076037414025 -0.37223170670979222 0 -0.07629227901192398 -0.38380234867392782 0 -0.062620829658239993 -0.38073248907862461 0 -0.059866725329556648 -0.39431413115758179 0 -0.07629227901192398 -0.38380234867392782 0 -0.073565648989695656 -0.40111059421273593 0 -0.059866725329556648 -0.39431413115758179 0 -0.059758784724302252 -0.40642168719310068 0 -0.073565648989695656 -0.40111059421273593 0 -0.073565648989695656 -0.40111059421273593 0 -0.067569164098457743 -0.4172573341241147 0 -0.085311023742514341 -0.4102908943412984 0 -0.067569164098457743 -0.4172573341241147 0 -0.081298378177652661 -0.42560520235987298 0 -0.085311023742514341 -0.4102908943412984 0 -0.059758784724302252 -0.40642168719310068 0 -0.073565648989695656 -0.40111059421273593 0 -0.067569164098457743 -0.4172573341241147 0 -0.05583106242747779 -0.42715365531609761 0 -0.067569164098457743 -0.4172573341241147 0 -0.068083297190238576 -0.43666111615527647 0 -0.067569164098457743 -0.4172573341241147 0 -0.068083297190238576 -0.43666111615527647 0 -0.081298378177652661 -0.42560520235987298 0 -0.085238693344377295 -0.43919349547655318 0 -0.068083297190238576 -0.43666111615527647 0 -0.081298378177652661 -0.42560520235987298 0 -0.085238693344377295 -0.43919349547655318 0 -0.096703381333705485 -0.4261020298886522 0 -0.081298378177652661 -0.42560520235987298 0 -0.085238693344377295 -0.43919349547655318 0 -0.098675274990616915 -0.44122073313743448 0 -0.096703381333705485 -0.4261020298886522 0 -0.096703381333705485 -0.4261020298886522 0 -0.081298378177652661 -0.42560520235987298 0 -0.085311023742514341 -0.4102908943412984 0 -0.08022384646223743 -0.079727022664896202 0 -0.086695441452537825 -0.087321243365971524 0 -0.078006122601487177 -0.087211504938541518 0 -0.086695441452537825 -0.087321243365971524 0 -0.078006122601487177 -0.087211504938541518 0 -0.087397441684577692 -0.096311032880035341 0 -0.078006122601487177 -0.087211504938541518 0 -0.087397441684577692 -0.096311032880035341 0 -0.086695441452537825 -0.087321243365971524 0 -0.092459937136554121 -0.092441504054700488 0 -0.095389859377833564 -0.080915152291685 0 -0.086695441452537825 -0.087321243365971524 0 -0.092459937136554121 -0.092441504054700488 0 -0.087397441684577692 -0.096311032880035341 0 -0.08022384646223743 -0.079727022664896202 0 -0.095389859377833564 -0.080915152291685 0 -0.08022384646223743 -0.079727022664896202 0 -0.086695441452537825 -0.087321243365971524 0 -0.095389859377833564 -0.080915152291685 0 -0.08022384646223743 -0.079727022664896202 0 -0.091867377641549688 -0.079219400773716003 0 -0.095389859377833564 -0.080915152291685 0 -0.091867377641549688 -0.079219400773716003 0 -0.072359825900047942 -0.069365106554348743 0 -0.075457530542314896 -0.057871142663091658 0 -0.091867377641549688 -0.079219400773716003 0 -0.1015946592339077 -0.056505389891616929 0 -0.075457530542314896 -0.057871142663091658 0 -0.08022384646223743 -0.079727022664896202 0 -0.091867377641549688 -0.079219400773716003 0 -0.072359825900047942 -0.069365106554348743 0 -0.091867377641549688 -0.079219400773716003 0 -0.075457530542314896 -0.057871142663091658 0 -0.08022384646223743 -0.079727022664896202 0 -0.072359825900047942 -0.069365106554348743 0 -0.065057833546641311 -0.078538893038107224 0 -0.072359825900047942 -0.069365106554348743 0 -0.065057833546641311 -0.078538893038107224 0 -0.050802705429170578 -0.063132108385647548 0 -0.065057833546641311 -0.078538893038107224 0 -0.061101095670847552 -0.078228915885784067 0 -0.065057833546641311 -0.078538893038107224 0 -0.061741925896660547 -0.086355150006989442 0 -0.061101095670847552 -0.078228915885784067 0 -0.065057833546641311 -0.078538893038107224 0 -0.068213312430608464 -0.093337823940471937 0 -0.083943905421851067 -0.098950750435282717 0 -0.065057833546641311 -0.078538893038107224 0 -0.083943905421851067 -0.098950750435282717 0 -0.065057833546641311 -0.078538893038107224 0 -0.078006122601487177 -0.087211504938541518 0 -0.083943905421851067 -0.098950750435282717 0 -0.08022384646223743 -0.079727022664896202 0 -0.065057833546641311 -0.078538893038107224 0 -0.078006122601487177 -0.087211504938541518 0 -0.08022384646223743 -0.079727022664896202 0 -0.065057833546641311 -0.078538893038107224 0 -0.065057833546641311 -0.078538893038107224 0 -0.068213312430608464 -0.093337823940471937 0 -0.061741925896660547 -0.086355150006989442 0 -0.068213312430608464 -0.093337823940471937 0 -0.076890731114810873 -0.10434185874344649 0 -0.083943905421851067 -0.098950750435282717 0 -0.068213312430608464 -0.093337823940471937 0 -0.076890731114810873 -0.10434185874344649 0 -0.052718805281362018 -0.098506325735302672 0 -0.076890731114810873 -0.10434185874344649 0 -0.071379747459641138 -0.11863154175452389 0 -0.052718805281362018 -0.098506325735302672 0 -0.076890731114810873 -0.10434185874344649 0 -0.071379747459641138 -0.11863154175452389 0 -0.081966948794362365 -0.11108357418331739 0 -0.085292600219598155 -0.1206378996262356 0 -0.09067025045118722 -0.099482154482383456 0 -0.085292600219598155 -0.1206378996262356 0 -0.081966948794362365 -0.11108357418331739 0 -0.088757362288191421 -0.10415308132718749 0 -0.071379747459641138 -0.11863154175452389 0 -0.085292600219598155 -0.1206378996262356 0 -0.081966948794362365 -0.11108357418331739 0 -0.085292600219598155 -0.1206378996262356 0 -0.088757362288191421 -0.10415308132718749 0 -0.09067025045118722 -0.099482154482383456 0 -0.078006122601487177 -0.087211504938541518 0 -0.083943905421851067 -0.098950750435282717 0 -0.087397441684577692 -0.096311032880035341 0 -0.083943905421851067 -0.098950750435282717 0 -0.087397441684577692 -0.096311032880035341 0 -0.076890731114810873 -0.10434185874344649 0 -0.083943905421851067 -0.098950750435282717 0 -0.082889736904803946 -0.1046323161723086 0 -0.076890731114810873 -0.10434185874344649 0 -0.083943905421851067 -0.098950750435282717 0 -0.076890731114810873 -0.10434185874344649 0 -0.081966948794362365 -0.11108357418331739 0 -0.082889736904803946 -0.1046323161723086 0 -0.081966948794362365 -0.11108357418331739 0 -0.082889736904803946 -0.1046323161723086 0 -0.088757362288191421 -0.10415308132718749 0 -0.083943905421851067 -0.098950750435282717 0 -0.082889736904803946 -0.1046323161723086 0 -0.088757362288191421 -0.10415308132718749 0 -0.083943905421851067 -0.098950750435282717 0 -0.088757362288191421 -0.10415308132718749 0 -0.09067025045118722 -0.099482154482383456 0 -0.083943905421851067 -0.098950750435282717 0 -0.088757362288191421 -0.10415308132718749 0 -0.083943905421851067 -0.098950750435282717 0 -0.09067025045118722 -0.099482154482383456 0 -0.087397441684577692 -0.096311032880035341 0 -0.09067025045118722 -0.099482154482383456 0 -0.087397441684577692 -0.096311032880035341 0 -0.092459937136554121 -0.092441504054700488 0 -0.09067025045118722 -0.099482154482383456 0 -0.093470254998440305 -0.095094740913251402 0 -0.092459937136554121 -0.092441504054700488 0 -0.09067025045118722 -0.099482154482383456 0 -0.087397441684577692 -0.096311032880035341 0 -0.092459937136554121 -0.092441504054700488 0 -0.087397441684577692 -0.096311032880035341 0 -0.092459937136554121 -0.092441504054700488 0 -0.09067025045118722 -0.099482154482383456 0 -0.09067025045118722 -0.099482154482383456 0 -0.093470254998440305 -0.095094740913251402 0 -0.10256115988493621 -0.098998012118652612 0 -0.09067025045118722 -0.099482154482383456 0 -0.10256115988493621 -0.098998012118652612 0 -0.10951433610534381 -0.1177407486611982 0 -0.093470254998440305 -0.095094740913251402 0 -0.10256115988493621 -0.098998012118652612 0 -0.1079914355768294 -0.091348624820827062 0 -0.10256115988493621 -0.098998012118652612 0 -0.10951433610534381 -0.1177407486611982 0 -0.1124647268540552 -0.098956879909225595 0 -0.09067025045118722 -0.099482154482383456 0 -0.10951433610534381 -0.1177407486611982 0 -0.10256115988493621 -0.098998012118652612 0 -0.1124647268540552 -0.098956879909225595 0 -0.1079914355768294 -0.091348624820827062 0 -0.085292600219598155 -0.1206378996262356 0 -0.09067025045118722 -0.099482154482383456 0 -0.10951433610534381 -0.1177407486611982 0 -0.085292600219598155 -0.1206378996262356 0 -0.10951433610534381 -0.1177407486611982 0 -0.098551057693538974 -0.1291739625937384 0 -0.10951433610534381 -0.1177407486611982 0 -0.1244559523629037 -0.1000842215631873 0 -0.13245454895425601 -0.11142717823252769 0 -0.10951433610534381 -0.1177407486611982 0 -0.12835842175950049 -0.13599934284001289 0 -0.13245454895425601 -0.11142717823252769 0 -0.10951433610534381 -0.1177407486611982 0 -0.1124647268540552 -0.098956879909225595 0 -0.1244559523629037 -0.1000842215631873 0 -0.1124647268540552 -0.098956879909225595 0 -0.11628216919394389 -0.091044252601654579 0 -0.1079914355768294 -0.091348624820827062 0 -0.1124647268540552 -0.098956879909225595 0 -0.1244559523629037 -0.1000842215631873 0 -0.11628216919394389 -0.091044252601654579 0 -0.1244559523629037 -0.1000842215631873 0 -0.11628216919394389 -0.091044252601654579 0 -0.12890923599052551 -0.08354111368619857 0 -0.11628216919394389 -0.091044252601654579 0 -0.10699430368144799 -0.081824262956187513 0 -0.12890923599052551 -0.08354111368619857 0 -0.10699430368144799 -0.081824262956187513 0 -0.12890923599052551 -0.08354111368619857 0 -0.1092632557683474 -0.079597852850708556 0 -0.10699430368144799 -0.081824262956187513 0 -0.12890923599052551 -0.08354111368619857 0 -0.11628216919394389 -0.091044252601654579 0 -0.1079914355768294 -0.091348624820827062 0 -0.10699430368144799 -0.081824262956187513 0 -0.093470254998440305 -0.095094740913251402 0 -0.1079914355768294 -0.091348624820827062 0 -0.10699430368144799 -0.081824262956187513 0 -0.1092632557683474 -0.079597852850708556 0 -0.10699430368144799 -0.081824262956187513 0 -0.095389859377833564 -0.080915152291685 0 -0.1092632557683474 -0.079597852850708556 0 -0.10699430368144799 -0.081824262956187513 0 -0.092459937136554121 -0.092441504054700488 0 -0.10699430368144799 -0.081824262956187513 0 -0.095389859377833564 -0.080915152291685 0 -0.10699430368144799 -0.081824262956187513 0 -0.095389859377833564 -0.080915152291685 0 -0.093470254998440305 -0.095094740913251402 0 -0.10699430368144799 -0.081824262956187513 0 -0.092459937136554121 -0.092441504054700488 0 -0.093470254998440305 -0.095094740913251402 0 -0.10699430368144799 -0.081824262956187513 0 -0.092459937136554121 -0.092441504054700488 0 -0.095389859377833564 -0.080915152291685 0 -0.092459937136554121 -0.092441504054700488 0 -0.10699430368144799 -0.081824262956187513 0 -0.091867377641549688 -0.079219400773716003 0 -0.095389859377833564 -0.080915152291685 0 -0.1015946592339077 -0.056505389891616929 0 -0.1092632557683474 -0.079597852850708556 0 -0.095389859377833564 -0.080915152291685 0 -0.1114315954833443 -0.066058251980055854 0 -0.095389859377833564 -0.080915152291685 0 -0.1114315954833443 -0.066058251980055854 0 -0.1015946592339077 -0.056505389891616929 0 -0.095389859377833564 -0.080915152291685 0 -0.1015946592339077 -0.056505389891616929 0 -0.1092632557683474 -0.079597852850708556 0 -0.12784166275969169 -0.065397409203157134 0 -0.12890923599052551 -0.08354111368619857 0 -0.1092632557683474 -0.079597852850708556 0 -0.1250098080103795 -0.064146542423957634 0 -0.1092632557683474 -0.079597852850708556 0 -0.1250098080103795 -0.064146542423957634 0 -0.12784166275969169 -0.065397409203157134 0 -0.1092632557683474 -0.079597852850708556 0 -0.12784166275969169 -0.065397409203157134 0 -0.1092632557683474 -0.079597852850708556 0 -0.1114315954833443 -0.066058251980055854 0 -0.1250098080103795 -0.064146542423957634 0 -0.1114315954833443 -0.066058251980055854 0 -0.1186500533871072 -0.046748107695021912 0 -0.1015946592339077 -0.056505389891616929 0 -0.1114315954833443 -0.066058251980055854 0 -0.1186500533871072 -0.046748107695021912 0 -0.1250098080103795 -0.064146542423957634 0 -0.1186500533871072 -0.046748107695021912 0 -0.1250098080103795 -0.064146542423957634 0 -0.12829464659483969 -0.044786120536291239 0 -0.1186500533871072 -0.046748107695021912 0 -0.10779945908998349 -0.032095627491549338 0 -0.13002286364664609 -0.031316149569472977 0 -0.10779945908998349 -0.032095627491549338 0 -0.13002286364664609 -0.031316149569472977 0 -0.10779945908998349 -0.032095627491549338 0 -0.1015946592339077 -0.056505389891616929 0 -0.10779945908998349 -0.032095627491549338 0 -0.091502844290497071 -0.02943976064894625 0 -0.086359236851496185 -0.032847635575487408 0 -0.1186500533871072 -0.046748107695021912 0 -0.10779945908998349 -0.032095627491549338 0 -0.1015946592339077 -0.056505389891616929 0 -0.10779945908998349 -0.032095627491549338 0 -0.086359236851496185 -0.032847635575487408 0 -0.10779945908998349 -0.032095627491549338 0 -0.1015946592339077 -0.056505389891616929 0 -0.086359236851496185 -0.032847635575487408 0 -0.1140835083949741 -0.0073740967406504248 0 -0.1081753613973562 -0.005400591745477544 0 -0.11262869904329049 0.0001426134633649314 0 -0.1140835083949741 -0.0073740967406504248 0 -0.1202061722546995 -0.0013910732862858659 0 -0.1140835083949741 -0.0073740967406504248 0 -0.11871605765840609 -0.002265960235820368 0 -0.11262869904329049 0.0001426134633649314 0 -0.1140835083949741 -0.0073740967406504248 0 -0.11871605765840609 -0.002265960235820368 0 -0.1202061722546995 -0.0013910732862858659 0 -0.11871605765840609 -0.002265960235820368 0 -0.1202061722546995 -0.0013910732862858659 0 -0.1140835083949741 -0.0073740967406504248 0 -0.1202061722546995 -0.0013910732862858659 0 -0.1236901537548759 -0.01489206594046069 0 -0.10779945908998349 -0.032095627491549338 0 -0.1236901537548759 -0.01489206594046069 0 -0.13002286364664609 -0.031316149569472977 0 -0.10779945908998349 -0.032095627491549338 0 -0.1140835083949741 -0.0073740967406504248 0 -0.1236901537548759 -0.01489206594046069 0 -0.10779945908998349 -0.032095627491549338 0 -0.1140835083949741 -0.0073740967406504248 0 -0.10779945908998349 -0.032095627491549338 0 -0.1140835083949741 -0.0073740967406504248 0 -0.10279317634273499 -0.018406928694797781 0 -0.10779945908998349 -0.032095627491549338 0 -0.10279317634273499 -0.018406928694797781 0 -0.091502844290497071 -0.02943976064894625 0 -0.10279317634273499 -0.018406928694797781 0 -0.091502844290497071 -0.02943976064894625 0 -0.10279317634273499 -0.018406928694797781 0 -0.087963509652400504 -0.01969819435094437 0 -0.091502844290497071 -0.02943976064894625 0 -0.1140835083949741 -0.0073740967406504248 0 -0.10279317634273499 -0.018406928694797781 0 -0.1081753613973562 -0.005400591745477544 0 -0.10279317634273499 -0.018406928694797781 0 -0.097480550556826001 -0.0063456501565944757 0 -0.1081753613973562 -0.005400591745477544 0 -0.1140835083949741 -0.0073740967406504248 0 -0.10279317634273499 -0.018406928694797781 0 -0.10279317634273499 -0.018406928694797781 0 -0.097480550556826001 -0.0063456501565944757 0 -0.087963509652400504 -0.01969819435094437 0 -0.097480550556826001 -0.0063456501565944757 0 -0.1081753613973562 -0.005400591745477544 0 -0.10766802143425221 0.0057165579607475628 0 -0.097480550556826001 -0.0063456501565944757 0 -0.084025503774487115 -0.0070039595572996306 0 -0.094681377386978766 0.0041082946190843907 0 -0.097480550556826001 -0.0063456501565944757 0 -0.084025503774487115 -0.0070039595572996306 0 -0.087963509652400504 -0.01969819435094437 0 -0.084025503774487115 -0.0070039595572996306 0 -0.087963509652400504 -0.01969819435094437 0 -0.073798117199627172 -0.01679096887871721 0 -0.087963509652400504 -0.01969819435094437 0 -0.077830673618678542 -0.027171137327562569 0 -0.073798117199627172 -0.01679096887871721 0 -0.087963509652400504 -0.01969819435094437 0 -0.091502844290497071 -0.02943976064894625 0 -0.086359236851496185 -0.032847635575487408 0 -0.087963509652400504 -0.01969819435094437 0 -0.077830673618678542 -0.027171137327562569 0 -0.086359236851496185 -0.032847635575487408 0 -0.077830673618678542 -0.027171137327562569 0 -0.086359236851496185 -0.032847635575487408 0 -0.064919014613008988 -0.033599643659427372 0 -0.077830673618678542 -0.027171137327562569 0 -0.064919014613008988 -0.033599643659427372 0 -0.067597734592178646 -0.025975102638722491 0 -0.064919014613008988 -0.033599643659427372 0 -0.057013796940564111 -0.033876916326141253 0 -0.077830673618678542 -0.027171137327562569 0 -0.067597734592178646 -0.025975102638722491 0 -0.064919014613008988 -0.033599643659427372 0 -0.067597734592178646 -0.025975102638722491 0 -0.073798117199627172 -0.01679096887871721 0 -0.061488771571752671 -0.01888734957214128 0 -0.077830673618678542 -0.027171137327562569 0 -0.067597734592178646 -0.025975102638722491 0 -0.073798117199627172 -0.01679096887871721 0 -0.084025503774487115 -0.0070039595572996306 0 -0.073798117199627172 -0.01679096887871721 0 -0.062413360479634639 -0.0022353211108208362 0 -0.084025503774487115 -0.0070039595572996306 0 -0.062413360479634639 -0.0022353211108208362 0 -0.073798117199627172 -0.01679096887871721 0 -0.062413360479634639 -0.0022353211108208362 0 -0.061488771571752671 -0.01888734957214128 0 -0.1015946592339077 -0.056505389891616929 0 -0.07598962129279048 -0.043216487928558048 0 -0.075457530542314896 -0.057871142663091658 0 -0.1015946592339077 -0.056505389891616929 0 -0.086359236851496185 -0.032847635575487408 0 -0.07598962129279048 -0.043216487928558048 0 -0.086359236851496185 -0.032847635575487408 0 -0.064919014613008988 -0.033599643659427372 0 -0.07598962129279048 -0.043216487928558048 0 -0.075457530542314896 -0.057871142663091658 0 -0.059047683443079271 -0.036522884552467952 0 -0.086359236851496185 -0.032847635575487408 0 -0.07598962129279048 -0.043216487928558048 0 -0.064919014613008988 -0.033599643659427372 0 -0.07598962129279048 -0.043216487928558048 0 -0.064919014613008988 -0.033599643659427372 0 -0.059047683443079271 -0.036522884552467952 0 -0.075457530542314896 -0.057871142663091658 0 -0.06013627620528867 -0.053432274863174332 0 -0.059047683443079271 -0.036522884552467952 0 -0.075457530542314896 -0.057871142663091658 0 -0.059047683443079271 -0.036522884552467952 0 -0.072359825900047942 -0.069365106554348743 0 -0.075457530542314896 -0.057871142663091658 0 -0.06013627620528867 -0.053432274863174332 0 -0.06013627620528867 -0.053432274863174332 0 -0.036547577311699962 -0.047725323733187872 0 -0.050802705429170578 -0.063132108385647548 0 -0.072359825900047942 -0.069365106554348743 0 -0.06013627620528867 -0.053432274863174332 0 -0.050802705429170578 -0.063132108385647548 0 -0.06013627620528867 -0.053432274863174332 0 -0.059047683443079271 -0.036522884552467952 0 -0.036547577311699962 -0.047725323733187872 0 -0.059047683443079271 -0.036522884552467952 0 -0.036547577311699962 -0.047725323733187872 0 -0.059047683443079271 -0.036522884552467952 0 -0.057013796940564111 -0.033876916326141253 0 -0.036547577311699962 -0.047725323733187872 0 -0.064919014613008988 -0.033599643659427372 0 -0.059047683443079271 -0.036522884552467952 0 -0.057013796940564111 -0.033876916326141253 0 -0.064919014613008988 -0.033599643659427372 0 -0.057013796940564111 -0.033876916326141253 0 -0.064919014613008988 -0.033599643659427372 0 -0.059047683443079271 -0.036522884552467952 0 -0.059047683443079271 -0.036522884552467952 0 -0.057013796940564111 -0.033876916326141253 0 -0.057013796940564111 -0.033876916326141253 0 -0.036547577311699962 -0.047725323733187872 0 -0.027608311982311409 -0.034908303135232029 0 -0.057013796940564111 -0.033876916326141253 0 -0.027608311982311409 -0.034908303135232029 0 -0.036547577311699962 -0.047725323733187872 0 -0.02662556397245841 -0.037001721561616623 0 -0.036547577311699962 -0.047725323733187872 0 -0.035424018343680377 -0.063063067970776807 0 -0.050802705429170578 -0.063132108385647548 0 -0.036547577311699962 -0.047725323733187872 0 -0.050802705429170578 -0.063132108385647548 0 -0.062413360479634639 -0.0022353211108208362 0 -0.061488771571752671 -0.01888734957214128 0 -0.043197234205671377 -0.015902370574288401 0 -0.062413360479634639 -0.0022353211108208362 0 -0.043197234205671377 -0.015902370574288401 0 -0.040801217184782149 0.0025333173356579639 0 -0.057013796940564111 -0.033876916326141253 0 -0.061488771571752671 -0.01888734957214128 0 -0.043197234205671377 -0.015902370574288401 0 -0.057013796940564111 -0.033876916326141253 0 -0.043197234205671377 -0.015902370574288401 0 -0.067597734592178646 -0.025975102638722491 0 -0.057013796940564111 -0.033876916326141253 0 -0.061488771571752671 -0.01888734957214128 0 -0.057013796940564111 -0.033876916326141253 0 -0.043197234205671377 -0.015902370574288401 0 -0.027608311982311409 -0.034908303135232029 0 -0.043197234205671377 -0.015902370574288401 0 -0.027025611003190429 -0.019425209131535261 0 -0.027608311982311409 -0.034908303135232029 0 -0.043197234205671377 -0.015902370574288401 0 -0.040801217184782149 0.0025333173356579639 0 -0.029380671470779201 0.0020721751775648329 0 -0.043197234205671377 -0.015902370574288401 0 -0.02288696417543129 -0.00590033191195867 0 -0.029380671470779201 0.0020721751775648329 0 -0.043197234205671377 -0.015902370574288401 0 -0.029380671470779201 0.0020721751775648329 0 -0.043197234205671377 -0.015902370574288401 0 -0.02288696417543129 -0.00590033191195867 0 -0.027025611003190429 -0.019425209131535261 0 -0.02288696417543129 -0.00590033191195867 0 -0.027025611003190429 -0.019425209131535261 0 -0.011837074165476301 -0.0203050306283315 0 -0.027025611003190429 -0.019425209131535261 0 -0.011837074165476301 -0.0203050306283315 0 -0.027608311982311409 -0.034908303135232029 0 -0.011837074165476301 -0.0203050306283315 0 0.0073598710512064588 -0.017051605744856251 0 0.0017971729759412511 -0.035939689944323977 0 -0.011837074165476301 -0.0203050306283315 0 -0.027608311982311409 -0.034908303135232029 0 0.0017971729759412511 -0.035939689944323977 0 -0.02288696417543129 -0.00590033191195867 0 -0.0025007363194086028 -0.0051543784696279817 0 -0.01918907388992936 0.0073019557821350058 0 -0.02288696417543129 -0.00590033191195867 0 -0.011837074165476301 -0.0203050306283315 0 -0.0025007363194086028 -0.0051543784696279817 0 -0.011837074165476301 -0.0203050306283315 0 -0.0025007363194086028 -0.0051543784696279817 0 0.0073598710512064588 -0.017051605744856251 0 -0.036547577311699962 -0.047725323733187872 0 -0.015396920924805491 -0.058255893696858532 0 -0.036547577311699962 -0.047725323733187872 0 -0.015396920924805491 -0.058255893696858532 0 -0.035424018343680377 -0.063063067970776807 0 -0.036547577311699962 -0.047725323733187872 0 -0.02662556397245841 -0.037001721561616623 0 -0.015396920924805491 -0.058255893696858532 0 -0.02662556397245841 -0.037001721561616623 0 -0.01300967340842802 -0.040950523551841159 0 -0.015396920924805491 -0.058255893696858532 0 -0.036547577311699962 -0.047725323733187872 0 -0.02662556397245841 -0.037001721561616623 0 -0.027608311982311409 -0.034908303135232029 0 -0.02662556397245841 -0.037001721561616623 0 -0.027608311982311409 -0.034908303135232029 0 -0.01300967340842802 -0.040950523551841159 0 -0.01300967340842802 -0.040950523551841159 0 -0.015396920924805491 -0.058255893696858532 0 0.0027852568614936749 -0.038647009421175223 0 -0.027608311982311409 -0.034908303135232029 0 -0.01300967340842802 -0.040950523551841159 0 0.0017971729759412511 -0.035939689944323977 0 -0.01300967340842802 -0.040950523551841159 0 0.0027852568614936749 -0.038647009421175223 0 0.0017971729759412511 -0.035939689944323977 0 -0.027608311982311409 -0.034908303135232029 0 0.0017971729759412511 -0.035939689944323977 0 -0.015396920924805491 -0.058255893696858532 0 0.0027852568614936749 -0.038647009421175223 0 0.0081310905596524187 -0.053877868703239302 0 -0.015396920924805491 -0.058255893696858532 0 0.0041624543485472504 -0.06799419051346825 0 0.0081310905596524187 -0.053877868703239302 0 -0.015396920924805491 -0.058255893696858532 0 0.0027852568614936749 -0.038647009421175223 0 -0.015396920924805491 -0.058255893696858532 0 0.0041624543485472504 -0.06799419051346825 0 -0.015396920924805491 -0.058255893696858532 0 -0.01236585867817609 -0.083505825833339847 0 0.0041624543485472504 -0.06799419051346825 0 -0.01236585867817609 -0.083505825833339847 0 -0.0076230775566098891 -0.1028627430724557 0 0.00765204248890697 -0.092104689521178201 0 -0.01236585867817609 -0.083505825833339847 0 0.00765204248890697 -0.092104689521178201 0 0.0041624543485472504 -0.06799419051346825 0 -0.01236585867817609 -0.083505825833339847 0 -0.034057863103082973 -0.078381109716081476 0 -0.02782051760270925 -0.105812024360599 0 -0.015396920924805491 -0.058255893696858532 0 -0.034057863103082973 -0.078381109716081476 0 -0.015396920924805491 -0.058255893696858532 0 -0.035424018343680377 -0.063063067970776807 0 -0.034057863103082973 -0.078381109716081476 0 -0.015396920924805491 -0.058255893696858532 0 -0.01236585867817609 -0.083505825833339847 0 -0.034057863103082973 -0.078381109716081476 0 -0.035424018343680377 -0.063063067970776807 0 -0.050802705429170578 -0.063132108385647548 0 -0.047082704177995788 -0.074625404649896934 0 -0.035424018343680377 -0.063063067970776807 0 -0.034057863103082973 -0.078381109716081476 0 -0.047082704177995788 -0.074625404649896934 0 -0.034057863103082973 -0.078381109716081476 0 -0.051483151004333122 -0.083218609547457079 0 -0.047082704177995788 -0.074625404649896934 0 -0.034057863103082973 -0.078381109716081476 0 -0.052718805281362018 -0.098506325735302672 0 -0.034057863103082973 -0.078381109716081476 0 -0.051483151004333122 -0.083218609547457079 0 -0.052718805281362018 -0.098506325735302672 0 -0.051483151004333122 -0.083218609547457079 0 -0.061101095670847552 -0.078228915885784067 0 -0.047082704177995788 -0.074625404649896934 0 -0.068213312430608464 -0.093337823940471937 0 -0.061741925896660547 -0.086355150006989442 0 -0.052718805281362018 -0.098506325735302672 0 -0.051483151004333122 -0.083218609547457079 0 -0.061741925896660547 -0.086355150006989442 0 -0.052718805281362018 -0.098506325735302672 0 -0.051483151004333122 -0.083218609547457079 0 -0.061741925896660547 -0.086355150006989442 0 -0.061101095670847552 -0.078228915885784067 0 -0.065057833546641311 -0.078538893038107224 0 -0.061101095670847552 -0.078228915885784067 0 -0.050802705429170578 -0.063132108385647548 0 -0.065057833546641311 -0.078538893038107224 0 -0.050802705429170578 -0.063132108385647548 0 -0.061101095670847552 -0.078228915885784067 0 -0.050802705429170578 -0.063132108385647548 0 -0.047082704177995788 -0.074625404649896934 0 -0.071379747459641138 -0.11863154175452389 0 -0.047672005097956771 -0.12232065250457221 0 -0.052718805281362018 -0.098506325735302672 0 -0.071379747459641138 -0.11863154175452389 0 -0.047672005097956771 -0.12232065250457221 0 -0.060949921753336057 -0.1286667283294789 0 -0.071379747459641138 -0.11863154175452389 0 -0.052718805281362018 -0.098506325735302672 0 -0.034057863103082973 -0.078381109716081476 0 -0.052718805281362018 -0.098506325735302672 0 -0.02782051760270925 -0.105812024360599 0 -0.047672005097956771 -0.12232065250457221 0 -0.052718805281362018 -0.098506325735302672 0 -0.02782051760270925 -0.105812024360599 0 -0.047672005097956771 -0.12232065250457221 0 -0.02782051760270925 -0.105812024360599 0 -0.028466882567910849 -0.13670223289825789 0 -0.02782051760270925 -0.105812024360599 0 -0.010652485253781679 -0.12097888809487579 0 -0.028466882567910849 -0.13670223289825789 0 -0.01236585867817609 -0.083505825833339847 0 -0.02782051760270925 -0.105812024360599 0 -0.0076230775566098891 -0.1028627430724557 0 -0.02782051760270925 -0.105812024360599 0 -0.0076230775566098891 -0.1028627430724557 0 -0.010652485253781679 -0.12097888809487579 0 -0.0076230775566098891 -0.1028627430724557 0 -0.010652485253781679 -0.12097888809487579 0 0.0091259489502686364 -0.1158979362851186 0 -0.010652485253781679 -0.12097888809487579 0 -0.028466882567910849 -0.13670223289825789 0 0.0017828297527261699 -0.139357474086204 0 -0.028466882567910849 -0.13670223289825789 0 -0.014768201373660739 -0.15132101169240009 0 -0.028077634131695482 -0.1608664671061304 0 -0.014768201373660739 -0.15132101169240009 0 -0.00062364201311971884 -0.1561696486636899 0 0.0017828297527261699 -0.139357474086204 0 -0.028466882567910849 -0.13670223289825789 0 -0.014768201373660739 -0.15132101169240009 0 0.0017828297527261699 -0.139357474086204 0 -0.00062364201311971884 -0.1561696486636899 0 -0.0051888141902375687 -0.1698458684150719 0 -0.01399314645347533 -0.16397131322330299 0 -0.0051888141902375687 -0.1698458684150719 0 -0.01399314645347533 -0.16397131322330299 0 -0.013183720802204261 -0.1737312239141969 0 -0.014768201373660739 -0.15132101169240009 0 -0.00062364201311971884 -0.1561696486636899 0 -0.01399314645347533 -0.16397131322330299 0 -0.0046529789385846149 -0.1779333961074297 0 -0.020989826643907371 -0.18333537367111441 0 -0.0071903878078849581 -0.18642644669834799 0 -0.0046529789385846149 -0.1779333961074297 0 -0.020989826643907371 -0.18333537367111441 0 -0.0046529789385846149 -0.1779333961074297 0 -0.013183720802204261 -0.1737312239141969 0 -0.020989826643907371 -0.18333537367111441 0 -0.0071903878078849581 -0.18642644669834799 0 -0.0046529789385846149 -0.1779333961074297 0 0.0048857991779218428 -0.18923532338487031 0 -0.0051888141902375687 -0.1698458684150719 0 -0.0046529789385846149 -0.1779333961074297 0 -0.013183720802204261 -0.1737312239141969 0 -0.020989826643907371 -0.18333537367111441 0 -0.021088935688514329 -0.1737118640736332 0 -0.013183720802204261 -0.1737312239141969 0 -0.020989826643907371 -0.18333537367111441 0 -0.021088935688514329 -0.1737118640736332 0 -0.020989826643907371 -0.18333537367111441 0 -0.021088935688514329 -0.1737118640736332 0 -0.034615394731196042 -0.177420518746008 0 -0.021088935688514329 -0.1737118640736332 0 -0.028077634131695482 -0.1608664671061304 0 -0.034615394731196042 -0.177420518746008 0 -0.014768201373660739 -0.15132101169240009 0 -0.01399314645347533 -0.16397131322330299 0 -0.028077634131695482 -0.1608664671061304 0 -0.01399314645347533 -0.16397131322330299 0 -0.013183720802204261 -0.1737312239141969 0 -0.021088935688514329 -0.1737118640736332 0 -0.01399314645347533 -0.16397131322330299 0 -0.021088935688514329 -0.1737118640736332 0 -0.028077634131695482 -0.1608664671061304 0 -0.034615394731196042 -0.177420518746008 0 -0.048612770602457597 -0.17683142601984389 0 -0.047416310447590267 -0.15933659867743419 0 -0.028077634131695482 -0.1608664671061304 0 -0.034615394731196042 -0.177420518746008 0 -0.047416310447590267 -0.15933659867743419 0 -0.020989826643907371 -0.18333537367111441 0 -0.034615394731196042 -0.177420518746008 0 -0.042431606498254282 -0.19042535919267231 0 -0.020989826643907371 -0.18333537367111441 0 -0.042431606498254282 -0.19042535919267231 0 -0.034615394731196042 -0.177420518746008 0 -0.048612770602457597 -0.17683142601984389 0 -0.042431606498254282 -0.19042535919267231 0 -0.048612770602457597 -0.17683142601984389 0 -0.047416310447590267 -0.15933659867743419 0 -0.066365738327269691 -0.18197096445661051 0 -0.048612770602457597 -0.17683142601984389 0 -0.042431606498254282 -0.19042535919267231 0 -0.066365738327269691 -0.18197096445661051 0 -0.047416310447590267 -0.15933659867743419 0 -0.066365738327269691 -0.18197096445661051 0 -0.047416310447590267 -0.15933659867743419 0 -0.062272400799346789 -0.15787819680307999 0 -0.066365738327269691 -0.18197096445661051 0 -0.047416310447590267 -0.15933659867743419 0 -0.062272400799346789 -0.15787819680307999 0 -0.059692117657407742 -0.143085610488451 0 -0.047672005097956771 -0.12232065250457221 0 -0.059692117657407742 -0.143085610488451 0 -0.060949921753336057 -0.1286667283294789 0 -0.047672005097956771 -0.12232065250457221 0 -0.028466882567910849 -0.13670223289825789 0 -0.059692117657407742 -0.143085610488451 0 -0.028466882567910849 -0.13670223289825789 0 -0.028077634131695482 -0.1608664671061304 0 -0.047416310447590267 -0.15933659867743419 0 -0.028466882567910849 -0.13670223289825789 0 -0.047416310447590267 -0.15933659867743419 0 -0.028466882567910849 -0.13670223289825789 0 -0.047416310447590267 -0.15933659867743419 0 -0.059692117657407742 -0.143085610488451 0 -0.020248400191203789 -0.25532804206607279 0 -0.020495542342104611 -0.2313304859344199 0 -0.047544673664052163 -0.23857510946018851 0 -0.020248400191203789 -0.25532804206607279 0 -0.020495542342104611 -0.2313304859344199 0 -0.01394704743379436 -0.25196157393351171 0 -0.020248400191203789 -0.25532804206607279 0 -0.020495542342104611 -0.2313304859344199 0 -0.01394704743379436 -0.25196157393351171 0 -0.0092583180747059304 -0.23607530854427869 0 0.0042912403797070262 -0.2364199698216973 0 -0.01394704743379436 -0.25196157393351171 0 -0.0092583180747059304 -0.23607530854427869 0 -0.020495542342104611 -0.2313304859344199 0 -0.0092583180747059304 -0.23607530854427869 0 -0.0070180959367191348 -0.21976330680666231 0 -0.020495542342104611 -0.2313304859344199 0 -0.0092583180747059304 -0.23607530854427869 0 -0.0070180959367191348 -0.21976330680666231 0 0.0042912403797070262 -0.2364199698216973 0 -0.0070180959367191348 -0.21976330680666231 0 -0.020495542342104611 -0.2313304859344199 0 -0.020742684493005439 -0.2073329298027671 0 -0.020495542342104611 -0.2313304859344199 0 -0.020742684493005439 -0.2073329298027671 0 -0.020495542342104611 -0.2313304859344199 0 -0.020742684493005439 -0.2073329298027671 0 -0.04432584818054984 -0.21470932504550369 0 -0.0070180959367191348 -0.21976330680666231 0 -0.020742684493005439 -0.2073329298027671 0 -0.0080045448269695854 -0.1952016936299778 0 -0.0070180959367191348 -0.21976330680666231 0 -0.0080045448269695854 -0.1952016936299778 0 0.01201616559045914 -0.20920326705631781 0 -0.0071903878078849581 -0.18642644669834799 0 -0.0080045448269695854 -0.1952016936299778 0 0.0048857991779218428 -0.18923532338487031 0 -0.0071903878078849581 -0.18642644669834799 0 -0.020989826643907371 -0.18333537367111441 0 -0.0080045448269695854 -0.1952016936299778 0 -0.020989826643907371 -0.18333537367111441 0 -0.020742684493005439 -0.2073329298027671 0 -0.042431606498254282 -0.19042535919267231 0 -0.020989826643907371 -0.18333537367111441 0 -0.020742684493005439 -0.2073329298027671 0 -0.020989826643907371 -0.18333537367111441 0 -0.020742684493005439 -0.2073329298027671 0 -0.0080045448269695854 -0.1952016936299778 0 -0.042431606498254282 -0.19042535919267231 0 -0.063873386352601078 -0.19751534471423049 0 -0.066365738327269691 -0.18197096445661051 0 -0.042431606498254282 -0.19042535919267231 0 -0.04432584818054984 -0.21470932504550369 0 -0.063873386352601078 -0.19751534471423049 0 -0.042431606498254282 -0.19042535919267231 0 -0.063873386352601078 -0.19751534471423049 0 -0.04432584818054984 -0.21470932504550369 0 -0.070867195733281513 -0.2230767211687438 0 -0.063873386352601078 -0.19751534471423049 0 -0.020742684493005439 -0.2073329298027671 0 -0.042431606498254282 -0.19042535919267231 0 -0.04432584818054984 -0.21470932504550369 0 -0.020495542342104611 -0.2313304859344199 0 -0.04432584818054984 -0.21470932504550369 0 -0.047544673664052163 -0.23857510946018851 0 -0.04432584818054984 -0.21470932504550369 0 -0.047544673664052163 -0.23857510946018851 0 -0.070867195733281513 -0.2230767211687438 0 -0.047544673664052163 -0.23857510946018851 0 -0.065398276682652606 -0.24111087493004951 0 -0.070867195733281513 -0.2230767211687438 0 -0.061985605076137887 -0.25827780968425201 0 -0.047544673664052163 -0.23857510946018851 0 -0.065398276682652606 -0.24111087493004951 0 -0.081273732889275266 -0.24834276603872149 0 -0.093336350230132065 -0.23461579175288011 0 -0.070867195733281513 -0.2230767211687438 0 -0.09681974899521055 -0.25229235668335998 0 -0.081273732889275266 -0.24834276603872149 0 -0.093336350230132065 -0.23461579175288011 0 -0.081273732889275266 -0.24834276603872149 0 -0.065398276682652606 -0.24111087493004951 0 -0.070867195733281513 -0.2230767211687438 0 -0.061985605076137887 -0.25827780968425201 0 -0.081273732889275266 -0.24834276603872149 0 -0.065398276682652606 -0.24111087493004951 0 -0.093336350230132065 -0.23461579175288011 0 -0.070867195733281513 -0.2230767211687438 0 -0.093336350230132065 -0.23461579175288011 0 -0.070867195733281513 -0.2230767211687438 0 -0.086995126042118814 -0.22143789553650389 0 -0.093336350230132065 -0.23461579175288011 0 -0.086995126042118814 -0.22143789553650389 0 -0.1005426548998386 -0.22279398221840091 0 -0.085315166206948179 -0.20460533023578781 0 -0.1005426548998386 -0.22279398221840091 0 -0.070867195733281513 -0.2230767211687438 0 -0.086995126042118814 -0.22143789553650389 0 -0.085315166206948179 -0.20460533023578781 0 -0.086995126042118814 -0.22143789553650389 0 -0.085315166206948179 -0.20460533023578781 0 -0.1005426548998386 -0.22279398221840091 0 -0.070867195733281513 -0.2230767211687438 0 -0.085315166206948179 -0.20460533023578781 0 -0.063873386352601078 -0.19751534471423049 0 -0.085315166206948179 -0.20460533023578781 0 -0.066365738327269691 -0.18197096445661051 0 -0.085315166206948179 -0.20460533023578781 0 -0.066365738327269691 -0.18197096445661051 0 -0.081487608761993444 -0.18556709756165499 0 -0.085315166206948179 -0.20460533023578781 0 -0.063873386352601078 -0.19751534471423049 0 -0.085315166206948179 -0.20460533023578781 0 -0.063873386352601078 -0.19751534471423049 0 -0.066365738327269691 -0.18197096445661051 0 -0.085315166206948179 -0.20460533023578781 0 -0.09195948243348237 -0.18919832032981729 0 -0.081487608761993444 -0.18556709756165499 0 -0.085315166206948179 -0.20460533023578781 0 -0.09195948243348237 -0.18919832032981729 0 -0.098679905738352544 -0.1986460382544929 0 -0.09195948243348237 -0.18919832032981729 0 -0.098679905738352544 -0.1986460382544929 0 -0.10480613311340729 -0.18549808813551849 0 -0.098679905738352544 -0.1986460382544929 0 -0.1099308845404153 -0.1972797349503774 0 -0.1035554213942442 -0.21063669265373849 0 -0.098679905738352544 -0.1986460382544929 0 -0.1099308845404153 -0.1972797349503774 0 -0.10480613311340729 -0.18549808813551849 0 -0.1143064209414878 -0.188177832304637 0 -0.1246827178545081 -0.19464822113178129 0 -0.1099308845404153 -0.1972797349503774 0 -0.1143064209414878 -0.188177832304637 0 -0.1099308845404153 -0.1972797349503774 0 -0.10480613311340729 -0.18549808813551849 0 -0.1143064209414878 -0.188177832304637 0 -0.1246827178545081 -0.19464822113178129 0 -0.11851494259000769 -0.18113947694370111 0 -0.1246827178545081 -0.19464822113178129 0 -0.1099308845404153 -0.1972797349503774 0 -0.11499117509267701 -0.20480817595189629 0 -0.1246827178545081 -0.19464822113178129 0 -0.11499117509267701 -0.20480817595189629 0 -0.12179567658154079 -0.21666805507168721 0 -0.11499117509267701 -0.20480817595189629 0 -0.12179567658154079 -0.21666805507168721 0 -0.1035554213942442 -0.21063669265373849 0 -0.1246827178545081 -0.19464822113178129 0 -0.12179567658154079 -0.21666805507168721 0 -0.1099308845404153 -0.1972797349503774 0 -0.11499117509267701 -0.20480817595189629 0 -0.1035554213942442 -0.21063669265373849 0 -0.12179567658154079 -0.21666805507168721 0 -0.1035554213942442 -0.21063669265373849 0 -0.12179567658154079 -0.21666805507168721 0 -0.12783948286944791 -0.21866651319258079 0 -0.085315166206948179 -0.20460533023578781 0 -0.098679905738352544 -0.1986460382544929 0 -0.1035554213942442 -0.21063669265373849 0 -0.085315166206948179 -0.20460533023578781 0 -0.1035554213942442 -0.21063669265373849 0 -0.1005426548998386 -0.22279398221840091 0 -0.085315166206948179 -0.20460533023578781 0 -0.1035554213942442 -0.21063669265373849 0 -0.1005426548998386 -0.22279398221840091 0 -0.1111649065620232 -0.2293695942788076 0 -0.11577014359272809 -0.24098263420101479 0 -0.1035554213942442 -0.21063669265373849 0 -0.1005426548998386 -0.22279398221840091 0 -0.1111649065620232 -0.2293695942788076 0 -0.093336350230132065 -0.23461579175288011 0 -0.1005426548998386 -0.22279398221840091 0 -0.11577014359272809 -0.24098263420101479 0 -0.1005426548998386 -0.22279398221840091 0 -0.11577014359272809 -0.24098263420101479 0 -0.1188377532558344 -0.2392285155157903 0 -0.12783948286944791 -0.21866651319258079 0 -0.12179567658154079 -0.21666805507168721 0 -0.1188377532558344 -0.2392285155157903 0 -0.12783948286944791 -0.21866651319258079 0 -0.12179567658154079 -0.21666805507168721 0 -0.1188377532558344 -0.2392285155157903 0 -0.12179567658154079 -0.21666805507168721 0 -0.1035554213942442 -0.21063669265373849 0 -0.1111649065620232 -0.2293695942788076 0 -0.12179567658154079 -0.21666805507168721 0 -0.1111649065620232 -0.2293695942788076 0 -0.1188377532558344 -0.2392285155157903 0 -0.1111649065620232 -0.2293695942788076 0 -0.11577014359272809 -0.24098263420101479 0 -0.1188377532558344 -0.2392285155157903 0 -0.11577014359272809 -0.24098263420101479 0 -0.1188377532558344 -0.2392285155157903 0 -0.1158055047269833 -0.24615486233701511 0 -0.1188377532558344 -0.2392285155157903 0 -0.1177956335395702 -0.247176896203187 0 -0.1158055047269833 -0.24615486233701511 0 -0.1188377532558344 -0.2392285155157903 0 -0.1177956335395702 -0.247176896203187 0 -0.1188377532558344 -0.2392285155157903 0 -0.1177956335395702 -0.247176896203187 0 -0.12830487636215679 -0.24340640238721981 0 -0.1188377532558344 -0.2392285155157903 0 -0.1158055047269833 -0.24615486233701511 0 -0.1177956335395702 -0.247176896203187 0 -0.1158055047269833 -0.24615486233701511 0 -0.093336350230132065 -0.23461579175288011 0 -0.1158055047269833 -0.24615486233701511 0 -0.093336350230132065 -0.23461579175288011 0 -0.11577014359272809 -0.24098263420101479 0 -0.1158055047269833 -0.24615486233701511 0 -0.09681974899521055 -0.25229235668335998 0 -0.093336350230132065 -0.23461579175288011 0 -0.1158055047269833 -0.24615486233701511 0 -0.081158065632194659 -0.15186374694008711 0 -0.1026240136069816 -0.16064188339172311 0 -0.095173508603425383 -0.15210388680156051 0 -0.081158065632194659 -0.15186374694008711 0 -0.090040689637920196 -0.1387567577737451 0 -0.072644108428099957 -0.1362008770572572 0 -0.081158065632194659 -0.15186374694008711 0 -0.090040689637920196 -0.1387567577737451 0 -0.095173508603425383 -0.15210388680156051 0 -0.085292600219598155 -0.1206378996262356 0 -0.090040689637920196 -0.1387567577737451 0 -0.098551057693538974 -0.1291739625937384 0 -0.071379747459641138 -0.11863154175452389 0 -0.090040689637920196 -0.1387567577737451 0 -0.071379747459641138 -0.11863154175452389 0 -0.085292600219598155 -0.1206378996262356 0 -0.090040689637920196 -0.1387567577737451 0 -0.071379747459641138 -0.11863154175452389 0 -0.060949921753336057 -0.1286667283294789 0 -0.072644108428099957 -0.1362008770572572 0 -0.071379747459641138 -0.11863154175452389 0 -0.090040689637920196 -0.1387567577737451 0 -0.072644108428099957 -0.1362008770572572 0 -0.059692117657407742 -0.143085610488451 0 -0.060949921753336057 -0.1286667283294789 0 -0.072644108428099957 -0.1362008770572572 0 -0.062272400799346789 -0.15787819680307999 0 -0.059692117657407742 -0.143085610488451 0 -0.081158065632194659 -0.15186374694008711 0 -0.059692117657407742 -0.143085610488451 0 -0.081158065632194659 -0.15186374694008711 0 -0.059692117657407742 -0.143085610488451 0 -0.081158065632194659 -0.15186374694008711 0 -0.072644108428099957 -0.1362008770572572 0 -0.062272400799346789 -0.15787819680307999 0 -0.072538963795879596 -0.16623374660404491 0 -0.066365738327269691 -0.18197096445661051 0 -0.062272400799346789 -0.15787819680307999 0 -0.081158065632194659 -0.15186374694008711 0 -0.072538963795879596 -0.16623374660404491 0 -0.072538963795879596 -0.16623374660404491 0 -0.077997770196531868 -0.17540018954193379 0 -0.081718704517605295 -0.1668267426231809 0 -0.072538963795879596 -0.16623374660404491 0 -0.066365738327269691 -0.18197096445661051 0 -0.077997770196531868 -0.17540018954193379 0 -0.066365738327269691 -0.18197096445661051 0 -0.077997770196531868 -0.17540018954193379 0 -0.081487608761993444 -0.18556709756165499 0 -0.077997770196531868 -0.17540018954193379 0 -0.087877835579911301 -0.17640239646417749 0 -0.081718704517605295 -0.1668267426231809 0 -0.077997770196531868 -0.17540018954193379 0 -0.081487608761993444 -0.18556709756165499 0 -0.087877835579911301 -0.17640239646417749 0 -0.09195948243348237 -0.18919832032981729 0 -0.087877835579911301 -0.17640239646417749 0 -0.097478371359667471 -0.17938606486554659 0 -0.09195948243348237 -0.18919832032981729 0 -0.081487608761993444 -0.18556709756165499 0 -0.087877835579911301 -0.17640239646417749 0 -0.081158065632194659 -0.15186374694008711 0 -0.091098836317684923 -0.16397534678571379 0 -0.1026240136069816 -0.16064188339172311 0 -0.081158065632194659 -0.15186374694008711 0 -0.1026240136069816 -0.16064188339172311 0 -0.081158065632194659 -0.15186374694008711 0 -0.081718704517605295 -0.1668267426231809 0 -0.091098836317684923 -0.16397534678571379 0 -0.081158065632194659 -0.15186374694008711 0 -0.072538963795879596 -0.16623374660404491 0 -0.081718704517605295 -0.1668267426231809 0 -0.087877835579911301 -0.17640239646417749 0 -0.091098836317684923 -0.16397534678571379 0 -0.097237711148505837 -0.17150811847226621 0 -0.087877835579911301 -0.17640239646417749 0 -0.081718704517605295 -0.1668267426231809 0 -0.091098836317684923 -0.16397534678571379 0 -0.091098836317684923 -0.16397534678571379 0 -0.098885143938518938 -0.16591761604604069 0 -0.1026240136069816 -0.16064188339172311 0 -0.091098836317684923 -0.16397534678571379 0 -0.097237711148505837 -0.17150811847226621 0 -0.098885143938518938 -0.16591761604604069 0 -0.098885143938518938 -0.16591761604604069 0 -0.1031109207964532 -0.16848764145139919 0 -0.1026240136069816 -0.16064188339172311 0 -0.097237711148505837 -0.17150811847226621 0 -0.098885143938518938 -0.16591761604604069 0 -0.1031109207964532 -0.16848764145139919 0 -0.1031109207964532 -0.16848764145139919 0 -0.1026240136069816 -0.16064188339172311 0 -0.11129704076522889 -0.17004718842101249 0 -0.1031109207964532 -0.16848764145139919 0 -0.10466880056191501 -0.17526286775382391 0 -0.11129704076522889 -0.17004718842101249 0 -0.097237711148505837 -0.17150811847226621 0 -0.1031109207964532 -0.16848764145139919 0 -0.10466880056191501 -0.17526286775382391 0 -0.1087016318161993 -0.1588819737929664 0 -0.1026240136069816 -0.16064188339172311 0 -0.095173508603425383 -0.15210388680156051 0 -0.09195948243348237 -0.18919832032981729 0 -0.097478371359667471 -0.17938606486554659 0 -0.10480613311340729 -0.18549808813551849 0 -0.097237711148505837 -0.17150811847226621 0 -0.097478371359667471 -0.17938606486554659 0 -0.10466880056191501 -0.17526286775382391 0 -0.087877835579911301 -0.17640239646417749 0 -0.097237711148505837 -0.17150811847226621 0 -0.097478371359667471 -0.17938606486554659 0 -0.10466880056191501 -0.17526286775382391 0 -0.1120620806815502 -0.1789048255640894 0 -0.11129704076522889 -0.17004718842101249 0 -0.097478371359667471 -0.17938606486554659 0 -0.10466880056191501 -0.17526286775382391 0 -0.10480613311340729 -0.18549808813551849 0 -0.10466880056191501 -0.17526286775382391 0 -0.10480613311340729 -0.18549808813551849 0 -0.1120620806815502 -0.1789048255640894 0 -0.1246827178545081 -0.19464822113178129 0 -0.12255892666197871 -0.178415814352886 0 -0.11851494259000769 -0.18113947694370111 0 -0.1246827178545081 -0.19464822113178129 0 -0.12255892666197871 -0.178415814352886 0 -0.12756975912747001 -0.1726283871918747 0 -0.1143064209414878 -0.188177832304637 0 -0.10480613311340729 -0.18549808813551849 0 -0.1120620806815502 -0.1789048255640894 0 -0.1143064209414878 -0.188177832304637 0 -0.1120620806815502 -0.1789048255640894 0 -0.11851494259000769 -0.18113947694370111 0 -0.1120620806815502 -0.1789048255640894 0 -0.11793725215613921 -0.17424296665371389 0 -0.11129704076522889 -0.17004718842101249 0 -0.1120620806815502 -0.1789048255640894 0 -0.11793725215613921 -0.17424296665371389 0 -0.11851494259000769 -0.18113947694370111 0 -0.11793725215613921 -0.17424296665371389 0 -0.12255892666197871 -0.178415814352886 0 -0.12408996158176849 -0.16942001984335919 0 -0.12255892666197871 -0.178415814352886 0 -0.12408996158176849 -0.16942001984335919 0 -0.12756975912747001 -0.1726283871918747 0 -0.11793725215613921 -0.17424296665371389 0 -0.12255892666197871 -0.178415814352886 0 -0.11851494259000769 -0.18113947694370111 0 -0.1087016318161993 -0.1588819737929664 0 -0.1026240136069816 -0.16064188339172311 0 -0.12408996158176849 -0.16942001984335919 0 -0.1026240136069816 -0.16064188339172311 0 -0.11129704076522889 -0.17004718842101249 0 -0.12408996158176849 -0.16942001984335919 0 -0.1026240136069816 -0.16064188339172311 0 -0.12408996158176849 -0.16942001984335919 0 -0.11793725215613921 -0.17424296665371389 0 -0.11129704076522889 -0.17004718842101249 0 -0.12408996158176849 -0.16942001984335919 0 -0.12408996158176849 -0.16942001984335919 0 -0.1205705302042656 -0.15805478357754499 0 -0.12741167384211929 -0.16272938057423161 0 -0.1087016318161993 -0.1588819737929664 0 -0.12408996158176849 -0.16942001984335919 0 -0.1205705302042656 -0.15805478357754499 0 -0.1205705302042656 -0.15805478357754499 0 -0.1160384680192207 -0.15099395172202371 0 -0.12556926213580591 -0.14819539131425 0 -0.1087016318161993 -0.1588819737929664 0 -0.1160384680192207 -0.15099395172202371 0 -0.10935660481129381 -0.1395604443137744 0 -0.10935660481129381 -0.1395604443137744 0 -0.12835842175950049 -0.13599934284001289 0 -0.12556926213580591 -0.14819539131425 0 -0.1160384680192207 -0.15099395172202371 0 -0.10935660481129381 -0.1395604443137744 0 -0.12556926213580591 -0.14819539131425 0 -0.1087016318161993 -0.1588819737929664 0 -0.1205705302042656 -0.15805478357754499 0 -0.1160384680192207 -0.15099395172202371 0 -0.090040689637920196 -0.1387567577737451 0 -0.1087016318161993 -0.1588819737929664 0 -0.090040689637920196 -0.1387567577737451 0 -0.1087016318161993 -0.1588819737929664 0 -0.095173508603425383 -0.15210388680156051 0 -0.090040689637920196 -0.1387567577737451 0 -0.1087016318161993 -0.1588819737929664 0 -0.10935660481129381 -0.1395604443137744 0 -0.090040689637920196 -0.1387567577737451 0 -0.098551057693538974 -0.1291739625937384 0 -0.10935660481129381 -0.1395604443137744 0 -0.10951433610534381 -0.1177407486611982 0 -0.098551057693538974 -0.1291739625937384 0 -0.10935660481129381 -0.1395604443137744 0 -0.10951433610534381 -0.1177407486611982 0 -0.10935660481129381 -0.1395604443137744 0 -0.12835842175950049 -0.13599934284001289 0 -0.10951433610534381 -0.1177407486611982 0 -0.12835842175950049 -0.13599934284001289 0 -0.12835842175950049 -0.13599934284001289 0 -0.1524886220886042 -0.13276328462078951 0 -0.1444055645820771 -0.119989299271274 0 -0.1524886220886042 -0.13276328462078951 0 -0.1472025074136572 -0.15425793701882759 0 -0.16520690897539761 -0.14450060840461881 0 -0.12835842175950049 -0.13599934284001289 0 -0.1524886220886042 -0.13276328462078951 0 -0.1472025074136572 -0.15425793701882759 0 -0.12835842175950049 -0.13599934284001289 0 -0.1472025074136572 -0.15425793701882759 0 -0.12556926213580591 -0.14819539131425 0 -0.1472025074136572 -0.15425793701882759 0 -0.12556926213580591 -0.14819539131425 0 -0.1323510983109932 -0.1578063382729708 0 -0.12835842175950049 -0.13599934284001289 0 -0.1472025074136572 -0.15425793701882759 0 -0.1205705302042656 -0.15805478357754499 0 -0.12556926213580591 -0.14819539131425 0 -0.1323510983109932 -0.1578063382729708 0 -0.1323510983109932 -0.1578063382729708 0 -0.12741167384211929 -0.16272938057423161 0 -0.13263510527145009 -0.1656363806030515 0 -0.1205705302042656 -0.15805478357754499 0 -0.1323510983109932 -0.1578063382729708 0 -0.12741167384211929 -0.16272938057423161 0 -0.12408996158176849 -0.16942001984335919 0 -0.12741167384211929 -0.16272938057423161 0 -0.13263510527145009 -0.1656363806030515 0 -0.12408996158176849 -0.16942001984335919 0 -0.13263510527145009 -0.1656363806030515 0 -0.13574162138348031 -0.1715625449670069 0 -0.13263510527145009 -0.1656363806030515 0 -0.13968839350630291 -0.16926402695270459 0 -0.143049410512533 -0.16410122574804761 0 -0.13263510527145009 -0.1656363806030515 0 -0.13574162138348031 -0.1715625449670069 0 -0.13968839350630291 -0.16926402695270459 0 -0.13574162138348031 -0.1715625449670069 0 -0.13968839350630291 -0.16926402695270459 0 -0.14152062218909181 -0.17356918119890891 0 -0.1323510983109932 -0.1578063382729708 0 -0.13263510527145009 -0.1656363806030515 0 -0.143049410512533 -0.16410122574804761 0 -0.1246827178545081 -0.19464822113178129 0 -0.12756975912747001 -0.1726283871918747 0 -0.13370796306822871 -0.18463235124839811 0 -0.12408996158176849 -0.16942001984335919 0 -0.12756975912747001 -0.1726283871918747 0 -0.1455559095565554 -0.17819815629499511 0 -0.13370796306822871 -0.18463235124839811 0 -0.1455559095565554 -0.17819815629499511 0 -0.1366976962130016 -0.1984323347437878 0 -0.12408996158176849 -0.16942001984335919 0 -0.13574162138348031 -0.1715625449670069 0 -0.1455559095565554 -0.17819815629499511 0 -0.12408996158176849 -0.16942001984335919 0 -0.1455559095565554 -0.17819815629499511 0 -0.12756975912747001 -0.1726283871918747 0 -0.13370796306822871 -0.18463235124839811 0 -0.1455559095565554 -0.17819815629499511 0 -0.1246827178545081 -0.19464822113178129 0 -0.12756975912747001 -0.1726283871918747 0 -0.13574162138348031 -0.1715625449670069 0 -0.1455559095565554 -0.17819815629499511 0 -0.14152062218909181 -0.17356918119890891 0 -0.1455559095565554 -0.17819815629499511 0 -0.1472745395858249 -0.1742724135576067 0 -0.1455559095565554 -0.17819815629499511 0 -0.14152062218909181 -0.17356918119890891 0 -0.14471762123797419 -0.17397916832303559 0 -0.14152062218909181 -0.17356918119890891 0 -0.14471762123797419 -0.17397916832303559 0 -0.14451941362042481 -0.16987692224063161 0 -0.1455559095565554 -0.17819815629499511 0 -0.14471762123797419 -0.17397916832303559 0 -0.1472745395858249 -0.1742724135576067 0 -0.14471762123797419 -0.17397916832303559 0 -0.1472745395858249 -0.1742724135576067 0 -0.14451941362042481 -0.16987692224063161 0 -0.1455559095565554 -0.17819815629499511 0 -0.1472745395858249 -0.1742724135576067 0 -0.15640249393939731 -0.17627354655828961 0 -0.1455559095565554 -0.17819815629499511 0 -0.16089157097852391 -0.18446941571928199 0 -0.15640249393939731 -0.17627354655828961 0 -0.1472745395858249 -0.1742724135576067 0 -0.15175005891316981 -0.16617482376350709 0 -0.15640249393939731 -0.17627354655828961 0 -0.1455559095565554 -0.17819815629499511 0 -0.16089157097852391 -0.18446941571928199 0 -0.1455559095565554 -0.17819815629499511 0 -0.16089157097852391 -0.18446941571928199 0 -0.15064003445489399 -0.19251494137683681 0 -0.1472025074136572 -0.15425793701882759 0 -0.1323510983109932 -0.1578063382729708 0 -0.143049410512533 -0.16410122574804761 0 -0.1472025074136572 -0.15425793701882759 0 -0.143049410512533 -0.16410122574804761 0 -0.15175005891316981 -0.16617482376350709 0 -0.1472745395858249 -0.1742724135576067 0 -0.14451941362042481 -0.16987692224063161 0 -0.15175005891316981 -0.16617482376350709 0 -0.143049410512533 -0.16410122574804761 0 -0.14451941362042481 -0.16987692224063161 0 -0.15175005891316981 -0.16617482376350709 0 -0.13968839350630291 -0.16926402695270459 0 -0.143049410512533 -0.16410122574804761 0 -0.14451941362042481 -0.16987692224063161 0 -0.13968839350630291 -0.16926402695270459 0 -0.14152062218909181 -0.17356918119890891 0 -0.14451941362042481 -0.16987692224063161 0 -0.1472025074136572 -0.15425793701882759 0 -0.15175005891316981 -0.16617482376350709 0 -0.15933844627008131 -0.15785182051318411 0 -0.15175005891316981 -0.16617482376350709 0 -0.15933844627008131 -0.15785182051318411 0 -0.16543377232546519 -0.1677840800067088 0 -0.15175005891316981 -0.16617482376350709 0 -0.16543377232546519 -0.1677840800067088 0 -0.15640249393939731 -0.17627354655828961 0 -0.15933844627008131 -0.15785182051318411 0 -0.16543377232546519 -0.1677840800067088 0 -0.17003142803650539 -0.15641578820396701 0 -0.16543377232546519 -0.1677840800067088 0 -0.17003142803650539 -0.15641578820396701 0 -0.1794826578012525 -0.16319670836666239 0 -0.16089157097852391 -0.18446941571928199 0 -0.15640249393939731 -0.17627354655828961 0 -0.16585092186476241 -0.17642149393906539 0 -0.16543377232546519 -0.1677840800067088 0 -0.15640249393939731 -0.17627354655828961 0 -0.16585092186476241 -0.17642149393906539 0 -0.16543377232546519 -0.1677840800067088 0 -0.16585092186476241 -0.17642149393906539 0 -0.17604831689514469 -0.17541545246068299 0 -0.16089157097852391 -0.18446941571928199 0 -0.16585092186476241 -0.17642149393906539 0 -0.17622723240049251 -0.19074067514356879 0 -0.17604831689514469 -0.17541545246068299 0 -0.17622723240049251 -0.19074067514356879 0 -0.19324700008375131 -0.17893430484740969 0 -0.17604831689514469 -0.17541545246068299 0 -0.1794826578012525 -0.16319670836666239 0 -0.19324700008375131 -0.17893430484740969 0 -0.16585092186476241 -0.17642149393906539 0 -0.17604831689514469 -0.17541545246068299 0 -0.17622723240049251 -0.19074067514356879 0 -0.1794826578012525 -0.16319670836666239 0 -0.18069535481033061 -0.14874572372866091 0 -0.1965861711368333 -0.16197058029353911 0 -0.16543377232546519 -0.1677840800067088 0 -0.17604831689514469 -0.17541545246068299 0 -0.1794826578012525 -0.16319670836666239 0 -0.18069535481033061 -0.14874572372866091 0 -0.18356594986894359 -0.13381293047135881 0 -0.16520690897539761 -0.14450060840461881 0 -0.17003142803650539 -0.15641578820396701 0 -0.18069535481033061 -0.14874572372866091 0 -0.16520690897539761 -0.14450060840461881 0 -0.17003142803650539 -0.15641578820396701 0 -0.1794826578012525 -0.16319670836666239 0 -0.18069535481033061 -0.14874572372866091 0 -0.18069535481033061 -0.14874572372866091 0 -0.18356594986894359 -0.13381293047135881 0 -0.19455058299827011 -0.14606977114215 0 -0.18356594986894359 -0.13381293047135881 0 -0.1689242121409685 -0.12811226758445601 0 -0.18112894721710859 -0.1151187810104322 0 -0.18356594986894359 -0.13381293047135881 0 -0.1689242121409685 -0.12811226758445601 0 -0.16520690897539761 -0.14450060840461881 0 -0.1524886220886042 -0.13276328462078951 0 -0.1689242121409685 -0.12811226758445601 0 -0.1596969610419974 -0.115217598968132 0 -0.1524886220886042 -0.13276328462078951 0 -0.1689242121409685 -0.12811226758445601 0 -0.16520690897539761 -0.14450060840461881 0 -0.1472025074136572 -0.15425793701882759 0 -0.15933844627008131 -0.15785182051318411 0 -0.16520690897539761 -0.14450060840461881 0 -0.15933844627008131 -0.15785182051318411 0 -0.17003142803650539 -0.15641578820396701 0 -0.16520690897539761 -0.14450060840461881 0 -0.14822282342019369 -0.26280282871250987 0 -0.14624722887204919 -0.24812456183528761 0 -0.16530228257869631 -0.23865896338888859 0 -0.14649083067695021 -0.23525371373910661 0 -0.14624722887204919 -0.24812456183528761 0 -0.16530228257869631 -0.23865896338888859 0 -0.14649083067695021 -0.23525371373910661 0 -0.14624722887204919 -0.24812456183528761 0 -0.13736917512936381 -0.24565494316745151 0 -0.13300922847988161 -0.25498986245784899 0 -0.13736917512936381 -0.24565494316745151 0 -0.12830487636215679 -0.24340640238721981 0 -0.13300922847988161 -0.25498986245784899 0 -0.14624722887204919 -0.24812456183528761 0 -0.13736917512936381 -0.24565494316745151 0 -0.13300922847988161 -0.25498986245784899 0 -0.1177956335395702 -0.247176896203187 0 -0.12830487636215679 -0.24340640238721981 0 -0.1188377532558344 -0.2392285155157903 0 -0.12825327233814299 -0.23689401461915119 0 -0.13018975907040331 -0.22941506754181851 0 -0.12825327233814299 -0.23689401461915119 0 -0.13581921289405099 -0.2372635159471817 0 -0.13018975907040331 -0.22941506754181851 0 -0.1188377532558344 -0.2392285155157903 0 -0.12830487636215679 -0.24340640238721981 0 -0.12825327233814299 -0.23689401461915119 0 -0.12830487636215679 -0.24340640238721981 0 -0.12825327233814299 -0.23689401461915119 0 -0.13581921289405099 -0.2372635159471817 0 -0.14649083067695021 -0.23525371373910661 0 -0.13736917512936381 -0.24565494316745151 0 -0.13581921289405099 -0.2372635159471817 0 -0.13736917512936381 -0.24565494316745151 0 -0.12830487636215679 -0.24340640238721981 0 -0.13581921289405099 -0.2372635159471817 0 -0.14649083067695021 -0.23525371373910661 0 -0.13581921289405099 -0.2372635159471817 0 -0.13789500317128239 -0.22829225746742399 0 -0.13581921289405099 -0.2372635159471817 0 -0.13789500317128239 -0.22829225746742399 0 -0.13018975907040331 -0.22941506754181851 0 -0.1188377532558344 -0.2392285155157903 0 -0.13018975907040331 -0.22941506754181851 0 -0.12783948286944791 -0.21866651319258079 0 -0.13018975907040331 -0.22941506754181851 0 -0.1328262592453581 -0.22031545150575629 0 -0.12783948286944791 -0.21866651319258079 0 -0.1328262592453581 -0.22031545150575629 0 -0.12783948286944791 -0.21866651319258079 0 -0.13789500317128239 -0.22829225746742399 0 -0.13018975907040331 -0.22941506754181851 0 -0.1328262592453581 -0.22031545150575629 0 -0.13789500317128239 -0.22829225746742399 0 -0.1328262592453581 -0.22031545150575629 0 -0.1414189215665633 -0.21938338093977361 0 -0.1414189215665633 -0.21938338093977361 0 -0.14664113939802231 -0.22493538372923369 0 -0.14941930060751929 -0.21649819293793859 0 -0.13789500317128239 -0.22829225746742399 0 -0.1414189215665633 -0.21938338093977361 0 -0.14664113939802231 -0.22493538372923369 0 -0.14649083067695021 -0.23525371373910661 0 -0.13789500317128239 -0.22829225746742399 0 -0.14664113939802231 -0.22493538372923369 0 -0.14649083067695021 -0.23525371373910661 0 -0.14664113939802231 -0.22493538372923369 0 -0.1580314787114882 -0.22200772931557949 0 -0.14664113939802231 -0.22493538372923369 0 -0.14941930060751929 -0.21649819293793859 0 -0.1580314787114882 -0.22200772931557949 0 -0.14941930060751929 -0.21649819293793859 0 -0.15785648016638701 -0.21040622411283369 0 -0.1580314787114882 -0.22200772931557949 0 -0.14941930060751929 -0.21649819293793859 0 -0.1516736022575319 -0.2037558580797911 0 -0.15785648016638701 -0.21040622411283369 0 -0.1516736022575319 -0.2037558580797911 0 -0.14326480543964371 -0.21051598374393121 0 -0.1366976962130016 -0.1984323347437878 0 -0.14941930060751929 -0.21649819293793859 0 -0.1516736022575319 -0.2037558580797911 0 -0.14326480543964371 -0.21051598374393121 0 -0.1414189215665633 -0.21938338093977361 0 -0.14941930060751929 -0.21649819293793859 0 -0.14326480543964371 -0.21051598374393121 0 -0.12783948286944791 -0.21866651319258079 0 -0.1366976962130016 -0.1984323347437878 0 -0.1414189215665633 -0.21938338093977361 0 -0.14326480543964371 -0.21051598374393121 0 -0.13683036475025101 -0.21425114692676961 0 -0.12179567658154079 -0.21666805507168721 0 -0.12783948286944791 -0.21866651319258079 0 -0.1366976962130016 -0.1984323347437878 0 -0.1246827178545081 -0.19464822113178129 0 -0.12179567658154079 -0.21666805507168721 0 -0.1366976962130016 -0.1984323347437878 0 -0.1328262592453581 -0.22031545150575629 0 -0.1414189215665633 -0.21938338093977361 0 -0.13683036475025101 -0.21425114692676961 0 -0.14326480543964371 -0.21051598374393121 0 -0.13683036475025101 -0.21425114692676961 0 -0.1366976962130016 -0.1984323347437878 0 -0.13683036475025101 -0.21425114692676961 0 -0.12783948286944791 -0.21866651319258079 0 -0.1366976962130016 -0.1984323347437878 0 -0.1328262592453581 -0.22031545150575629 0 -0.13683036475025101 -0.21425114692676961 0 -0.12783948286944791 -0.21866651319258079 0 -0.1246827178545081 -0.19464822113178129 0 -0.13370796306822871 -0.18463235124839811 0 -0.1366976962130016 -0.1984323347437878 0 -0.1455559095565554 -0.17819815629499511 0 -0.1366976962130016 -0.1984323347437878 0 -0.1455559095565554 -0.17819815629499511 0 -0.1366976962130016 -0.1984323347437878 0 -0.15064003445489399 -0.19251494137683681 0 -0.1516736022575319 -0.2037558580797911 0 -0.1366976962130016 -0.1984323347437878 0 -0.15064003445489399 -0.19251494137683681 0 -0.1516736022575319 -0.2037558580797911 0 -0.15064003445489399 -0.19251494137683681 0 -0.16120652868628421 -0.19860367177246219 0 -0.16120652868628421 -0.19860367177246219 0 -0.17622723240049251 -0.19074067514356879 0 -0.16836142100102089 -0.20854901913927901 0 -0.16089157097852391 -0.18446941571928199 0 -0.15064003445489399 -0.19251494137683681 0 -0.16120652868628421 -0.19860367177246219 0 -0.16089157097852391 -0.18446941571928199 0 -0.16120652868628421 -0.19860367177246219 0 -0.17622723240049251 -0.19074067514356879 0 -0.16089157097852391 -0.18446941571928199 0 -0.17622723240049251 -0.19074067514356879 0 -0.17622723240049251 -0.19074067514356879 0 -0.18238174173719909 -0.2145150980652675 0 -0.19371322047670581 -0.20171652472726359 0 -0.17622723240049251 -0.19074067514356879 0 -0.18238174173719909 -0.2145150980652675 0 -0.16836142100102089 -0.20854901913927901 0 -0.18238174173719909 -0.2145150980652675 0 -0.16836142100102089 -0.20854901913927901 0 -0.1580314787114882 -0.22200772931557949 0 -0.1516736022575319 -0.2037558580797911 0 -0.16120652868628421 -0.19860367177246219 0 -0.15785648016638701 -0.21040622411283369 0 -0.16120652868628421 -0.19860367177246219 0 -0.16836142100102089 -0.20854901913927901 0 -0.15785648016638701 -0.21040622411283369 0 -0.16836142100102089 -0.20854901913927901 0 -0.15785648016638701 -0.21040622411283369 0 -0.1580314787114882 -0.22200772931557949 0 -0.14649083067695021 -0.23525371373910661 0 -0.1580314787114882 -0.22200772931557949 0 -0.16530228257869631 -0.23865896338888859 0 -0.18238174173719909 -0.2145150980652675 0 -0.1580314787114882 -0.22200772931557949 0 -0.16530228257869631 -0.23865896338888859 0 -0.18238174173719909 -0.2145150980652675 0 -0.18724822437649599 -0.22810380179717771 0 -0.16530228257869631 -0.23865896338888859 0 -0.18238174173719909 -0.2145150980652675 0 -0.16530228257869631 -0.23865896338888859 0 -0.18238174173719909 -0.2145150980652675 0 -0.18724822437649599 -0.22810380179717771 0 -0.19187963214169551 -0.2176854108514869 0 -0.18724822437649599 -0.22810380179717771 0 -0.16530228257869631 -0.23865896338888859 0 -0.18964217591845089 -0.24002307996666741 0 -0.18743418515523 -0.25533469074381721 0 -0.16530228257869631 -0.23865896338888859 0 -0.18964217591845089 -0.24002307996666741 0 -0.2048048756623756 -0.2446353592032969 0 -0.19930459359238989 -0.235705483801466 0 -0.22465534115634961 -0.23539717771944699 0 -0.21906731033578741 -0.25070158993507968 0 -0.2048048756623756 -0.2446353592032969 0 -0.22465534115634961 -0.23539717771944699 0 -0.2005593250693537 -0.25610476117175518 0 -0.2048048756623756 -0.2446353592032969 0 -0.18964217591845089 -0.24002307996666741 0 -0.18724822437649599 -0.22810380179717771 0 -0.18964217591845089 -0.24002307996666741 0 -0.19930459359238989 -0.235705483801466 0 -0.2048048756623756 -0.2446353592032969 0 -0.18964217591845089 -0.24002307996666741 0 -0.19930459359238989 -0.235705483801466 0 -0.18724822437649599 -0.22810380179717771 0 -0.19930459359238989 -0.235705483801466 0 -0.19843574346264489 -0.22525364774296999 0 -0.18724822437649599 -0.22810380179717771 0 -0.19843574346264489 -0.22525364774296999 0 -0.19187963214169551 -0.2176854108514869 0 -0.19843574346264489 -0.22525364774296999 0 -0.20189072242181211 -0.21748823909478701 0 -0.19187963214169551 -0.2176854108514869 0 -0.19843574346264489 -0.22525364774296999 0 -0.22465534115634961 -0.23539717771944699 0 -0.19930459359238989 -0.235705483801466 0 -0.19843574346264489 -0.22525364774296999 0 -0.22465534115634961 -0.23539717771944699 0 -0.19843574346264489 -0.22525364774296999 0 -0.21536770064247759 -0.22243798692028979 0 -0.20189072242181211 -0.21748823909478701 0 -0.19843574346264489 -0.22525364774296999 0 -0.21536770064247759 -0.22243798692028979 0 -0.22465534115634961 -0.23539717771944699 0 -0.20189072242181211 -0.21748823909478701 0 -0.21001557487290889 -0.19328796380971491 0 -0.21270383698995579 -0.21051387846345429 0 -0.20189072242181211 -0.21748823909478701 0 -0.21001557487290889 -0.19328796380971491 0 -0.21270383698995579 -0.21051387846345429 0 -0.21001557487290889 -0.19328796380971491 0 -0.22354135002262451 -0.20884132402902569 0 -0.21536770064247759 -0.22243798692028979 0 -0.21270383698995579 -0.21051387846345429 0 -0.22354135002262451 -0.20884132402902569 0 -0.21536770064247759 -0.22243798692028979 0 -0.21270383698995579 -0.21051387846345429 0 -0.20189072242181211 -0.21748823909478701 0 -0.18238174173719909 -0.2145150980652675 0 -0.19187963214169551 -0.2176854108514869 0 -0.19371322047670581 -0.20171652472726359 0 -0.20189072242181211 -0.21748823909478701 0 -0.19187963214169551 -0.2176854108514869 0 -0.19371322047670581 -0.20171652472726359 0 -0.20189072242181211 -0.21748823909478701 0 -0.19371322047670581 -0.20171652472726359 0 -0.21001557487290889 -0.19328796380971491 0 -0.17622723240049251 -0.19074067514356879 0 -0.19371322047670581 -0.20171652472726359 0 -0.19324700008375131 -0.17893430484740969 0 -0.19371322047670581 -0.20171652472726359 0 -0.21001557487290889 -0.19328796380971491 0 -0.19324700008375131 -0.17893430484740969 0 -0.21001557487290889 -0.19328796380971491 0 -0.23591907458205519 -0.19542995464143861 0 -0.22767994049449819 -0.18174509567794089 0 -0.21001557487290889 -0.19328796380971491 0 -0.23591907458205519 -0.19542995464143861 0 -0.22354135002262451 -0.20884132402902569 0 -0.23591907458205519 -0.19542995464143861 0 -0.24335773859866999 -0.17795020623119681 0 -0.25679644190605699 -0.1905393474454489 0 -0.23591907458205519 -0.19542995464143861 0 -0.24570541750444611 -0.20365384048844229 0 -0.25679644190605699 -0.1905393474454489 0 -0.23591907458205519 -0.19542995464143861 0 -0.23608249851188659 -0.20857146949185959 0 -0.24570541750444611 -0.20365384048844229 0 -0.23608249851188659 -0.20857146949185959 0 -0.24570541750444611 -0.20365384048844229 0 -0.24424586726138789 -0.21499134116475049 0 -0.24570541750444611 -0.20365384048844229 0 -0.24424586726138789 -0.21499134116475049 0 -0.25548909831179262 -0.21099285230565479 0 -0.24424586726138789 -0.21499134116475049 0 -0.25548909831179262 -0.21099285230565479 0 -0.23608249851188659 -0.20857146949185959 0 -0.24424586726138789 -0.21499134116475049 0 -0.2310007831889194 -0.219940887135641 0 -0.23608249851188659 -0.20857146949185959 0 -0.22354135002262451 -0.20884132402902569 0 -0.2310007831889194 -0.219940887135641 0 -0.21536770064247759 -0.22243798692028979 0 -0.22354135002262451 -0.20884132402902569 0 -0.2310007831889194 -0.219940887135641 0 -0.23591907458205519 -0.19542995464143861 0 -0.23608249851188659 -0.20857146949185959 0 -0.22354135002262451 -0.20884132402902569 0 -0.21536770064247759 -0.22243798692028979 0 -0.2310007831889194 -0.219940887135641 0 -0.22465534115634961 -0.23539717771944699 0 -0.2310007831889194 -0.219940887135641 0 -0.2433660095851525 -0.23044163108109569 0 -0.22465534115634961 -0.23539717771944699 0 -0.24424586726138789 -0.21499134116475049 0 -0.2310007831889194 -0.219940887135641 0 -0.2433660095851525 -0.23044163108109569 0 -0.24424586726138789 -0.21499134116475049 0 -0.2433660095851525 -0.23044163108109569 0 -0.25452081017742878 -0.22614180484510349 0 -0.22465534115634961 -0.23539717771944699 0 -0.2508749388500553 -0.2455407076959211 0 -0.2433660095851525 -0.23044163108109569 0 -0.22465534115634961 -0.23539717771944699 0 -0.2508749388500553 -0.2455407076959211 0 -0.23447079457332121 -0.24898436209678301 0 -0.22465534115634961 -0.23539717771944699 0 -0.2508749388500553 -0.2455407076959211 0 -0.2433660095851525 -0.23044163108109569 0 -0.25355252204306261 -0.241290757384552 0 -0.2508749388500553 -0.2455407076959211 0 -0.21906731033578741 -0.25070158993507968 0 -0.23447079457332121 -0.24898436209678301 0 -0.22465534115634961 -0.23539717771944699 0 -0.20647250412512971 -0.15147058889104509 0 -0.21613294869622879 -0.1461603489838659 0 -0.21814042732400579 -0.1690876885246427 0 -0.20647250412512971 -0.15147058889104509 0 -0.21613294869622879 -0.1461603489838659 0 -0.206688954852211 -0.13473057537224181 0 -0.21845458409954291 -0.12604013330062239 0 -0.206688954852211 -0.13473057537224181 0 -0.20991044862124339 -0.1190109332681611 0 -0.21613294869622879 -0.1461603489838659 0 -0.218128301644437 -0.1353122830204436 0 -0.206688954852211 -0.13473057537224181 0 -0.206688954852211 -0.13473057537224181 0 -0.20991044862124339 -0.1190109332681611 0 -0.19586007103591679 -0.1247770029037971 0 -0.218128301644437 -0.1353122830204436 0 -0.21845458409954291 -0.12604013330062239 0 -0.206688954852211 -0.13473057537224181 0 -0.206688954852211 -0.13473057537224181 0 -0.19540057533775049 -0.13501679649543091 0 -0.19455058299827011 -0.14606977114215 0 -0.206688954852211 -0.13473057537224181 0 -0.19540057533775049 -0.13501679649543091 0 -0.19586007103591679 -0.1247770029037971 0 -0.18356594986894359 -0.13381293047135881 0 -0.19540057533775049 -0.13501679649543091 0 -0.19586007103591679 -0.1247770029037971 0 -0.18356594986894359 -0.13381293047135881 0 -0.19540057533775049 -0.13501679649543091 0 -0.19455058299827011 -0.14606977114215 0 -0.20647250412512971 -0.15147058889104509 0 -0.206688954852211 -0.13473057537224181 0 -0.19455058299827011 -0.14606977114215 0 -0.20647250412512971 -0.15147058889104509 0 -0.19455058299827011 -0.14606977114215 0 -0.1965861711368333 -0.16197058029353911 0 -0.18069535481033061 -0.14874572372866091 0 -0.19455058299827011 -0.14606977114215 0 -0.1965861711368333 -0.16197058029353911 0 -0.1965861711368333 -0.16197058029353911 0 -0.19324700008375131 -0.17893430484740969 0 -0.21814042732400579 -0.1690876885246427 0 -0.1794826578012525 -0.16319670836666239 0 -0.1965861711368333 -0.16197058029353911 0 -0.19324700008375131 -0.17893430484740969 0 -0.21001557487290889 -0.19328796380971491 0 -0.19324700008375131 -0.17893430484740969 0 -0.21814042732400579 -0.1690876885246427 0 -0.21001557487290889 -0.19328796380971491 0 -0.21814042732400579 -0.1690876885246427 0 -0.22767994049449819 -0.18174509567794089 0 -0.21001557487290889 -0.19328796380971491 0 -0.21814042732400579 -0.1690876885246427 0 -0.20647250412512971 -0.15147058889104509 0 -0.1965861711368333 -0.16197058029353911 0 -0.21814042732400579 -0.1690876885246427 0 -0.21814042732400579 -0.1690876885246427 0 -0.23473796852886819 -0.16638720245670149 0 -0.23119356365244409 -0.15609640656643189 0 -0.21814042732400579 -0.1690876885246427 0 -0.23119356365244409 -0.15609640656643189 0 -0.22584502124280981 -0.14937094540269141 0 -0.21814042732400579 -0.1690876885246427 0 -0.22626527977510219 -0.1448874132395703 0 -0.21814042732400579 -0.1690876885246427 0 -0.22767994049449819 -0.18174509567794089 0 -0.23473796852886819 -0.16638720245670149 0 -0.22767994049449819 -0.18174509567794089 0 -0.24335773859866999 -0.17795020623119681 0 -0.23473796852886819 -0.16638720245670149 0 -0.23591907458205519 -0.19542995464143861 0 -0.22767994049449819 -0.18174509567794089 0 -0.24335773859866999 -0.17795020623119681 0 -0.23473796852886819 -0.16638720245670149 0 -0.24734168404742271 -0.16275892500173689 0 -0.2413608824693293 -0.1485638438256556 0 -0.23473796852886819 -0.16638720245670149 0 -0.2413608824693293 -0.1485638438256556 0 -0.23119356365244409 -0.15609640656643189 0 -0.24335773859866999 -0.17795020623119681 0 -0.23473796852886819 -0.16638720245670149 0 -0.24734168404742271 -0.16275892500173689 0 -0.24335773859866999 -0.17795020623119681 0 -0.24734168404742271 -0.16275892500173689 0 -0.2581037855003222 -0.17008584258524309 0 -0.2413608824693293 -0.1485638438256556 0 -0.24277308062338879 -0.13254810589866539 0 -0.25618789271048981 -0.1532063786790292 0 -0.24277308062338879 -0.13254810589866539 0 -0.25618789271048981 -0.1532063786790292 0 -0.24734168404742271 -0.16275892500173689 0 -0.2413608824693293 -0.1485638438256556 0 -0.25618789271048981 -0.1532063786790292 0 -0.2413608824693293 -0.1485638438256556 0 -0.23406028084897451 -0.14701145609064101 0 -0.2360901748165703 -0.13968341831247791 0 -0.2413608824693293 -0.1485638438256556 0 -0.23119356365244409 -0.15609640656643189 0 -0.23406028084897451 -0.14701145609064101 0 -0.23119356365244409 -0.15609640656643189 0 -0.23406028084897451 -0.14701145609064101 0 -0.22969644782396911 -0.14814498681522489 0 -0.21613294869622879 -0.1461603489838659 0 -0.21814042732400579 -0.1690876885246427 0 -0.22626527977510219 -0.1448874132395703 0 -0.21814042732400579 -0.1690876885246427 0 -0.22626527977510219 -0.1448874132395703 0 -0.22584502124280981 -0.14937094540269141 0 -0.23119356365244409 -0.15609640656643189 0 -0.22969644782396911 -0.14814498681522489 0 -0.22584502124280981 -0.14937094540269141 0 -0.23406028084897451 -0.14701145609064101 0 -0.23111809360051491 -0.1433587127767898 0 -0.22969644782396911 -0.14814498681522489 0 -0.23111809360051491 -0.1433587127767898 0 -0.2281709433091432 -0.13921130005448981 0 -0.2360901748165703 -0.13968341831247791 0 -0.23406028084897451 -0.14701145609064101 0 -0.23111809360051491 -0.1433587127767898 0 -0.2360901748165703 -0.13968341831247791 0 -0.22626527977510219 -0.1448874132395703 0 -0.2281709433091432 -0.13921130005448981 0 -0.23111809360051491 -0.1433587127767898 0 -0.22626527977510219 -0.1448874132395703 0 -0.2281709433091432 -0.13921130005448981 0 -0.23111809360051491 -0.1433587127767898 0 -0.22969644782396911 -0.14814498681522489 0 -0.22626527977510219 -0.1448874132395703 0 -0.22969644782396911 -0.14814498681522489 0 -0.22626527977510219 -0.1448874132395703 0 -0.22584502124280981 -0.14937094540269141 0 -0.22626527977510219 -0.1448874132395703 0 -0.22584502124280981 -0.14937094540269141 0 -0.21613294869622879 -0.1461603489838659 0 -0.22626527977510219 -0.1448874132395703 0 -0.22208457606786569 -0.13868716710570389 0 -0.22626527977510219 -0.1448874132395703 0 -0.22781177415569501 -0.12838862317893579 0 -0.22626527977510219 -0.1448874132395703 0 -0.22208457606786569 -0.13868716710570389 0 -0.22781177415569501 -0.12838862317893579 0 -0.22626527977510219 -0.1448874132395703 0 -0.2281709433091432 -0.13921130005448981 0 -0.22781177415569501 -0.12838862317893579 0 -0.218128301644437 -0.1353122830204436 0 -0.21845458409954291 -0.12604013330062239 0 -0.22781177415569501 -0.12838862317893579 0 -0.218128301644437 -0.1353122830204436 0 -0.22208457606786569 -0.13868716710570389 0 -0.22781177415569501 -0.12838862317893579 0 -0.21613294869622879 -0.1461603489838659 0 -0.218128301644437 -0.1353122830204436 0 -0.22208457606786569 -0.13868716710570389 0 -0.2281709433091432 -0.13921130005448981 0 -0.22781177415569501 -0.12838862317893579 0 -0.2360901748165703 -0.13968341831247791 0 -0.2413608824693293 -0.1485638438256556 0 -0.2360901748165703 -0.13968341831247791 0 -0.24277308062338879 -0.13254810589866539 0 -0.22781177415569501 -0.12838862317893579 0 -0.2360901748165703 -0.13968341831247791 0 -0.24277308062338879 -0.13254810589866539 0 -0.24277308062338879 -0.13254810589866539 0 -0.22935826853628791 -0.1118898331183014 0 -0.25163358583954409 -0.1156279226251417 0 -0.24277308062338879 -0.13254810589866539 0 -0.22935826853628791 -0.1118898331183014 0 -0.2493548319983401 -0.096664578098757323 0 -0.22935826853628791 -0.1118898331183014 0 -0.25163358583954409 -0.1156279226251417 0 -0.2493548319983401 -0.096664578098757323 0 -0.22935826853628791 -0.1118898331183014 0 -0.231523661282489 -0.088788319936804749 0 -0.22935826853628791 -0.1118898331183014 0 -0.231523661282489 -0.088788319936804749 0 -0.22935826853628791 -0.1118898331183014 0 -0.2184053613240505 -0.095022795141230132 0 -0.2097070711250191 -0.1063660629498691 0 -0.22935826853628791 -0.1118898331183014 0 -0.2184053613240505 -0.095022795141230132 0 -0.22935826853628791 -0.1118898331183014 0 -0.231523661282489 -0.088788319936804749 0 -0.2184053613240505 -0.095022795141230132 0 -0.22781177415569501 -0.12838862317893579 0 -0.22935826853628791 -0.1118898331183014 0 -0.22781177415569501 -0.12838862317893579 0 -0.24277308062338879 -0.13254810589866539 0 -0.22935826853628791 -0.1118898331183014 0 -0.21845458409954291 -0.12604013330062239 0 -0.22781177415569501 -0.12838862317893579 0 -0.22935826853628791 -0.1118898331183014 0 -0.21845458409954291 -0.12604013330062239 0 -0.22935826853628791 -0.1118898331183014 0 -0.20991044862124339 -0.1190109332681611 0 -0.23321003353932079 -0.070797241418383311 0 -0.24828530763826279 -0.051584040575180221 0 -0.25531714365595642 -0.074971307581390312 0 -0.2424724364444486 -0.082223365508721141 0 -0.23321003353932079 -0.070797241418383311 0 -0.25531714365595642 -0.074971307581390312 0 -0.2493548319983401 -0.096664578098757323 0 -0.2424724364444486 -0.082223365508721141 0 -0.25531714365595642 -0.074971307581390312 0 -0.2493548319983401 -0.096664578098757323 0 -0.231523661282489 -0.088788319936804749 0 -0.2493548319983401 -0.096664578098757323 0 -0.2424724364444486 -0.082223365508721141 0 -0.231523661282489 -0.088788319936804749 0 -0.2424724364444486 -0.082223365508721141 0 -0.231523661282489 -0.088788319936804749 0 -0.23321003353932079 -0.070797241418383311 0 -0.231523661282489 -0.088788319936804749 0 -0.23321003353932079 -0.070797241418383311 0 -0.231523661282489 -0.088788319936804749 0 -0.20745245411181459 -0.078155757164157763 0 -0.231523661282489 -0.088788319936804749 0 -0.20745245411181459 -0.078155757164157763 0 -0.2184053613240505 -0.095022795141230132 0 -0.231523661282489 -0.088788319936804749 0 -0.23321003353932079 -0.070797241418383311 0 -0.21478726858614 -0.066781687221112745 0 -0.23321003353932079 -0.070797241418383311 0 -0.21478726858614 -0.066781687221112745 0 -0.2169497607041678 -0.052249112661681682 0 -0.231523661282489 -0.088788319936804749 0 -0.21478726858614 -0.066781687221112745 0 -0.20745245411181459 -0.078155757164157763 0 -0.21478726858614 -0.066781687221112745 0 -0.20141308401829969 -0.068855369353781296 0 -0.2070838380507114 -0.058748383797045611 0 -0.21478726858614 -0.066781687221112745 0 -0.20745245411181459 -0.078155757164157763 0 -0.20141308401829969 -0.068855369353781296 0 -0.20745245411181459 -0.078155757164157763 0 -0.20141308401829969 -0.068855369353781296 0 -0.20745245411181459 -0.078155757164157763 0 -0.20289946492245681 -0.074410549110722979 0 -0.20141308401829969 -0.068855369353781296 0 -0.20745245411181459 -0.078155757164157763 0 -0.2184053613240505 -0.095022795141230132 0 -0.20745245411181459 -0.078155757164157763 0 -0.2184053613240505 -0.095022795141230132 0 -0.19298119094755789 -0.095357818724104287 0 -0.20745245411181459 -0.078155757164157763 0 -0.19298119094755789 -0.095357818724104287 0 -0.18710832599155541 -0.069169493294640894 0 -0.20745245411181459 -0.078155757164157763 0 -0.18710832599155541 -0.069169493294640894 0 -0.20745245411181459 -0.078155757164157763 0 -0.20289946492245681 -0.074410549110722979 0 -0.18710832599155541 -0.069169493294640894 0 -0.20289946492245681 -0.074410549110722979 0 -0.20141308401829969 -0.068855369353781296 0 -0.18710832599155541 -0.069169493294640894 0 -0.20289946492245681 -0.074410549110722979 0 -0.20141308401829969 -0.068855369353781296 0 -0.22935826853628791 -0.1118898331183014 0 -0.20991044862124339 -0.1190109332681611 0 -0.2097070711250191 -0.1063660629498691 0 -0.20991044862124339 -0.1190109332681611 0 -0.2097070711250191 -0.1063660629498691 0 -0.19788008619595601 -0.1105489344975485 0 -0.2184053613240505 -0.095022795141230132 0 -0.2097070711250191 -0.1063660629498691 0 -0.19298119094755789 -0.095357818724104287 0 -0.19298119094755789 -0.095357818724104287 0 -0.19788008619595601 -0.1105489344975485 0 -0.18112894721710859 -0.1151187810104322 0 -0.2097070711250191 -0.1063660629498691 0 -0.19298119094755789 -0.095357818724104287 0 -0.19788008619595601 -0.1105489344975485 0 -0.19788008619595601 -0.1105489344975485 0 -0.19586007103591679 -0.1247770029037971 0 -0.18112894721710859 -0.1151187810104322 0 -0.20991044862124339 -0.1190109332681611 0 -0.19788008619595601 -0.1105489344975485 0 -0.19586007103591679 -0.1247770029037971 0 -0.18356594986894359 -0.13381293047135881 0 -0.19586007103591679 -0.1247770029037971 0 -0.18112894721710859 -0.1151187810104322 0 -0.1689242121409685 -0.12811226758445601 0 -0.18112894721710859 -0.1151187810104322 0 -0.1596969610419974 -0.115217598968132 0 -0.18112894721710859 -0.1151187810104322 0 -0.1596969610419974 -0.115217598968132 0 -0.1687930352002078 -0.1021784185688939 0 -0.1596969610419974 -0.115217598968132 0 -0.1687930352002078 -0.1021784185688939 0 -0.14902926906602759 -0.1045390916949077 0 -0.19298119094755789 -0.095357818724104287 0 -0.1687930352002078 -0.1021784185688939 0 -0.1727391006086805 -0.086974815146220186 0 -0.19298119094755789 -0.095357818724104287 0 -0.18112894721710859 -0.1151187810104322 0 -0.1687930352002078 -0.1021784185688939 0 -0.19298119094755789 -0.095357818724104287 0 -0.1727391006086805 -0.086974815146220186 0 -0.18710832599155541 -0.069169493294640894 0 -0.1727391006086805 -0.086974815146220186 0 -0.18710832599155541 -0.069169493294640894 0 -0.16676419787129551 -0.060183229425125308 0 -0.18710832599155541 -0.069169493294640894 0 -0.16676419787129551 -0.060183229425125308 0 -0.1727391006086805 -0.086974815146220186 0 -0.15082416829960299 -0.085257964416209378 0 -0.16676419787129551 -0.060183229425125308 0 -0.1687930352002078 -0.1021784185688939 0 -0.1727391006086805 -0.086974815146220186 0 -0.15082416829960299 -0.085257964416209378 0 -0.1727391006086805 -0.086974815146220186 0 -0.15082416829960299 -0.085257964416209378 0 -0.15082416829960299 -0.085257964416209378 0 -0.14507196007391221 -0.068686501726111959 0 -0.12890923599052551 -0.08354111368619857 0 -0.15082416829960299 -0.085257964416209378 0 -0.14507196007391221 -0.068686501726111959 0 -0.16676419787129551 -0.060183229425125308 0 -0.14507196007391221 -0.068686501726111959 0 -0.12784166275969169 -0.065397409203157134 0 -0.12890923599052551 -0.08354111368619857 0 -0.15082416829960299 -0.085257964416209378 0 -0.12890923599052551 -0.08354111368619857 0 -0.1244559523629037 -0.1000842215631873 0 -0.12890923599052551 -0.08354111368619857 0 -0.1371346349346631 -0.096969913918606113 0 -0.15082416829960299 -0.085257964416209378 0 -0.12890923599052551 -0.08354111368619857 0 -0.1371346349346631 -0.096969913918606113 0 -0.1371346349346631 -0.096969913918606113 0 -0.13245454895425601 -0.11142717823252769 0 -0.14902926906602759 -0.1045390916949077 0 -0.1244559523629037 -0.1000842215631873 0 -0.1371346349346631 -0.096969913918606113 0 -0.13245454895425601 -0.11142717823252769 0 -0.12835842175950049 -0.13599934284001289 0 -0.13245454895425601 -0.11142717823252769 0 -0.1444055645820771 -0.119989299271274 0 -0.13245454895425601 -0.11142717823252769 0 -0.1444055645820771 -0.119989299271274 0 -0.14902926906602759 -0.1045390916949077 0 -0.1524886220886042 -0.13276328462078951 0 -0.1596969610419974 -0.115217598968132 0 -0.1444055645820771 -0.119989299271274 0 -0.1596969610419974 -0.115217598968132 0 -0.1444055645820771 -0.119989299271274 0 -0.14902926906602759 -0.1045390916949077 0 -0.15082416829960299 -0.085257964416209378 0 -0.1371346349346631 -0.096969913918606113 0 -0.14902926906602759 -0.1045390916949077 0 -0.1687930352002078 -0.1021784185688939 0 -0.15082416829960299 -0.085257964416209378 0 -0.14902926906602759 -0.1045390916949077 0 -0.1522462682033088 -0.030536671647398341 0 -0.13956546447946969 -0.01381685178342865 0 -0.16139484457369621 -0.0072288850416046789 0 -0.1522462682033088 -0.030536671647398341 0 -0.13002286364664609 -0.031316149569472977 0 -0.14385230174742869 -0.0007513362545505406 0 -0.13956546447946969 -0.01381685178342865 0 -0.16139484457369621 -0.0072288850416046789 0 -0.1236901537548759 -0.01489206594046069 0 -0.13956546447946969 -0.01381685178342865 0 -0.1322115625968833 -0.0048588272694234684 0 -0.14385230174742869 -0.0007513362545505406 0 -0.13956546447946969 -0.01381685178342865 0 -0.1322115625968833 -0.0048588272694234684 0 -0.1202061722546995 -0.0013910732862858659 0 -0.1236901537548759 -0.01489206594046069 0 -0.1322115625968833 -0.0048588272694234684 0 -0.1522462682033088 -0.030536671647398341 0 -0.13956546447946969 -0.01381685178342865 0 -0.13002286364664609 -0.031316149569472977 0 -0.1236901537548759 -0.01489206594046069 0 -0.13956546447946969 -0.01381685178342865 0 -0.13002286364664609 -0.031316149569472977 0 -0.13002286364664609 -0.031316149569472977 0 -0.12829464659483969 -0.044786120536291239 0 -0.13518520022511479 -0.039583635768891581 0 -0.1186500533871072 -0.046748107695021912 0 -0.13002286364664609 -0.031316149569472977 0 -0.12829464659483969 -0.044786120536291239 0 -0.12829464659483969 -0.044786120536291239 0 -0.13518520022511479 -0.039583635768891581 0 -0.1369369142125357 -0.047008133403114889 0 -0.13518520022511479 -0.039583635768891581 0 -0.1392621047143994 -0.042556129524621678 0 -0.14336191467497769 -0.037629483116148242 0 -0.1392621047143994 -0.042556129524621678 0 -0.1369369142125357 -0.047008133403114889 0 -0.14075636025241151 -0.048695231997206517 0 -0.13518520022511479 -0.039583635768891581 0 -0.1392621047143994 -0.042556129524621678 0 -0.1369369142125357 -0.047008133403114889 0 -0.13002286364664609 -0.031316149569472977 0 -0.13518520022511479 -0.039583635768891581 0 -0.14336191467497769 -0.037629483116148242 0 -0.1250098080103795 -0.064146542423957634 0 -0.14075636025241151 -0.048695231997206517 0 -0.1250098080103795 -0.064146542423957634 0 -0.12829464659483969 -0.044786120536291239 0 -0.1369369142125357 -0.047008133403114889 0 -0.12784166275969169 -0.065397409203157134 0 -0.1464200697510368 -0.051196965555607002 0 -0.1250098080103795 -0.064146542423957634 0 -0.12784166275969169 -0.065397409203157134 0 -0.14075636025241151 -0.048695231997206517 0 -0.12784166275969169 -0.065397409203157134 0 -0.1464200697510368 -0.051196965555607002 0 -0.14075636025241151 -0.048695231997206517 0 -0.14507196007391221 -0.068686501726111959 0 -0.12784166275969169 -0.065397409203157134 0 -0.1464200697510368 -0.051196965555607002 0 -0.1250098080103795 -0.064146542423957634 0 -0.1369369142125357 -0.047008133403114889 0 -0.14075636025241151 -0.048695231997206517 0 -0.1369369142125357 -0.047008133403114889 0 -0.14075636025241151 -0.048695231997206517 0 -0.14507196007391221 -0.068686501726111959 0 -0.1464200697510368 -0.051196965555607002 0 -0.16676419787129551 -0.060183229425125308 0 -0.1464200697510368 -0.051196965555607002 0 -0.14075636025241151 -0.048695231997206517 0 -0.1464200697510368 -0.051196965555607002 0 -0.14075636025241151 -0.048695231997206517 0 -0.15783106420910831 -0.031940672191056493 0 -0.14075636025241151 -0.048695231997206517 0 -0.15783106420910831 -0.031940672191056493 0 -0.1522462682033088 -0.030536671647398341 0 -0.13002286364664609 -0.031316149569472977 0 -0.14336191467497769 -0.037629483116148242 0 -0.1464200697510368 -0.051196965555607002 0 -0.15783106420910831 -0.031940672191056493 0 -0.1604448712555035 -0.040477079640464063 0 -0.14075636025241151 -0.048695231997206517 0 -0.14336191467497769 -0.037629483116148242 0 -0.15783106420910831 -0.031940672191056493 0 -0.1392621047143994 -0.042556129524621678 0 -0.14075636025241151 -0.048695231997206517 0 -0.14336191467497769 -0.037629483116148242 0 -0.1464200697510368 -0.051196965555607002 0 -0.1604448712555035 -0.040477079640464063 0 -0.1522462682033088 -0.030536671647398341 0 -0.14336191467497769 -0.037629483116148242 0 -0.15783106420910831 -0.031940672191056493 0 -0.15783106420910831 -0.031940672191056493 0 -0.1604448712555035 -0.040477079640464063 0 -0.17446967275997149 -0.02975719372532281 0 -0.1604448712555035 -0.040477079640464063 0 -0.17446967275997149 -0.02975719372532281 0 -0.1604448712555035 -0.040477079640464063 0 -0.17327387193615071 -0.04188020461511538 0 -0.17446967275997149 -0.02975719372532281 0 -0.1464200697510368 -0.051196965555607002 0 -0.16676419787129551 -0.060183229425125308 0 -0.1464200697510368 -0.051196965555607002 0 -0.1604448712555035 -0.040477079640464063 0 -0.16676419787129551 -0.060183229425125308 0 -0.1604448712555035 -0.040477079640464063 0 -0.16676419787129551 -0.060183229425125308 0 -0.17327387193615071 -0.04188020461511538 0 -0.16676419787129551 -0.060183229425125308 0 -0.17327387193615071 -0.04188020461511538 0 -0.18870123393742691 -0.049279629879483228 0 -0.18710832599155541 -0.069169493294640894 0 -0.16676419787129551 -0.060183229425125308 0 -0.18870123393742691 -0.049279629879483228 0 -0.17598938385655671 -0.029703890405183571 0 -0.18870123393742691 -0.049279629879483228 0 -0.17598938385655671 -0.029703890405183571 0 -0.19079847307895539 -0.029184466926863321 0 -0.18870123393742691 -0.049279629879483228 0 -0.17327387193615071 -0.04188020461511538 0 -0.17598938385655671 -0.029703890405183571 0 -0.18870123393742691 -0.049279629879483228 0 -0.17327387193615071 -0.04188020461511538 0 -0.17598938385655671 -0.029703890405183571 0 -0.17446967275997149 -0.02975719372532281 0 -0.18539455334725249 -0.021406738747767069 0 -0.1854614521429454 -0.0092379575340169606 0 -0.19079847307895539 -0.029184466926863321 0 -0.17598938385655671 -0.029703890405183571 0 -0.19079847307895539 -0.029184466926863321 0 -0.18539455334725249 -0.021406738747767069 0 -0.17598938385655671 -0.029703890405183571 0 -0.19079847307895539 -0.029184466926863321 0 -0.18539455334725249 -0.021406738747767069 0 -0.17446967275997149 -0.02975719372532281 0 -0.17524180425740291 -0.0061600029170402653 0 -0.18539455334725249 -0.021406738747767069 0 -0.17446967275997149 -0.02975719372532281 0 -0.18539455334725249 -0.021406738747767069 0 -0.17598938385655671 -0.029703890405183571 0 -0.17446967275997149 -0.02975719372532281 0 -0.17598938385655671 -0.029703890405183571 0 -0.17446967275997149 -0.02975719372532281 0 -0.1522462682033088 -0.030536671647398341 0 -0.17446967275997149 -0.02975719372532281 0 -0.16139484457369621 -0.0072288850416046789 0 -0.17446967275997149 -0.02975719372532281 0 -0.16139484457369621 -0.0072288850416046789 0 -0.1522462682033088 -0.030536671647398341 0 -0.17446967275997149 -0.02975719372532281 0 -0.1522462682033088 -0.030536671647398341 0 -0.15783106420910831 -0.031940672191056493 0 -0.17446967275997149 -0.02975719372532281 0 -0.17446967275997149 -0.02975719372532281 0 -0.16139484457369621 -0.0072288850416046789 0 -0.17524180425740291 -0.0061600029170402653 0 -0.16139484457369621 -0.0072288850416046789 0 -0.17524180425740291 -0.0061600029170402653 0 -0.16490393677323331 0.0078262417282228373 0 -0.17524180425740291 -0.0061600029170402653 0 -0.1854614521429454 -0.0092379575340169606 0 -0.18012443120693261 0.010708551858828731 0 -0.18539455334725249 -0.021406738747767069 0 -0.17524180425740291 -0.0061600029170402653 0 -0.1854614521429454 -0.0092379575340169606 0 -0.1854614521429454 -0.0092379575340169606 0 -0.20542491620194561 -0.011278839017610971 0 -0.19633944426408809 0.00466060732896001 0 -0.1854614521429454 -0.0092379575340169606 0 -0.19079847307895539 -0.029184466926863321 0 -0.1854614521429454 -0.0092379575340169606 0 -0.19079847307895539 -0.029184466926863321 0 -0.20542491620194561 -0.011278839017610971 0 -0.19079847307895539 -0.029184466926863321 0 -0.21861276184950679 -0.028208890751774539 0 -0.20542491620194561 -0.011278839017610971 0 -0.21861276184950679 -0.028208890751774539 0 -0.20542491620194561 -0.011278839017610971 0 -0.22558477193685969 -0.009933186482104249 0 -0.19079847307895539 -0.029184466926863321 0 -0.21861276184950679 -0.028208890751774539 0 -0.20542491620194561 -0.011278839017610971 0 -0.22558477193685969 -0.009933186482104249 0 -0.2149907176199192 0.011062683029353881 0 -0.20141308401829969 -0.068855369353781296 0 -0.19610577854862901 -0.049019918140321958 0 -0.2070838380507114 -0.058748383797045611 0 -0.20141308401829969 -0.068855369353781296 0 -0.18870123393742691 -0.049279629879483228 0 -0.19610577854862901 -0.049019918140321958 0 -0.20141308401829969 -0.068855369353781296 0 -0.18710832599155541 -0.069169493294640894 0 -0.18870123393742691 -0.049279629879483228 0 -0.20141308401829969 -0.068855369353781296 0 -0.18870123393742691 -0.049279629879483228 0 -0.20141308401829969 -0.068855369353781296 0 -0.19610577854862901 -0.049019918140321958 0 -0.19079847307895539 -0.029184466926863321 0 -0.18870123393742691 -0.049279629879483228 0 -0.19610577854862901 -0.049019918140321958 0 -0.19079847307895539 -0.029184466926863321 0 -0.19610577854862901 -0.049019918140321958 0 -0.19079847307895539 -0.029184466926863321 0 -0.21861276184950679 -0.028208890751774539 0 -0.19610577854862901 -0.049019918140321958 0 -0.21861276184950679 -0.028208890751774539 0 -0.19610577854862901 -0.049019918140321958 0 -0.2169497607041678 -0.052249112661681682 0 -0.19610577854862901 -0.049019918140321958 0 -0.2169497607041678 -0.052249112661681682 0 -0.2070838380507114 -0.058748383797045611 0 -0.21478726858614 -0.066781687221112745 0 -0.2169497607041678 -0.052249112661681682 0 -0.2070838380507114 -0.058748383797045611 0 -0.23321003353932079 -0.070797241418383311 0 -0.2169497607041678 -0.052249112661681682 0 -0.23247422093469311 -0.041133899759398941 0 -0.21861276184950679 -0.028208890751774539 0 -0.2169497607041678 -0.052249112661681682 0 -0.23247422093469311 -0.041133899759398941 0 -0.21861276184950679 -0.028208890751774539 0 -0.23247422093469311 -0.041133899759398941 0 -0.2464270506200581 -0.027233314576685139 0 -0.23247422093469311 -0.041133899759398941 0 -0.24828530763826279 -0.051584040575180221 0 -0.2464270506200581 -0.027233314576685139 0 -0.23321003353932079 -0.070797241418383311 0 -0.23247422093469311 -0.041133899759398941 0 -0.24828530763826279 -0.051584040575180221 0 -0.22558477193685969 -0.009933186482104249 0 -0.2464270506200581 -0.027233314576685139 0 -0.24246841339286879 0.0059924289061955363 0 -0.21861276184950679 -0.028208890751774539 0 -0.22558477193685969 -0.009933186482104249 0 -0.2464270506200581 -0.027233314576685139 0 -0.21861276184950679 -0.028208890751774539 0 -0.2464270506200581 -0.027233314576685139 0 -0.2464270506200581 -0.027233314576685139 0 -0.26443112001241381 -0.020350268851713441 0 -0.24246841339286879 0.0059924289061955363 0 -0.26443112001241381 -0.020350268851713441 0 -0.26911410456075963 -0.001652876283316057 0 -0.24246841339286879 0.0059924289061955363 0 -0.26443112001241381 -0.020350268851713441 0 -0.26911410456075963 -0.001652876283316057 0 -0.29575979572865052 -0.0092981814728276511 0 -0.2464270506200581 -0.027233314576685139 0 -0.26443112001241381 -0.020350268851713441 0 -0.26916148591006978 -0.041856245625770991 0 -0.26443112001241381 -0.020350268851713441 0 -0.29575979572865052 -0.0092981814728276511 0 -0.28915675258221801 -0.031754499233899808 0 -0.26911410456075963 -0.001652876283316057 0 -0.29575979572865052 -0.0092981814728276511 0 -0.29575979572865052 -0.0092981814728276511 0 -0.30815371520163692 -0.024326627271317871 0 -0.32240548689654142 -0.01694348666233925 0 -0.29575979572865052 -0.0092981814728276511 0 -0.30815371520163692 -0.024326627271317871 0 -0.28915675258221801 -0.031754499233899808 0 -0.29575979572865052 -0.0092981814728276511 0 -0.32240548689654142 -0.01694348666233925 0 -0.31220577089506368 0.0041333438482760278 0 -0.29575979572865052 -0.0092981814728276511 0 -0.32240548689654142 -0.01694348666233925 0 -0.29368674174058929 -0.05400007974786248 0 -0.31092605907352588 -0.06970903289046676 0 -0.31767223660373028 -0.050895013471995758 0 -0.307937244703966 -0.03791731525926112 0 -0.29368674174058929 -0.05400007974786248 0 -0.31767223660373028 -0.050895013471995758 0 -0.307937244703966 -0.03791731525926112 0 -0.28915675258221801 -0.031754499233899808 0 -0.29368674174058929 -0.05400007974786248 0 -0.30815371520163692 -0.024326627271317871 0 -0.307937244703966 -0.03791731525926112 0 -0.28915675258221801 -0.031754499233899808 0 -0.28915675258221801 -0.031754499233899808 0 -0.29368674174058929 -0.05400007974786248 0 -0.26916148591006978 -0.041856245625770991 0 -0.29368674174058929 -0.05400007974786248 0 -0.26916148591006978 -0.041856245625770991 0 -0.27298194286687721 -0.066215270769284934 0 -0.26443112001241381 -0.020350268851713441 0 -0.28915675258221801 -0.031754499233899808 0 -0.26916148591006978 -0.041856245625770991 0 -0.24828530763826279 -0.051584040575180221 0 -0.2464270506200581 -0.027233314576685139 0 -0.26916148591006978 -0.041856245625770991 0 -0.24828530763826279 -0.051584040575180221 0 -0.26916148591006978 -0.041856245625770991 0 -0.27298194286687721 -0.066215270769284934 0 -0.25531714365595642 -0.074971307581390312 0 -0.2660492144084089 -0.086069020218978678 0 -0.27298194286687721 -0.066215270769284934 0 -0.24828530763826279 -0.051584040575180221 0 -0.25531714365595642 -0.074971307581390312 0 -0.27298194286687721 -0.066215270769284934 0 -0.2493548319983401 -0.096664578098757323 0 -0.25531714365595642 -0.074971307581390312 0 -0.2660492144084089 -0.086069020218978678 0 -0.2660492144084089 -0.086069020218978678 0 -0.26718600271419102 -0.1045408362607104 0 -0.28270815049146319 -0.085513383274093691 0 -0.2660492144084089 -0.086069020218978678 0 -0.27298194286687721 -0.066215270769284934 0 -0.28270815049146319 -0.085513383274093691 0 -0.25163358583954409 -0.1156279226251417 0 -0.26718600271419102 -0.1045408362607104 0 -0.26768967663343662 -0.1295438041957383 0 -0.2493548319983401 -0.096664578098757323 0 -0.26718600271419102 -0.1045408362607104 0 -0.2493548319983401 -0.096664578098757323 0 -0.25163358583954409 -0.1156279226251417 0 -0.26718600271419102 -0.1045408362607104 0 -0.2493548319983401 -0.096664578098757323 0 -0.2660492144084089 -0.086069020218978678 0 -0.26718600271419102 -0.1045408362607104 0 -0.26718600271419102 -0.1045408362607104 0 -0.29154415536684852 -0.098525362238917599 0 -0.28270815049146319 -0.085513383274093691 0 -0.26718600271419102 -0.1045408362607104 0 -0.28757237170446343 -0.1141838164657878 0 -0.26768967663343662 -0.1295438041957383 0 -0.28757237170446343 -0.1141838164657878 0 -0.30498721411298929 -0.1202840138724702 0 -0.28970583444695708 -0.13347190041618109 0 -0.28757237170446343 -0.1141838164657878 0 -0.29154415536684852 -0.098525362238917599 0 -0.30555198596664618 -0.10041061223112829 0 -0.26718600271419102 -0.1045408362607104 0 -0.28757237170446343 -0.1141838164657878 0 -0.29154415536684852 -0.098525362238917599 0 -0.29154415536684852 -0.098525362238917599 0 -0.30555198596664618 -0.10041061223112829 0 -0.29914078127870419 -0.085809323426400685 0 -0.28757237170446343 -0.1141838164657878 0 -0.30555198596664618 -0.10041061223112829 0 -0.30498721411298929 -0.1202840138724702 0 -0.30555198596664618 -0.10041061223112829 0 -0.30498721411298929 -0.1202840138724702 0 -0.32436152526870371 -0.1181215333362038 0 -0.27298194286687721 -0.066215270769284934 0 -0.29151551163064909 -0.071585034373381651 0 -0.28270815049146319 -0.085513383274093691 0 -0.29368674174058929 -0.05400007974786248 0 -0.27298194286687721 -0.066215270769284934 0 -0.29151551163064909 -0.071585034373381651 0 -0.29154415536684852 -0.098525362238917599 0 -0.28270815049146319 -0.085513383274093691 0 -0.29914078127870419 -0.085809323426400685 0 -0.29151551163064909 -0.071585034373381651 0 -0.28270815049146319 -0.085513383274093691 0 -0.29914078127870419 -0.085809323426400685 0 -0.29914078127870419 -0.085809323426400685 0 -0.31092605907352588 -0.06970903289046676 0 -0.31312182642913711 -0.086466541040497405 0 -0.30555198596664618 -0.10041061223112829 0 -0.29914078127870419 -0.085809323426400685 0 -0.31312182642913711 -0.086466541040497405 0 -0.29368674174058929 -0.05400007974786248 0 -0.29151551163064909 -0.071585034373381651 0 -0.31092605907352588 -0.06970903289046676 0 -0.29151551163064909 -0.071585034373381651 0 -0.29914078127870419 -0.085809323426400685 0 -0.31092605907352588 -0.06970903289046676 0 -0.31092605907352588 -0.06970903289046676 0 -0.32680692865918087 -0.078610265667807752 0 -0.33316823361012132 -0.057074368180962447 0 -0.32680692865918087 -0.078610265667807752 0 -0.31312182642913711 -0.086466541040497405 0 -0.32318337716762791 -0.097793470986683576 0 -0.31092605907352588 -0.06970903289046676 0 -0.32680692865918087 -0.078610265667807752 0 -0.31312182642913711 -0.086466541040497405 0 -0.32318337716762791 -0.097793470986683576 0 -0.34693767880672111 -0.079412433265710194 0 -0.32680692865918087 -0.078610265667807752 0 -0.32318337716762791 -0.097793470986683576 0 -0.34693767880672111 -0.079412433265710194 0 -0.32680692865918087 -0.078610265667807752 0 -0.34693767880672111 -0.079412433265710194 0 -0.33316823361012132 -0.057074368180962447 0 -0.30555198596664618 -0.10041061223112829 0 -0.32436152526870371 -0.1181215333362038 0 -0.30555198596664618 -0.10041061223112829 0 -0.32436152526870371 -0.1181215333362038 0 -0.32318337716762791 -0.097793470986683576 0 -0.30555198596664618 -0.10041061223112829 0 -0.31312182642913711 -0.086466541040497405 0 -0.32318337716762791 -0.097793470986683576 0 -0.32436152526870371 -0.1181215333362038 0 -0.32318337716762791 -0.097793470986683576 0 -0.34550783106665151 -0.1066266835324176 0 -0.32318337716762791 -0.097793470986683576 0 -0.34550783106665151 -0.1066266835324176 0 -0.34693767880672111 -0.079412433265710194 0 -0.32436152526870371 -0.1181215333362038 0 -0.34550783106665151 -0.1066266835324176 0 -0.3431710645707613 -0.13583245444127939 0 -0.34550783106665151 -0.1066266835324176 0 -0.36407175406996362 -0.1192137070822267 0 -0.3431710645707613 -0.13583245444127939 0 -0.34550783106665151 -0.1066266835324176 0 -0.36407175406996362 -0.1192137070822267 0 -0.3699018115251459 -0.09154714189869867 0 -0.36407175406996362 -0.1192137070822267 0 -0.3699018115251459 -0.09154714189869867 0 -0.38476283481645401 -0.1116053183811012 0 -0.34693767880672111 -0.079412433265710194 0 -0.37069198044581442 -0.061031395544736737 0 -0.34550783106665151 -0.1066266835324176 0 -0.34693767880672111 -0.079412433265710194 0 -0.3699018115251459 -0.09154714189869867 0 -0.34693767880672111 -0.079412433265710194 0 -0.3699018115251459 -0.09154714189869867 0 -0.37069198044581442 -0.061031395544736737 0 -0.34693767880672111 -0.079412433265710194 0 -0.37069198044581442 -0.061031395544736737 0 -0.3543271896957822 -0.046768459493214343 0 -0.34693767880672111 -0.079412433265710194 0 -0.3543271896957822 -0.046768459493214343 0 -0.33316823361012132 -0.057074368180962447 0 -0.3543271896957822 -0.046768459493214343 0 -0.37225478214321323 -0.031246477462672929 0 -0.34905117806443198 -0.024588791851852001 0 -0.3543271896957822 -0.046768459493214343 0 -0.34905117806443198 -0.024588791851852001 0 -0.3390133124630556 -0.042418702369604849 0 -0.37069198044581442 -0.061031395544736737 0 -0.3543271896957822 -0.046768459493214343 0 -0.37225478214321323 -0.031246477462672929 0 -0.37225478214321323 -0.031246477462672929 0 -0.37060309916080802 -0.017601980780064998 0 -0.34905117806443198 -0.024588791851852001 0 -0.37225478214321323 -0.031246477462672929 0 -0.37060309916080802 -0.017601980780064998 0 -0.37748812974141283 -0.023690756884251148 0 -0.37060309916080802 -0.017601980780064998 0 -0.3601936957097861 -0.012401981263071059 0 -0.34905117806443198 -0.024588791851852001 0 -0.37060309916080802 -0.017601980780064998 0 -0.34905117806443198 -0.024588791851852001 0 -0.37225478214321323 -0.031246477462672929 0 -0.34905117806443198 -0.024588791851852001 0 -0.37234831300326821 -0.0087916223148991474 0 -0.3601936957097861 -0.012401981263071059 0 -0.35020533879899601 -0.001213408582668409 0 -0.37060309916080802 -0.017601980780064998 0 -0.37234831300326821 -0.0087916223148991474 0 -0.3601936957097861 -0.012401981263071059 0 -0.35020533879899601 -0.001213408582668409 0 -0.34905117806443198 -0.024588791851852001 0 -0.33279398811117811 -0.0028726877305683051 0 -0.3601936957097861 -0.012401981263071059 0 -0.35020533879899601 -0.001213408582668409 0 -0.34905117806443198 -0.024588791851852001 0 -0.34905117806443198 -0.024588791851852001 0 -0.3284942113841991 -0.031253053555557041 0 -0.34905117806443198 -0.024588791851852001 0 -0.32240548689654142 -0.01694348666233925 0 -0.3284942113841991 -0.031253053555557041 0 -0.34905117806443198 -0.024588791851852001 0 -0.32240548689654142 -0.01694348666233925 0 -0.34905117806443198 -0.024588791851852001 0 -0.33279398811117811 -0.0028726877305683051 0 -0.32240548689654142 -0.01694348666233925 0 -0.33279398811117811 -0.0028726877305683051 0 -0.32240548689654142 -0.01694348666233925 0 -0.31220577089506368 0.0041333438482760278 0 -0.30815371520163692 -0.024326627271317871 0 -0.32240548689654142 -0.01694348666233925 0 -0.3284942113841991 -0.031253053555557041 0 -0.30815371520163692 -0.024326627271317871 0 -0.307937244703966 -0.03791731525926112 0 -0.3284942113841991 -0.031253053555557041 0 -0.307937244703966 -0.03791731525926112 0 -0.31767223660373028 -0.050895013471995758 0 -0.3284942113841991 -0.031253053555557041 0 -0.307937244703966 -0.03791731525926112 0 -0.3284942113841991 -0.031253053555557041 0 -0.31092605907352588 -0.06970903289046676 0 -0.31767223660373028 -0.050895013471995758 0 -0.33316823361012132 -0.057074368180962447 0 -0.3543271896957822 -0.046768459493214343 0 -0.33316823361012132 -0.057074368180962447 0 -0.3390133124630556 -0.042418702369604849 0 -0.31767223660373028 -0.050895013471995758 0 -0.33316823361012132 -0.057074368180962447 0 -0.3390133124630556 -0.042418702369604849 0 -0.31767223660373028 -0.050895013471995758 0 -0.3284942113841991 -0.031253053555557041 0 -0.3390133124630556 -0.042418702369604849 0 -0.34905117806443198 -0.024588791851852001 0 -0.3284942113841991 -0.031253053555557041 0 -0.3390133124630556 -0.042418702369604849 0 -0.30272258402348412 -0.22486793760747811 0 -0.3189037693904988 -0.24978631432800211 0 -0.30272258402348412 -0.22486793760747811 0 -0.29515909274429147 -0.24885490830203999 0 -0.3189037693904988 -0.24978631432800211 0 -0.30272258402348412 -0.22486793760747811 0 -0.28131091268825592 -0.23286318835533071 0 -0.28274836847481949 -0.2166047067151291 0 -0.28131091268825592 -0.23286318835533071 0 -0.29515909274429147 -0.24885490830203999 0 -0.2793983659123363 -0.24680434812365951 0 -0.30272258402348412 -0.22486793760747811 0 -0.28131091268825592 -0.23286318835533071 0 -0.29515909274429147 -0.24885490830203999 0 -0.27505490634448831 -0.25489516949870428 0 -0.2793983659123363 -0.24680434812365951 0 -0.26644747899960219 -0.24470464689256061 0 -0.28131091268825592 -0.23286318835533071 0 -0.2793983659123363 -0.24680434812365951 0 -0.26644747899960219 -0.24470464689256061 0 -0.27505490634448831 -0.25489516949870428 0 -0.26644747899960219 -0.24470464689256061 0 -0.25322281665070667 -0.2464490270809187 0 -0.26644747899960219 -0.24470464689256061 0 -0.25355252204306261 -0.241290757384552 0 -0.2655731563496494 -0.22221120137014411 0 -0.25355252204306261 -0.241290757384552 0 -0.25322281665070667 -0.2464490270809187 0 -0.25355252204306261 -0.241290757384552 0 -0.2508749388500553 -0.2455407076959211 0 -0.25322281665070667 -0.2464490270809187 0 -0.26644747899960219 -0.24470464689256061 0 -0.25355252204306261 -0.241290757384552 0 -0.25322281665070667 -0.2464490270809187 0 -0.25355252204306261 -0.241290757384552 0 -0.2508749388500553 -0.2455407076959211 0 -0.2508749388500553 -0.2455407076959211 0 -0.25322281665070667 -0.2464490270809187 0 -0.25355252204306261 -0.241290757384552 0 -0.25452081017742878 -0.22614180484510349 0 -0.2655731563496494 -0.22221120137014411 0 -0.25355252204306261 -0.241290757384552 0 -0.2655731563496494 -0.22221120137014411 0 -0.2433660095851525 -0.23044163108109569 0 -0.25355252204306261 -0.241290757384552 0 -0.25452081017742878 -0.22614180484510349 0 -0.25355252204306261 -0.241290757384552 0 -0.25452081017742878 -0.22614180484510349 0 -0.25452081017742878 -0.22614180484510349 0 -0.2655731563496494 -0.22221120137014411 0 -0.25548909831179262 -0.21099285230565479 0 -0.28131091268825592 -0.23286318835533071 0 -0.2655731563496494 -0.22221120137014411 0 -0.28274836847481949 -0.2166047067151291 0 -0.28131091268825592 -0.23286318835533071 0 -0.26644747899960219 -0.24470464689256061 0 -0.2655731563496494 -0.22221120137014411 0 -0.2775937906562399 -0.20313164535573849 0 -0.25548909831179262 -0.21099285230565479 0 -0.26504496065709687 -0.19933387826133461 0 -0.2655731563496494 -0.22221120137014411 0 -0.2775937906562399 -0.20313164535573849 0 -0.2775937906562399 -0.20313164535573849 0 -0.25548909831179262 -0.21099285230565479 0 -0.2655731563496494 -0.22221120137014411 0 -0.2775937906562399 -0.20313164535573849 0 -0.25548909831179262 -0.21099285230565479 0 -0.2655731563496494 -0.22221120137014411 0 -0.2775937906562399 -0.20313164535573849 0 -0.28274836847481949 -0.2166047067151291 0 -0.25452081017742878 -0.22614180484510349 0 -0.25548909831179262 -0.21099285230565479 0 -0.24424586726138789 -0.21499134116475049 0 -0.25452081017742878 -0.22614180484510349 0 -0.25548909831179262 -0.21099285230565479 0 -0.25548909831179262 -0.21099285230565479 0 -0.25679644190605699 -0.1905393474454489 0 -0.25548909831179262 -0.21099285230565479 0 -0.25679644190605699 -0.1905393474454489 0 -0.26504496065709687 -0.19933387826133461 0 -0.24570541750444611 -0.20365384048844229 0 -0.25548909831179262 -0.21099285230565479 0 -0.25679644190605699 -0.1905393474454489 0 -0.25679644190605699 -0.1905393474454489 0 -0.26504496065709687 -0.19933387826133461 0 -0.27030051175429948 -0.1926716679384966 0 -0.2775937906562399 -0.20313164535573849 0 -0.26504496065709687 -0.19933387826133461 0 -0.27030051175429948 -0.1926716679384966 0 -0.2775937906562399 -0.20313164535573849 0 -0.27030051175429948 -0.1926716679384966 0 -0.28301751688469479 -0.1945229242397549 0 -0.2775937906562399 -0.20313164535573849 0 -0.28301751688469479 -0.1945229242397549 0 -0.28301751688469479 -0.1945229242397549 0 -0.28654139865646849 -0.1999495608869544 0 -0.30843764316978589 -0.19216248532566921 0 -0.30272258402348412 -0.22486793760747811 0 -0.30843764316978589 -0.19216248532566921 0 -0.32463151946713459 -0.20301932619843591 0 -0.30272258402348412 -0.22486793760747811 0 -0.28654139865646849 -0.1999495608869544 0 -0.30843764316978589 -0.19216248532566921 0 -0.2775937906562399 -0.20313164535573849 0 -0.28301751688469479 -0.1945229242397549 0 -0.28654139865646849 -0.1999495608869544 0 -0.2775937906562399 -0.20313164535573849 0 -0.28654139865646849 -0.1999495608869544 0 -0.28301751688469479 -0.1945229242397549 0 -0.28654139865646849 -0.1999495608869544 0 -0.2775937906562399 -0.20313164535573849 0 -0.28654139865646849 -0.1999495608869544 0 -0.28274836847481949 -0.2166047067151291 0 -0.30272258402348412 -0.22486793760747811 0 -0.28654139865646849 -0.1999495608869544 0 -0.28274836847481949 -0.2166047067151291 0 -0.30272258402348412 -0.22486793760747811 0 -0.28654139865646849 -0.1999495608869544 0 -0.28654139865646849 -0.1999495608869544 0 -0.30843764316978589 -0.19216248532566921 0 -0.30843764316978589 -0.19216248532566921 0 -0.29916486657054309 -0.16889330645440939 0 -0.31678982650903942 -0.16887502443413871 0 -0.29916486657054309 -0.16889330645440939 0 -0.29773983554729838 -0.15030016443505331 0 -0.31678982650903942 -0.16887502443413871 0 -0.29916486657054309 -0.16889330645440939 0 -0.26960270479759091 -0.173864651459393 0 -0.27922311078667578 -0.1526150713261519 0 -0.29916486657054309 -0.16889330645440939 0 -0.27922311078667578 -0.1526150713261519 0 -0.29773983554729838 -0.15030016443505331 0 -0.28301751688469479 -0.1945229242397549 0 -0.29916486657054309 -0.16889330645440939 0 -0.28301751688469479 -0.1945229242397549 0 -0.30843764316978589 -0.19216248532566921 0 -0.29916486657054309 -0.16889330645440939 0 -0.28301751688469479 -0.1945229242397549 0 -0.29916486657054309 -0.16889330645440939 0 -0.26960270479759091 -0.173864651459393 0 -0.27030051175429948 -0.1926716679384966 0 -0.28301751688469479 -0.1945229242397549 0 -0.26960270479759091 -0.173864651459393 0 -0.28301751688469479 -0.1945229242397549 0 -0.26960270479759091 -0.173864651459393 0 -0.25679644190605699 -0.1905393474454489 0 -0.26960270479759091 -0.173864651459393 0 -0.2581037855003222 -0.17008584258524309 0 -0.24335773859866999 -0.17795020623119681 0 -0.25679644190605699 -0.1905393474454489 0 -0.2581037855003222 -0.17008584258524309 0 -0.25679644190605699 -0.1905393474454489 0 -0.2581037855003222 -0.17008584258524309 0 -0.25679644190605699 -0.1905393474454489 0 -0.27030051175429948 -0.1926716679384966 0 -0.26960270479759091 -0.173864651459393 0 -0.26960270479759091 -0.173864651459393 0 -0.25618789271048981 -0.1532063786790292 0 -0.26960270479759091 -0.173864651459393 0 -0.2581037855003222 -0.17008584258524309 0 -0.25618789271048981 -0.1532063786790292 0 -0.24734168404742271 -0.16275892500173689 0 -0.2581037855003222 -0.17008584258524309 0 -0.25618789271048981 -0.1532063786790292 0 -0.26960270479759091 -0.173864651459393 0 -0.27922311078667578 -0.1526150713261519 0 -0.25618789271048981 -0.1532063786790292 0 -0.27922311078667578 -0.1526150713261519 0 -0.25618789271048981 -0.1532063786790292 0 -0.26768967663343662 -0.1295438041957383 0 -0.24277308062338879 -0.13254810589866539 0 -0.25618789271048981 -0.1532063786790292 0 -0.26768967663343662 -0.1295438041957383 0 -0.24277308062338879 -0.13254810589866539 0 -0.25163358583954409 -0.1156279226251417 0 -0.26768967663343662 -0.1295438041957383 0 -0.27922311078667578 -0.1526150713261519 0 -0.26768967663343662 -0.1295438041957383 0 -0.28970583444695708 -0.13347190041618109 0 -0.28757237170446343 -0.1141838164657878 0 -0.26768967663343662 -0.1295438041957383 0 -0.28970583444695708 -0.13347190041618109 0 -0.27922311078667578 -0.1526150713261519 0 -0.28970583444695708 -0.13347190041618109 0 -0.29773983554729838 -0.15030016443505331 0 -0.29773983554729838 -0.15030016443505331 0 -0.31590323335648468 -0.14329673698787249 0 -0.31678982650903942 -0.16887502443413871 0 -0.28970583444695708 -0.13347190041618109 0 -0.29773983554729838 -0.15030016443505331 0 -0.31590323335648468 -0.14329673698787249 0 -0.30498721411298929 -0.1202840138724702 0 -0.28970583444695708 -0.13347190041618109 0 -0.31590323335648468 -0.14329673698787249 0 -0.32436152526870371 -0.1181215333362038 0 -0.31590323335648468 -0.14329673698787249 0 -0.3431710645707613 -0.13583245444127939 0 -0.30498721411298929 -0.1202840138724702 0 -0.32436152526870371 -0.1181215333362038 0 -0.31590323335648468 -0.14329673698787249 0 -0.31590323335648468 -0.14329673698787249 0 -0.3431710645707613 -0.13583245444127939 0 -0.33692958475123569 -0.16063496577548769 0 -0.32436152526870371 -0.1181215333362038 0 -0.3431710645707613 -0.13583245444127939 0 -0.36407175406996362 -0.1192137070822267 0 -0.3431710645707613 -0.13583245444127939 0 -0.36239168548782219 -0.1358379325636965 0 -0.36407175406996362 -0.1192137070822267 0 -0.36239168548782219 -0.1358379325636965 0 -0.38034331943774508 -0.13476219318492499 0 -0.36239168548782219 -0.1358379325636965 0 -0.36198060387281888 -0.15354337554635489 0 -0.38034331943774508 -0.13476219318492499 0 -0.3431710645707613 -0.13583245444127939 0 -0.36239168548782219 -0.1358379325636965 0 -0.36198060387281888 -0.15354337554635489 0 -0.3431710645707613 -0.13583245444127939 0 -0.36198060387281888 -0.15354337554635489 0 -0.33692958475123569 -0.16063496577548769 0 -0.3431710645707613 -0.13583245444127939 0 -0.36198060387281888 -0.15354337554635489 0 -0.36198060387281888 -0.15354337554635489 0 -0.35223013219642052 -0.1765883342030983 0 -0.33692958475123569 -0.16063496577548769 0 -0.36198060387281888 -0.15354337554635489 0 -0.37409603845439299 -0.17285343742513121 0 -0.35223013219642052 -0.1765883342030983 0 -0.37409603845439299 -0.17285343742513121 0 -0.35223013219642052 -0.1765883342030983 0 -0.36854500663662371 -0.19612424838008691 0 -0.35223013219642052 -0.1765883342030983 0 -0.33033388768310318 -0.18437540976438371 0 -0.34738945254146297 -0.1976552068904622 0 -0.35223013219642052 -0.1765883342030983 0 -0.33033388768310318 -0.18437540976438371 0 -0.33692958475123569 -0.16063496577548769 0 -0.35223013219642052 -0.1765883342030983 0 -0.33033388768310318 -0.18437540976438371 0 -0.31590323335648468 -0.14329673698787249 0 -0.33692958475123569 -0.16063496577548769 0 -0.31678982650903942 -0.16887502443413871 0 -0.33033388768310318 -0.18437540976438371 0 -0.33692958475123569 -0.16063496577548769 0 -0.31678982650903942 -0.16887502443413871 0 -0.30843764316978589 -0.19216248532566921 0 -0.33033388768310318 -0.18437540976438371 0 -0.31678982650903942 -0.16887502443413871 0 -0.30272258402348412 -0.22486793760747811 0 -0.32463151946713459 -0.20301932619843591 0 -0.33666937642156342 -0.21835564333179999 0 -0.30843764316978589 -0.19216248532566921 0 -0.33033388768310318 -0.18437540976438371 0 -0.30843764316978589 -0.19216248532566921 0 -0.33033388768310318 -0.18437540976438371 0 -0.32463151946713459 -0.20301932619843591 0 -0.32463151946713459 -0.20301932619843591 0 -0.33666937642156342 -0.21835564333179999 0 -0.34738945254146297 -0.1976552068904622 0 -0.33033388768310318 -0.18437540976438371 0 -0.32463151946713459 -0.20301932619843591 0 -0.34738945254146297 -0.1976552068904622 0 -0.35223013219642052 -0.1765883342030983 0 -0.34738945254146297 -0.1976552068904622 0 -0.36854500663662371 -0.19612424838008691 0 -0.34738945254146297 -0.1976552068904622 0 -0.36854500663662371 -0.19612424838008691 0 -0.35437291303827501 -0.21439771758715431 0 -0.36854500663662371 -0.19612424838008691 0 -0.37109905220996481 -0.22142029925977541 0 -0.38284834360891501 -0.20796220010544911 0 -0.36854500663662371 -0.19612424838008691 0 -0.35437291303827501 -0.21439771758715431 0 -0.37109905220996481 -0.22142029925977541 0 -0.33666937642156342 -0.21835564333179999 0 -0.34738945254146297 -0.1976552068904622 0 -0.35437291303827501 -0.21439771758715431 0 -0.35437291303827501 -0.21439771758715431 0 -0.37109905220996481 -0.22142029925977541 0 -0.35226490790162379 -0.23807996287696501 0 -0.33666937642156342 -0.21835564333179999 0 -0.35437291303827501 -0.21439771758715431 0 -0.35226490790162379 -0.23807996287696501 0 -0.37109905220996481 -0.22142029925977541 0 -0.35226490790162379 -0.23807996287696501 0 -0.3757374681905486 -0.23954934908495129 0 -0.37082043854602398 -0.25836979014094658 0 -0.35226490790162379 -0.23807996287696501 0 -0.3757374681905486 -0.23954934908495129 0 -0.34533675118298179 -0.25622516502635118 0 -0.3321675445503065 -0.23729941005208791 0 -0.3189037693904988 -0.24978631432800211 0 -0.30272258402348412 -0.22486793760747811 0 -0.33666937642156342 -0.21835564333179999 0 -0.3321675445503065 -0.23729941005208791 0 -0.34533675118298179 -0.25622516502635118 0 -0.35226490790162379 -0.23807996287696501 0 -0.3321675445503065 -0.23729941005208791 0 -0.33666937642156342 -0.21835564333179999 0 -0.35226490790162379 -0.23807996287696501 0 -0.3321675445503065 -0.23729941005208791 0 -0.30272258402348412 -0.22486793760747811 0 -0.3321675445503065 -0.23729941005208791 0 -0.3189037693904988 -0.24978631432800211 0 -0.42084211708157182 -0.25502193243370908 0 -0.41759838376130382 -0.2370670089992965 0 -0.438414761385786 -0.24141568151772891 0 -0.43020033698025878 -0.22931602263184461 0 -0.41759838376130382 -0.2370670089992965 0 -0.438414761385786 -0.24141568151772891 0 -0.43020033698025878 -0.22931602263184461 0 -0.41907175974803662 -0.21744009372223941 0 -0.43730352346701629 -0.2182141574560785 0 -0.43020033698025878 -0.22931602263184461 0 -0.44054181151102662 -0.23091238255623001 0 -0.438414761385786 -0.24141568151772891 0 -0.43020033698025878 -0.22931602263184461 0 -0.41759838376130382 -0.2370670089992965 0 -0.41907175974803662 -0.21744009372223941 0 -0.43020033698025878 -0.22931602263184461 0 -0.43730352346701629 -0.2182141574560785 0 -0.44054181151102662 -0.23091238255623001 0 -0.41759838376130382 -0.2370670089992965 0 -0.39632905889792291 -0.23111015707895 0 -0.41907175974803662 -0.21744009372223941 0 -0.42084211708157182 -0.25502193243370908 0 -0.41759838376130382 -0.2370670089992965 0 -0.40418092522890731 -0.243695377048708 0 -0.40418092522890731 -0.243695377048708 0 -0.38817388339720738 -0.2487665360681196 0 -0.39632905889792291 -0.23111015707895 0 -0.40370709189037229 -0.25715661138904972 0 -0.40418092522890731 -0.243695377048708 0 -0.38817388339720738 -0.2487665360681196 0 -0.41759838376130382 -0.2370670089992965 0 -0.40418092522890731 -0.243695377048708 0 -0.39632905889792291 -0.23111015707895 0 -0.37082043854602398 -0.25836979014094658 0 -0.3757374681905486 -0.23954934908495129 0 -0.38817388339720738 -0.2487665360681196 0 -0.3757374681905486 -0.23954934908495129 0 -0.38817388339720738 -0.2487665360681196 0 -0.39632905889792291 -0.23111015707895 0 -0.37109905220996481 -0.22142029925977541 0 -0.3757374681905486 -0.23954934908495129 0 -0.39632905889792291 -0.23111015707895 0 -0.37109905220996481 -0.22142029925977541 0 -0.39632905889792291 -0.23111015707895 0 -0.38284834360891501 -0.20796220010544911 0 -0.39632905889792291 -0.23111015707895 0 -0.40021803245763943 -0.20698417641777611 0 -0.41907175974803662 -0.21744009372223941 0 -0.39632905889792291 -0.23111015707895 0 -0.40021803245763943 -0.20698417641777611 0 -0.38284834360891501 -0.20796220010544911 0 -0.36854500663662371 -0.19612424838008691 0 -0.38284834360891501 -0.20796220010544911 0 -0.39111542133543381 -0.18628111846452591 0 -0.40021803245763943 -0.20698417641777611 0 -0.41395201983978541 -0.19350146539190549 0 -0.39111542133543381 -0.18628111846452591 0 -0.40021803245763943 -0.20698417641777611 0 -0.38284834360891501 -0.20796220010544911 0 -0.39111542133543381 -0.18628111846452591 0 -0.41395201983978541 -0.19350146539190549 0 -0.41907175974803662 -0.21744009372223941 0 -0.43237431235971502 -0.20250994631475011 0 -0.40021803245763943 -0.20698417641777611 0 -0.41395201983978541 -0.19350146539190549 0 -0.41907175974803662 -0.21744009372223941 0 -0.41907175974803662 -0.21744009372223941 0 -0.43730352346701629 -0.2182141574560785 0 -0.43237431235971502 -0.20250994631475011 0 -0.41395201983978541 -0.19350146539190549 0 -0.43237431235971502 -0.20250994631475011 0 -0.43479754688810779 -0.17770506782786971 0 -0.43237431235971502 -0.20250994631475011 0 -0.43479754688810779 -0.17770506782786971 0 -0.44518903906317842 -0.19173036414397129 0 -0.43479754688810779 -0.17770506782786971 0 -0.41754666589532041 -0.15385115006890801 0 -0.43903825872754421 -0.15631625725093759 0 -0.43479754688810779 -0.17770506782786971 0 -0.40979125094634972 -0.1738865454933371 0 -0.41754666589532041 -0.15385115006890801 0 -0.40979125094634972 -0.1738865454933371 0 -0.39154460077310071 -0.1580939257134765 0 -0.41754666589532041 -0.15385115006890801 0 -0.41395201983978541 -0.19350146539190549 0 -0.43479754688810779 -0.17770506782786971 0 -0.40979125094634972 -0.1738865454933371 0 -0.40979125094634972 -0.1738865454933371 0 -0.39111542133543381 -0.18628111846452591 0 -0.39154460077310071 -0.1580939257134765 0 -0.41395201983978541 -0.19350146539190549 0 -0.40979125094634972 -0.1738865454933371 0 -0.39111542133543381 -0.18628111846452591 0 -0.37409603845439299 -0.17285343742513121 0 -0.36854500663662371 -0.19612424838008691 0 -0.39111542133543381 -0.18628111846452591 0 -0.37409603845439299 -0.17285343742513121 0 -0.39111542133543381 -0.18628111846452591 0 -0.39154460077310071 -0.1580939257134765 0 -0.36198060387281888 -0.15354337554635489 0 -0.37409603845439299 -0.17285343742513121 0 -0.39154460077310071 -0.1580939257134765 0 -0.39154460077310071 -0.1580939257134765 0 -0.40031592050345582 -0.14079580038071771 0 -0.38034331943774508 -0.13476219318492499 0 -0.39154460077310071 -0.1580939257134765 0 -0.40031592050345582 -0.14079580038071771 0 -0.41754666589532041 -0.15385115006890801 0 -0.36198060387281888 -0.15354337554635489 0 -0.39154460077310071 -0.1580939257134765 0 -0.38034331943774508 -0.13476219318492499 0 -0.40031592050345582 -0.14079580038071771 0 -0.38034331943774508 -0.13476219318492499 0 -0.39713938507934837 -0.1257608394569304 0 -0.40031592050345582 -0.14079580038071771 0 -0.39713938507934837 -0.1257608394569304 0 -0.41500563133176399 -0.13151089347934861 0 -0.40031592050345582 -0.14079580038071771 0 -0.41500563133176399 -0.13151089347934861 0 -0.41754666589532041 -0.15385115006890801 0 -0.41500563133176399 -0.13151089347934861 0 -0.41754666589532041 -0.15385115006890801 0 -0.43352412781690358 -0.1373327836030743 0 -0.41754666589532041 -0.15385115006890801 0 -0.43352412781690358 -0.1373327836030743 0 -0.43903825872754421 -0.15631625725093759 0 -0.43352412781690358 -0.1373327836030743 0 -0.42910127587870311 -0.11897468293548991 0 -0.44805124774316729 -0.1197117135153544 0 -0.41500563133176399 -0.13151089347934861 0 -0.43352412781690358 -0.1373327836030743 0 -0.42910127587870311 -0.11897468293548991 0 -0.45230772132170749 -0.14279423483231429 0 -0.44805124774316729 -0.1197117135153544 0 -0.45230772132170749 -0.14279423483231429 0 -0.45632844162157421 -0.13009438170693269 0 -0.44805124774316729 -0.1197117135153544 0 -0.43352412781690358 -0.1373327836030743 0 -0.45230772132170749 -0.14279423483231429 0 -0.44805124774316729 -0.1197117135153544 0 -0.43352412781690358 -0.1373327836030743 0 -0.45230772132170749 -0.14279423483231429 0 -0.43903825872754421 -0.15631625725093759 0 -0.45230772132170749 -0.14279423483231429 0 -0.45656419490025651 -0.16587675614927269 0 -0.43903825872754421 -0.15631625725093759 0 -0.45230772132170749 -0.14279423483231429 0 -0.46371052314751698 -0.1509440525167135 0 -0.45656419490025651 -0.16587675614927269 0 -0.45230772132170749 -0.14279423483231429 0 -0.45656419490025651 -0.16587675614927269 0 -0.45230772132170749 -0.14279423483231429 0 -0.46371052314751698 -0.1509440525167135 0 -0.46727376931232728 -0.13761179742107149 0 -0.46727376931232728 -0.13761179742107149 0 -0.45632844162157421 -0.13009438170693269 0 -0.45640969151903937 -0.11681638729018 0 -0.46727376931232728 -0.13761179742107149 0 -0.45640969151903937 -0.11681638729018 0 -0.45230772132170749 -0.14279423483231429 0 -0.46727376931232728 -0.13761179742107149 0 -0.45632844162157421 -0.13009438170693269 0 -0.47722733922467803 -0.13385425172204321 0 -0.48141633457344279 -0.1233734007712788 0 -0.47028854038926171 -0.1204433481463667 0 -0.46727376931232728 -0.13761179742107149 0 -0.47722733922467803 -0.13385425172204321 0 -0.47028854038926171 -0.1204433481463667 0 -0.47722733922467803 -0.13385425172204321 0 -0.48887595439822318 -0.13376777881079779 0 -0.47828209745013489 -0.15407493346070131 0 -0.47722733922467803 -0.13385425172204321 0 -0.48887595439822318 -0.13376777881079779 0 -0.48141633457344279 -0.1233734007712788 0 -0.4999999999999995 -0.1422731107721048 0 -0.5 -0.1205501909938503 0 -0.49938638750258069 -0.12451489502890351 0 -0.49078284407105738 -0.12533794259366859 0 -0.48887595439822318 -0.13376777881079779 0 -0.48141633457344279 -0.1233734007712788 0 -0.48887595439822318 -0.13376777881079779 0 -0.4999999999999995 -0.1422731107721048 0 -0.49938638750258069 -0.12451489502890351 0 -0.49078284407105738 -0.12533794259366859 0 -0.48887595439822318 -0.13376777881079779 0 -0.49938638750258069 -0.12451489502890351 0 -0.4999999999999995 -0.1422731107721048 0 -0.47828209745013489 -0.15407493346070131 0 -0.5 -0.16534938730330079 0 -0.48887595439822318 -0.13376777881079779 0 -0.4999999999999995 -0.1422731107721048 0 -0.47828209745013489 -0.15407493346070131 0 -0.4999999999999995 -0.1422731107721048 0 -0.47828209745013489 -0.15407493346070131 0 -0.46371052314751698 -0.1509440525167135 0 -0.46727376931232728 -0.13761179742107149 0 -0.47828209745013489 -0.15407493346070131 0 -0.46727376931232728 -0.13761179742107149 0 -0.47722733922467803 -0.13385425172204321 0 -0.47828209745013489 -0.15407493346070131 0 -0.47828209745013489 -0.15407493346070131 0 -0.47970113162857758 -0.17905968690939181 0 -0.45656419490025651 -0.16587675614927269 0 -0.47828209745013489 -0.15407493346070131 0 -0.5 -0.16534938730330079 0 -0.47970113162857758 -0.17905968690939181 0 -0.5 -0.16534938730330079 0 -0.47970113162857758 -0.17905968690939181 0 -0.5 -0.18842566383449699 0 -0.45656419490025651 -0.16587675614927269 0 -0.44518903906317842 -0.19173036414397129 0 -0.46176724625218241 -0.1940924942545865 0 -0.47970113162857758 -0.17905968690939181 0 -0.45656419490025651 -0.16587675614927269 0 -0.46176724625218241 -0.1940924942545865 0 -0.45656419490025651 -0.16587675614927269 0 -0.46176724625218241 -0.1940924942545865 0 -0.46371052314751698 -0.1509440525167135 0 -0.47828209745013489 -0.15407493346070131 0 -0.45656419490025651 -0.16587675614927269 0 -0.47828209745013489 -0.15407493346070131 0 -0.45656419490025651 -0.16587675614927269 0 -0.43479754688810779 -0.17770506782786971 0 -0.45656419490025651 -0.16587675614927269 0 -0.43479754688810779 -0.17770506782786971 0 -0.45656419490025651 -0.16587675614927269 0 -0.43903825872754421 -0.15631625725093759 0 -0.43479754688810779 -0.17770506782786971 0 -0.45656419490025651 -0.16587675614927269 0 -0.44518903906317842 -0.19173036414397129 0 -0.44518903906317842 -0.19173036414397129 0 -0.45135015513980248 -0.20730140331775129 0 -0.46176724625218241 -0.1940924942545865 0 -0.43237431235971502 -0.20250994631475011 0 -0.44518903906317842 -0.19173036414397129 0 -0.45135015513980248 -0.20730140331775129 0 -0.43730352346701629 -0.2182141574560785 0 -0.43237431235971502 -0.20250994631475011 0 -0.45135015513980248 -0.20730140331775129 0 -0.43730352346701629 -0.2182141574560785 0 -0.45135015513980248 -0.20730140331775129 0 -0.45124704254919601 -0.2210397017398309 0 -0.45135015513980248 -0.20730140331775129 0 -0.46176724625218241 -0.1940924942545865 0 -0.46188283805852598 -0.22041832583853391 0 -0.46176724625218241 -0.1940924942545865 0 -0.46697029760411479 -0.22230823235989941 0 -0.46188283805852598 -0.22041832583853391 0 -0.46176724625218241 -0.1940924942545865 0 -0.46697029760411479 -0.22230823235989941 0 -0.45135015513980248 -0.20730140331775129 0 -0.46188283805852598 -0.22041832583853391 0 -0.45124704254919601 -0.2210397017398309 0 -0.47970113162857758 -0.17905968690939181 0 -0.46176724625218241 -0.1940924942545865 0 -0.48159325116890039 -0.20653888645399121 0 -0.47970113162857758 -0.17905968690939181 0 -0.5 -0.18842566383449699 0 -0.48159325116890039 -0.20653888645399121 0 -0.5 -0.18842566383449699 0 -0.5 -0.211501940365693 0 -0.48159325116890039 -0.20653888645399121 0 -0.5 -0.211501940365693 0 -0.48159325116890039 -0.20653888645399121 0 -0.48348514880205629 -0.22844322462839639 0 -0.46176724625218241 -0.1940924942545865 0 -0.48159325116890039 -0.20653888645399121 0 -0.46697029760411479 -0.22230823235989941 0 -0.48348514880205629 -0.22844322462839639 0 -0.46697029760411479 -0.22230823235989941 0 -0.48159325116890039 -0.20653888645399121 0 -0.48348514880205629 -0.22844322462839639 0 -0.46697029760411479 -0.22230823235989941 0 -0.48348514880205629 -0.22844322462839639 0 -0.46997178167243697 -0.23858504430554439 0 -0.46697029760411479 -0.22230823235989941 0 -0.5 -0.211501940365693 0 -0.48348514880205629 -0.22844322462839639 0 -0.49999999999999939 -0.23457821689688901 0 -0.48348514880205629 -0.22844322462839639 0 -0.49999999999999939 -0.23457821689688901 0 -0.5 -0.26182123415195058 0 -0.49999999999999939 -0.23457821689688901 0 -0.48386395273398258 -0.24618543112483249 0 -0.48348514880205629 -0.22844322462839639 0 -0.49999999999999939 -0.23457821689688901 0 -0.48386395273398258 -0.24618543112483249 0 -0.48348514880205629 -0.22844322462839639 0 -0.48386395273398258 -0.24618543112483249 0 -0.46997178167243697 -0.23858504430554439 0 -0.46862277139851172 -0.25111975325190861 0 -0.48386395273398258 -0.24618543112483249 0 -0.46997178167243697 -0.23858504430554439 0 -0.46862277139851172 -0.25111975325190861 0 -0.46997178167243697 -0.23858504430554439 0 -0.45580677800631703 -0.24459137081616669 0 -0.45580677800631703 -0.24459137081616669 0 -0.46107643237415791 -0.23038154450964471 0 -0.45097299908684169 -0.2320773254540241 0 -0.46997178167243697 -0.23858504430554439 0 -0.45580677800631703 -0.24459137081616669 0 -0.46107643237415791 -0.23038154450964471 0 -0.46997178167243697 -0.23858504430554439 0 -0.46697029760411479 -0.22230823235989941 0 -0.46997178167243697 -0.23858504430554439 0 -0.46107643237415791 -0.23038154450964471 0 -0.46697029760411479 -0.22230823235989941 0 -0.46107643237415791 -0.23038154450964471 0 -0.46697029760411479 -0.22230823235989941 0 -0.46188283805852598 -0.22041832583853391 0 -0.46697029760411479 -0.22230823235989941 0 -0.46188283805852598 -0.22041832583853391 0 -0.46188283805852598 -0.22041832583853391 0 -0.45629482801718041 -0.22597922438550841 0 -0.45124704254919601 -0.2210397017398309 0 -0.46107643237415791 -0.23038154450964471 0 -0.46188283805852598 -0.22041832583853391 0 -0.45629482801718041 -0.22597922438550841 0 -0.46107643237415791 -0.23038154450964471 0 -0.45629482801718041 -0.22597922438550841 0 -0.45097299908684169 -0.2320773254540241 0 -0.45097299908684169 -0.2320773254540241 0 -0.45124704254919601 -0.2210397017398309 0 -0.44054181151102662 -0.23091238255623001 0 -0.45629482801718041 -0.22597922438550841 0 -0.45097299908684169 -0.2320773254540241 0 -0.45124704254919601 -0.2210397017398309 0 -0.43730352346701629 -0.2182141574560785 0 -0.45124704254919601 -0.2210397017398309 0 -0.44054181151102662 -0.23091238255623001 0 -0.45097299908684169 -0.2320773254540241 0 -0.44054181151102662 -0.23091238255623001 0 -0.438414761385786 -0.24141568151772891 0 -0.44193441075943318 -0.2576287881938828 0 -0.45580677800631703 -0.24459137081616669 0 -0.438414761385786 -0.24141568151772891 0 -0.45580677800631703 -0.24459137081616669 0 -0.45097299908684169 -0.2320773254540241 0 -0.438414761385786 -0.24141568151772891 0 -0.41866199030077439 -0.044561848684318672 0 -0.39545838622199397 -0.037904163073494992 0 -0.41866199030077439 -0.044561848684318672 0 -0.40477991004974317 -0.017989547032679899 0 -0.41866199030077439 -0.044561848684318672 0 -0.40590588926554028 -0.063347285052433311 0 -0.43066414376258522 -0.067535699612234962 0 -0.41866199030077439 -0.044561848684318672 0 -0.40185710851231438 -0.04876547094552678 0 -0.40590588926554028 -0.063347285052433311 0 -0.43506109861085779 -0.04926715683622674 0 -0.43066414376258522 -0.067535699612234962 0 -0.4388636979176368 -0.069888353688186661 0 -0.41866199030077439 -0.044561848684318672 0 -0.43506109861085779 -0.04926715683622674 0 -0.43066414376258522 -0.067535699612234962 0 -0.41866199030077439 -0.044561848684318672 0 -0.43066414376258522 -0.067535699612234962 0 -0.43506109861085779 -0.04926715683622674 0 -0.4388636979176368 -0.069888353688186661 0 -0.41866199030077439 -0.044561848684318672 0 -0.43506109861085779 -0.04926715683622674 0 -0.43506109861085779 -0.04926715683622674 0 -0.43116263738949001 -0.02812610836371018 0 -0.41866199030077439 -0.044561848684318672 0 -0.43506109861085779 -0.04926715683622674 0 -0.43116263738949001 -0.02812610836371018 0 -0.43116263738949001 -0.02812610836371018 0 -0.42726417616810791 -0.0069850598911961048 0 -0.43116263738949001 -0.02812610836371018 0 -0.42726417616810791 -0.0069850598911961048 0 -0.41911513105233472 -0.02025818452167891 0 -0.41866199030077439 -0.044561848684318672 0 -0.43116263738949001 -0.02812610836371018 0 -0.41911513105233472 -0.02025818452167891 0 -0.43116263738949001 -0.02812610836371018 0 -0.42726417616810791 -0.0069850598911961048 0 -0.4428814844609712 -0.006384570977073482 0 -0.42726417616810791 -0.0069850598911961048 0 -0.41370694135355929 -0.0036283586364891408 0 -0.41911513105233472 -0.02025818452167891 0 -0.41370694135355929 -0.0036283586364891408 0 -0.41911513105233472 -0.02025818452167891 0 -0.40477991004974317 -0.017989547032679899 0 -0.42726417616810791 -0.0069850598911961048 0 -0.41370694135355929 -0.0036283586364891408 0 -0.41687364766546708 0.0090755064088398427 0 -0.41866199030077439 -0.044561848684318672 0 -0.40477991004974317 -0.017989547032679899 0 -0.39800301613841937 -0.027678612237333752 0 -0.41866199030077439 -0.044561848684318672 0 -0.41911513105233472 -0.02025818452167891 0 -0.40477991004974317 -0.017989547032679899 0 -0.40477991004974317 -0.017989547032679899 0 -0.39557396404270578 -0.020029638015535929 0 -0.39800301613841937 -0.027678612237333752 0 -0.40477991004974317 -0.017989547032679899 0 -0.39557396404270578 -0.020029638015535929 0 -0.39215502025718357 -0.01061516970827708 0 -0.39557396404270578 -0.020029638015535929 0 -0.39215502025718357 -0.01061516970827708 0 -0.38735790972547701 -0.023835223083852969 0 -0.39800301613841937 -0.027678612237333752 0 -0.38735790972547701 -0.023835223083852969 0 -0.38826852355727592 -0.03016611896433866 0 -0.39557396404270578 -0.020029638015535929 0 -0.39800301613841937 -0.027678612237333752 0 -0.38735790972547701 -0.023835223083852969 0 -0.41370694135355929 -0.0036283586364891408 0 -0.39215502025718357 -0.01061516970827708 0 -0.4047903848229874 0.001850858661261689 0 -0.41370694135355929 -0.0036283586364891408 0 -0.40477991004974317 -0.017989547032679899 0 -0.39215502025718357 -0.01061516970827708 0 -0.41370694135355929 -0.0036283586364891408 0 -0.39215502025718357 -0.01061516970827708 0 -0.39215502025718357 -0.01061516970827708 0 -0.39443802076266532 0.0026833730188719671 0 -0.4047903848229874 0.001850858661261689 0 -0.37060309916080802 -0.017601980780064998 0 -0.39215502025718357 -0.01061516970827708 0 -0.38261115783081873 -0.0060693452942621982 0 -0.37060309916080802 -0.017601980780064998 0 -0.39215502025718357 -0.01061516970827708 0 -0.39215502025718357 -0.01061516970827708 0 -0.38261115783081873 -0.0060693452942621982 0 -0.39443802076266532 0.0026833730188719671 0 -0.37060309916080802 -0.017601980780064998 0 -0.37234831300326821 -0.0087916223148991474 0 -0.38261115783081873 -0.0060693452942621982 0 -0.37234831300326821 -0.0087916223148991474 0 -0.38261115783081873 -0.0060693452942621982 0 -0.3835113359701684 0.0039786733130582766 0 -0.37060309916080802 -0.017601980780064998 0 -0.39215502025718357 -0.01061516970827708 0 -0.37748812974141283 -0.023690756884251148 0 -0.37225478214321323 -0.031246477462672929 0 -0.38735790972547701 -0.023835223083852969 0 -0.38826852355727592 -0.03016611896433866 0 -0.39215502025718357 -0.01061516970827708 0 -0.38735790972547701 -0.023835223083852969 0 -0.37748812974141283 -0.023690756884251148 0 -0.37225478214321323 -0.031246477462672929 0 -0.38735790972547701 -0.023835223083852969 0 -0.37748812974141283 -0.023690756884251148 0 -0.37225478214321323 -0.031246477462672929 0 -0.38826852355727592 -0.03016611896433866 0 -0.39545838622199397 -0.037904163073494992 0 -0.37069198044581442 -0.061031395544736737 0 -0.37225478214321323 -0.031246477462672929 0 -0.3944462820849074 -0.04265035782376346 0 -0.37225478214321323 -0.031246477462672929 0 -0.39545838622199397 -0.037904163073494992 0 -0.37225478214321323 -0.031246477462672929 0 -0.39545838622199397 -0.037904163073494992 0 -0.3944462820849074 -0.04265035782376346 0 -0.41866199030077439 -0.044561848684318672 0 -0.39545838622199397 -0.037904163073494992 0 -0.40185710851231438 -0.04876547094552678 0 -0.41866199030077439 -0.044561848684318672 0 -0.39800301613841937 -0.027678612237333752 0 -0.39545838622199397 -0.037904163073494992 0 -0.39800301613841937 -0.027678612237333752 0 -0.38826852355727592 -0.03016611896433866 0 -0.39545838622199397 -0.037904163073494992 0 -0.39545838622199397 -0.037904163073494992 0 -0.3944462820849074 -0.04265035782376346 0 -0.40185710851231438 -0.04876547094552678 0 -0.40185710851231438 -0.04876547094552678 0 -0.39231553621698873 -0.058020893201014202 0 -0.40590588926554028 -0.063347285052433311 0 -0.3944462820849074 -0.04265035782376346 0 -0.40185710851231438 -0.04876547094552678 0 -0.39231553621698873 -0.058020893201014202 0 -0.37069198044581442 -0.061031395544736737 0 -0.3944462820849074 -0.04265035782376346 0 -0.39231553621698873 -0.058020893201014202 0 -0.37069198044581442 -0.061031395544736737 0 -0.3944462820849074 -0.04265035782376346 0 -0.3699018115251459 -0.09154714189869867 0 -0.37069198044581442 -0.061031395544736737 0 -0.38864593988563317 -0.074540002705139177 0 -0.37069198044581442 -0.061031395544736737 0 -0.39231553621698873 -0.058020893201014202 0 -0.38864593988563317 -0.074540002705139177 0 -0.3699018115251459 -0.09154714189869867 0 -0.38864593988563317 -0.074540002705139177 0 -0.38804191434013618 -0.092426527889794219 0 -0.38864593988563317 -0.074540002705139177 0 -0.38804191434013618 -0.092426527889794219 0 -0.40492494705126097 -0.085825319001119588 0 -0.38864593988563317 -0.074540002705139177 0 -0.40492494705126097 -0.085825319001119588 0 -0.40590588926554028 -0.063347285052433311 0 -0.39231553621698873 -0.058020893201014202 0 -0.38864593988563317 -0.074540002705139177 0 -0.40590588926554028 -0.063347285052433311 0 -0.36407175406996362 -0.1192137070822267 0 -0.38034331943774508 -0.13476219318492499 0 -0.38476283481645401 -0.1116053183811012 0 -0.38034331943774508 -0.13476219318492499 0 -0.39713938507934837 -0.1257608394569304 0 -0.38476283481645401 -0.1116053183811012 0 -0.3699018115251459 -0.09154714189869867 0 -0.38804191434013618 -0.092426527889794219 0 -0.38476283481645401 -0.1116053183811012 0 -0.38804191434013618 -0.092426527889794219 0 -0.40492494705126097 -0.085825319001119588 0 -0.41123649603156559 -0.1078966811982297 0 -0.38804191434013618 -0.092426527889794219 0 -0.38476283481645401 -0.1116053183811012 0 -0.41123649603156559 -0.1078966811982297 0 -0.39713938507934837 -0.1257608394569304 0 -0.38476283481645401 -0.1116053183811012 0 -0.41123649603156559 -0.1078966811982297 0 -0.39713938507934837 -0.1257608394569304 0 -0.41500563133176399 -0.13151089347934861 0 -0.41123649603156559 -0.1078966811982297 0 -0.41500563133176399 -0.13151089347934861 0 -0.41123649603156559 -0.1078966811982297 0 -0.42910127587870311 -0.11897468293548991 0 -0.40492494705126097 -0.085825319001119588 0 -0.41916290916228321 -0.09553155946629649 0 -0.41123649603156559 -0.1078966811982297 0 -0.41916290916228321 -0.09553155946629649 0 -0.41123649603156559 -0.1078966811982297 0 -0.43293461013463469 -0.10040184803550919 0 -0.41123649603156559 -0.1078966811982297 0 -0.43293461013463469 -0.10040184803550919 0 -0.42910127587870311 -0.11897468293548991 0 -0.43293461013463469 -0.10040184803550919 0 -0.42910127587870311 -0.11897468293548991 0 -0.44805124774316729 -0.1197117135153544 0 -0.40492494705126097 -0.085825319001119588 0 -0.40590588926554028 -0.063347285052433311 0 -0.41641981697628649 -0.075022973145643448 0 -0.40590588926554028 -0.063347285052433311 0 -0.41641981697628649 -0.075022973145643448 0 -0.43066414376258522 -0.067535699612234962 0 -0.40492494705126097 -0.085825319001119588 0 -0.41641981697628649 -0.075022973145643448 0 -0.4264963411789256 -0.084335119287592908 0 -0.40492494705126097 -0.085825319001119588 0 -0.41916290916228321 -0.09553155946629649 0 -0.4264963411789256 -0.084335119287592908 0 -0.4264963411789256 -0.084335119287592908 0 -0.43066414376258522 -0.067535699612234962 0 -0.44266629722439921 -0.090509550540149558 0 -0.43293461013463469 -0.10040184803550919 0 -0.4264963411789256 -0.084335119287592908 0 -0.44266629722439921 -0.090509550540149558 0 -0.43066414376258522 -0.067535699612234962 0 -0.44266629722439921 -0.090509550540149558 0 -0.41916290916228321 -0.09553155946629649 0 -0.43293461013463469 -0.10040184803550919 0 -0.4264963411789256 -0.084335119287592908 0 -0.43066414376258522 -0.067535699612234962 0 -0.4388636979176368 -0.069888353688186661 0 -0.44266629722439921 -0.090509550540149558 0 -0.41641981697628649 -0.075022973145643448 0 -0.4264963411789256 -0.084335119287592908 0 -0.43066414376258522 -0.067535699612234962 0 -0.4388636979176368 -0.069888353688186661 0 -0.45333455763328362 -0.075518591454099837 0 -0.45773806860588362 -0.055773738155282651 0 -0.44266629722439921 -0.090509550540149558 0 -0.46065424848921588 -0.090772467194441139 0 -0.44554561372575008 -0.096020977159289284 0 -0.4388636979176368 -0.069888353688186661 0 -0.44266629722439921 -0.090509550540149558 0 -0.44266629722439921 -0.090509550540149558 0 -0.46065424848921588 -0.090772467194441139 0 -0.45333455763328362 -0.075518591454099837 0 -0.4388636979176368 -0.069888353688186661 0 -0.44266629722439921 -0.090509550540149558 0 -0.45333455763328362 -0.075518591454099837 0 -0.44266629722439921 -0.090509550540149558 0 -0.44379477416462643 -0.096629192198394664 0 -0.44266629722439921 -0.090509550540149558 0 -0.44554561372575008 -0.096020977159289284 0 -0.46065424848921588 -0.090772467194441139 0 -0.44554561372575008 -0.096020977159289284 0 -0.46065424848921588 -0.090772467194441139 0 -0.45333455763328362 -0.075518591454099837 0 -0.46675047592928143 -0.070648847692438593 0 -0.46065424848921588 -0.090772467194441139 0 -0.46675047592928143 -0.070648847692438593 0 -0.47576288325268179 -0.085523957229593009 0 -0.46065424848921588 -0.090772467194441139 0 -0.47576288325268179 -0.085523957229593009 0 -0.46065424848921588 -0.090772467194441139 0 -0.46818215177698203 -0.099953751655522838 0 -0.47576288325268179 -0.085523957229593009 0 -0.45333455763328362 -0.075518591454099837 0 -0.46675047592928143 -0.070648847692438593 0 -0.45773806860588362 -0.055773738155282651 0 -0.46675047592928143 -0.070648847692438593 0 -0.45773806860588362 -0.055773738155282651 0 -0.44805124774316729 -0.1197117135153544 0 -0.44379477416462643 -0.096629192198394664 0 -0.45640969151903937 -0.11681638729018 0 -0.44379477416462643 -0.096629192198394664 0 -0.44554561372575008 -0.096020977159289284 0 -0.45640969151903937 -0.11681638729018 0 -0.44805124774316729 -0.1197117135153544 0 -0.44379477416462643 -0.096629192198394664 0 -0.44554561372575008 -0.096020977159289284 0 -0.45640969151903937 -0.11681638729018 0 -0.43293461013463469 -0.10040184803550919 0 -0.44805124774316729 -0.1197117135153544 0 -0.44379477416462643 -0.096629192198394664 0 -0.43293461013463469 -0.10040184803550919 0 -0.44266629722439921 -0.090509550540149558 0 -0.44379477416462643 -0.096629192198394664 0 -0.43293461013463469 -0.10040184803550919 0 -0.44379477416462643 -0.096629192198394664 0 -0.44266629722439921 -0.090509550540149558 0 -0.44379477416462643 -0.096629192198394664 0 -0.44554561372575008 -0.096020977159289284 0 -0.44379477416462643 -0.096629192198394664 0 -0.44554561372575008 -0.096020977159289284 0 -0.44554561372575008 -0.096020977159289284 0 -0.4584779852015074 -0.10248795000985481 0 -0.45640969151903937 -0.11681638729018 0 -0.46065424848921588 -0.090772467194441139 0 -0.44554561372575008 -0.096020977159289284 0 -0.4584779852015074 -0.10248795000985481 0 -0.46065424848921588 -0.090772467194441139 0 -0.46818215177698203 -0.099953751655522838 0 -0.4584779852015074 -0.10248795000985481 0 -0.46818215177698203 -0.099953751655522838 0 -0.46359116758184998 -0.1097757465931173 0 -0.47217490095005349 -0.1085291706666472 0 -0.46818215177698203 -0.099953751655522838 0 -0.4584779852015074 -0.10248795000985481 0 -0.46359116758184998 -0.1097757465931173 0 -0.46727376931232728 -0.13761179742107149 0 -0.45640969151903937 -0.11681638729018 0 -0.47028854038926171 -0.1204433481463667 0 -0.4584779852015074 -0.10248795000985481 0 -0.45640969151903937 -0.11681638729018 0 -0.46359116758184998 -0.1097757465931173 0 -0.46359116758184998 -0.1097757465931173 0 -0.47028854038926171 -0.1204433481463667 0 -0.47217490095005349 -0.1085291706666472 0 -0.45640969151903937 -0.11681638729018 0 -0.46359116758184998 -0.1097757465931173 0 -0.47028854038926171 -0.1204433481463667 0 -0.45632844162157421 -0.13009438170693269 0 -0.44805124774316729 -0.1197117135153544 0 -0.45640969151903937 -0.11681638729018 0 -0.48141633457344279 -0.1233734007712788 0 -0.48041033756040291 -0.1128397634480607 0 -0.48800153806961899 -0.1181950100342378 0 -0.48141633457344279 -0.1233734007712788 0 -0.47028854038926171 -0.1204433481463667 0 -0.48041033756040291 -0.1128397634480607 0 -0.47028854038926171 -0.1204433481463667 0 -0.48041033756040291 -0.1128397634480607 0 -0.47217490095005349 -0.1085291706666472 0 -0.47682098178355009 -0.10237321382581439 0 -0.48757463537763068 -0.1050194261292486 0 -0.47576288325268179 -0.085523957229593009 0 -0.48757463537763068 -0.1050194261292486 0 -0.47576288325268179 -0.085523957229593009 0 -0.48965710939763751 -0.091401291768867493 0 -0.48757463537763068 -0.1050194261292486 0 -0.47576288325268179 -0.085523957229593009 0 -0.46818215177698203 -0.099953751655522838 0 -0.47682098178355009 -0.10237321382581439 0 -0.47576288325268179 -0.085523957229593009 0 -0.48041033756040291 -0.1128397634480607 0 -0.47682098178355009 -0.10237321382581439 0 -0.48757463537763068 -0.1050194261292486 0 -0.48041033756040291 -0.1128397634480607 0 -0.47682098178355009 -0.10237321382581439 0 -0.47217490095005349 -0.1085291706666472 0 -0.46818215177698203 -0.099953751655522838 0 -0.47682098178355009 -0.10237321382581439 0 -0.47217490095005349 -0.1085291706666472 0 -0.5 -0.098827271215595869 0 -0.48757463537763068 -0.1050194261292486 0 -0.5 -0.1205501909938503 0 -0.5 -0.098827271215595869 0 -0.48757463537763068 -0.1050194261292486 0 -0.48965710939763751 -0.091401291768867493 0 -0.48757463537763068 -0.1050194261292486 0 -0.5 -0.1205501909938503 0 -0.49938638750258069 -0.12451489502890351 0 -0.48757463537763068 -0.1050194261292486 0 -0.49938638750258069 -0.12451489502890351 0 -0.48800153806961899 -0.1181950100342378 0 -0.48757463537763068 -0.1050194261292486 0 -0.49938638750258069 -0.12451489502890351 0 -0.48041033756040291 -0.1128397634480607 0 -0.48757463537763068 -0.1050194261292486 0 -0.48800153806961899 -0.1181950100342378 0 -0.49078284407105738 -0.12533794259366859 0 -0.49938638750258069 -0.12451489502890351 0 -0.48800153806961899 -0.1181950100342378 0 -0.49078284407105738 -0.12533794259366859 0 -0.48141633457344279 -0.1233734007712788 0 -0.48800153806961899 -0.1181950100342378 0 -0.47879529358951112 -0.071050435846298318 0 -0.4890785850583505 -0.064766104371877103 0 -0.47340832683211742 -0.060269921263578698 0 -0.4890785850583505 -0.064766104371877103 0 -0.47340832683211742 -0.060269921263578698 0 -0.46675047592928143 -0.070648847692438593 0 -0.47879529358951112 -0.071050435846298318 0 -0.47340832683211742 -0.060269921263578698 0 -0.46675047592928143 -0.070648847692438593 0 -0.47576288325268179 -0.085523957229593009 0 -0.46675047592928143 -0.070648847692438593 0 -0.47879529358951112 -0.071050435846298318 0 -0.47576288325268179 -0.085523957229593009 0 -0.5 -0.098827271215595869 0 -0.48965710939763751 -0.091401291768867493 0 -0.4999999999999995 -0.077104351437341373 0 -0.47576288325268179 -0.085523957229593009 0 -0.4999999999999995 -0.077104351437341373 0 -0.47576288325268179 -0.085523957229593009 0 -0.48965710939763751 -0.091401291768867493 0 -0.4999999999999995 -0.077104351437341373 0 -0.47879529358951112 -0.071050435846298318 0 -0.47576288325268179 -0.085523957229593009 0 -0.4999999999999995 -0.077104351437341373 0 -0.47879529358951112 -0.071050435846298318 0 -0.4890785850583505 -0.064766104371877103 0 -0.4999999999999995 -0.077104351437341373 0 -0.4890785850583505 -0.064766104371877103 0 -0.4999999999999995 -0.077104351437341373 0 -0.5 -0.04737260108718544 0 -0.4890785850583505 -0.064766104371877103 0 -0.5 -0.04737260108718544 0 -0.48191302348946008 -0.047465690093857232 0 -0.5 -0.04737260108718544 0 -0.48191302348946008 -0.047465690093857232 0 -0.48295223640682527 -0.028582091006471119 0 -0.48191302348946008 -0.047465690093857232 0 -0.46519966385357669 -0.046866083698397072 0 -0.46239725397521558 -0.026925130535465362 0 -0.48191302348946008 -0.047465690093857232 0 -0.46239725397521558 -0.026925130535465362 0 -0.48295223640682527 -0.028582091006471119 0 -0.48191302348946008 -0.047465690093857232 0 -0.46239725397521558 -0.026925130535465362 0 -0.4890785850583505 -0.064766104371877103 0 -0.48191302348946008 -0.047465690093857232 0 -0.47340832683211742 -0.060269921263578698 0 -0.48191302348946008 -0.047465690093857232 0 -0.47340832683211742 -0.060269921263578698 0 -0.46519966385357669 -0.046866083698397072 0 -0.47340832683211742 -0.060269921263578698 0 -0.45773806860588362 -0.055773738155282651 0 -0.47340832683211742 -0.060269921263578698 0 -0.45773806860588362 -0.055773738155282651 0 -0.46519966385357669 -0.046866083698397072 0 -0.46675047592928143 -0.070648847692438593 0 -0.47340832683211742 -0.060269921263578698 0 -0.45773806860588362 -0.055773738155282651 0 -0.45773806860588362 -0.055773738155282651 0 -0.46519966385357669 -0.046866083698397072 0 -0.45054164636520821 -0.043895938443800443 0 -0.45773806860588362 -0.055773738155282651 0 -0.45054164636520821 -0.043895938443800443 0 -0.46519966385357669 -0.046866083698397072 0 -0.45054164636520821 -0.043895938443800443 0 -0.46239725397521558 -0.026925130535465362 0 -0.45054164636520821 -0.043895938443800443 0 -0.44674575554772128 -0.026332937080012369 0 -0.46239725397521558 -0.026925130535465362 0 -0.43506109861085779 -0.04926715683622674 0 -0.43116263738949001 -0.02812610836371018 0 -0.45054164636520821 -0.043895938443800443 0 -0.43116263738949001 -0.02812610836371018 0 -0.45054164636520821 -0.043895938443800443 0 -0.44674575554772128 -0.026332937080012369 0 -0.43506109861085779 -0.04926715683622674 0 -0.45773806860588362 -0.055773738155282651 0 -0.45054164636520821 -0.043895938443800443 0 -0.43506109861085779 -0.04926715683622674 0 -0.45773806860588362 -0.055773738155282651 0 -0.43506109861085779 -0.04926715683622674 0 -0.4388636979176368 -0.069888353688186661 0 -0.45773806860588362 -0.055773738155282651 0 -0.43116263738949001 -0.02812610836371018 0 -0.4428814844609712 -0.006384570977073482 0 -0.44674575554772128 -0.026332937080012369 0 -0.4428814844609712 -0.006384570977073482 0 -0.46239725397521558 -0.026925130535465362 0 -0.4428814844609712 -0.006384570977073482 0 -0.44674575554772128 -0.026332937080012369 0 -0.46239725397521558 -0.026925130535465362 0 -0.46239725397521558 -0.026925130535465362 0 -0.4618838428039273 -0.0081219354806253141 0 -0.47656437854189487 -0.015641256527086159 0 -0.4428814844609712 -0.006384570977073482 0 -0.46239725397521558 -0.026925130535465362 0 -0.4618838428039273 -0.0081219354806253141 0 -0.4428814844609712 -0.006384570977073482 0 -0.4618838428039273 -0.0081219354806253141 0 -0.45612254401637492 0.0052493762405696528 0 -0.47656437854189487 -0.015641256527086159 0 -0.5 -0.017640850737029479 0 -0.47558855952350609 0.0030637251241605028 0 -0.4618838428039273 -0.0081219354806253141 0 -0.47656437854189487 -0.015641256527086159 0 -0.47558855952350609 0.0030637251241605028 0 -0.46239725397521558 -0.026925130535465362 0 -0.48295223640682527 -0.028582091006471119 0 -0.47656437854189487 -0.015641256527086159 0 -0.5 -0.04737260108718544 0 -0.48295223640682527 -0.028582091006471119 0 -0.5 -0.017640850737029479 0 -0.48295223640682527 -0.028582091006471119 0 -0.47656437854189487 -0.015641256527086159 0 -0.5 -0.017640850737029479 0 -0.5 -0.017640850737029479 0 -0.5 0.01209089961312654 0 -0.47558855952350609 0.0030637251241605028 0 -0.5 0.01209089961312654 0 -0.48256324184523808 0.026881014629463691 0 -0.47558855952350609 0.0030637251241605028 0 -0.5 0.01209089961312654 0 -0.48256324184523808 0.026881014629463691 0 -0.5 0.041822649963282277 0 -0.48256324184523808 0.026881014629463691 0 -0.47558855952350609 0.0030637251241605028 0 -0.46055349077129559 0.026151799891477999 0 -0.5 0.041822649963282277 0 -0.47667415893138898 0.051275998555271159 0 -0.5 0.071554400313438071 0 -0.48256324184523808 0.026881014629463691 0 -0.5 0.041822649963282277 0 -0.47667415893138898 0.051275998555271159 0 -0.48256324184523808 0.026881014629463691 0 -0.47667415893138898 0.051275998555271159 0 -0.46055349077129559 0.026151799891477999 0 -0.47667415893138898 0.051275998555271159 0 -0.45534041848951662 0.049782147055605547 0 -0.45958333490812198 0.073838052493855999 0 -0.47667415893138898 0.051275998555271159 0 -0.45534041848951662 0.049782147055605547 0 -0.46055349077129559 0.026151799891477999 0 -0.45534041848951662 0.049782147055605547 0 -0.43855874398431782 0.03628014025517607 0 -0.46055349077129559 0.026151799891477999 0 -0.45534041848951662 0.049782147055605547 0 -0.43855874398431782 0.03628014025517607 0 -0.44133236385245822 0.061364744082246507 0 -0.45534041848951662 0.049782147055605547 0 -0.44133236385245822 0.061364744082246507 0 -0.45958333490812198 0.073838052493855999 0 -0.4618838428039273 -0.0081219354806253141 0 -0.47558855952350609 0.0030637251241605028 0 -0.45612254401637492 0.0052493762405696528 0 -0.45612254401637492 0.0052493762405696528 0 -0.46055349077129559 0.026151799891477999 0 -0.44428792666468497 0.015174584194545759 0 -0.47558855952350609 0.0030637251241605028 0 -0.45612254401637492 0.0052493762405696528 0 -0.46055349077129559 0.026151799891477999 0 -0.43855874398431782 0.03628014025517607 0 -0.46055349077129559 0.026151799891477999 0 -0.44428792666468497 0.015174584194545759 0 -0.4428814844609712 -0.006384570977073482 0 -0.45612254401637492 0.0052493762405696528 0 -0.44428792666468497 0.015174584194545759 0 -0.42726417616810791 -0.0069850598911961048 0 -0.4428814844609712 -0.006384570977073482 0 -0.42336571494672631 0.014155988581318051 0 -0.4428814844609712 -0.006384570977073482 0 -0.44428792666468497 0.015174584194545759 0 -0.42336571494672631 0.014155988581318051 0 -0.42726417616810791 -0.0069850598911961048 0 -0.42336571494672631 0.014155988581318051 0 -0.4428814844609712 -0.006384570977073482 0 -0.42336571494672631 0.014155988581318051 0 -0.42726417616810791 -0.0069850598911961048 0 -0.42336571494672631 0.014155988581318051 0 -0.41687364766546708 0.0090755064088398427 0 -0.42336571494672631 0.014155988581318051 0 -0.41419359455657762 0.01520100414092977 0 -0.41687364766546708 0.0090755064088398427 0 -0.41419359455657762 0.01520100414092977 0 -0.41687364766546708 0.0090755064088398427 0 -0.40677829407606142 0.01173894222336285 0 -0.41687364766546708 0.0090755064088398427 0 -0.40677829407606142 0.01173894222336285 0 -0.4047903848229874 0.001850858661261689 0 -0.41370694135355929 -0.0036283586364891408 0 -0.41687364766546708 0.0090755064088398427 0 -0.4047903848229874 0.001850858661261689 0 -0.42336571494672631 0.014155988581318051 0 -0.41916701492157898 0.036925208463850473 0 -0.42336571494672631 0.014155988581318051 0 -0.41084298769389982 0.024690272413000359 0 -0.41916701492157898 0.036925208463850473 0 -0.41084298769389982 0.024690272413000359 0 -0.41916701492157898 0.036925208463850473 0 -0.40016902249820019 0.0312630212882134 0 -0.41419359455657762 0.01520100414092977 0 -0.40677829407606142 0.01173894222336285 0 -0.41084298769389982 0.024690272413000359 0 -0.42336571494672631 0.014155988581318051 0 -0.41419359455657762 0.01520100414092977 0 -0.41084298769389982 0.024690272413000359 0 -0.43855874398431782 0.03628014025517607 0 -0.44428792666468497 0.015174584194545759 0 -0.42336571494672631 0.014155988581318051 0 -0.43855874398431782 0.03628014025517607 0 -0.42336571494672631 0.014155988581318051 0 -0.41916701492157898 0.036925208463850473 0 -0.43855874398431782 0.03628014025517607 0 -0.42817385713466599 0.051636241490618739 0 -0.41916701492157898 0.036925208463850473 0 -0.43855874398431782 0.03628014025517607 0 -0.44133236385245822 0.061364744082246507 0 -0.42817385713466599 0.051636241490618739 0 -0.44133236385245822 0.061364744082246507 0 -0.42817385713466599 0.051636241490618739 0 -0.42684284801854322 0.063916686305437745 0 -0.42817385713466599 0.051636241490618739 0 -0.41496831489643232 0.059694428346382923 0 -0.42684284801854322 0.063916686305437745 0 -0.42817385713466599 0.051636241490618739 0 -0.41496831489643232 0.059694428346382923 0 -0.41916701492157898 0.036925208463850473 0 -0.41496831489643232 0.059694428346382923 0 -0.41916701492157898 0.036925208463850473 0 -0.39301517292949822 0.048723734955538688 0 -0.41496831489643232 0.059694428346382923 0 -0.41916701492157898 0.036925208463850473 0 -0.40016902249820019 0.0312630212882134 0 -0.39301517292949822 0.048723734955538688 0 -0.38240450937626502 0.029914745057972311 0 -0.39301517292949822 0.048723734955538688 0 -0.38240450937626502 0.029914745057972311 0 -0.35931706765858429 0.048506611347341362 0 -0.39301517292949822 0.048723734955538688 0 -0.37757191483638303 0.068620722861141834 0 -0.35931706765858429 0.048506611347341362 0 -0.41916701492157898 0.036925208463850473 0 -0.40016902249820019 0.0312630212882134 0 -0.39301517292949822 0.048723734955538688 0 -0.41496831489643232 0.059694428346382923 0 -0.39301517292949822 0.048723734955538688 0 -0.39717994556026243 0.06877621708943453 0 -0.39301517292949822 0.048723734955538688 0 -0.37757191483638303 0.068620722861141834 0 -0.39717994556026243 0.06877621708943453 0 -0.38240450937626502 0.029914745057972311 0 -0.3817909908117797 0.017453014609489219 0 -0.36583269033092619 0.0198574945162211 0 -0.38240450937626502 0.029914745057972311 0 -0.3817909908117797 0.017453014609489219 0 -0.39541542756975911 0.016061145550705161 0 -0.3817909908117797 0.017453014609489219 0 -0.3835113359701684 0.0039786733130582766 0 -0.36583269033092619 0.0198574945162211 0 -0.38261115783081873 -0.0060693452942621982 0 -0.3835113359701684 0.0039786733130582766 0 -0.39443802076266532 0.0026833730188719671 0 -0.3817909908117797 0.017453014609489219 0 -0.3835113359701684 0.0039786733130582766 0 -0.39541542756975911 0.016061145550705161 0 -0.3835113359701684 0.0039786733130582766 0 -0.39443802076266532 0.0026833730188719671 0 -0.39541542756975911 0.016061145550705161 0 -0.40677829407606142 0.01173894222336285 0 -0.39443802076266532 0.0026833730188719671 0 -0.4047903848229874 0.001850858661261689 0 -0.40677829407606142 0.01173894222336285 0 -0.39443802076266532 0.0026833730188719671 0 -0.39541542756975911 0.016061145550705161 0 -0.40677829407606142 0.01173894222336285 0 -0.41084298769389982 0.024690272413000359 0 -0.39541542756975911 0.016061145550705161 0 -0.40016902249820019 0.0312630212882134 0 -0.38240450937626502 0.029914745057972311 0 -0.39541542756975911 0.016061145550705161 0 -0.41084298769389982 0.024690272413000359 0 -0.40016902249820019 0.0312630212882134 0 -0.39541542756975911 0.016061145550705161 0 -0.38646812399680042 0.1127295516178168 0 -0.40657091484614488 0.1052328681114492 0 -0.39552099345768871 0.096972691415696741 0 -0.38646812399680042 0.1127295516178168 0 -0.40657091484614488 0.1052328681114492 0 -0.39552099345768871 0.096972691415696741 0 -0.41076961487128549 0.082463648228915415 0 -0.40657091484614488 0.1052328681114492 0 -0.40657091484614488 0.1052328681114492 0 -0.40281515321082589 0.1256000679563154 0 -0.38646812399680042 0.1127295516178168 0 -0.40657091484614488 0.1052328681114492 0 -0.40281515321082589 0.1256000679563154 0 -0.38646812399680042 0.1127295516178168 0 -0.38053137272319187 0.13205202790225989 0 -0.35893294113859819 0.12299790454077671 0 -0.38646812399680042 0.1127295516178168 0 -0.38422160330650568 0.1000588380651099 0 -0.36871044727512381 0.1062777808590276 0 -0.39552099345768871 0.096972691415696741 0 -0.38422160330650568 0.1000588380651099 0 -0.38957471026771301 0.084378551055193776 0 -0.39552099345768871 0.096972691415696741 0 -0.38646812399680042 0.1127295516178168 0 -0.38422160330650568 0.1000588380651099 0 -0.38646812399680042 0.1127295516178168 0 -0.38422160330650568 0.1000588380651099 0 -0.38957471026771301 0.084378551055193776 0 -0.37757191483638303 0.068620722861141834 0 -0.36764374561981439 0.089797765061852802 0 -0.38422160330650568 0.1000588380651099 0 -0.38957471026771301 0.084378551055193776 0 -0.36764374561981439 0.089797765061852802 0 -0.38957471026771301 0.084378551055193776 0 -0.37757191483638303 0.068620722861141834 0 -0.39717994556026243 0.06877621708943453 0 -0.38957471026771301 0.084378551055193776 0 -0.39717994556026243 0.06877621708943453 0 -0.41076961487128549 0.082463648228915415 0 -0.39552099345768871 0.096972691415696741 0 -0.38957471026771301 0.084378551055193776 0 -0.41076961487128549 0.082463648228915415 0 -0.41898859886201217 0.073595494369754488 0 -0.41908765009337012 0.101304942348922 0 -0.41076961487128549 0.082463648228915415 0 -0.41510523193806048 0.091806330342157752 0 -0.41898859886201217 0.073595494369754488 0 -0.41898859886201217 0.073595494369754488 0 -0.42449203454001649 0.091182452464015268 0 -0.41908765009337012 0.101304942348922 0 -0.41076961487128549 0.082463648228915415 0 -0.41510523193806048 0.091806330342157752 0 -0.40657091484614488 0.1052328681114492 0 -0.41510523193806048 0.091806330342157752 0 -0.41898859886201217 0.073595494369754488 0 -0.41908765009337012 0.101304942348922 0 -0.41496831489643232 0.059694428346382923 0 -0.39717994556026243 0.06877621708943453 0 -0.41076961487128549 0.082463648228915415 0 -0.41496831489643232 0.059694428346382923 0 -0.41076961487128549 0.082463648228915415 0 -0.41496831489643232 0.059694428346382923 0 -0.41076961487128549 0.082463648228915415 0 -0.41898859886201217 0.073595494369754488 0 -0.41496831489643232 0.059694428346382923 0 -0.41898859886201217 0.073595494369754488 0 -0.42684284801854322 0.063916686305437745 0 -0.41898859886201217 0.073595494369754488 0 -0.43393180175084162 0.075157465443856875 0 -0.42897186564040252 0.085577102559681636 0 -0.41898859886201217 0.073595494369754488 0 -0.42684284801854322 0.063916686305437745 0 -0.43393180175084162 0.075157465443856875 0 -0.44133236385245822 0.061364744082246507 0 -0.42684284801854322 0.063916686305437745 0 -0.43393180175084162 0.075157465443856875 0 -0.41898859886201217 0.073595494369754488 0 -0.42449203454001649 0.091182452464015268 0 -0.42897186564040252 0.085577102559681636 0 -0.42449203454001649 0.091182452464015268 0 -0.42897186564040252 0.085577102559681636 0 -0.43079469189485081 0.093599825416205179 0 -0.43393180175084162 0.075157465443856875 0 -0.42897186564040252 0.085577102559681636 0 -0.44032854807989008 0.089102872907630748 0 -0.42897186564040252 0.085577102559681636 0 -0.43079469189485081 0.093599825416205179 0 -0.44032854807989008 0.089102872907630748 0 -0.43079469189485081 0.093599825416205179 0 -0.43423788427135579 0.10144282522375569 0 -0.42594312694258929 0.10069387392594251 0 -0.43079469189485081 0.093599825416205179 0 -0.43423788427135579 0.10144282522375569 0 -0.44032854807989008 0.089102872907630748 0 -0.43423788427135579 0.10144282522375569 0 -0.42784787528918011 0.1073367765367476 0 -0.43373420393449258 0.1095624139848085 0 -0.43423788427135579 0.10144282522375569 0 -0.43373420393449258 0.1095624139848085 0 -0.43970567471523042 0.1078575364231921 0 -0.43423788427135579 0.10144282522375569 0 -0.42784787528918011 0.1073367765367476 0 -0.42594312694258929 0.10069387392594251 0 -0.42461979206897538 0.1060803389634367 0 -0.41908765009337012 0.101304942348922 0 -0.42560051595076231 0.11498576304213499 0 -0.42784787528918011 0.1073367765367476 0 -0.42461979206897538 0.1060803389634367 0 -0.42594312694258929 0.10069387392594251 0 -0.42461979206897538 0.1060803389634367 0 -0.42594312694258929 0.10069387392594251 0 -0.41908765009337012 0.101304942348922 0 -0.42449203454001649 0.091182452464015268 0 -0.42594312694258929 0.10069387392594251 0 -0.41908765009337012 0.101304942348922 0 -0.42449203454001649 0.091182452464015268 0 -0.43079469189485081 0.093599825416205179 0 -0.42594312694258929 0.10069387392594251 0 -0.41908765009337012 0.101304942348922 0 -0.41317823996504321 0.107872365549414 0 -0.41315533249306913 0.1169769366383997 0 -0.41510523193806048 0.091806330342157752 0 -0.41531314267732039 0.098115740619400843 0 -0.41908765009337012 0.101304942348922 0 -0.41076961487128549 0.082463648228915415 0 -0.40657091484614488 0.1052328681114492 0 -0.41531314267732039 0.098115740619400843 0 -0.41908765009337012 0.101304942348922 0 -0.41495858088163429 0.10210496024552029 0 -0.41908765009337012 0.101304942348922 0 -0.41495858088163429 0.10210496024552029 0 -0.41317823996504321 0.107872365549414 0 -0.41495858088163429 0.10210496024552029 0 -0.40657091484614488 0.1052328681114492 0 -0.41531314267732039 0.098115740619400843 0 -0.41495858088163429 0.10210496024552029 0 -0.40657091484614488 0.1052328681114492 0 -0.41495858088163429 0.10210496024552029 0 -0.40657091484614488 0.1052328681114492 0 -0.41317823996504321 0.107872365549414 0 -0.41510523193806048 0.091806330342157752 0 -0.41531314267732039 0.098115740619400843 0 -0.40657091484614488 0.1052328681114492 0 -0.40657091484614488 0.1052328681114492 0 -0.41315533249306913 0.1169769366383997 0 -0.40281515321082589 0.1256000679563154 0 -0.41908765009337012 0.101304942348922 0 -0.42560051595076231 0.11498576304213499 0 -0.41918670132472818 0.12901439032808951 0 -0.41908765009337012 0.101304942348922 0 -0.41315533249306913 0.1169769366383997 0 -0.41918670132472818 0.12901439032808951 0 -0.41315533249306913 0.1169769366383997 0 -0.41918670132472818 0.12901439032808951 0 -0.40281515321082589 0.1256000679563154 0 -0.41908765009337012 0.101304942348922 0 -0.41918670132472818 0.12901439032808951 0 -0.40657091484614488 0.1052328681114492 0 -0.41317823996504321 0.107872365549414 0 -0.41315533249306913 0.1169769366383997 0 -0.42560051595076231 0.11498576304213499 0 -0.4323279603822347 0.1151998836243342 0 -0.43010994510705269 0.1231095695537998 0 -0.42560051595076231 0.11498576304213499 0 -0.43010994510705269 0.1231095695537998 0 -0.41918670132472818 0.12901439032808951 0 -0.42784787528918011 0.1073367765367476 0 -0.42461979206897538 0.1060803389634367 0 -0.42560051595076231 0.11498576304213499 0 -0.42560051595076231 0.11498576304213499 0 -0.42987763888916741 0.1117712092970063 0 -0.4323279603822347 0.1151998836243342 0 -0.42784787528918011 0.1073367765367476 0 -0.42560051595076231 0.11498576304213499 0 -0.42987763888916741 0.1117712092970063 0 -0.42784787528918011 0.1073367765367476 0 -0.42987763888916741 0.1117712092970063 0 -0.43373420393449258 0.1095624139848085 0 -0.42987763888916741 0.1117712092970063 0 -0.4323279603822347 0.1151998836243342 0 -0.43373420393449258 0.1095624139848085 0 -0.4323279603822347 0.1151998836243342 0 -0.4373948155335769 0.1194168204072472 0 -0.43877285996521742 0.1139230837748047 0 -0.43373420393449258 0.1095624139848085 0 -0.43877285996521742 0.1139230837748047 0 -0.43970567471523042 0.1078575364231921 0 -0.4323279603822347 0.1151998836243342 0 -0.43373420393449258 0.1095624139848085 0 -0.43877285996521742 0.1139230837748047 0 -0.4323279603822347 0.1151998836243342 0 -0.43010994510705269 0.1231095695537998 0 -0.4373948155335769 0.1194168204072472 0 -0.43010994510705269 0.1231095695537998 0 -0.4373948155335769 0.1194168204072472 0 -0.43689285812780609 0.12614763336064519 0 -0.44207921939748718 0.1210607609110787 0 -0.44316713108207378 0.12575878762755729 0 -0.43689285812780609 0.12614763336064519 0 -0.4373948155335769 0.1194168204072472 0 -0.44207921939748718 0.1210607609110787 0 -0.43689285812780609 0.12614763336064519 0 -0.4373948155335769 0.1194168204072472 0 -0.44207921939748718 0.1210607609110787 0 -0.44384396603514559 0.1165324518628863 0 -0.44207921939748718 0.1210607609110787 0 -0.44630280009431222 0.1212389905043718 0 -0.44384396603514559 0.1165324518628863 0 -0.44207921939748718 0.1210607609110787 0 -0.44630280009431222 0.1212389905043718 0 -0.44316713108207378 0.12575878762755729 0 -0.44630280009431222 0.1212389905043718 0 -0.4508721897039859 0.1206324510699303 0 -0.44853780707601287 0.126935419352384 0 -0.44630280009431222 0.1212389905043718 0 -0.44316713108207378 0.12575878762755729 0 -0.44853780707601287 0.126935419352384 0 -0.44630280009431222 0.1212389905043718 0 -0.4508721897039859 0.1206324510699303 0 -0.44795154461647452 0.11687896875788389 0 -0.44630280009431222 0.1212389905043718 0 -0.44795154461647452 0.11687896875788389 0 -0.44384396603514559 0.1165324518628863 0 -0.4508721897039859 0.1206324510699303 0 -0.45067971535627538 0.1165140210449241 0 -0.45368561646966588 0.1186504754974979 0 -0.4508721897039859 0.1206324510699303 0 -0.45067971535627538 0.1165140210449241 0 -0.44795154461647452 0.11687896875788389 0 -0.4508721897039859 0.1206324510699303 0 -0.45368561646966588 0.1186504754974979 0 -0.45460446545408872 0.12545601790255009 0 -0.4508721897039859 0.1206324510699303 0 -0.44853780707601287 0.126935419352384 0 -0.45460446545408872 0.12545601790255009 0 -0.44633746787624068 0.1114133183808113 0 -0.44835411113007911 0.1025914873322647 0 -0.45455175811500992 0.1149948915184969 0 -0.44835411113007911 0.1025914873322647 0 -0.4563796741802687 0.1160801017568982 0 -0.45455175811500992 0.1149948915184969 0 -0.45067971535627538 0.1165140210449241 0 -0.44633746787624068 0.1114133183808113 0 -0.45455175811500992 0.1149948915184969 0 -0.45067971535627538 0.1165140210449241 0 -0.45368561646966588 0.1186504754974979 0 -0.45455175811500992 0.1149948915184969 0 -0.44795154461647452 0.11687896875788389 0 -0.44633746787624068 0.1114133183808113 0 -0.44384396603514559 0.1165324518628863 0 -0.45067971535627538 0.1165140210449241 0 -0.44795154461647452 0.11687896875788389 0 -0.44633746787624068 0.1114133183808113 0 -0.44633746787624068 0.1114133183808113 0 -0.43877285996521742 0.1139230837748047 0 -0.43970567471523042 0.1078575364231921 0 -0.44633746787624068 0.1114133183808113 0 -0.44384396603514559 0.1165324518628863 0 -0.43877285996521742 0.1139230837748047 0 -0.4373948155335769 0.1194168204072472 0 -0.44384396603514559 0.1165324518628863 0 -0.43877285996521742 0.1139230837748047 0 -0.43423788427135579 0.10144282522375569 0 -0.43970567471523042 0.1078575364231921 0 -0.44835411113007911 0.1025914873322647 0 -0.44633746787624068 0.1114133183808113 0 -0.43970567471523042 0.1078575364231921 0 -0.44835411113007911 0.1025914873322647 0 -0.44835411113007911 0.1025914873322647 0 -0.44032854807989008 0.089102872907630748 0 -0.43423788427135579 0.10144282522375569 0 -0.44835411113007911 0.1025914873322647 0 -0.44032854807989008 0.089102872907630748 0 -0.44835411113007911 0.1025914873322647 0 -0.44032854807989008 0.089102872907630748 0 -0.4549142510499089 0.089845513564118809 0 -0.44835411113007911 0.1025914873322647 0 -0.4563796741802687 0.1160801017568982 0 -0.46128830259219278 0.10305762788703619 0 -0.4549142510499089 0.089845513564118809 0 -0.47305555660541487 0.092898002000487173 0 -0.44835411113007911 0.1025914873322647 0 -0.46128830259219278 0.10305762788703619 0 -0.4563796741802687 0.1160801017568982 0 -0.44835411113007911 0.1025914873322647 0 -0.46128830259219278 0.10305762788703619 0 -0.4549142510499089 0.089845513564118809 0 -0.4563796741802687 0.1160801017568982 0 -0.47818983709013452 0.12902851472881191 0 -0.46128830259219278 0.10305762788703619 0 -0.4563796741802687 0.1160801017568982 0 -0.47197510773799711 0.1144460766541225 0 -0.45368561646966588 0.1186504754974979 0 -0.4563796741802687 0.1160801017568982 0 -0.45460446545408872 0.12545601790255009 0 -0.4563796741802687 0.1160801017568982 0 -0.45862052098610351 0.12928071259428839 0 -0.45460446545408872 0.12545601790255009 0 -0.45368561646966588 0.1186504754974979 0 -0.4563796741802687 0.1160801017568982 0 -0.45455175811500992 0.1149948915184969 0 -0.4563796741802687 0.1160801017568982 0 -0.45455175811500992 0.1149948915184969 0 -0.44133236385245822 0.061364744082246507 0 -0.43393180175084162 0.075157465443856875 0 -0.44601805992824423 0.077861729698341792 0 -0.44133236385245822 0.061364744082246507 0 -0.44601805992824423 0.077861729698341792 0 -0.45958333490812198 0.073838052493855999 0 -0.44601805992824423 0.077861729698341792 0 -0.44032854807989008 0.089102872907630748 0 -0.4549142510499089 0.089845513564118809 0 -0.43393180175084162 0.075157465443856875 0 -0.44601805992824423 0.077861729698341792 0 -0.44032854807989008 0.089102872907630748 0 -0.44601805992824423 0.077861729698341792 0 -0.4549142510499089 0.089845513564118809 0 -0.45958333490812198 0.073838052493855999 0 -0.4549142510499089 0.089845513564118809 0 -0.45958333490812198 0.073838052493855999 0 -0.47305555660541487 0.092898002000487173 0 -0.45958333490812198 0.073838052493855999 0 -0.47305555660541487 0.092898002000487173 0 -0.47667415893138898 0.051275998555271159 0 -0.45958333490812198 0.073838052493855999 0 -0.47973743794388718 0.075503087606999558 0 -0.47973743794388718 0.075503087606999558 0 -0.47305555660541487 0.092898002000487173 0 -0.48937413927451018 0.08794898467194541 0 -0.45958333490812198 0.073838052493855999 0 -0.47973743794388718 0.075503087606999558 0 -0.47305555660541487 0.092898002000487173 0 -0.47973743794388718 0.075503087606999558 0 -0.48937413927451018 0.08794898467194541 0 -0.5 0.071554400313438071 0 -0.48937413927451018 0.08794898467194541 0 -0.5 0.071554400313438071 0 -0.5 0.10128615066359389 0 -0.47667415893138898 0.051275998555271159 0 -0.47973743794388718 0.075503087606999558 0 -0.5 0.071554400313438071 0 -0.4563796741802687 0.1160801017568982 0 -0.47197510773799711 0.1144460766541225 0 -0.47818983709013452 0.12902851472881191 0 -0.4803828942852697 0.1195281185139916 0 -0.47197510773799711 0.1144460766541225 0 -0.48652777830270783 0.1119579515071184 0 -0.4803828942852697 0.1195281185139916 0 -0.47197510773799711 0.1144460766541225 0 -0.47818983709013452 0.12902851472881191 0 -0.47305555660541487 0.092898002000487173 0 -0.47197510773799711 0.1144460766541225 0 -0.48652777830270783 0.1119579515071184 0 -0.47305555660541487 0.092898002000487173 0 -0.48652777830270783 0.1119579515071184 0 -0.47305555660541487 0.092898002000487173 0 -0.48937413927451018 0.08794898467194541 0 -0.48652777830270783 0.1119579515071184 0 -0.46128830259219278 0.10305762788703619 0 -0.47305555660541487 0.092898002000487173 0 -0.47197510773799711 0.1144460766541225 0 -0.48937413927451018 0.08794898467194541 0 -0.5 0.10128615066359389 0 -0.48652777830270783 0.1119579515071184 0 -0.5 0.10128615066359389 0 -0.48652777830270783 0.1119579515071184 0 -0.50000000000000033 0.1310179010137498 0 -0.48652777830270783 0.1119579515071184 0 -0.50000000000000033 0.1310179010137498 0 -0.4803828942852697 0.1195281185139916 0 -0.48652777830270783 0.1119579515071184 0 -0.50000000000000033 0.1310179010137498 0 -0.47818983709013452 0.12902851472881191 0 -0.5 0.14197692770072631 0 -0.50000000000000033 0.1310179010137498 0 -0.47818983709013452 0.12902851472881191 0 -0.5 0.14197692770072631 0 -0.4803828942852697 0.1195281185139916 0 -0.50000000000000033 0.1310179010137498 0 -0.47818983709013452 0.12902851472881191 0 -0.47818983709013452 0.12902851472881191 0 -0.48278716513819903 0.14208835680902579 0 -0.5 0.14197692770072631 0 -0.47818983709013452 0.12902851472881191 0 -0.48278716513819903 0.14208835680902579 0 -0.46716769491441501 0.13421159622998011 0 -0.4779557156485621 0.15234309070306151 0 -0.46716769491441501 0.13421159622998011 0 -0.48278716513819903 0.14208835680902579 0 -0.4779557156485621 0.15234309070306151 0 -0.46716769491441501 0.13421159622998011 0 -0.48278716513819903 0.14208835680902579 0 -0.4779557156485621 0.15234309070306151 0 -0.49062257803788351 0.15288165468254919 0 -0.49062257803788351 0.15288165468254919 0 -0.5 0.14197692770072631 0 -0.5 0.16497891114968419 0 -0.48278716513819903 0.14208835680902579 0 -0.49062257803788351 0.15288165468254919 0 -0.5 0.14197692770072631 0 -0.4915527864202579 0.16436799353574369 0 -0.48874373638270918 0.170474585176143 0 -0.4890669171771399 0.1801743907055311 0 -0.49062257803788351 0.15288165468254919 0 -0.5 0.16497891114968419 0 -0.4915527864202579 0.16436799353574369 0 -0.4779557156485621 0.15234309070306151 0 -0.4915527864202579 0.16436799353574369 0 -0.48874373638270918 0.170474585176143 0 -0.4779557156485621 0.15234309070306151 0 -0.49062257803788351 0.15288165468254919 0 -0.4915527864202579 0.16436799353574369 0 -0.4915527864202579 0.16436799353574369 0 -0.4890669171771399 0.1801743907055311 0 -0.49349322035732701 0.1888114337927744 0 -0.5 0.16497891114968419 0 -0.4915527864202579 0.16436799353574369 0 -0.49349322035732701 0.1888114337927744 0 -0.5 0.16497891114968419 0 -0.5 0.18798089459864209 0 -0.49349322035732701 0.1888114337927744 0 -0.4915527864202579 0.16436799353574369 0 -0.49349322035732701 0.1888114337927744 0 -0.48874373638270918 0.170474585176143 0 -0.4890669171771399 0.1801743907055311 0 -0.48040695792352589 0.17411047085559839 0 -0.48685907935334333 0.18632528565321821 0 -0.4890669171771399 0.1801743907055311 0 -0.47864401683678831 0.18451995397460411 0 -0.48685907935334333 0.18632528565321821 0 -0.4890669171771399 0.1801743907055311 0 -0.49349322035732701 0.1888114337927744 0 -0.47864401683678831 0.18451995397460411 0 -0.46718969750729422 0.17102386018011381 0 -0.46380645759857042 0.18997601921967749 0 -0.48685907935334333 0.18632528565321821 0 -0.47864401683678831 0.18451995397460411 0 -0.48386531881060862 0.19134448535934681 0 -0.4890669171771399 0.1801743907055311 0 -0.47864401683678831 0.18451995397460411 0 -0.48040695792352589 0.17411047085559839 0 -0.47864401683678831 0.18451995397460411 0 -0.48040695792352589 0.17411047085559839 0 -0.46718969750729422 0.17102386018011381 0 -0.4779557156485621 0.15234309070306151 0 -0.47839042171369778 0.16435956424159981 0 -0.46718969750729422 0.17102386018011381 0 -0.4779557156485621 0.15234309070306151 0 -0.48874373638270918 0.170474585176143 0 -0.4779557156485621 0.15234309070306151 0 -0.48874373638270918 0.170474585176143 0 -0.47839042171369778 0.16435956424159981 0 -0.48874373638270918 0.170474585176143 0 -0.48040695792352589 0.17411047085559839 0 -0.47839042171369778 0.16435956424159981 0 -0.48040695792352589 0.17411047085559839 0 -0.47839042171369778 0.16435956424159981 0 -0.46718969750729422 0.17102386018011381 0 -0.4779557156485621 0.15234309070306151 0 -0.46718969750729422 0.17102386018011381 0 -0.4598394170568007 0.15529091956654539 0 -0.46718969750729422 0.17102386018011381 0 -0.4487055359767691 0.16183926363054471 0 -0.4598394170568007 0.15529091956654539 0 -0.46718969750729422 0.17102386018011381 0 -0.44555294637186649 0.18088567833939029 0 -0.4487055359767691 0.16183926363054471 0 -0.46718969750729422 0.17102386018011381 0 -0.44555294637186649 0.18088567833939029 0 -0.46380645759857042 0.18997601921967749 0 -0.44555294637186649 0.18088567833939029 0 -0.4487055359767691 0.16183926363054471 0 -0.43639240517518108 0.16309866252337321 0 -0.4487055359767691 0.16183926363054471 0 -0.43675619376457819 0.15288297657035449 0 -0.43639240517518108 0.16309866252337321 0 -0.4487055359767691 0.16183926363054471 0 -0.44775757943863609 0.14598121808440279 0 -0.4598394170568007 0.15529091956654539 0 -0.4487055359767691 0.16183926363054471 0 -0.44775757943863609 0.14598121808440279 0 -0.43675619376457819 0.15288297657035449 0 -0.44775757943863609 0.14598121808440279 0 -0.4365924999045796 0.14238575007386339 0 -0.43675619376457819 0.15288297657035449 0 -0.44775757943863609 0.14598121808440279 0 -0.44182628391051909 0.13367794701657831 0 -0.4365924999045796 0.14238575007386339 0 -0.44182628391051909 0.13367794701657831 0 -0.44316713108207378 0.12575878762755729 0 -0.43689285812780609 0.12614763336064519 0 -0.44182628391051909 0.13367794701657831 0 -0.44316713108207378 0.12575878762755729 0 -0.44853780707601287 0.126935419352384 0 -0.44182628391051909 0.13367794701657831 0 -0.44853780707601287 0.126935419352384 0 -0.45162277416778301 0.13394561853917189 0 -0.44853780707601287 0.126935419352384 0 -0.45162277416778301 0.13394561853917189 0 -0.45460446545408872 0.12545601790255009 0 -0.44775757943863609 0.14598121808440279 0 -0.44182628391051909 0.13367794701657831 0 -0.45162277416778301 0.13394561853917189 0 -0.4563796741802687 0.1160801017568982 0 -0.45862052098610351 0.12928071259428839 0 -0.46716769491441501 0.13421159622998011 0 -0.4563796741802687 0.1160801017568982 0 -0.46716769491441501 0.13421159622998011 0 -0.4563796741802687 0.1160801017568982 0 -0.47818983709013452 0.12902851472881191 0 -0.46716769491441501 0.13421159622998011 0 -0.44775757943863609 0.14598121808440279 0 -0.45162277416778301 0.13394561853917189 0 -0.46049395036871682 0.14184219261957501 0 -0.45162277416778301 0.13394561853917189 0 -0.45862052098610351 0.12928071259428839 0 -0.46049395036871682 0.14184219261957501 0 -0.45162277416778301 0.13394561853917189 0 -0.45862052098610351 0.12928071259428839 0 -0.45460446545408872 0.12545601790255009 0 -0.45862052098610351 0.12928071259428839 0 -0.46716769491441501 0.13421159622998011 0 -0.46049395036871682 0.14184219261957501 0 -0.4779557156485621 0.15234309070306151 0 -0.46716769491441501 0.13421159622998011 0 -0.46049395036871682 0.14184219261957501 0 -0.4779557156485621 0.15234309070306151 0 -0.4598394170568007 0.15529091956654539 0 -0.46049395036871682 0.14184219261957501 0 -0.44775757943863609 0.14598121808440279 0 -0.4598394170568007 0.15529091956654539 0 -0.46049395036871682 0.14184219261957501 0 -0.47629615006491649 0.2478843387537821 0 -0.47281610506703448 0.23402855751392709 0 -0.4658519837927762 0.2455768727623254 0 -0.47629615006491649 0.2478843387537821 0 -0.47281610506703448 0.23402855751392709 0 -0.47629615006491649 0.2478843387537821 0 -0.48598638690746082 0.23853909322228439 0 -0.47281610506703448 0.23402855751392709 0 -0.47629615006491649 0.2478843387537821 0 -0.48841709285439311 0.24662095380897969 0 -0.48598638690746082 0.23853909322228439 0 -0.49787418098167152 0.24399792957799829 0 -0.5 0.23899084541410151 0 -0.50000000000000222 0.26699881278060311 0 -0.48841709285439311 0.24662095380897969 0 -0.49787418098167152 0.24399792957799829 0 -0.48598638690746082 0.23853909322228439 0 -0.48841709285439311 0.24662095380897969 0 -0.49787418098167152 0.24399792957799829 0 -0.48897239074030763 0.2564193422591956 0 -0.49787418098167152 0.24399792957799829 0 -0.49665391763803379 0.22862640181390159 0 -0.49787418098167152 0.24399792957799829 0 -0.48598638690746082 0.23853909322228439 0 -0.49665391763803379 0.22862640181390159 0 -0.49787418098167152 0.24399792957799829 0 -0.5 0.23899084541410151 0 -0.49665391763803379 0.22862640181390159 0 -0.48598638690746082 0.23853909322228439 0 -0.49665391763803379 0.22862640181390159 0 -0.47069059299828919 0.22556584215676029 0 -0.49665391763803379 0.22862640181390159 0 -0.47069059299828919 0.22556584215676029 0 -0.49543365429439301 0.2132548740498052 0 -0.5 0.23899084541410151 0 -0.49665391763803379 0.22862640181390159 0 -0.49999999999999828 0.21098287804759999 0 -0.49665391763803379 0.22862640181390159 0 -0.49543365429439301 0.2132548740498052 0 -0.47069059299828919 0.22556584215676029 0 -0.49543365429439301 0.2132548740498052 0 -0.47281610506703448 0.23402855751392709 0 -0.47069059299828919 0.22556584215676029 0 -0.48598638690746082 0.23853909322228439 0 -0.47281610506703448 0.23402855751392709 0 -0.47069059299828919 0.22556584215676029 0 -0.47069059299828919 0.22556584215676029 0 -0.46943823894779529 0.22057960095325779 0 -0.47069059299828919 0.22556584215676029 0 -0.46943823894779529 0.22057960095325779 0 -0.47661545233390129 0.21666984010552071 0 -0.47069059299828919 0.22556584215676029 0 -0.47661545233390129 0.21666984010552071 0 -0.49543365429439301 0.2132548740498052 0 -0.47494639861095111 0.20679710584685329 0 -0.47661545233390129 0.21666984010552071 0 -0.46803569328442501 0.2123039644019491 0 -0.47494639861095111 0.20679710584685329 0 -0.46372908499136301 0.20520946827777481 0 -0.46803569328442501 0.2123039644019491 0 -0.47494639861095111 0.20679710584685329 0 -0.48360377944293448 0.20926359717399251 0 -0.47661545233390129 0.21666984010552071 0 -0.47494639861095111 0.20679710584685329 0 -0.48360377944293448 0.20926359717399251 0 -0.48344438052181171 0.20024987152595761 0 -0.49665391763803379 0.22862640181390159 0 -0.49543365429439301 0.2132548740498052 0 -0.49999999999999828 0.21098287804759999 0 -0.49543365429439301 0.2132548740498052 0 -0.49999999999999828 0.21098287804759999 0 -0.49349322035732701 0.1888114337927744 0 -0.48360377944293448 0.20926359717399251 0 -0.47661545233390129 0.21666984010552071 0 -0.49543365429439301 0.2132548740498052 0 -0.49543365429439301 0.2132548740498052 0 -0.49999999999999828 0.21098287804759999 0 -0.48360377944293448 0.20926359717399251 0 -0.48899375865411637 0.20289494413563219 0 -0.48344438052181171 0.20024987152595761 0 -0.48360377944293448 0.20926359717399251 0 -0.49543365429439301 0.2132548740498052 0 -0.48899375865411637 0.20289494413563219 0 -0.48899375865411637 0.20289494413563219 0 -0.49349322035732701 0.1888114337927744 0 -0.48344438052181171 0.20024987152595761 0 -0.49543365429439301 0.2132548740498052 0 -0.49349322035732701 0.1888114337927744 0 -0.49543365429439301 0.2132548740498052 0 -0.48899375865411637 0.20289494413563219 0 -0.49349322035732701 0.1888114337927744 0 -0.49999999999999828 0.21098287804759999 0 -0.5 0.18798089459864209 0 -0.49349322035732701 0.1888114337927744 0 -0.48685907935334333 0.18632528565321821 0 -0.49349322035732701 0.1888114337927744 0 -0.48386531881060862 0.19134448535934681 0 -0.49349322035732701 0.1888114337927744 0 -0.48386531881060862 0.19134448535934681 0 -0.48344438052181171 0.20024987152595761 0 -0.47864401683678831 0.18451995397460411 0 -0.48386531881060862 0.19134448535934681 0 -0.47571185816796852 0.19657128566613929 0 -0.47494639861095111 0.20679710584685329 0 -0.48344438052181171 0.20024987152595761 0 -0.47571185816796852 0.19657128566613929 0 -0.48386531881060862 0.19134448535934681 0 -0.48344438052181171 0.20024987152595761 0 -0.47571185816796852 0.19657128566613929 0 -0.47494639861095111 0.20679710584685329 0 -0.47571185816796852 0.19657128566613929 0 -0.46372908499136301 0.20520946827777481 0 -0.47864401683678831 0.18451995397460411 0 -0.47571185816796852 0.19657128566613929 0 -0.46380645759857042 0.18997601921967749 0 -0.47571185816796852 0.19657128566613929 0 -0.46380645759857042 0.18997601921967749 0 -0.46372908499136301 0.20520946827777481 0 -0.46380645759857042 0.18997601921967749 0 -0.44979714405691867 0.19933076062224481 0 -0.46372908499136301 0.20520946827777481 0 -0.44555294637186649 0.18088567833939029 0 -0.44150650676840802 0.1930489062391241 0 -0.44979714405691867 0.19933076062224481 0 -0.44555294637186649 0.18088567833939029 0 -0.46380645759857042 0.18997601921967749 0 -0.44979714405691867 0.19933076062224481 0 -0.44555294637186649 0.18088567833939029 0 -0.44150650676840802 0.1930489062391241 0 -0.42956963719865637 0.19461408431637889 0 -0.44150650676840802 0.1930489062391241 0 -0.43804268774445348 0.20153637732199989 0 -0.44979714405691867 0.19933076062224481 0 -0.44979714405691867 0.19933076062224481 0 -0.45155566105388029 0.21044188327123431 0 -0.4412849429372257 0.2103903294979311 0 -0.43804268774445348 0.20153637732199989 0 -0.4412849429372257 0.2103903294979311 0 -0.43429483594806823 0.20822480300924751 0 -0.43804268774445348 0.20153637732199989 0 -0.44979714405691867 0.19933076062224481 0 -0.4412849429372257 0.2103903294979311 0 -0.4412849429372257 0.2103903294979311 0 -0.43955599288865471 0.21760006461171111 0 -0.43492965323446497 0.2156752264435445 0 -0.4412849429372257 0.2103903294979311 0 -0.43955599288865471 0.21760006461171111 0 -0.44611529608240941 0.21673941458057311 0 -0.45155566105388029 0.21044188327123431 0 -0.4412849429372257 0.2103903294979311 0 -0.44611529608240941 0.21673941458057311 0 -0.45155566105388029 0.21044188327123431 0 -0.44611529608240941 0.21673941458057311 0 -0.45685183720148481 0.22053944337764761 0 -0.47661545233390129 0.21666984010552071 0 -0.46803569328442501 0.2123039644019491 0 -0.45685183720148481 0.22053944337764761 0 -0.47661545233390129 0.21666984010552071 0 -0.45685183720148481 0.22053944337764761 0 -0.45155566105388029 0.21044188327123431 0 -0.46372908499136301 0.20520946827777481 0 -0.45685183720148481 0.22053944337764761 0 -0.44979714405691867 0.19933076062224481 0 -0.45155566105388029 0.21044188327123431 0 -0.46372908499136301 0.20520946827777481 0 -0.46372908499136301 0.20520946827777481 0 -0.46803569328442501 0.2123039644019491 0 -0.45685183720148481 0.22053944337764761 0 -0.46943823894779529 0.22057960095325779 0 -0.47661545233390129 0.21666984010552071 0 -0.45685183720148481 0.22053944337764761 0 -0.47281610506703448 0.23402855751392709 0 -0.47069059299828919 0.22556584215676029 0 -0.45576695537378997 0.23299113301452501 0 -0.47069059299828919 0.22556584215676029 0 -0.45576695537378997 0.23299113301452501 0 -0.45685183720148481 0.22053944337764761 0 -0.47069059299828919 0.22556584215676029 0 -0.46943823894779529 0.22057960095325779 0 -0.45685183720148481 0.22053944337764761 0 -0.47069059299828919 0.22556584215676029 0 -0.45576695537378997 0.23299113301452501 0 -0.44611529608240941 0.21673941458057311 0 -0.45685183720148481 0.22053944337764761 0 -0.43708822206906861 0.2244090466497756 0 -0.45685183720148481 0.22053944337764761 0 -0.44541712558147101 0.23089934193745129 0 -0.43708822206906861 0.2244090466497756 0 -0.45685183720148481 0.22053944337764761 0 -0.43708822206906861 0.2244090466497756 0 -0.43955599288865471 0.21760006461171111 0 -0.44611529608240941 0.21673941458057311 0 -0.43708822206906861 0.2244090466497756 0 -0.44541712558147101 0.23089934193745129 0 -0.43502445191539252 0.2355562235122263 0 -0.43708822206906861 0.2244090466497756 0 -0.45576695537378997 0.23299113301452501 0 -0.45685183720148481 0.22053944337764761 0 -0.44541712558147101 0.23089934193745129 0 -0.45576695537378997 0.23299113301452501 0 -0.44084331774928992 0.2404164238722879 0 -0.45158548375051172 0.24376199779042901 0 -0.43899620435493392 0.25049371640310392 0 -0.4306740611460208 0.25341526749683402 0 -0.45576695537378997 0.23299113301452501 0 -0.44084331774928992 0.2404164238722879 0 -0.45158548375051172 0.24376199779042901 0 -0.45158548375051172 0.24376199779042901 0 -0.4306740611460208 0.25341526749683402 0 -0.44084331774928992 0.2404164238722879 0 -0.45158548375051172 0.24376199779042901 0 -0.4306740611460208 0.25341526749683402 0 -0.45576695537378997 0.23299113301452501 0 -0.44541712558147101 0.23089934193745129 0 -0.44084331774928992 0.2404164238722879 0 -0.44541712558147101 0.23089934193745129 0 -0.44084331774928992 0.2404164238722879 0 -0.43502445191539252 0.2355562235122263 0 -0.45158548375051172 0.24376199779042901 0 -0.4658519837927762 0.2455768727623254 0 -0.46302939500067403 0.25655242642106652 0 -0.47281610506703448 0.23402855751392709 0 -0.45158548375051172 0.24376199779042901 0 -0.47281610506703448 0.23402855751392709 0 -0.45576695537378997 0.23299113301452501 0 -0.45158548375051172 0.24376199779042901 0 -0.47281610506703448 0.23402855751392709 0 -0.45158548375051172 0.24376199779042901 0 -0.4658519837927762 0.2455768727623254 0 -0.42104706409746379 0.2390772188211733 0 -0.40500590612585757 0.25374539099256938 0 -0.42104706409746379 0.2390772188211733 0 -0.41817555763870717 0.25149437126127672 0 -0.40500590612585757 0.25374539099256938 0 -0.41068707279771799 0.23575114591695109 0 -0.42104706409746379 0.2390772188211733 0 -0.40500590612585757 0.25374539099256938 0 -0.42104706409746379 0.2390772188211733 0 -0.42515580324046509 0.24674148596493159 0 -0.41817555763870717 0.25149437126127672 0 -0.42515580324046509 0.24674148596493159 0 -0.43072653007966871 0.24297908628044271 0 -0.4306740611460208 0.25341526749683402 0 -0.42104706409746379 0.2390772188211733 0 -0.42515580324046509 0.24674148596493159 0 -0.43072653007966871 0.24297908628044271 0 -0.44084331774928992 0.2404164238722879 0 -0.43072653007966871 0.24297908628044271 0 -0.4306740611460208 0.25341526749683402 0 -0.44084331774928992 0.2404164238722879 0 -0.43072653007966871 0.24297908628044271 0 -0.43502445191539252 0.2355562235122263 0 -0.42104706409746379 0.2390772188211733 0 -0.43072653007966871 0.24297908628044271 0 -0.43502445191539252 0.2355562235122263 0 -0.43708822206906861 0.2244090466497756 0 -0.41966133039860959 0.2278211327777018 0 -0.42104706409746379 0.2390772188211733 0 -0.43708822206906861 0.2244090466497756 0 -0.43708822206906861 0.2244090466497756 0 -0.42929685593910588 0.22025333504771141 0 -0.41966133039860959 0.2278211327777018 0 -0.42104706409746379 0.2390772188211733 0 -0.43502445191539252 0.2355562235122263 0 -0.43708822206906861 0.2244090466497756 0 -0.42104706409746379 0.2390772188211733 0 -0.43708822206906861 0.2244090466497756 0 -0.41966133039860959 0.2278211327777018 0 -0.43566450378760102 0.22031697156300359 0 -0.43708822206906861 0.2244090466497756 0 -0.42929685593910588 0.22025333504771141 0 -0.43955599288865471 0.21760006461171111 0 -0.43566450378760102 0.22031697156300359 0 -0.43708822206906861 0.2244090466497756 0 -0.42929685593910588 0.22025333504771141 0 -0.41966133039860959 0.2278211327777018 0 -0.42275843684684772 0.2158371122432034 0 -0.41068707279771799 0.23575114591695109 0 -0.41966133039860959 0.2278211327777018 0 -0.40223443872815101 0.23123321890562951 0 -0.41966133039860959 0.2278211327777018 0 -0.40223443872815101 0.23123321890562951 0 -0.41966133039860959 0.2278211327777018 0 -0.40908755260766239 0.22100021840069439 0 -0.42275843684684772 0.2158371122432034 0 -0.41966133039860959 0.2278211327777018 0 -0.40908755260766239 0.22100021840069439 0 -0.40223443872815101 0.23123321890562951 0 -0.41068707279771799 0.23575114591695109 0 -0.42104706409746379 0.2390772188211733 0 -0.41966133039860959 0.2278211327777018 0 -0.41068707279771799 0.23575114591695109 0 -0.40223443872815101 0.23123321890562951 0 -0.41232592194027068 0.2115834689880535 0 -0.42356526107340098 0.20386170815337429 0 -0.40234717264000441 0.20228976698401191 0 -0.40908755260766239 0.22100021840069439 0 -0.41232592194027068 0.2115834689880535 0 -0.4015698625078824 0.2141331020738251 0 -0.41232592194027068 0.2115834689880535 0 -0.42275843684684772 0.2158371122432034 0 -0.42356526107340098 0.20386170815337429 0 -0.40908755260766239 0.22100021840069439 0 -0.41232592194027068 0.2115834689880535 0 -0.42275843684684772 0.2158371122432034 0 -0.42929685593910588 0.22025333504771141 0 -0.42275843684684772 0.2158371122432034 0 -0.43492965323446497 0.2156752264435445 0 -0.42275843684684772 0.2158371122432034 0 -0.43492965323446497 0.2156752264435445 0 -0.42356526107340098 0.20386170815337429 0 -0.43566450378760102 0.22031697156300359 0 -0.42929685593910588 0.22025333504771141 0 -0.43492965323446497 0.2156752264435445 0 -0.4412849429372257 0.2103903294979311 0 -0.43492965323446497 0.2156752264435445 0 -0.43429483594806823 0.20822480300924751 0 -0.43955599288865471 0.21760006461171111 0 -0.43566450378760102 0.22031697156300359 0 -0.43492965323446497 0.2156752264435445 0 -0.43492965323446497 0.2156752264435445 0 -0.43429483594806823 0.20822480300924751 0 -0.42356526107340098 0.20386170815337429 0 -0.43429483594806823 0.20822480300924751 0 -0.42356526107340098 0.20386170815337429 0 -0.4315525871472683 0.20275180940221579 0 -0.43804268774445348 0.20153637732199989 0 -0.43429483594806823 0.20822480300924751 0 -0.4315525871472683 0.20275180940221579 0 -0.43492965323446497 0.2156752264435445 0 -0.42356526107340098 0.20386170815337429 0 -0.42356526107340098 0.20386170815337429 0 -0.4315525871472683 0.20275180940221579 0 -0.42956963719865637 0.19461408431637889 0 -0.43804268774445348 0.20153637732199989 0 -0.4315525871472683 0.20275180940221579 0 -0.42956963719865637 0.19461408431637889 0 -0.44150650676840802 0.1930489062391241 0 -0.43804268774445348 0.20153637732199989 0 -0.42956963719865637 0.19461408431637889 0 -0.42356526107340098 0.20386170815337429 0 -0.41072992410537179 0.19051911262487459 0 -0.40037697830718538 0.19117757552183701 0 -0.42356526107340098 0.20386170815337429 0 -0.40037697830718538 0.19117757552183701 0 -0.42356526107340098 0.20386170815337429 0 -0.42956963719865637 0.19461408431637889 0 -0.41072992410537179 0.19051911262487459 0 -0.42356526107340098 0.20386170815337429 0 -0.40037697830718538 0.19117757552183701 0 -0.40234717264000441 0.20228976698401191 0 -0.42956963719865637 0.19461408431637889 0 -0.41072992410537179 0.19051911262487459 0 -0.42093319497179732 0.17954477445026751 0 -0.42356526107340098 0.20386170815337429 0 -0.41072992410537179 0.19051911262487459 0 -0.40037697830718538 0.19117757552183701 0 -0.40234717264000441 0.20228976698401191 0 -0.40037697830718538 0.19117757552183701 0 -0.40234717264000441 0.20228976698401191 0 -0.38882341907838353 0.2014761412865069 0 -0.40037697830718538 0.19117757552183701 0 -0.39160711009559568 0.18638040392106789 0 -0.40037697830718538 0.19117757552183701 0 -0.38882341907838353 0.2014761412865069 0 -0.39160711009559568 0.18638040392106789 0 -0.38882341907838353 0.2014761412865069 0 -0.39160711009559568 0.18638040392106789 0 -0.37975518887972293 0.1920491471638649 0 -0.38882341907838353 0.2014761412865069 0 -0.39160711009559568 0.18638040392106789 0 -0.37975518887972293 0.1920491471638649 0 -0.38882341907838353 0.2014761412865069 0 -0.37587744574151488 0.20316387018270499 0 -0.38603972806115489 0.2165718786519428 0 -0.38503169470496418 0.22203836423053169 0 -0.3685569663477633 0.2132326334209026 0 -0.38882341907838353 0.2014761412865069 0 -0.38603972806115489 0.2165718786519428 0 -0.39433046747901679 0.21055200308166591 0 -0.38503169470496418 0.22203836423053169 0 -0.3685569663477633 0.2132326334209026 0 -0.38882341907838353 0.2014761412865069 0 -0.37587744574151488 0.20316387018270499 0 -0.38603972806115489 0.2165718786519428 0 -0.38882341907838353 0.2014761412865069 0 -0.38603972806115489 0.2165718786519428 0 -0.37587744574151488 0.20316387018270499 0 -0.38603972806115489 0.2165718786519428 0 -0.3685569663477633 0.2132326334209026 0 -0.38603972806115489 0.2165718786519428 0 -0.39338491715463442 0.21803673195123141 0 -0.39433046747901679 0.21055200308166591 0 -0.39338491715463442 0.21803673195123141 0 -0.39433046747901679 0.21055200308166591 0 -0.4015698625078824 0.2141331020738251 0 -0.39338491715463442 0.21803673195123141 0 -0.4015698625078824 0.2141331020738251 0 -0.39920330362103751 0.22189691034044429 0 -0.40234717264000441 0.20228976698401191 0 -0.38882341907838353 0.2014761412865069 0 -0.39433046747901679 0.21055200308166591 0 -0.40234717264000441 0.20228976698401191 0 -0.39433046747901679 0.21055200308166591 0 -0.4015698625078824 0.2141331020738251 0 -0.41232592194027068 0.2115834689880535 0 -0.40234717264000441 0.20228976698401191 0 -0.4015698625078824 0.2141331020738251 0 -0.40908755260766239 0.22100021840069439 0 -0.39920330362103751 0.22189691034044429 0 -0.40223443872815101 0.23123321890562951 0 -0.40908755260766239 0.22100021840069439 0 -0.4015698625078824 0.2141331020738251 0 -0.39920330362103751 0.22189691034044429 0 -0.40223443872815101 0.23123321890562951 0 -0.39025250915385329 0.22482888591003311 0 -0.40223443872815101 0.23123321890562951 0 -0.39431150895317207 0.23278448342766289 0 -0.39025250915385329 0.22482888591003311 0 -0.39431150895317207 0.23278448342766289 0 -0.39025250915385329 0.22482888591003311 0 -0.40223443872815101 0.23123321890562951 0 -0.39431150895317207 0.23278448342766289 0 -0.39338491715463442 0.21803673195123141 0 -0.39920330362103751 0.22189691034044429 0 -0.39025250915385329 0.22482888591003311 0 -0.39920330362103751 0.22189691034044429 0 -0.40223443872815101 0.23123321890562951 0 -0.39025250915385329 0.22482888591003311 0 -0.38603972806115489 0.2165718786519428 0 -0.39338491715463442 0.21803673195123141 0 -0.39025250915385329 0.22482888591003311 0 -0.38603972806115489 0.2165718786519428 0 -0.39025250915385329 0.22482888591003311 0 -0.38503169470496418 0.22203836423053169 0 -0.38603972806115489 0.2165718786519428 0 -0.39025250915385329 0.22482888591003311 0 -0.39025250915385329 0.22482888591003311 0 -0.38503169470496418 0.22203836423053169 0 -0.38603972806115489 0.2165718786519428 0 -0.38503169470496418 0.22203836423053169 0 -0.38503169470496418 0.22203836423053169 0 -0.3777163753321473 0.23171787584784331 0 -0.37040556869753138 0.22524089717934381 0 -0.38503169470496418 0.22203836423053169 0 -0.3777163753321473 0.23171787584784331 0 -0.38262826086220197 0.23507199685769231 0 -0.3777163753321473 0.23171787584784331 0 -0.38262826086220197 0.23507199685769231 0 -0.38055441221964109 0.2354780446095826 0 -0.39431150895317207 0.23278448342766289 0 -0.39025250915385329 0.22482888591003311 0 -0.38262826086220197 0.23507199685769231 0 -0.39431150895317207 0.23278448342766289 0 -0.38262826086220197 0.23507199685769231 0 -0.39025250915385329 0.22482888591003311 0 -0.38503169470496418 0.22203836423053169 0 -0.38262826086220197 0.23507199685769231 0 -0.38503169470496418 0.22203836423053169 0 -0.38262826086220197 0.23507199685769231 0 -0.39055515001529401 0.24883944245046349 0 -0.38262826086220197 0.23507199685769231 0 -0.37854439823410713 0.25721846257136233 0 -0.39431150895317207 0.23278448342766289 0 -0.39055515001529401 0.24883944245046349 0 -0.38262826086220197 0.23507199685769231 0 -0.38262826086220197 0.23507199685769231 0 -0.37854439823410713 0.25721846257136233 0 -0.38262826086220197 0.23507199685769231 0 -0.37669790113006468 0.24100998145162181 0 -0.37854439823410713 0.25721846257136233 0 -0.37669790113006468 0.24100998145162181 0 -0.37078201995590132 0.24581343246118609 0 -0.37854439823410713 0.25721846257136233 0 -0.38262826086220197 0.23507199685769231 0 -0.38055441221964109 0.2354780446095826 0 -0.38262826086220197 0.23507199685769231 0 -0.38055441221964109 0.2354780446095826 0 -0.37669790113006468 0.24100998145162181 0 -0.3777163753321473 0.23171787584784331 0 -0.37629831393202401 0.23638846909382299 0 -0.37157334738145698 0.2358788921940386 0 -0.38055441221964109 0.2354780446095826 0 -0.37669790113006468 0.24100998145162181 0 -0.37629831393202401 0.23638846909382299 0 -0.3777163753321473 0.23171787584784331 0 -0.38055441221964109 0.2354780446095826 0 -0.37629831393202401 0.23638846909382299 0 -0.41068707279771799 0.23575114591695109 0 -0.40223443872815101 0.23123321890562951 0 -0.40500590612585757 0.25374539099256938 0 -0.39431150895317207 0.23278448342766289 0 -0.39055515001529401 0.24883944245046349 0 -0.40500590612585757 0.25374539099256938 0 -0.39431150895317207 0.23278448342766289 0 -0.40500590612585757 0.25374539099256938 0 -0.40223443872815101 0.23123321890562951 0 -0.39431150895317207 0.23278448342766289 0 -0.40500590612585757 0.25374539099256938 0 -0.42230616897368961 0.1634264730702866 0 -0.39905939157551312 0.1459672678011826 0 -0.41008674966678837 0.1393263910982111 0 -0.41928575255608619 0.15672383830725689 0 -0.39905939157551312 0.1459672678011826 0 -0.42230616897368961 0.1634264730702866 0 -0.41928575255608619 0.15672383830725689 0 -0.39905939157551312 0.1459672678011826 0 -0.41918670132472818 0.12901439032808951 0 -0.41928575255608619 0.15672383830725689 0 -0.41008674966678837 0.1393263910982111 0 -0.41918670132472818 0.12901439032808951 0 -0.41928575255608619 0.15672383830725689 0 -0.41008674966678837 0.1393263910982111 0 -0.41918670132472818 0.12901439032808951 0 -0.40281515321082589 0.1256000679563154 0 -0.41918670132472818 0.12901439032808951 0 -0.43066376206712381 0.1332934689512176 0 -0.42808625596810118 0.14522220200369129 0 -0.43010994510705269 0.1231095695537998 0 -0.41918670132472818 0.12901439032808951 0 -0.43066376206712381 0.1332934689512176 0 -0.43010994510705269 0.1231095695537998 0 -0.43689285812780609 0.12614763336064519 0 -0.43066376206712381 0.1332934689512176 0 -0.44182628391051909 0.13367794701657831 0 -0.43689285812780609 0.12614763336064519 0 -0.43066376206712381 0.1332934689512176 0 -0.43066376206712381 0.1332934689512176 0 -0.4365924999045796 0.14238575007386339 0 -0.42808625596810118 0.14522220200369129 0 -0.44182628391051909 0.13367794701657831 0 -0.43066376206712381 0.1332934689512176 0 -0.4365924999045796 0.14238575007386339 0 -0.41918670132472818 0.12901439032808951 0 -0.42808625596810118 0.14522220200369129 0 -0.41928575255608619 0.15672383830725689 0 -0.4365924999045796 0.14238575007386339 0 -0.42808625596810118 0.14522220200369129 0 -0.43675619376457819 0.15288297657035449 0 -0.42808625596810118 0.14522220200369129 0 -0.42864118078900199 0.15645892100628961 0 -0.41928575255608619 0.15672383830725689 0 -0.42808625596810118 0.14522220200369129 0 -0.43675619376457819 0.15288297657035449 0 -0.42864118078900199 0.15645892100628961 0 -0.43675619376457819 0.15288297657035449 0 -0.43639240517518108 0.16309866252337321 0 -0.42864118078900199 0.15645892100628961 0 -0.44555294637186649 0.18088567833939029 0 -0.43639240517518108 0.16309866252337321 0 -0.42230616897368961 0.1634264730702866 0 -0.43639240517518108 0.16309866252337321 0 -0.42230616897368961 0.1634264730702866 0 -0.42864118078900199 0.15645892100628961 0 -0.42230616897368961 0.1634264730702866 0 -0.42864118078900199 0.15645892100628961 0 -0.41928575255608619 0.15672383830725689 0 -0.44555294637186649 0.18088567833939029 0 -0.42230616897368961 0.1634264730702866 0 -0.42093319497179732 0.17954477445026751 0 -0.44555294637186649 0.18088567833939029 0 -0.42956963719865637 0.19461408431637889 0 -0.42093319497179732 0.17954477445026751 0 -0.44555294637186649 0.18088567833939029 0 -0.42230616897368961 0.1634264730702866 0 -0.42093319497179732 0.17954477445026751 0 -0.40928719448745798 0.17887004778960031 0 -0.40759107173532089 0.16823978698688399 0 -0.41072992410537179 0.19051911262487459 0 -0.42093319497179732 0.17954477445026751 0 -0.40928719448745798 0.17887004778960031 0 -0.42230616897368961 0.1634264730702866 0 -0.40759107173532089 0.16823978698688399 0 -0.39905939157551312 0.1459672678011826 0 -0.42230616897368961 0.1634264730702866 0 -0.42093319497179732 0.17954477445026751 0 -0.40759107173532089 0.16823978698688399 0 -0.40759107173532089 0.16823978698688399 0 -0.39564452421424201 0.16448582481948071 0 -0.39905939157551312 0.1459672678011826 0 -0.40759107173532089 0.16823978698688399 0 -0.39564452421424201 0.16448582481948071 0 -0.39789458713734271 0.1771765170963748 0 -0.39564452421424201 0.16448582481948071 0 -0.39404269844270179 0.17317239994687589 0 -0.39789458713734271 0.1771765170963748 0 -0.39564452421424201 0.16448582481948071 0 -0.39789458713734271 0.1771765170963748 0 -0.39564452421424201 0.16448582481948071 0 -0.39404269844270179 0.17317239994687589 0 -0.40037697830718538 0.19117757552183701 0 -0.39789458713734271 0.1771765170963748 0 -0.41072992410537179 0.19051911262487459 0 -0.40928719448745798 0.17887004778960031 0 -0.39789458713734271 0.1771765170963748 0 -0.41072992410537179 0.19051911262487459 0 -0.39789458713734271 0.1771765170963748 0 -0.41072992410537179 0.19051911262487459 0 -0.40037697830718538 0.19117757552183701 0 -0.39789458713734271 0.1771765170963748 0 -0.40928719448745798 0.17887004778960031 0 -0.40759107173532089 0.16823978698688399 0 -0.39789458713734271 0.1771765170963748 0 -0.39404269844270179 0.17317239994687589 0 -0.39789458713734271 0.1771765170963748 0 -0.39160711009559568 0.18638040392106789 0 -0.39404269844270179 0.17317239994687589 0 -0.39789458713734271 0.1771765170963748 0 -0.40037697830718538 0.19117757552183701 0 -0.39789458713734271 0.1771765170963748 0 -0.39160711009559568 0.18638040392106789 0 -0.39404269844270179 0.17317239994687589 0 -0.39160711009559568 0.18638040392106789 0 -0.39404269844270179 0.17317239994687589 0 -0.39160711009559568 0.18638040392106789 0 -0.37304750855702901 0.17622818825778211 0 -0.37975518887972293 0.1920491471638649 0 -0.39160711009559568 0.18638040392106789 0 -0.37304750855702901 0.17622818825778211 0 -0.39160711009559568 0.18638040392106789 0 -0.37304750855702901 0.17622818825778211 0 -0.39404269844270179 0.17317239994687589 0 -0.3769838370145453 0.15543936428293989 0 -0.37304750855702901 0.17622818825778211 0 -0.39564452421424201 0.16448582481948071 0 -0.39404269844270179 0.17317239994687589 0 -0.3769838370145453 0.15543936428293989 0 -0.39404269844270179 0.17317239994687589 0 -0.3769838370145453 0.15543936428293989 0 -0.3769838370145453 0.15543936428293989 0 -0.39133223810544032 0.14016388455071879 0 -0.38053137272319187 0.13205202790225989 0 -0.39564452421424201 0.16448582481948071 0 -0.3769838370145453 0.15543936428293989 0 -0.39133223810544032 0.14016388455071879 0 -0.39564452421424201 0.16448582481948071 0 -0.39133223810544032 0.14016388455071879 0 -0.39564452421424201 0.16448582481948071 0 -0.39905939157551312 0.1459672678011826 0 -0.39564452421424201 0.16448582481948071 0 -0.39905939157551312 0.1459672678011826 0 -0.39133223810544032 0.14016388455071879 0 -0.39905939157551312 0.1459672678011826 0 -0.39133223810544032 0.14016388455071879 0 -0.41008674966678837 0.1393263910982111 0 -0.39905939157551312 0.1459672678011826 0 -0.40281515321082589 0.1256000679563154 0 -0.39905939157551312 0.1459672678011826 0 -0.40281515321082589 0.1256000679563154 0 -0.39905939157551312 0.1459672678011826 0 -0.40281515321082589 0.1256000679563154 0 -0.39133223810544032 0.14016388455071879 0 -0.38646812399680042 0.1127295516178168 0 -0.40281515321082589 0.1256000679563154 0 -0.39133223810544032 0.14016388455071879 0 -0.38646812399680042 0.1127295516178168 0 -0.39133223810544032 0.14016388455071879 0 -0.38053137272319187 0.13205202790225989 0 -0.38646812399680042 0.1127295516178168 0 -0.39133223810544032 0.14016388455071879 0 -0.39133223810544032 0.14016388455071879 0 -0.38053137272319187 0.13205202790225989 0 -0.38053137272319187 0.13205202790225989 0 -0.35992497558638531 0.13770632861900761 0 -0.35893294113859819 0.12299790454077671 0 -0.35992497558638531 0.13770632861900761 0 -0.3476098717528246 0.13925514821425211 0 -0.35893294113859819 0.12299790454077671 0 -0.3476098717528246 0.13925514821425211 0 -0.33139775828039592 0.13326625746373691 0 -0.35893294113859819 0.12299790454077671 0 -0.33139775828039592 0.13326625746373691 0 -0.35893294113859819 0.12299790454077671 0 -0.35992497558638531 0.13770632861900761 0 -0.35004920584469568 0.14998824426259769 0 -0.3630804176151915 0.156881213726108 0 -0.3476098717528246 0.13925514821425211 0 -0.35004920584469568 0.14998824426259769 0 -0.33838508353887031 0.1479800402766803 0 -0.35992497558638531 0.13770632861900761 0 -0.3476098717528246 0.13925514821425211 0 -0.35004920584469568 0.14998824426259769 0 -0.35004920584469568 0.14998824426259769 0 -0.3630804176151915 0.156881213726108 0 -0.35135553037002099 0.15879114913029191 0 -0.3769838370145453 0.15543936428293989 0 -0.35992497558638531 0.13770632861900761 0 -0.3769838370145453 0.15543936428293989 0 -0.38053137272319187 0.13205202790225989 0 -0.35992497558638531 0.13770632861900761 0 -0.3769838370145453 0.15543936428293989 0 -0.35992497558638531 0.13770632861900761 0 -0.3630804176151915 0.156881213726108 0 -0.37304750855702901 0.17622818825778211 0 -0.3544879070184585 0.16607597259450299 0 -0.3630804176151915 0.156881213726108 0 -0.37304750855702901 0.17622818825778211 0 -0.3544879070184585 0.16607597259450299 0 -0.3769838370145453 0.15543936428293989 0 -0.3630804176151915 0.156881213726108 0 -0.37304750855702901 0.17622818825778211 0 -0.37975518887972293 0.1920491471638649 0 -0.37304750855702901 0.17622818825778211 0 -0.36835592130087069 0.19290030483377951 0 -0.37304750855702901 0.17622818825778211 0 -0.36075310353810203 0.17995360094167101 0 -0.3544879070184585 0.16607597259450299 0 -0.37304750855702901 0.17622818825778211 0 -0.36075310353810203 0.17995360094167101 0 -0.36835592130087069 0.19290030483377951 0 -0.36075310353810203 0.17995360094167101 0 -0.35069393037041657 0.17196334877936639 0 -0.35053445214227957 0.18773885996660819 0 -0.35069393037041657 0.17196334877936639 0 -0.35053445214227957 0.18773885996660819 0 -0.35069393037041657 0.17196334877936639 0 -0.33967165835226781 0.17974048382078031 0 -0.35053445214227957 0.18773885996660819 0 -0.36075310353810203 0.17995360094167101 0 -0.35069393037041657 0.17196334877936639 0 -0.3544879070184585 0.16607597259450299 0 -0.35069393037041657 0.17196334877936639 0 -0.34182353278960848 0.17053324817353011 0 -0.33967165835226781 0.17974048382078031 0 -0.3630804176151915 0.156881213726108 0 -0.3544879070184585 0.16607597259450299 0 -0.35135553037002099 0.15879114913029191 0 -0.35069393037041657 0.17196334877936639 0 -0.34780795653470081 0.16595750268248349 0 -0.34182353278960848 0.17053324817353011 0 -0.35069393037041657 0.17196334877936639 0 -0.3544879070184585 0.16607597259450299 0 -0.34780795653470081 0.16595750268248349 0 -0.34780795653470081 0.16595750268248349 0 -0.35135553037002099 0.15879114913029191 0 -0.33989064737378272 0.16074895648008181 0 -0.35004920584469568 0.14998824426259769 0 -0.35135553037002099 0.15879114913029191 0 -0.33989064737378272 0.16074895648008181 0 -0.3544879070184585 0.16607597259450299 0 -0.34780795653470081 0.16595750268248349 0 -0.35135553037002099 0.15879114913029191 0 -0.33989064737378272 0.16074895648008181 0 -0.32947700181444212 0.1709062725956495 0 -0.32297793444265288 0.15664159496273289 0 -0.34780795653470081 0.16595750268248349 0 -0.33989064737378272 0.16074895648008181 0 -0.34182353278960848 0.17053324817353011 0 -0.33989064737378272 0.16074895648008181 0 -0.34182353278960848 0.17053324817353011 0 -0.32947700181444212 0.1709062725956495 0 -0.33967165835226781 0.17974048382078031 0 -0.35053445214227957 0.18773885996660819 0 -0.33423481439656982 0.1948874671554835 0 -0.34182353278960848 0.17053324817353011 0 -0.32947700181444212 0.1709062725956495 0 -0.33967165835226781 0.17974048382078031 0 -0.32947700181444212 0.1709062725956495 0 -0.33967165835226781 0.17974048382078031 0 -0.33036953236056898 0.18294869668225769 0 -0.33967165835226781 0.17974048382078031 0 -0.33036953236056898 0.18294869668225769 0 -0.33423481439656982 0.1948874671554835 0 -0.32947700181444212 0.1709062725956495 0 -0.33036953236056898 0.18294869668225769 0 -0.31809465487899619 0.18626056315711739 0 -0.32947700181444212 0.1709062725956495 0 -0.31809465487899619 0.18626056315711739 0 -0.32947700181444212 0.1709062725956495 0 -0.31481514568442859 0.17585930971539779 0 -0.31809465487899619 0.18626056315711739 0 -0.31481514568442859 0.17585930971539779 0 -0.32297793444265288 0.15664159496273289 0 -0.30370960770145378 0.16545653538897859 0 -0.32947700181444212 0.1709062725956495 0 -0.31481514568442859 0.17585930971539779 0 -0.32297793444265288 0.15664159496273289 0 -0.32297793444265288 0.15664159496273289 0 -0.33139775828039592 0.13326625746373691 0 -0.3038625754221938 0.14353461038669699 0 -0.33139775828039592 0.13326625746373691 0 -0.3038625754221938 0.14353461038669699 0 -0.33139775828039592 0.13326625746373691 0 -0.3038625754221938 0.14353461038669699 0 -0.31287988719591181 0.11965209392468271 0 -0.3476098717528246 0.13925514821425211 0 -0.33139775828039592 0.13326625746373691 0 -0.33838508353887031 0.1479800402766803 0 -0.32297793444265288 0.15664159496273289 0 -0.33139775828039592 0.13326625746373691 0 -0.33838508353887031 0.1479800402766803 0 -0.33989064737378272 0.16074895648008181 0 -0.32297793444265288 0.15664159496273289 0 -0.33838508353887031 0.1479800402766803 0 -0.35004920584469568 0.14998824426259769 0 -0.33989064737378272 0.16074895648008181 0 -0.33838508353887031 0.1479800402766803 0 -0.35012283822171397 0.2284555150521588 0 -0.33788826208597628 0.23607468144311461 0 -0.34989489909296101 0.25100314627216369 0 -0.35734042182420028 0.23598597314557951 0 -0.35012283822171397 0.2284555150521588 0 -0.34989489909296101 0.25100314627216369 0 -0.35012283822171397 0.2284555150521588 0 -0.34989489909296101 0.25100314627216369 0 -0.35845360129371379 0.2450999366119414 0 -0.34989489909296101 0.25100314627216369 0 -0.36336612378465621 0.25358064875581338 0 -0.35734042182420028 0.23598597314557951 0 -0.35845360129371379 0.2450999366119414 0 -0.34989489909296101 0.25100314627216369 0 -0.37078201995590132 0.24581343246118609 0 -0.36411667010408361 0.241206173559291 0 -0.36336612378465621 0.25358064875581338 0 -0.35845360129371379 0.2450999366119414 0 -0.36411667010408361 0.241206173559291 0 -0.36336612378465621 0.25358064875581338 0 -0.37078201995590132 0.24581343246118609 0 -0.37157334738145698 0.2358788921940386 0 -0.36411667010408361 0.241206173559291 0 -0.37669790113006468 0.24100998145162181 0 -0.37078201995590132 0.24581343246118609 0 -0.37157334738145698 0.2358788921940386 0 -0.37669790113006468 0.24100998145162181 0 -0.37629831393202401 0.23638846909382299 0 -0.37157334738145698 0.2358788921940386 0 -0.35734042182420028 0.23598597314557951 0 -0.35845360129371379 0.2450999366119414 0 -0.36411667010408361 0.241206173559291 0 -0.37157334738145698 0.2358788921940386 0 -0.36411667010408361 0.241206173559291 0 -0.36508783138926498 0.23290739955470441 0 -0.35734042182420028 0.23598597314557951 0 -0.36411667010408361 0.241206173559291 0 -0.36508783138926498 0.23290739955470441 0 -0.38503169470496418 0.22203836423053169 0 -0.37040556869753138 0.22524089717934381 0 -0.3685569663477633 0.2132326334209026 0 -0.36508783138926498 0.23290739955470441 0 -0.37040556869753138 0.22524089717934381 0 -0.35636669084346478 0.21724366782321769 0 -0.35734042182420028 0.23598597314557951 0 -0.36508783138926498 0.23290739955470441 0 -0.35636669084346478 0.21724366782321769 0 -0.3777163753321473 0.23171787584784331 0 -0.37157334738145698 0.2358788921940386 0 -0.37040556869753138 0.22524089717934381 0 -0.37157334738145698 0.2358788921940386 0 -0.36508783138926498 0.23290739955470441 0 -0.37040556869753138 0.22524089717934381 0 -0.35734042182420028 0.23598597314557951 0 -0.35012283822171397 0.2284555150521588 0 -0.35636669084346478 0.21724366782321769 0 -0.35012283822171397 0.2284555150521588 0 -0.35035077735046821 0.2059078838321538 0 -0.33444721517097598 0.2195107786296106 0 -0.35012283822171397 0.2284555150521588 0 -0.35035077735046821 0.2059078838321538 0 -0.35208223799057509 0.20442690261124949 0 -0.35636669084346478 0.21724366782321769 0 -0.3685569663477633 0.2132326334209026 0 -0.35012283822171397 0.2284555150521588 0 -0.35035077735046821 0.2059078838321538 0 -0.35636669084346478 0.21724366782321769 0 -0.35035077735046821 0.2059078838321538 0 -0.35037497391414341 0.2035143711538499 0 -0.33941882644493931 0.2046004916123495 0 -0.35035077735046821 0.2059078838321538 0 -0.35208223799057509 0.20442690261124949 0 -0.35035077735046821 0.2059078838321538 0 -0.35037497391414341 0.2035143711538499 0 -0.35035077735046821 0.2059078838321538 0 -0.35037497391414341 0.2035143711538499 0 -0.35208223799057509 0.20442690261124949 0 -0.35037497391414341 0.2035143711538499 0 -0.35208223799057509 0.20442690261124949 0 -0.35035077735046821 0.2059078838321538 0 -0.35208223799057509 0.20442690261124949 0 -0.35636669084346478 0.21724366782321769 0 -0.35208223799057509 0.20442690261124949 0 -0.3685569663477633 0.2132326334209026 0 -0.35208223799057509 0.20442690261124949 0 -0.3685569663477633 0.2132326334209026 0 -0.36364265170829829 0.20356998014253219 0 -0.37040556869753138 0.22524089717934381 0 -0.35636669084346478 0.21724366782321769 0 -0.3685569663477633 0.2132326334209026 0 -0.37587744574151488 0.20316387018270499 0 -0.3685569663477633 0.2132326334209026 0 -0.36364265170829829 0.20356998014253219 0 -0.36364265170829829 0.20356998014253219 0 -0.36835592130087069 0.19290030483377951 0 -0.35774430759780101 0.1952476724779737 0 -0.37587744574151488 0.20316387018270499 0 -0.36364265170829829 0.20356998014253219 0 -0.36835592130087069 0.19290030483377951 0 -0.37975518887972293 0.1920491471638649 0 -0.37587744574151488 0.20316387018270499 0 -0.36835592130087069 0.19290030483377951 0 -0.36075310353810203 0.17995360094167101 0 -0.36835592130087069 0.19290030483377951 0 -0.35774430759780101 0.1952476724779737 0 -0.36075310353810203 0.17995360094167101 0 -0.35774430759780101 0.1952476724779737 0 -0.35053445214227957 0.18773885996660819 0 -0.35037497391414341 0.2035143711538499 0 -0.35774430759780101 0.1952476724779737 0 -0.35053445214227957 0.18773885996660819 0 -0.35037497391414341 0.2035143711538499 0 -0.35053445214227957 0.18773885996660819 0 -0.35037497391414341 0.2035143711538499 0 -0.35053445214227957 0.18773885996660819 0 -0.33423481439656982 0.1948874671554835 0 -0.35208223799057509 0.20442690261124949 0 -0.36364265170829829 0.20356998014253219 0 -0.35774430759780101 0.1952476724779737 0 -0.35037497391414341 0.2035143711538499 0 -0.35208223799057509 0.20442690261124949 0 -0.35774430759780101 0.1952476724779737 0 -0.35037497391414341 0.2035143711538499 0 -0.33423481439656982 0.1948874671554835 0 -0.33941882644493931 0.2046004916123495 0 -0.35037497391414341 0.2035143711538499 0 -0.33423481439656982 0.1948874671554835 0 -0.33423481439656982 0.1948874671554835 0 -0.32373853527697571 0.19920741288639141 0 -0.33941882644493931 0.2046004916123495 0 -0.31809465487899619 0.18626056315711739 0 -0.33423481439656982 0.1948874671554835 0 -0.31809465487899619 0.18626056315711739 0 -0.33423481439656982 0.1948874671554835 0 -0.32373853527697571 0.19920741288639141 0 -0.33036953236056898 0.18294869668225769 0 -0.31809465487899619 0.18626056315711739 0 -0.33423481439656982 0.1948874671554835 0 -0.31809465487899619 0.18626056315711739 0 -0.32373853527697571 0.19920741288639141 0 -0.3088410995731673 0.1987432064729508 0 -0.31809465487899619 0.18626056315711739 0 -0.3088410995731673 0.1987432064729508 0 -0.32373853527697571 0.19920741288639141 0 -0.31810328109120423 0.21154533603405451 0 -0.33941882644493931 0.2046004916123495 0 -0.32373853527697571 0.19920741288639141 0 -0.31810328109120423 0.21154533603405451 0 -0.3088410995731673 0.1987432064729508 0 -0.31810328109120423 0.21154533603405451 0 -0.3088410995731673 0.1987432064729508 0 -0.35035077735046821 0.2059078838321538 0 -0.33444721517097598 0.2195107786296106 0 -0.31810328109120423 0.21154533603405451 0 -0.33941882644493931 0.2046004916123495 0 -0.33444721517097598 0.2195107786296106 0 -0.35035077735046821 0.2059078838321538 0 -0.33941882644493931 0.2046004916123495 0 -0.33444721517097598 0.2195107786296106 0 -0.33444721517097598 0.2195107786296106 0 -0.3185436529914818 0.23311367342706479 0 -0.33788826208597628 0.23607468144311461 0 -0.35012283822171397 0.2284555150521588 0 -0.33444721517097598 0.2195107786296106 0 -0.33788826208597628 0.23607468144311461 0 -0.33444721517097598 0.2195107786296106 0 -0.3185436529914818 0.23311367342706479 0 -0.31810328109120423 0.21154533603405451 0 -0.33444721517097598 0.2195107786296106 0 -0.3185436529914818 0.23311367342706479 0 -0.3185436529914818 0.23311367342706479 0 -0.32714872946648349 0.25575788971183272 0 -0.3146771263887132 0.25412527527456191 0 -0.3185436529914818 0.23311367342706479 0 -0.34036057209867399 0.25017915505989352 0 -0.3185436529914818 0.23311367342706479 0 -0.34036057209867399 0.25017915505989352 0 -0.32714872946648349 0.25575788971183272 0 -0.3185436529914818 0.23311367342706479 0 -0.33788826208597628 0.23607468144311461 0 -0.34036057209867399 0.25017915505989352 0 -0.33788826208597628 0.23607468144311461 0 -0.34989489909296101 0.25100314627216369 0 -0.34036057209867399 0.25017915505989352 0 -0.30326642638636181 0.246180840641613 0 -0.2799566251425421 0.23770710518719329 0 -0.28798919978124021 0.25924800785615942 0 -0.3185436529914818 0.23311367342706479 0 -0.30326642638636181 0.246180840641613 0 -0.3146771263887132 0.25412527527456191 0 -0.3185436529914818 0.23311367342706479 0 -0.30326642638636181 0.246180840641613 0 -0.3185436529914818 0.23311367342706479 0 -0.30326642638636181 0.246180840641613 0 -0.29627475985911311 0.21569465175554889 0 -0.3185436529914818 0.23311367342706479 0 -0.29627475985911311 0.21569465175554889 0 -0.31810328109120423 0.21154533603405451 0 -0.3185436529914818 0.23311367342706479 0 -0.29627475985911311 0.21569465175554889 0 -0.29627475985911311 0.21569465175554889 0 -0.27425868031089251 0.21943239706333531 0 -0.2799566251425421 0.23770710518719329 0 -0.30326642638636181 0.246180840641613 0 -0.29627475985911311 0.21569465175554889 0 -0.2799566251425421 0.23770710518719329 0 -0.29627475985911311 0.21569465175554889 0 -0.2799566251425421 0.23770710518719329 0 -0.29627475985911311 0.21569465175554889 0 -0.28016036789301058 0.2030897620013819 0 -0.27425868031089251 0.21943239706333531 0 -0.29627475985911311 0.21569465175554889 0 -0.29234294579460979 0.1969618701408874 0 -0.28016036789301058 0.2030897620013819 0 -0.29627475985911311 0.21569465175554889 0 -0.28016036789301058 0.2030897620013819 0 -0.29627475985911311 0.21569465175554889 0 -0.3088410995731673 0.1987432064729508 0 -0.31810328109120423 0.21154533603405451 0 -0.29627475985911311 0.21569465175554889 0 -0.3088410995731673 0.1987432064729508 0 -0.29627475985911311 0.21569465175554889 0 -0.3088410995731673 0.1987432064729508 0 -0.29234294579460979 0.1969618701408874 0 -0.3088410995731673 0.1987432064729508 0 -0.29631493311766138 0.1814296172763834 0 -0.31809465487899619 0.18626056315711739 0 -0.3088410995731673 0.1987432064729508 0 -0.29631493311766138 0.1814296172763834 0 -0.3088410995731673 0.1987432064729508 0 -0.29234294579460979 0.1969618701408874 0 -0.29631493311766138 0.1814296172763834 0 -0.29234294579460979 0.1969618701408874 0 -0.27303497833899099 0.18843907771663229 0 -0.29631493311766138 0.1814296172763834 0 -0.29234294579460979 0.1969618701408874 0 -0.27303497833899099 0.18843907771663229 0 -0.28016036789301058 0.2030897620013819 0 -0.27303497833899099 0.18843907771663229 0 -0.28016036789301058 0.2030897620013819 0 -0.26438291228714172 0.2041431122599518 0 -0.27303497833899099 0.18843907771663229 0 -0.249755023560321 0.19544853815688309 0 -0.27303497833899099 0.18843907771663229 0 -0.26438291228714172 0.2041431122599518 0 -0.249755023560321 0.19544853815688309 0 -0.26438291228714172 0.2041431122599518 0 -0.2476151157830245 0.2135097841317026 0 -0.249755023560321 0.19544853815688309 0 -0.26438291228714172 0.2041431122599518 0 -0.2598900939039398 0.21943374432431739 0 -0.2476151157830245 0.2135097841317026 0 -0.28016036789301058 0.2030897620013819 0 -0.26438291228714172 0.2041431122599518 0 -0.27425868031089251 0.21943239706333531 0 -0.26438291228714172 0.2041431122599518 0 -0.27425868031089251 0.21943239706333531 0 -0.2598900939039398 0.21943374432431739 0 -0.27425868031089251 0.21943239706333531 0 -0.26418435545811059 0.23630805054698401 0 -0.2799566251425421 0.23770710518719329 0 -0.27425868031089251 0.21943239706333531 0 -0.2598900939039398 0.21943374432431739 0 -0.26418435545811059 0.23630805054698401 0 -0.2598900939039398 0.21943374432431739 0 -0.25025753539417261 0.23272492963053659 0 -0.26418435545811059 0.23630805054698401 0 -0.2598900939039398 0.21943374432431739 0 -0.25025753539417261 0.23272492963053659 0 -0.2476151157830245 0.2135097841317026 0 -0.26418435545811059 0.23630805054698401 0 -0.25541758599954478 0.24830747332655551 0 -0.2636384904259732 0.25971955861883939 0 -0.25025753539417261 0.23272492963053659 0 -0.26418435545811059 0.23630805054698401 0 -0.25541758599954478 0.24830747332655551 0 -0.2799566251425421 0.23770710518719329 0 -0.2636384904259732 0.25971955861883939 0 -0.26418435545811059 0.23630805054698401 0 -0.2799566251425421 0.23770710518719329 0 -0.2636384904259732 0.25971955861883939 0 -0.3038625754221938 0.14353461038669699 0 -0.27632739256399141 0.15380296330965629 0 -0.3038625754221938 0.14353461038669699 0 -0.27632739256399141 0.15380296330965629 0 -0.28096279708106148 0.1373815748561826 0 -0.3038625754221938 0.14353461038669699 0 -0.28632116284082743 0.16761629029301911 0 -0.27632739256399141 0.15380296330965629 0 -0.3038625754221938 0.14353461038669699 0 -0.28096279708106148 0.1373815748561826 0 -0.28781269428134681 0.1249592425916641 0 -0.3038625754221938 0.14353461038669699 0 -0.28781269428134681 0.1249592425916641 0 -0.31287988719591181 0.11965209392468271 0 -0.32297793444265288 0.15664159496273289 0 -0.3038625754221938 0.14353461038669699 0 -0.30370960770145378 0.16545653538897859 0 -0.3038625754221938 0.14353461038669699 0 -0.30370960770145378 0.16545653538897859 0 -0.28632116284082743 0.16761629029301911 0 -0.31481514568442859 0.17585930971539779 0 -0.30370960770145378 0.16545653538897859 0 -0.29631493311766138 0.1814296172763834 0 -0.31481514568442859 0.17585930971539779 0 -0.31809465487899619 0.18626056315711739 0 -0.29631493311766138 0.1814296172763834 0 -0.31481514568442859 0.17585930971539779 0 -0.29631493311766138 0.1814296172763834 0 -0.27303497833899099 0.18843907771663229 0 -0.29631493311766138 0.1814296172763834 0 -0.28632116284082743 0.16761629029301911 0 -0.27303497833899099 0.18843907771663229 0 -0.29631493311766138 0.1814296172763834 0 -0.29631493311766138 0.1814296172763834 0 -0.28632116284082743 0.16761629029301911 0 -0.30370960770145378 0.16545653538897859 0 -0.29631493311766138 0.1814296172763834 0 -0.28632116284082743 0.16761629029301911 0 -0.28632116284082743 0.16761629029301911 0 -0.27632739256399141 0.15380296330965629 0 -0.26751522277164402 0.17213574994254441 0 -0.25053511496792102 0.16342135627284449 0 -0.249755023560321 0.19544853815688309 0 -0.28632116284082743 0.16761629029301911 0 -0.26751522277164402 0.17213574994254441 0 -0.27632739256399141 0.15380296330965629 0 -0.27303497833899099 0.18843907771663229 0 -0.28632116284082743 0.16761629029301911 0 -0.26751522277164402 0.17213574994254441 0 -0.27303497833899099 0.18843907771663229 0 -0.26751522277164402 0.17213574994254441 0 -0.249755023560321 0.19544853815688309 0 -0.26751522277164402 0.17213574994254441 0 -0.25053511496792102 0.16342135627284449 0 -0.27632739256399141 0.15380296330965629 0 -0.25053511496792102 0.16342135627284449 0 -0.27632739256399141 0.15380296330965629 0 -0.25053511496792102 0.16342135627284449 0 -0.27632739256399141 0.15380296330965629 0 -0.26577858065787829 0.13922246124598731 0 -0.25053511496792102 0.16342135627284449 0 -0.26577858065787829 0.13922246124598731 0 -0.24579287854133169 0.14255149029060371 0 -0.27632739256399141 0.15380296330965629 0 -0.28096279708106148 0.1373815748561826 0 -0.26577858065787829 0.13922246124598731 0 -0.27632739256399141 0.15380296330965629 0 -0.26577858065787829 0.13922246124598731 0 -0.28096279708106148 0.1373815748561826 0 -0.26577858065787829 0.13922246124598731 0 -0.27169127658329101 0.1209891299246476 0 -0.28096279708106148 0.1373815748561826 0 -0.27169127658329101 0.1209891299246476 0 -0.28781269428134681 0.1249592425916641 0 -0.26577858065787829 0.13922246124598731 0 -0.25522976875176268 0.1246419591823202 0 -0.24579287854133169 0.14255149029060371 0 -0.26577858065787829 0.13922246124598731 0 -0.25522976875176268 0.1246419591823202 0 -0.26577858065787829 0.13922246124598731 0 -0.25522976875176268 0.1246419591823202 0 -0.27169127658329101 0.1209891299246476 0 -0.25522976875176268 0.1246419591823202 0 -0.26188637151409061 0.1032241870613356 0 -0.27169127658329101 0.1209891299246476 0 -0.25522976875176268 0.1246419591823202 0 -0.26188637151409061 0.1032241870613356 0 -0.24538069525023401 0.11002628242505789 0 -0.26188637151409061 0.1032241870613356 0 -0.27946210600648891 0.1023440126626841 0 -0.27249905516176892 0.08454279991324945 0 -0.26188637151409061 0.1032241870613356 0 -0.27946210600648891 0.1023440126626841 0 -0.27169127658329101 0.1209891299246476 0 -0.27946210600648891 0.1023440126626841 0 -0.27169127658329101 0.1209891299246476 0 -0.28781269428134681 0.1249592425916641 0 -0.27946210600648891 0.1023440126626841 0 -0.28781269428134681 0.1249592425916641 0 -0.2978123935533401 0.1080125314182447 0 -0.27946210600648891 0.1023440126626841 0 -0.2978123935533401 0.1080125314182447 0 -0.29585545606206132 0.093495897246520174 0 -0.2978123935533401 0.1080125314182447 0 -0.31239249524439888 0.099876283522818035 0 -0.29585545606206132 0.093495897246520174 0 -0.2978123935533401 0.1080125314182447 0 -0.31239249524439888 0.099876283522818035 0 -0.31287988719591181 0.11965209392468271 0 -0.28781269428134681 0.1249592425916641 0 -0.2978123935533401 0.1080125314182447 0 -0.31287988719591181 0.11965209392468271 0 -0.30653625631905229 0.080508276141624299 0 -0.29472339446238238 0.052562213778984693 0 -0.32339719743621342 0.06770659700594063 0 -0.31239249524439888 0.099876283522818035 0 -0.30653625631905229 0.080508276141624299 0 -0.29585545606206132 0.093495897246520174 0 -0.30653625631905229 0.080508276141624299 0 -0.29585545606206132 0.093495897246520174 0 -0.28709275023443559 0.077453113220834396 0 -0.27946210600648891 0.1023440126626841 0 -0.29585545606206132 0.093495897246520174 0 -0.28709275023443559 0.077453113220834396 0 -0.27946210600648891 0.1023440126626841 0 -0.28709275023443559 0.077453113220834396 0 -0.28709275023443559 0.077453113220834396 0 -0.27700210385642571 0.06074459946498955 0 -0.29472339446238238 0.052562213778984693 0 -0.30653625631905229 0.080508276141624299 0 -0.28709275023443559 0.077453113220834396 0 -0.29472339446238238 0.052562213778984693 0 -0.28709275023443559 0.077453113220834396 0 -0.29472339446238238 0.052562213778984693 0 -0.28709275023443559 0.077453113220834396 0 -0.27249905516176892 0.08454279991324945 0 -0.27700210385642571 0.06074459946498955 0 -0.27249905516176892 0.08454279991324945 0 -0.25705194419740379 0.078948087156403529 0 -0.27700210385642571 0.06074459946498955 0 -0.27946210600648891 0.1023440126626841 0 -0.28709275023443559 0.077453113220834396 0 -0.27249905516176892 0.08454279991324945 0 -0.26188637151409061 0.1032241870613356 0 -0.27249905516176892 0.08454279991324945 0 -0.25705194419740379 0.078948087156403529 0 -0.26188637151409061 0.1032241870613356 0 -0.25705194419740379 0.078948087156403529 0 -0.23785667181636741 0.093488795269061634 0 -0.25705194419740379 0.078948087156403529 0 -0.2583402395750603 0.055023550802444948 0 -0.2377951598790477 0.073523087065822029 0 -0.25705194419740379 0.078948087156403529 0 -0.2583402395750603 0.055023550802444948 0 -0.27700210385642571 0.06074459946498955 0 -0.2583402395750603 0.055023550802444948 0 -0.27700210385642571 0.06074459946498955 0 -0.27237897217998402 0.02895047227626546 0 -0.2583402395750603 0.055023550802444948 0 -0.27237897217998402 0.02895047227626546 0 -0.24959440881251921 0.034531036724415987 0 -0.26911410456075963 -0.001652876283316057 0 -0.24246841339286879 0.0059924289061955363 0 -0.26911410456075963 -0.001652876283316057 0 -0.27237897217998402 0.02895047227626546 0 -0.24246841339286879 0.0059924289061955363 0 -0.27237897217998402 0.02895047227626546 0 -0.24246841339286879 0.0059924289061955363 0 -0.24959440881251921 0.034531036724415987 0 -0.26911410456075963 -0.001652876283316057 0 -0.27237897217998402 0.02895047227626546 0 -0.28784125318407361 0.011192846177326479 0 -0.26911410456075963 -0.001652876283316057 0 -0.29575979572865052 -0.0092981814728276511 0 -0.28784125318407361 0.011192846177326479 0 -0.27237897217998402 0.02895047227626546 0 -0.28784125318407361 0.011192846177326479 0 -0.30235403869032912 0.02767131433713509 0 -0.28784125318407361 0.011192846177326479 0 -0.30235403869032912 0.02767131433713509 0 -0.31220577089506368 0.0041333438482760278 0 -0.29575979572865052 -0.0092981814728276511 0 -0.28784125318407361 0.011192846177326479 0 -0.31220577089506368 0.0041333438482760278 0 -0.27700210385642571 0.06074459946498955 0 -0.27237897217998402 0.02895047227626546 0 -0.29472339446238238 0.052562213778984693 0 -0.27237897217998402 0.02895047227626546 0 -0.30235403869032912 0.02767131433713509 0 -0.29472339446238238 0.052562213778984693 0 -0.30235403869032912 0.02767131433713509 0 -0.29472339446238238 0.052562213778984693 0 -0.30235403869032912 0.02767131433713509 0 -0.29472339446238238 0.052562213778984693 0 -0.32407074596383217 0.041794797620281071 0 -0.29472339446238238 0.052562213778984693 0 -0.32407074596383217 0.041794797620281071 0 -0.32339719743621342 0.06770659700594063 0 -0.32407074596383217 0.041794797620281071 0 -0.34053594616662658 0.055506660756184122 0 -0.34518493738004258 0.033599816580460212 0 -0.32407074596383217 0.041794797620281071 0 -0.34053594616662658 0.055506660756184122 0 -0.32339719743621342 0.06770659700594063 0 -0.30235403869032912 0.02767131433713509 0 -0.31220577089506368 0.0041333438482760278 0 -0.33296733866997158 0.01461668874912944 0 -0.33279398811117811 -0.0028726877305683051 0 -0.31220577089506368 0.0041333438482760278 0 -0.33296733866997158 0.01461668874912944 0 -0.30235403869032912 0.02767131433713509 0 -0.32407074596383217 0.041794797620281071 0 -0.33296733866997158 0.01461668874912944 0 -0.32407074596383217 0.041794797620281071 0 -0.33296733866997158 0.01461668874912944 0 -0.34518493738004258 0.033599816580460212 0 -0.35020533879899601 -0.001213408582668409 0 -0.33279398811117811 -0.0028726877305683051 0 -0.33296733866997158 0.01461668874912944 0 -0.33296733866997158 0.01461668874912944 0 -0.36583269033092619 0.0198574945162211 0 -0.34518493738004258 0.033599816580460212 0 -0.35020533879899601 -0.001213408582668409 0 -0.33296733866997158 0.01461668874912944 0 -0.36583269033092619 0.0198574945162211 0 -0.37234831300326821 -0.0087916223148991474 0 -0.36583269033092619 0.0198574945162211 0 -0.37234831300326821 -0.0087916223148991474 0 -0.35020533879899601 -0.001213408582668409 0 -0.36583269033092619 0.0198574945162211 0 -0.37234831300326821 -0.0087916223148991474 0 -0.3835113359701684 0.0039786733130582766 0 -0.36583269033092619 0.0198574945162211 0 -0.34053594616662658 0.055506660756184122 0 -0.35931706765858429 0.048506611347341362 0 -0.35280144498624227 0.077155728178461599 0 -0.36583269033092619 0.0198574945162211 0 -0.35931706765858429 0.048506611347341362 0 -0.34518493738004258 0.033599816580460212 0 -0.34053594616662658 0.055506660756184122 0 -0.35931706765858429 0.048506611347341362 0 -0.34518493738004258 0.033599816580460212 0 -0.38240450937626502 0.029914745057972311 0 -0.36583269033092619 0.0198574945162211 0 -0.35931706765858429 0.048506611347341362 0 -0.36583269033092619 0.0198574945162211 0 -0.35931706765858429 0.048506611347341362 0 -0.37757191483638303 0.068620722861141834 0 -0.35931706765858429 0.048506611347341362 0 -0.35280144498624227 0.077155728178461599 0 -0.35931706765858429 0.048506611347341362 0 -0.35280144498624227 0.077155728178461599 0 -0.35280144498624227 0.077155728178461599 0 -0.34628582231390043 0.1058048450095819 0 -0.35280144498624227 0.077155728178461599 0 -0.34628582231390043 0.1058048450095819 0 -0.33259793107682339 0.088251273775914019 0 -0.35280144498624227 0.077155728178461599 0 -0.36764374561981439 0.089797765061852802 0 -0.34628582231390043 0.1058048450095819 0 -0.37757191483638303 0.068620722861141834 0 -0.35280144498624227 0.077155728178461599 0 -0.36764374561981439 0.089797765061852802 0 -0.36764374561981439 0.089797765061852802 0 -0.36871044727512381 0.1062777808590276 0 -0.34628582231390043 0.1058048450095819 0 -0.38422160330650568 0.1000588380651099 0 -0.36764374561981439 0.089797765061852802 0 -0.36871044727512381 0.1062777808590276 0 -0.38646812399680042 0.1127295516178168 0 -0.35893294113859819 0.12299790454077671 0 -0.38646812399680042 0.1127295516178168 0 -0.36871044727512381 0.1062777808590276 0 -0.35893294113859819 0.12299790454077671 0 -0.36871044727512381 0.1062777808590276 0 -0.35893294113859819 0.12299790454077671 0 -0.34628582231390043 0.1058048450095819 0 -0.33139775828039592 0.13326625746373691 0 -0.35893294113859819 0.12299790454077671 0 -0.34628582231390043 0.1058048450095819 0 -0.34628582231390043 0.1058048450095819 0 -0.32711077882228612 0.10937015073934669 0 -0.33259793107682339 0.088251273775914019 0 -0.33139775828039592 0.13326625746373691 0 -0.34628582231390043 0.1058048450095819 0 -0.32711077882228612 0.10937015073934669 0 -0.33139775828039592 0.13326625746373691 0 -0.31287988719591181 0.11965209392468271 0 -0.32711077882228612 0.10937015073934669 0 -0.31239249524439888 0.099876283522818035 0 -0.31287988719591181 0.11965209392468271 0 -0.32711077882228612 0.10937015073934669 0 -0.31239249524439888 0.099876283522818035 0 -0.32711077882228612 0.10937015073934669 0 -0.33259793107682339 0.088251273775914019 0 -0.31239249524439888 0.099876283522818035 0 -0.30653625631905229 0.080508276141624299 0 -0.33259793107682339 0.088251273775914019 0 -0.30653625631905229 0.080508276141624299 0 -0.32339719743621342 0.06770659700594063 0 -0.33259793107682339 0.088251273775914019 0 -0.34053594616662658 0.055506660756184122 0 -0.35280144498624227 0.077155728178461599 0 -0.32339719743621342 0.06770659700594063 0 -0.35280144498624227 0.077155728178461599 0 -0.32339719743621342 0.06770659700594063 0 -0.33259793107682339 0.088251273775914019 0 -0.39828069678528571 0.4706079374869741 0 -0.40501336456917142 0.48224734707830352 0 -0.38910086235208419 0.48421988731752902 0 -0.39828069678528571 0.4706079374869741 0 -0.38910086235208419 0.48421988731752902 0 -0.38476522884820918 0.47261297031105298 0 -0.3982967521651648 0.49500498310034341 0 -0.38484983308279591 0.5 0 -0.38910086235208419 0.48421988731752902 0 -0.3982967521651648 0.49500498310034341 0 -0.38484983308279591 0.5 0 -0.4103873061677602 0.5 0 -0.38910086235208419 0.48421988731752902 0 -0.40884900705801902 0.49580004508384451 0 -0.40501336456917142 0.48224734707830352 0 -0.38910086235208419 0.48421988731752902 0 -0.40884900705801902 0.49580004508384451 0 -0.3982967521651648 0.49500498310034341 0 -0.38910086235208419 0.48421988731752902 0 -0.40884900705801902 0.49580004508384451 0 -0.3982967521651648 0.49500498310034341 0 -0.40884900705801902 0.49580004508384451 0 -0.4103873061677602 0.5 0 -0.38484983308279591 0.5 0 -0.38910086235208419 0.48421988731752902 0 -0.37401948013283348 0.49006754973603561 0 -0.38910086235208419 0.48421988731752902 0 -0.37440925376156559 0.48330126246033778 0 -0.37401948013283348 0.49006754973603561 0 -0.38910086235208419 0.48421988731752902 0 -0.3698126641665343 0.47460123811809918 0 -0.37440925376156559 0.48330126246033778 0 -0.38910086235208419 0.48421988731752902 0 -0.36935271764615102 0.47263972955121092 0 -0.38910086235208419 0.48421988731752902 0 -0.38476522884820918 0.47261297031105298 0 -0.36935271764615102 0.47263972955121092 0 -0.38910086235208419 0.48421988731752902 0 -0.3698126641665343 0.47460123811809918 0 -0.36935271764615102 0.47263972955121092 0 -0.39828069678528571 0.4706079374869741 0 -0.38476522884820918 0.47261297031105298 0 -0.38731134310245868 0.46380596189005913 0 -0.38476522884820918 0.47261297031105298 0 -0.37834873548077258 0.46767211073475068 0 -0.36935271764615102 0.47263972955121092 0 -0.37834873548077258 0.46767211073475068 0 -0.37574930311598798 0.45840260136003491 0 -0.38731134310245868 0.46380596189005913 0 -0.37574930311598798 0.45840260136003491 0 -0.38731134310245868 0.46380596189005913 0 -0.38941621130493259 0.45006527832757132 0 -0.38731134310245868 0.46380596189005913 0 -0.38941621130493259 0.45006527832757132 0 -0.39496404878789498 0.45943735894707888 0 -0.38476522884820918 0.47261297031105298 0 -0.37834873548077258 0.46767211073475068 0 -0.38731134310245868 0.46380596189005913 0 -0.37771733629218529 0.44462342228227159 0 -0.38941621130493259 0.45006527832757132 0 -0.38820029760289948 0.43263361939958178 0 -0.37574930311598798 0.45840260136003491 0 -0.37771733629218529 0.44462342228227159 0 -0.38941621130493259 0.45006527832757132 0 -0.38941621130493259 0.45006527832757132 0 -0.40492140984324732 0.45584551302715498 0 -0.38820029760289948 0.43263361939958178 0 -0.40492140984324732 0.45584551302715498 0 -0.38820029760289948 0.43263361939958178 0 -0.40492140984324732 0.45584551302715498 0 -0.40305780089605492 0.43546253415985248 0 -0.38820029760289948 0.43263361939958178 0 -0.39828069678528571 0.4706079374869741 0 -0.40492140984324732 0.45584551302715498 0 -0.41551584539049652 0.47475236147610161 0 -0.39828069678528571 0.4706079374869741 0 -0.38731134310245868 0.46380596189005913 0 -0.39496404878789498 0.45943735894707888 0 -0.38941621130493259 0.45006527832757132 0 -0.39496404878789498 0.45943735894707888 0 -0.40492140984324732 0.45584551302715498 0 -0.39828069678528571 0.4706079374869741 0 -0.39496404878789498 0.45943735894707888 0 -0.40492140984324732 0.45584551302715498 0 -0.40492140984324732 0.45584551302715498 0 -0.41163559720621801 0.44791924212336931 0 -0.41551584539049652 0.47475236147610161 0 -0.41163559720621801 0.44791924212336931 0 -0.41551584539049652 0.47475236147610161 0 -0.41163559720621801 0.44791924212336931 0 -0.42977858162172777 0.45899276003394579 0 -0.41551584539049652 0.47475236147610161 0 -0.40492140984324732 0.45584551302715498 0 -0.41163559720621801 0.44791924212336931 0 -0.40305780089605492 0.43546253415985248 0 -0.41163559720621801 0.44791924212336931 0 -0.42636890051550058 0.44635810553037292 0 -0.42445280966069721 0.43362407249031992 0 -0.42636890051550058 0.44635810553037292 0 -0.42977858162172777 0.45899276003394579 0 -0.44319469397070488 0.44250644413690943 0 -0.41163559720621801 0.44791924212336931 0 -0.42636890051550058 0.44635810553037292 0 -0.42977858162172777 0.45899276003394579 0 -0.42636890051550058 0.44635810553037292 0 -0.44319469397070488 0.44250644413690943 0 -0.42445280966069721 0.43362407249031992 0 -0.43578510626710698 0.47954231669161068 0 -0.41551584539049652 0.47475236147610161 0 -0.41996374256601299 0.48932520454643758 0 -0.42977858162172777 0.45899276003394579 0 -0.43578510626710698 0.47954231669161068 0 -0.41551584539049652 0.47475236147610161 0 -0.39828069678528571 0.4706079374869741 0 -0.40501336456917142 0.48224734707830352 0 -0.41551584539049652 0.47475236147610161 0 -0.41551584539049652 0.47475236147610161 0 -0.41233548989592489 0.48553123954617178 0 -0.41996374256601299 0.48932520454643758 0 -0.40501336456917142 0.48224734707830352 0 -0.41551584539049652 0.47475236147610161 0 -0.41233548989592489 0.48553123954617178 0 -0.40884900705801902 0.49580004508384451 0 -0.4103873061677602 0.5 0 -0.41996374256601299 0.48932520454643758 0 -0.40884900705801902 0.49580004508384451 0 -0.41233548989592489 0.48553123954617178 0 -0.41996374256601299 0.48932520454643758 0 -0.40501336456917142 0.48224734707830352 0 -0.40884900705801902 0.49580004508384451 0 -0.41233548989592489 0.48553123954617178 0 -0.4103873061677602 0.5 0 -0.41996374256601299 0.48932520454643758 0 -0.43592477925272438 0.5 0 -0.43578510626710698 0.47954231669161068 0 -0.41996374256601299 0.48932520454643758 0 -0.43592477925272438 0.5 0 -0.43592477925272438 0.5 0 -0.45874574109545468 0.48887150955139658 0 -0.46146225233768878 0.5 0 -0.43578510626710698 0.47954231669161068 0 -0.43592477925272438 0.5 0 -0.45874574109545468 0.48887150955139658 0 -0.43578510626710698 0.47954231669161068 0 -0.45874574109545468 0.48887150955139658 0 -0.45097021753307981 0.465688976844153 0 -0.46844314882074389 0.46966576299919077 0 -0.46761487102348032 0.48045002514015778 0 -0.45097021753307981 0.465688976844153 0 -0.45874574109545468 0.48887150955139658 0 -0.45097021753307981 0.465688976844153 0 -0.46761487102348032 0.48045002514015778 0 -0.45874574109545468 0.48887150955139658 0 -0.45097021753307981 0.465688976844153 0 -0.46761487102348032 0.48045002514015778 0 -0.45874574109545468 0.48887150955139658 0 -0.47423098888017101 0.49098729667541807 0 -0.45874574109545468 0.48887150955139658 0 -0.46146225233768878 0.5 0 -0.47423098888017101 0.49098729667541807 0 -0.48498333663732007 0.47462556797065242 0 -0.5 0.5 0 -0.5 0.44299242297310659 0 -0.46146225233768878 0.5 0 -0.47423098888017101 0.49098729667541807 0 -0.48699972542265302 0.50000000000000089 0 -0.47423098888017101 0.49098729667541807 0 -0.48498333663732007 0.47462556797065242 0 -0.48699972542265302 0.50000000000000089 0 -0.46761487102348032 0.48045002514015778 0 -0.47423098888017101 0.49098729667541807 0 -0.48498333663732007 0.47462556797065242 0 -0.46844314882074389 0.46966576299919077 0 -0.46761487102348032 0.48045002514015778 0 -0.48498333663732007 0.47462556797065242 0 -0.48498333663732007 0.47462556797065242 0 -0.48699972542265302 0.50000000000000089 0 -0.48498333663732007 0.47462556797065242 0 -0.5 0.5 0 -0.48699972542265302 0.50000000000000089 0 -0.48498333663732007 0.47462556797065242 0 -0.5 0.44299242297310659 0 -0.48296694785198718 0.44925113594130378 0 -0.5 0.44299242297310659 0 -0.48296694785198718 0.44925113594130378 0 -0.47570757823494669 0.43061368821580348 0 -0.48498333663732007 0.47462556797065242 0 -0.48296694785198718 0.44925113594130378 0 -0.46844314882074389 0.46966576299919077 0 -0.48498333663732007 0.47462556797065242 0 -0.48296694785198718 0.44925113594130378 0 -0.46844314882074389 0.46966576299919077 0 -0.48296694785198718 0.44925113594130378 0 -0.46194143314993152 0.44106151223116569 0 -0.48296694785198718 0.44925113594130378 0 -0.46194143314993152 0.44106151223116569 0 -0.47570757823494669 0.43061368821580348 0 -0.46844314882074389 0.46966576299919077 0 -0.46194143314993152 0.44106151223116569 0 -0.45097021753307981 0.465688976844153 0 -0.46844314882074389 0.46966576299919077 0 -0.46194143314993152 0.44106151223116569 0 -0.42977858162172777 0.45899276003394579 0 -0.43578510626710698 0.47954231669161068 0 -0.45097021753307981 0.465688976844153 0 -0.45097021753307981 0.465688976844153 0 -0.44319469397070488 0.44250644413690943 0 -0.42977858162172777 0.45899276003394579 0 -0.45097021753307981 0.465688976844153 0 -0.44319469397070488 0.44250644413690943 0 -0.46194143314993152 0.44106151223116569 0 -0.45097021753307981 0.465688976844153 0 -0.44319469397070488 0.44250644413690943 0 -0.46194143314993152 0.44106151223116569 0 -0.44319469397070488 0.44250644413690943 0 -0.44899875375202142 0.42883728231522039 0 -0.44319469397070488 0.44250644413690943 0 -0.44899875375202142 0.42883728231522039 0 -0.43541917040832989 0.4193239114296658 0 -0.44319469397070488 0.44250644413690943 0 -0.43541917040832989 0.4193239114296658 0 -0.45543971747911899 0.41245726146314071 0 -0.44291247330363948 0.40033925917204471 0 -0.43541917040832989 0.4193239114296658 0 -0.44899875375202142 0.42883728231522039 0 -0.45543971747911899 0.41245726146314071 0 -0.43541917040832989 0.4193239114296658 0 -0.45543971747911899 0.41245726146314071 0 -0.46691833734817112 0.42334957203933582 0 -0.47458462052868727 0.40926582624723312 0 -0.46194143314993152 0.44106151223116569 0 -0.45543971747911899 0.41245726146314071 0 -0.46194143314993152 0.44106151223116569 0 -0.46691833734817112 0.42334957203933582 0 -0.47570757823494669 0.43061368821580348 0 -0.46194143314993152 0.44106151223116569 0 -0.45543971747911899 0.41245726146314071 0 -0.46691833734817112 0.42334957203933582 0 -0.46194143314993152 0.44106151223116569 0 -0.44899875375202142 0.42883728231522039 0 -0.45543971747911899 0.41245726146314071 0 -0.5 0.44299242297310659 0 -0.48649999594636828 0.41934251027245512 0 -0.5 0.40089270601441263 0 -0.46691833734817112 0.42334957203933582 0 -0.47570757823494669 0.43061368821580348 0 -0.47458462052868727 0.40926582624723312 0 -0.47570757823494669 0.43061368821580348 0 -0.47458462052868727 0.40926582624723312 0 -0.47570757823494669 0.43061368821580348 0 -0.47458462052868727 0.40926582624723312 0 -0.48649999594636828 0.41934251027245512 0 -0.47458462052868727 0.40926582624723312 0 -0.48649999594636828 0.41934251027245512 0 -0.48508244389942812 0.40187621141134477 0 -0.48649999594636828 0.41934251027245512 0 -0.5 0.40089270601441263 0 -0.48508244389942812 0.40187621141134477 0 -0.5 0.44299242297310659 0 -0.47570757823494669 0.43061368821580348 0 -0.48649999594636828 0.41934251027245512 0 -0.48741743793152348 0.38520302155702613 0 -0.5 0.40089270601441263 0 -0.50000000000000033 0.36979998871513903 0 -0.48741743793152348 0.38520302155702613 0 -0.5 0.40089270601441263 0 -0.48508244389942812 0.40187621141134477 0 -0.47458462052868727 0.40926582624723312 0 -0.47346166282242941 0.38791796427866249 0 -0.46274982547022703 0.39572473348500481 0 -0.48741743793152348 0.38520302155702613 0 -0.48508244389942812 0.40187621141134477 0 -0.47691016509056089 0.39467699296559677 0 -0.47458462052868727 0.40926582624723312 0 -0.47346166282242941 0.38791796427866249 0 -0.47458462052868727 0.40926582624723312 0 -0.47691016509056089 0.39467699296559677 0 -0.47346166282242941 0.38791796427866249 0 -0.47458462052868727 0.40926582624723312 0 -0.48508244389942812 0.40187621141134477 0 -0.47691016509056089 0.39467699296559677 0 -0.47691016509056089 0.39467699296559677 0 -0.47346166282242941 0.38791796427866249 0 -0.47346166282242941 0.38791796427866249 0 -0.47213812155023283 0.36275693084789168 0 -0.48741743793152348 0.38520302155702613 0 -0.47346166282242941 0.38791796427866249 0 -0.47213812155023283 0.36275693084789168 0 -0.48741743793152348 0.38520302155702613 0 -0.47691016509056089 0.39467699296559677 0 -0.47346166282242941 0.38791796427866249 0 -0.47346166282242941 0.38791796427866249 0 -0.46619057819478549 0.37366671380463229 0 -0.47346166282242941 0.38791796427866249 0 -0.46102369098690682 0.38324974476157952 0 -0.46619057819478549 0.37366671380463229 0 -0.47346166282242941 0.38791796427866249 0 -0.46102369098690682 0.38324974476157952 0 -0.46274982547022703 0.39572473348500481 0 -0.46102369098690682 0.38324974476157952 0 -0.46274982547022703 0.39572473348500481 0 -0.44893800180830662 0.38385301069511552 0 -0.46102369098690682 0.38324974476157952 0 -0.44893800180830662 0.38385301069511552 0 -0.4555016101389267 0.37108673850380403 0 -0.46102369098690682 0.38324974476157952 0 -0.4555016101389267 0.37108673850380403 0 -0.46619057819478549 0.37366671380463229 0 -0.45543971747911899 0.41245726146314071 0 -0.47458462052868727 0.40926582624723312 0 -0.46274982547022703 0.39572473348500481 0 -0.45543971747911899 0.41245726146314071 0 -0.46274982547022703 0.39572473348500481 0 -0.44893800180830662 0.38385301069511552 0 -0.43847174729134297 0.39089403088048102 0 -0.44291247330363948 0.40033925917204471 0 -0.44893800180830662 0.38385301069511552 0 -0.45543971747911899 0.41245726146314071 0 -0.44893800180830662 0.38385301069511552 0 -0.45543971747911899 0.41245726146314071 0 -0.44291247330363948 0.40033925917204471 0 -0.44893800180830662 0.38385301069511552 0 -0.43847174729134297 0.39089403088048102 0 -0.44893800180830662 0.38385301069511552 0 -0.43439286720747078 0.38324247493234148 0 -0.44893800180830662 0.38385301069511552 0 -0.43439286720747078 0.38324247493234148 0 -0.43707286105705451 0.36966267102709849 0 -0.43439286720747078 0.38324247493234148 0 -0.42599047513377791 0.37749749513149261 0 -0.43707286105705451 0.36966267102709849 0 -0.43847174729134297 0.39089403088048102 0 -0.43439286720747078 0.38324247493234148 0 -0.42764364684595502 0.39614137872242222 0 -0.43439286720747078 0.38324247493234148 0 -0.42088334197633342 0.38866708759163038 0 -0.42764364684595502 0.39614137872242222 0 -0.43439286720747078 0.38324247493234148 0 -0.42599047513377791 0.37749749513149261 0 -0.42088334197633342 0.38866708759163038 0 -0.42599047513377791 0.37749749513149261 0 -0.41410107475487118 0.3796638319587235 0 -0.42088334197633342 0.38866708759163038 0 -0.41410107475487118 0.3796638319587235 0 -0.40135499975577532 0.37682572302249723 0 -0.40387510083766093 0.39425300341790509 0 -0.41410107475487118 0.3796638319587235 0 -0.42088334197633342 0.38866708759163038 0 -0.40387510083766093 0.39425300341790509 0 -0.41410107475487118 0.3796638319587235 0 -0.42088334197633342 0.38866708759163038 0 -0.41410107475487118 0.3796638319587235 0 -0.40387510083766093 0.39425300341790509 0 -0.42088334197633342 0.38866708759163038 0 -0.41799834781121581 0.39734656931901252 0 -0.40387510083766093 0.39425300341790509 0 -0.42764364684595502 0.39614137872242222 0 -0.42202869916830132 0.41530706063830458 0 -0.41487251990458451 0.40635981777847741 0 -0.41799834781121581 0.39734656931901252 0 -0.41487251990458451 0.40635981777847741 0 -0.40387510083766093 0.39425300341790509 0 -0.41799834781121581 0.39734656931901252 0 -0.42764364684595502 0.39614137872242222 0 -0.41487251990458451 0.40635981777847741 0 -0.44291247330363948 0.40033925917204471 0 -0.42764364684595502 0.39614137872242222 0 -0.43541917040832989 0.4193239114296658 0 -0.42088334197633342 0.38866708759163038 0 -0.41799834781121581 0.39734656931901252 0 -0.42764364684595502 0.39614137872242222 0 -0.43847174729134297 0.39089403088048102 0 -0.44291247330363948 0.40033925917204471 0 -0.42764364684595502 0.39614137872242222 0 -0.42764364684595502 0.39614137872242222 0 -0.43541917040832989 0.4193239114296658 0 -0.42202869916830132 0.41530706063830458 0 -0.42764364684595502 0.39614137872242222 0 -0.43541917040832989 0.4193239114296658 0 -0.44319469397070488 0.44250644413690943 0 -0.43541917040832989 0.4193239114296658 0 -0.42445280966069721 0.43362407249031992 0 -0.43541917040832989 0.4193239114296658 0 -0.42202869916830132 0.41530706063830458 0 -0.42445280966069721 0.43362407249031992 0 -0.41163559720621801 0.44791924212336931 0 -0.40775534902193961 0.42108612277063728 0 -0.42202869916830132 0.41530706063830458 0 -0.42445280966069721 0.43362407249031992 0 -0.40775534902193961 0.42108612277063728 0 -0.41163559720621801 0.44791924212336931 0 -0.42445280966069721 0.43362407249031992 0 -0.40775534902193961 0.42108612277063728 0 -0.41163559720621801 0.44791924212336931 0 -0.40775534902193961 0.42108612277063728 0 -0.40305780089605492 0.43546253415985248 0 -0.41487251990458451 0.40635981777847741 0 -0.40775534902193961 0.42108612277063728 0 -0.40387510083766093 0.39425300341790509 0 -0.42202869916830132 0.41530706063830458 0 -0.41487251990458451 0.40635981777847741 0 -0.40775534902193961 0.42108612277063728 0 -0.40775534902193961 0.42108612277063728 0 -0.3912622268112283 0.41224751262108389 0 -0.40387510083766093 0.39425300341790509 0 -0.40775534902193961 0.42108612277063728 0 -0.40387510083766093 0.39425300341790509 0 -0.40775534902193961 0.42108612277063728 0 -0.40305780089605492 0.43546253415985248 0 -0.38820029760289948 0.43263361939958178 0 -0.40775534902193961 0.42108612277063728 0 -0.3912622268112283 0.41224751262108389 0 -0.38820029760289948 0.43263361939958178 0 -0.38820029760289948 0.43263361939958178 0 -0.37147918536255192 0.40942172577200869 0 -0.37156533459105412 0.43367234415356171 0 -0.37771733629218529 0.44462342228227159 0 -0.38820029760289948 0.43263361939958178 0 -0.37156533459105412 0.43367234415356171 0 -0.3912622268112283 0.41224751262108389 0 -0.38820029760289948 0.43263361939958178 0 -0.37147918536255192 0.40942172577200869 0 -0.38820029760289948 0.43263361939958178 0 -0.37147918536255192 0.40942172577200869 0 -0.3912622268112283 0.41224751262108389 0 -0.38662426441232378 0.39614158585308901 0 -0.37147918536255192 0.40942172577200869 0 -0.38662426441232378 0.39614158585308901 0 -0.37150512957606591 0.39095904218024619 0 -0.37147918536255192 0.40942172577200869 0 -0.38662426441232378 0.39614158585308901 0 -0.37825311405019779 0.38249388649354787 0 -0.37150512957606591 0.39095904218024619 0 -0.37825311405019779 0.38249388649354787 0 -0.39152378239297247 0.38412890433952029 0 -0.38751143290890439 0.3709303229105626 0 -0.38662426441232378 0.39614158585308901 0 -0.37825311405019779 0.38249388649354787 0 -0.39152378239297247 0.38412890433952029 0 -0.39152378239297247 0.38412890433952029 0 -0.40135499975577532 0.37682572302249723 0 -0.40387510083766093 0.39425300341790509 0 -0.40135499975577532 0.37682572302249723 0 -0.40387510083766093 0.39425300341790509 0 -0.39152378239297247 0.38412890433952029 0 -0.40135499975577532 0.37682572302249723 0 -0.38751143290890439 0.3709303229105626 0 -0.3912622268112283 0.41224751262108389 0 -0.38662426441232378 0.39614158585308901 0 -0.40387510083766093 0.39425300341790509 0 -0.38662426441232378 0.39614158585308901 0 -0.39152378239297247 0.38412890433952029 0 -0.40387510083766093 0.39425300341790509 0 -0.3912622268112283 0.41224751262108389 0 -0.40387510083766093 0.39425300341790509 0 -0.39883489867388711 0.35939844262708981 0 -0.38471778892273689 0.34065840426865301 0 -0.39990642908078428 0.34934461145125928 0 -0.39854884121673417 0.35742026661229648 0 -0.38471778892273689 0.34065840426865301 0 -0.39854884121673417 0.35742026661229648 0 -0.39883489867388711 0.35939844262708981 0 -0.38471778892273689 0.34065840426865301 0 -0.40407368271588467 0.34555127896492732 0 -0.39990642908078428 0.34934461145125928 0 -0.38471778892273689 0.34065840426865301 0 -0.39990642908078428 0.34934461145125928 0 -0.40288181681269858 0.35508281482239079 0 -0.39854884121673417 0.35742026661229648 0 -0.40288181681269858 0.35508281482239079 0 -0.39883489867388711 0.35939844262708981 0 -0.4114092387531339 0.35543027253731752 0 -0.39990642908078428 0.34934461145125928 0 -0.40288181681269858 0.35508281482239079 0 -0.4114092387531339 0.35543027253731752 0 -0.40288181681269858 0.35508281482239079 0 -0.39854884121673417 0.35742026661229648 0 -0.39883489867388711 0.35939844262708981 0 -0.39854884121673417 0.35742026661229648 0 -0.39883489867388711 0.35939844262708981 0 -0.41410107475487118 0.3796638319587235 0 -0.40135499975577532 0.37682572302249723 0 -0.39883489867388711 0.35939844262708981 0 -0.40135499975577532 0.37682572302249723 0 -0.39883489867388711 0.35939844262708981 0 -0.38751143290890439 0.3709303229105626 0 -0.40135499975577532 0.37682572302249723 0 -0.39883489867388711 0.35939844262708981 0 -0.37825311405019779 0.38249388649354787 0 -0.38751143290890439 0.3709303229105626 0 -0.37181299918487631 0.36866137828311552 0 -0.39883489867388711 0.35939844262708981 0 -0.38751143290890439 0.3709303229105626 0 -0.38094717128672573 0.35246886593446941 0 -0.38751143290890439 0.3709303229105626 0 -0.38094717128672573 0.35246886593446941 0 -0.37181299918487631 0.36866137828311552 0 -0.39883489867388711 0.35939844262708981 0 -0.38094717128672573 0.35246886593446941 0 -0.38471778892273689 0.34065840426865301 0 -0.38094717128672573 0.35246886593446941 0 -0.38471778892273689 0.34065840426865301 0 -0.36981540343905073 0.34664709977874592 0 -0.38471778892273689 0.34065840426865301 0 -0.36739764409551767 0.31766643323788191 0 -0.38471778892273689 0.34065840426865301 0 -0.3789799740766982 0.31700090293891692 0 -0.38872410507530419 0.32075760497093009 0 -0.38471778892273689 0.34065840426865301 0 -0.3789799740766982 0.31700090293891692 0 -0.36739764409551767 0.31766643323788191 0 -0.3789799740766982 0.31700090293891692 0 -0.38872410507530419 0.32075760497093009 0 -0.38036730211669201 0.30923322958644472 0 -0.3789799740766982 0.31700090293891692 0 -0.38036730211669201 0.30923322958644472 0 -0.37201298923312492 0.31436500150164193 0 -0.38872410507530419 0.32075760497093009 0 -0.39171239750559289 0.30993667011010378 0 -0.38036730211669201 0.30923322958644472 0 -0.38872410507530419 0.32075760497093009 0 -0.40008551487724092 0.316718943225203 0 -0.39171239750559289 0.30993667011010378 0 -0.38872410507530419 0.32075760497093009 0 -0.40008551487724092 0.316718943225203 0 -0.40000231341095288 0.3305195943731154 0 -0.40008551487724092 0.316718943225203 0 -0.40000231341095288 0.3305195943731154 0 -0.40842970533124973 0.32451873623921418 0 -0.40008551487724092 0.316718943225203 0 -0.40932471410816751 0.31421163784175998 0 -0.40842970533124973 0.32451873623921418 0 -0.40407368271588467 0.34555127896492732 0 -0.38471778892273689 0.34065840426865301 0 -0.40000231341095288 0.3305195943731154 0 -0.38471778892273689 0.34065840426865301 0 -0.38872410507530419 0.32075760497093009 0 -0.40000231341095288 0.3305195943731154 0 -0.40407368271588467 0.34555127896492732 0 -0.38471778892273689 0.34065840426865301 0 -0.40407368271588467 0.34555127896492732 0 -0.40000231341095288 0.3305195943731154 0 -0.41404916446917561 0.33448933476752102 0 -0.40407368271588467 0.34555127896492732 0 -0.41404916446917561 0.33448933476752102 0 -0.41926613785780181 0.34215703872660369 0 -0.40000231341095288 0.3305195943731154 0 -0.41404916446917561 0.33448933476752102 0 -0.40842970533124973 0.32451873623921418 0 -0.41404916446917561 0.33448933476752102 0 -0.41926613785780181 0.34215703872660369 0 -0.4275009672324977 0.33789111789852722 0 -0.40932471410816751 0.31421163784175998 0 -0.40842970533124973 0.32451873623921418 0 -0.41788728320736562 0.31956206236859502 0 -0.41404916446917561 0.33448933476752102 0 -0.40842970533124973 0.32451873623921418 0 -0.41788728320736562 0.31956206236859502 0 -0.41404916446917561 0.33448933476752102 0 -0.41788728320736562 0.31956206236859502 0 -0.4265253058968046 0.32636831231079089 0 -0.40932471410816751 0.31421163784175998 0 -0.41788728320736562 0.31956206236859502 0 -0.41597596467543302 0.30485613586339261 0 -0.43624406287739148 0.32800611876720109 0 -0.4430907311965242 0.32839125321759199 0 -0.43108395639560099 0.30485809910979261 0 -0.4265253058968046 0.32636831231079089 0 -0.43624406287739148 0.32800611876720109 0 -0.43108395639560099 0.30485809910979261 0 -0.41788728320736562 0.31956206236859502 0 -0.4265253058968046 0.32636831231079089 0 -0.43108395639560099 0.30485809910979261 0 -0.4430907311965242 0.32839125321759199 0 -0.43108395639560099 0.30485809910979261 0 -0.41926613785780181 0.34215703872660369 0 -0.4275009672324977 0.33789111789852722 0 -0.42827821530730409 0.34501295732435272 0 -0.4275009672324977 0.33789111789852722 0 -0.4328756479860193 0.34399947163824679 0 -0.42827821530730409 0.34501295732435272 0 -0.4265253058968046 0.32636831231079089 0 -0.4275009672324977 0.33789111789852722 0 -0.43165131703714832 0.33310101840572609 0 -0.41404916446917561 0.33448933476752102 0 -0.4265253058968046 0.32636831231079089 0 -0.4275009672324977 0.33789111789852722 0 -0.43624406287739148 0.32800611876720109 0 -0.43165131703714832 0.33310101840572609 0 -0.43515879748326292 0.33965512857057262 0 -0.4265253058968046 0.32636831231079089 0 -0.43624406287739148 0.32800611876720109 0 -0.43165131703714832 0.33310101840572609 0 -0.4275009672324977 0.33789111789852722 0 -0.43165131703714832 0.33310101840572609 0 -0.43515879748326292 0.33965512857057262 0 -0.4275009672324977 0.33789111789852722 0 -0.43515879748326292 0.33965512857057262 0 -0.4328756479860193 0.34399947163824679 0 -0.43515879748326292 0.33965512857057262 0 -0.436857886085048 0.34719719112351621 0 -0.4328756479860193 0.34399947163824679 0 -0.43290338659145061 0.35283898833661642 0 -0.4234295765090329 0.35044415366120002 0 -0.42350223067316028 0.36625141014766949 0 -0.436857886085048 0.34719719112351621 0 -0.43422819502500859 0.35094891336241091 0 -0.4328756479860193 0.34399947163824679 0 -0.43422819502500859 0.35094891336241091 0 -0.43290338659145061 0.35283898833661642 0 -0.4234295765090329 0.35044415366120002 0 -0.436857886085048 0.34719719112351621 0 -0.43422819502500859 0.35094891336241091 0 -0.43422819502500859 0.35094891336241091 0 -0.4328756479860193 0.34399947163824679 0 -0.42827821530730409 0.34501295732435272 0 -0.43422819502500859 0.35094891336241091 0 -0.43290338659145061 0.35283898833661642 0 -0.44243628613749431 0.35524875992709032 0 -0.43290338659145061 0.35283898833661642 0 -0.43545160144475048 0.36082892049651583 0 -0.44243628613749431 0.35524875992709032 0 -0.43422819502500859 0.35094891336241091 0 -0.43290338659145061 0.35283898833661642 0 -0.43290338659145061 0.35283898833661642 0 -0.4234295765090329 0.35044415366120002 0 -0.41926613785780181 0.34215703872660369 0 -0.4234295765090329 0.35044415366120002 0 -0.42827821530730409 0.34501295732435272 0 -0.43422819502500859 0.35094891336241091 0 -0.4234295765090329 0.35044415366120002 0 -0.43422819502500859 0.35094891336241091 0 -0.4234295765090329 0.35044415366120002 0 -0.42827821530730409 0.34501295732435272 0 -0.39990642908078428 0.34934461145125928 0 -0.4234295765090329 0.35044415366120002 0 -0.4114092387531339 0.35543027253731752 0 -0.40407368271588467 0.34555127896492732 0 -0.39990642908078428 0.34934461145125928 0 -0.4234295765090329 0.35044415366120002 0 -0.40407368271588467 0.34555127896492732 0 -0.4234295765090329 0.35044415366120002 0 -0.39990642908078428 0.34934461145125928 0 -0.4234295765090329 0.35044415366120002 0 -0.4234295765090329 0.35044415366120002 0 -0.4114092387531339 0.35543027253731752 0 -0.42350223067316028 0.36625141014766949 0 -0.40407368271588467 0.34555127896492732 0 -0.41926613785780181 0.34215703872660369 0 -0.4234295765090329 0.35044415366120002 0 -0.41410107475487118 0.3796638319587235 0 -0.39883489867388711 0.35939844262708981 0 -0.4114092387531339 0.35543027253731752 0 -0.41410107475487118 0.3796638319587235 0 -0.4114092387531339 0.35543027253731752 0 -0.42350223067316028 0.36625141014766949 0 -0.41410107475487118 0.3796638319587235 0 -0.39883489867388711 0.35939844262708981 0 -0.41410107475487118 0.3796638319587235 0 -0.42350223067316028 0.36625141014766949 0 -0.42599047513377791 0.37749749513149261 0 -0.41410107475487118 0.3796638319587235 0 -0.42350223067316028 0.36625141014766949 0 -0.42599047513377791 0.37749749513149261 0 -0.42350223067316028 0.36625141014766949 0 -0.43707286105705451 0.36966267102709849 0 -0.43290338659145061 0.35283898833661642 0 -0.42350223067316028 0.36625141014766949 0 -0.42350223067316028 0.36625141014766949 0 -0.43545160144475048 0.36082892049651583 0 -0.43707286105705451 0.36966267102709849 0 -0.43290338659145061 0.35283898833661642 0 -0.42350223067316028 0.36625141014766949 0 -0.43545160144475048 0.36082892049651583 0 -0.44893800180830662 0.38385301069511552 0 -0.44243628613749431 0.35524875992709032 0 -0.44893800180830662 0.38385301069511552 0 -0.43707286105705451 0.36966267102709849 0 -0.44243628613749431 0.35524875992709032 0 -0.44893800180830662 0.38385301069511552 0 -0.44243628613749431 0.35524875992709032 0 -0.4555016101389267 0.37108673850380403 0 -0.44243628613749431 0.35524875992709032 0 -0.4555016101389267 0.37108673850380403 0 -0.45891949356714112 0.35941546333060248 0 -0.43545160144475048 0.36082892049651583 0 -0.43707286105705451 0.36966267102709849 0 -0.44243628613749431 0.35524875992709032 0 -0.44243628613749431 0.35524875992709032 0 -0.45509750599744719 0.35192440732539149 0 -0.45891949356714112 0.35941546333060248 0 -0.44153658454729328 0.35129052932987259 0 -0.45509750599744719 0.35192440732539149 0 -0.4430907311965242 0.32839125321759199 0 -0.44243628613749431 0.35524875992709032 0 -0.45891949356714112 0.35941546333060248 0 -0.43515879748326292 0.33965512857057262 0 -0.436857886085048 0.34719719112351621 0 -0.44153658454729328 0.35129052932987259 0 -0.43422819502500859 0.35094891336241091 0 -0.44153658454729328 0.35129052932987259 0 -0.436857886085048 0.34719719112351621 0 -0.43422819502500859 0.35094891336241091 0 -0.44153658454729328 0.35129052932987259 0 -0.43422819502500859 0.35094891336241091 0 -0.44153658454729328 0.35129052932987259 0 -0.44243628613749431 0.35524875992709032 0 -0.43290338659145061 0.35283898833661642 0 -0.44243628613749431 0.35524875992709032 0 -0.44153658454729328 0.35129052932987259 0 -0.44243628613749431 0.35524875992709032 0 -0.44153658454729328 0.35129052932987259 0 -0.45509750599744719 0.35192440732539149 0 -0.44153658454729328 0.35129052932987259 0 -0.44243628613749431 0.35524875992709032 0 -0.45509750599744719 0.35192440732539149 0 -0.45509750599744719 0.35192440732539149 0 -0.45891949356714112 0.35941546333060248 0 -0.47160889870860001 0.35269619916516171 0 -0.45509750599744719 0.35192440732539149 0 -0.47160889870860001 0.35269619916516171 0 -0.45509750599744719 0.35192440732539149 0 -0.47160889870860001 0.35269619916516171 0 -0.47080234399227638 0.33736328087424872 0 -0.45509750599744719 0.35192440732539149 0 -0.45891949356714112 0.35941546333060248 0 -0.45891949356714112 0.35941546333060248 0 -0.47213812155023283 0.36275693084789168 0 -0.47160889870860001 0.35269619916516171 0 -0.4555016101389267 0.37108673850380403 0 -0.45891949356714112 0.35941546333060248 0 -0.46619057819478549 0.37366671380463229 0 -0.45891949356714112 0.35941546333060248 0 -0.47213812155023283 0.36275693084789168 0 -0.45891949356714112 0.35941546333060248 0 -0.46619057819478549 0.37366671380463229 0 -0.45891949356714112 0.35941546333060248 0 -0.46619057819478549 0.37366671380463229 0 -0.47213812155023283 0.36275693084789168 0 -0.47346166282242941 0.38791796427866249 0 -0.46619057819478549 0.37366671380463229 0 -0.47213812155023283 0.36275693084789168 0 -0.47213812155023283 0.36275693084789168 0 -0.47160889870860001 0.35269619916516171 0 -0.499999999999997 0.35402328408659239 0 -0.47213812155023283 0.36275693084789168 0 -0.47160889870860001 0.35269619916516171 0 -0.47160889870860001 0.35269619916516171 0 -0.47080234399227638 0.33736328087424872 0 -0.47160889870860001 0.35269619916516171 0 -0.48420269381187292 0.34318526817094508 0 -0.47080234399227638 0.33736328087424872 0 -0.47160889870860001 0.35269619916516171 0 -0.499999999999997 0.35402328408659239 0 -0.48420269381187292 0.34318526817094508 0 -0.47160889870860001 0.35269619916516171 0 -0.499999999999997 0.35402328408659239 0 -0.499999999999997 0.35402328408659239 0 -0.49377275718577812 0.33925592717700548 0 -0.48420269381187292 0.34318526817094508 0 -0.47213812155023283 0.36275693084789168 0 -0.50000000000000033 0.36979998871513903 0 -0.47213812155023283 0.36275693084789168 0 -0.499999999999997 0.35402328408659239 0 -0.50000000000000033 0.36979998871513903 0 -0.48741743793152348 0.38520302155702613 0 -0.47213812155023283 0.36275693084789168 0 -0.50000000000000033 0.36979998871513903 0 -0.49653022308392369 0.32844619629103211 0 -0.500000000000001 0.33314737519772741 0 -0.5 0.3110978543920192 0 -0.49653022308392369 0.32844619629103211 0 -0.48329350345725891 0.31051184817361371 0 -0.4892159651077338 0.29932451582091801 0 -0.49653022308392369 0.32844619629103211 0 -0.48165638102038238 0.32433443643725812 0 -0.48329350345725891 0.31051184817361371 0 -0.49653022308392369 0.32844619629103211 0 -0.4892159651077338 0.29932451582091801 0 -0.5 0.3110978543920192 0 -0.49653022308392369 0.32844619629103211 0 -0.4892159651077338 0.29932451582091801 0 -0.49653022308392369 0.32844619629103211 0 -0.48329350345725891 0.31051184817361371 0 -0.499999999999997 0.35402328408659239 0 -0.500000000000001 0.33314737519772741 0 -0.49377275718577812 0.33925592717700548 0 -0.49653022308392369 0.32844619629103211 0 -0.49747879812369372 0.33222294292753929 0 -0.48718229399332508 0.33370076550222372 0 -0.49653022308392369 0.32844619629103211 0 -0.500000000000001 0.33314737519772741 0 -0.49747879812369372 0.33222294292753929 0 -0.49747879812369372 0.33222294292753929 0 -0.49377275718577812 0.33925592717700548 0 -0.48718229399332508 0.33370076550222372 0 -0.49653022308392369 0.32844619629103211 0 -0.500000000000001 0.33314737519772741 0 -0.49653022308392369 0.32844619629103211 0 -0.49747879812369372 0.33222294292753929 0 -0.500000000000001 0.33314737519772741 0 -0.49747879812369372 0.33222294292753929 0 -0.49377275718577812 0.33925592717700548 0 -0.49377275718577812 0.33925592717700548 0 -0.48718229399332508 0.33370076550222372 0 -0.48420269381187292 0.34318526817094508 0 -0.49653022308392369 0.32844619629103211 0 -0.48718229399332508 0.33370076550222372 0 -0.48165638102038238 0.32433443643725812 0 -0.48718229399332508 0.33370076550222372 0 -0.47080234399227638 0.33736328087424872 0 -0.48165638102038238 0.32433443643725812 0 -0.48718229399332508 0.33370076550222372 0 -0.48420269381187292 0.34318526817094508 0 -0.47080234399227638 0.33736328087424872 0 -0.47080234399227638 0.33736328087424872 0 -0.46999578927595048 0.32203036258333589 0 -0.47080234399227638 0.33736328087424872 0 -0.46999578927595048 0.32203036258333589 0 -0.48165638102038238 0.32433443643725812 0 -0.46999578927595048 0.32203036258333589 0 -0.48165638102038238 0.32433443643725812 0 -0.48329350345725891 0.31051184817361371 0 -0.46999578927595048 0.32203036258333589 0 -0.46918308745691278 0.30794019848596671 0 -0.48329350345725891 0.31051184817361371 0 -0.46999578927595048 0.32203036258333589 0 -0.4545685913069557 0.30909350293973492 0 -0.46918308745691278 0.30794019848596671 0 -0.46999578927595048 0.32203036258333589 0 -0.45871099235383078 0.3297605613880607 0 -0.4545685913069557 0.30909350293973492 0 -0.45509750599744719 0.35192440732539149 0 -0.47080234399227638 0.33736328087424872 0 -0.45871099235383078 0.3297605613880607 0 -0.47080234399227638 0.33736328087424872 0 -0.46999578927595048 0.32203036258333589 0 -0.45871099235383078 0.3297605613880607 0 -0.45509750599744719 0.35192440732539149 0 -0.45871099235383078 0.3297605613880607 0 -0.4430907311965242 0.32839125321759199 0 -0.43624406287739148 0.32800611876720109 0 -0.43515879748326292 0.33965512857057262 0 -0.44153658454729328 0.35129052932987259 0 -0.43624406287739148 0.32800611876720109 0 -0.44153658454729328 0.35129052932987259 0 -0.45509750599744719 0.35192440732539149 0 -0.4430907311965242 0.32839125321759199 0 -0.43624406287739148 0.32800611876720109 0 -0.44153658454729328 0.35129052932987259 0 -0.4430907311965242 0.32839125321759199 0 -0.45871099235383078 0.3297605613880607 0 -0.4430907311965242 0.32839125321759199 0 -0.4545685913069557 0.30909350293973492 0 -0.4430907311965242 0.32839125321759199 0 -0.4545685913069557 0.30909350293973492 0 -0.43108395639560099 0.30485809910979261 0 -0.45009560372727703 0.29183126050297581 0 -0.4545685913069557 0.30909350293973492 0 -0.43108395639560099 0.30485809910979261 0 -0.45009560372727703 0.29183126050297581 0 -0.43794862289930409 0.27798404847038122 0 -0.43108395639560099 0.30485809910979261 0 -0.45009560372727703 0.29183126050297581 0 -0.4568200642039304 0.27464315193877592 0 -0.43794862289930409 0.27798404847038122 0 -0.47005678383059363 0.29257750005619548 0 -0.4568200642039304 0.27464315193877592 0 -0.45009560372727703 0.29183126050297581 0 -0.47005678383059363 0.29257750005619548 0 -0.4568200642039304 0.27464315193877592 0 -0.4545685913069557 0.30909350293973492 0 -0.46918308745691278 0.30794019848596671 0 -0.47005678383059363 0.29257750005619548 0 -0.45009560372727703 0.29183126050297581 0 -0.4545685913069557 0.30909350293973492 0 -0.47005678383059363 0.29257750005619548 0 -0.48329350345725891 0.31051184817361371 0 -0.47005678383059363 0.29257750005619548 0 -0.4892159651077338 0.29932451582091801 0 -0.46918308745691278 0.30794019848596671 0 -0.48329350345725891 0.31051184817361371 0 -0.47005678383059363 0.29257750005619548 0 -0.48329350345725891 0.31051184817361371 0 -0.47005678383059363 0.29257750005619548 0 -0.47005678383059363 0.29257750005619548 0 -0.4892159651077338 0.29932451582091801 0 -0.48190170713154579 0.27020283535080342 0 -0.49277941805982051 0.28139362438465892 0 -0.5 0.28904833358631121 0 -0.4892159651077338 0.29932451582091801 0 -0.49277941805982051 0.28139362438465892 0 -0.4892159651077338 0.29932451582091801 0 -0.48190170713154579 0.27020283535080342 0 -0.4892159651077338 0.29932451582091801 0 -0.48190170713154579 0.27020283535080342 0 -0.5 0.28904833358631121 0 -0.4892159651077338 0.29932451582091801 0 -0.5 0.3110978543920192 0 -0.49787418098167152 0.24399792957799829 0 -0.48897239074030763 0.2564193422591956 0 -0.50000000000000222 0.26699881278060311 0 -0.48897239074030763 0.2564193422591956 0 -0.50000000000000222 0.26699881278060311 0 -0.48190170713154579 0.27020283535080342 0 -0.47629615006491649 0.2478843387537821 0 -0.48841709285439311 0.24662095380897969 0 -0.48897239074030763 0.2564193422591956 0 -0.49277941805982051 0.28139362438465892 0 -0.50000000000000222 0.26699881278060311 0 -0.48190170713154579 0.27020283535080342 0 -0.50000000000000222 0.26699881278060311 0 -0.48190170713154579 0.27020283535080342 0 -0.49277941805982051 0.28139362438465892 0 -0.5 0.28904833358631121 0 -0.50000000000000222 0.26699881278060311 0 -0.48190170713154579 0.27020283535080342 0 -0.4568200642039304 0.27464315193877592 0 -0.47005678383059363 0.29257750005619548 0 -0.48190170713154579 0.27020283535080342 0 -0.4568200642039304 0.27464315193877592 0 -0.47629615006491649 0.2478843387537821 0 -0.48897239074030763 0.2564193422591956 0 -0.48190170713154579 0.27020283535080342 0 -0.47629615006491649 0.2478843387537821 0 -0.48190170713154579 0.27020283535080342 0 -0.46302939500067403 0.25655242642106652 0 -0.47629615006491649 0.2478843387537821 0 -0.48190170713154579 0.27020283535080342 0 -0.46302939500067403 0.25655242642106652 0 -0.4568200642039304 0.27464315193877592 0 -0.45260778682751229 0.25636282313834352 0 -0.47629615006491649 0.2478843387537821 0 -0.4658519837927762 0.2455768727623254 0 -0.46302939500067403 0.25655242642106652 0 -0.45158548375051172 0.24376199779042901 0 -0.46302939500067403 0.25655242642106652 0 -0.45260778682751229 0.25636282313834352 0 -0.48190170713154579 0.27020283535080342 0 -0.46302939500067403 0.25655242642106652 0 -0.4568200642039304 0.27464315193877592 0 -0.4568200642039304 0.27464315193877592 0 -0.43794862289930409 0.27798404847038122 0 -0.4568200642039304 0.27464315193877592 0 -0.43794862289930409 0.27798404847038122 0 -0.43835256334596751 0.26490954731505711 0 -0.4568200642039304 0.27464315193877592 0 -0.43835256334596751 0.26490954731505711 0 -0.43899620435493392 0.25049371640310392 0 -0.4568200642039304 0.27464315193877592 0 -0.45260778682751229 0.25636282313834352 0 -0.43899620435493392 0.25049371640310392 0 -0.4568200642039304 0.27464315193877592 0 -0.43899620435493392 0.25049371640310392 0 -0.45158548375051172 0.24376199779042901 0 -0.45260778682751229 0.25636282313834352 0 -0.43899620435493392 0.25049371640310392 0 -0.43835256334596751 0.26490954731505711 0 -0.43899620435493392 0.25049371640310392 0 -0.4306740611460208 0.25341526749683402 0 -0.4306740611460208 0.25341526749683402 0 -0.40976263854152972 0.26306853720323847 0 -0.42732386412564799 0.26801155226619161 0 -0.43835256334596751 0.26490954731505711 0 -0.4306740611460208 0.25341526749683402 0 -0.42732386412564799 0.26801155226619161 0 -0.42515580324046509 0.24674148596493159 0 -0.4306740611460208 0.25341526749683402 0 -0.41817555763870717 0.25149437126127672 0 -0.4306740611460208 0.25341526749683402 0 -0.40976263854152972 0.26306853720323847 0 -0.4306740611460208 0.25341526749683402 0 -0.41817555763870717 0.25149437126127672 0 -0.40976263854152972 0.26306853720323847 0 -0.40976263854152972 0.26306853720323847 0 -0.40500590612585757 0.25374539099256938 0 -0.41817555763870717 0.25149437126127672 0 -0.40976263854152972 0.26306853720323847 0 -0.40500590612585757 0.25374539099256938 0 -0.40976263854152972 0.26306853720323847 0 -0.41907718159467899 0.28132494500199251 0 -0.4048332651353771 0.27496814356333332 0 -0.40976263854152972 0.26306853720323847 0 -0.41907718159467899 0.28132494500199251 0 -0.40976263854152972 0.26306853720323847 0 -0.42732386412564799 0.26801155226619161 0 -0.41907718159467899 0.28132494500199251 0 -0.41907718159467899 0.28132494500199251 0 -0.39582919829632368 0.28544064053973522 0 -0.4048332651353771 0.27496814356333332 0 -0.43794862289930409 0.27798404847038122 0 -0.42732386412564799 0.26801155226619161 0 -0.41907718159467899 0.28132494500199251 0 -0.43794862289930409 0.27798404847038122 0 -0.41907718159467899 0.28132494500199251 0 -0.43794862289930409 0.27798404847038122 0 -0.43835256334596751 0.26490954731505711 0 -0.42732386412564799 0.26801155226619161 0 -0.43794862289930409 0.27798404847038122 0 -0.43108395639560099 0.30485809910979261 0 -0.41907718159467899 0.28132494500199251 0 -0.43108395639560099 0.30485809910979261 0 -0.41907718159467899 0.28132494500199251 0 -0.43108395639560099 0.30485809910979261 0 -0.41597596467543302 0.30485613586339261 0 -0.41907718159467899 0.28132494500199251 0 -0.41788728320736562 0.31956206236859502 0 -0.43108395639560099 0.30485809910979261 0 -0.41597596467543302 0.30485613586339261 0 -0.40932471410816751 0.31421163784175998 0 -0.41597596467543302 0.30485613586339261 0 -0.40076827369315782 0.30324555847724849 0 -0.41597596467543302 0.30485613586339261 0 -0.41907718159467899 0.28132494500199251 0 -0.40076827369315782 0.30324555847724849 0 -0.41907718159467899 0.28132494500199251 0 -0.39582919829632368 0.28544064053973522 0 -0.41907718159467899 0.28132494500199251 0 -0.39582919829632368 0.28544064053973522 0 -0.40076827369315782 0.30324555847724849 0 -0.39582919829632368 0.28544064053973522 0 -0.40076827369315782 0.30324555847724849 0 -0.38861679176556979 0.29972801429069262 0 -0.40008551487724092 0.316718943225203 0 -0.40932471410816751 0.31421163784175998 0 -0.40076827369315782 0.30324555847724849 0 -0.40076827369315782 0.30324555847724849 0 -0.39171239750559289 0.30993667011010378 0 -0.38861679176556979 0.29972801429069262 0 -0.40008551487724092 0.316718943225203 0 -0.40076827369315782 0.30324555847724849 0 -0.39171239750559289 0.30993667011010378 0 -0.38861679176556979 0.29972801429069262 0 -0.38036730211669201 0.30923322958644472 0 -0.37258121499797048 0.28955633607748982 0 -0.39171239750559289 0.30993667011010378 0 -0.38861679176556979 0.29972801429069262 0 -0.38036730211669201 0.30923322958644472 0 -0.39582919829632368 0.28544064053973522 0 -0.38623169342075198 0.27954834944792101 0 -0.37258121499797048 0.28955633607748982 0 -0.39582919829632368 0.28544064053973522 0 -0.37258121499797048 0.28955633607748982 0 -0.39582919829632368 0.28544064053973522 0 -0.38861679176556979 0.29972801429069262 0 -0.37258121499797048 0.28955633607748982 0 -0.38623169342075198 0.27954834944792101 0 -0.37388689175314582 0.2822008841328485 0 -0.37258121499797048 0.28955633607748982 0 -0.37956544567642408 0.27700836581349381 0 -0.37854439823410713 0.25721846257136233 0 -0.37446053560602738 0.27936492828503512 0 -0.37956544567642408 0.27700836581349381 0 -0.37446053560602738 0.27936492828503512 0 -0.37388689175314582 0.2822008841328485 0 -0.37956544567642408 0.27700836581349381 0 -0.38623169342075198 0.27954834944792101 0 -0.37388689175314582 0.2822008841328485 0 -0.37956544567642408 0.27700836581349381 0 -0.37854439823410713 0.25721846257136233 0 -0.39228567590114161 0.26537687840303231 0 -0.37956544567642408 0.27700836581349381 0 -0.37388689175314582 0.2822008841328485 0 -0.37854439823410713 0.25721846257136233 0 -0.37446053560602738 0.27936492828503512 0 -0.37956544567642408 0.27700836581349381 0 -0.37446053560602738 0.27936492828503512 0 -0.37956544567642408 0.27700836581349381 0 -0.39466404210897682 0.27003845150836597 0 -0.37956544567642408 0.27700836581349381 0 -0.38623169342075198 0.27954834944792101 0 -0.39466404210897682 0.27003845150836597 0 -0.37956544567642408 0.27700836581349381 0 -0.39228567590114161 0.26537687840303231 0 -0.39466404210897682 0.27003845150836597 0 -0.37956544567642408 0.27700836581349381 0 -0.39228567590114161 0.26537687840303231 0 -0.39055515001529401 0.24883944245046349 0 -0.37854439823410713 0.25721846257136233 0 -0.39228567590114161 0.26537687840303231 0 -0.39055515001529401 0.24883944245046349 0 -0.39228567590114161 0.26537687840303231 0 -0.40500590612585757 0.25374539099256938 0 -0.40976263854152972 0.26306853720323847 0 -0.39228567590114161 0.26537687840303231 0 -0.40500590612585757 0.25374539099256938 0 -0.39228567590114161 0.26537687840303231 0 -0.40500590612585757 0.25374539099256938 0 -0.40976263854152972 0.26306853720323847 0 -0.39466404210897682 0.27003845150836597 0 -0.40976263854152972 0.26306853720323847 0 -0.4048332651353771 0.27496814356333332 0 -0.39466404210897682 0.27003845150836597 0 -0.40976263854152972 0.26306853720323847 0 -0.39228567590114161 0.26537687840303231 0 -0.39466404210897682 0.27003845150836597 0 -0.39582919829632368 0.28544064053973522 0 -0.4048332651353771 0.27496814356333332 0 -0.39466404210897682 0.27003845150836597 0 -0.39582919829632368 0.28544064053973522 0 -0.38623169342075198 0.27954834944792101 0 -0.39466404210897682 0.27003845150836597 0 -0.35376510334227462 0.2788378370136107 0 -0.34720703070558351 0.26929897502718908 0 -0.36217749120586612 0.26724463669272269 0 -0.34591407613091529 0.27811150765073961 0 -0.34720703070558351 0.26929897502718908 0 -0.33866698758971159 0.27767964397491729 0 -0.35376510334227462 0.2788378370136107 0 -0.34591407613091529 0.27811150765073961 0 -0.34401718288609162 0.28662957458724098 0 -0.35376510334227462 0.2788378370136107 0 -0.34591407613091529 0.27811150765073961 0 -0.34720703070558351 0.26929897502718908 0 -0.34720703070558351 0.26929897502718908 0 -0.36217749120586612 0.26724463669272269 0 -0.34036057209867399 0.25017915505989352 0 -0.36217749120586612 0.26724463669272269 0 -0.34036057209867399 0.25017915505989352 0 -0.34989489909296101 0.25100314627216369 0 -0.36217749120586612 0.26724463669272269 0 -0.34036057209867399 0.25017915505989352 0 -0.34989489909296101 0.25100314627216369 0 -0.36336612378465621 0.25358064875581338 0 -0.36217749120586612 0.26724463669272269 0 -0.37854439823410713 0.25721846257136233 0 -0.36336612378465621 0.25358064875581338 0 -0.36217749120586612 0.26724463669272269 0 -0.37078201995590132 0.24581343246118609 0 -0.37854439823410713 0.25721846257136233 0 -0.36336612378465621 0.25358064875581338 0 -0.35376510334227462 0.2788378370136107 0 -0.36217749120586612 0.26724463669272269 0 -0.37446053560602738 0.27936492828503512 0 -0.37854439823410713 0.25721846257136233 0 -0.36217749120586612 0.26724463669272269 0 -0.37446053560602738 0.27936492828503512 0 -0.37446053560602738 0.27936492828503512 0 -0.37388689175314582 0.2822008841328485 0 -0.37388689175314582 0.2822008841328485 0 -0.37258121499797048 0.28955633607748982 0 -0.36384291333833918 0.29110331710747089 0 -0.37446053560602738 0.27936492828503512 0 -0.36384291333833918 0.29110331710747089 0 -0.34781173286551509 0.29166672549283879 0 -0.37446053560602738 0.27936492828503512 0 -0.34781173286551509 0.29166672549283879 0 -0.37446053560602738 0.27936492828503512 0 -0.37388689175314582 0.2822008841328485 0 -0.36384291333833918 0.29110331710747089 0 -0.37388689175314582 0.2822008841328485 0 -0.37258121499797048 0.28955633607748982 0 -0.37258121499797048 0.28955633607748982 0 -0.36384291333833918 0.29110331710747089 0 -0.36384291333833918 0.29110331710747089 0 -0.36071756537627642 0.30879882976649392 0 -0.36834018418721021 0.31255511247981083 0 -0.37258121499797048 0.28955633607748982 0 -0.36384291333833918 0.29110331710747089 0 -0.36834018418721021 0.31255511247981083 0 -0.38036730211669201 0.30923322958644472 0 -0.37258121499797048 0.28955633607748982 0 -0.36834018418721021 0.31255511247981083 0 -0.37258121499797048 0.28955633607748982 0 -0.36834018418721021 0.31255511247981083 0 -0.38036730211669201 0.30923322958644472 0 -0.37201298923312492 0.31436500150164193 0 -0.36834018418721021 0.31255511247981083 0 -0.36071756537627642 0.30879882976649392 0 -0.36834018418721021 0.31255511247981083 0 -0.36384291333833918 0.29110331710747089 0 -0.36071756537627642 0.30879882976649392 0 -0.34781173286551509 0.29166672549283879 0 -0.36071756537627642 0.30879882976649392 0 -0.34781173286551509 0.29166672549283879 0 -0.33652478204295783 0.29687708265092749 0 -0.36071756537627642 0.30879882976649392 0 -0.33855201040882832 0.31060348800560028 0 -0.33652478204295783 0.29687708265092749 0 -0.36071756537627642 0.30879882976649392 0 -0.33652478204295783 0.29687708265092749 0 -0.36071756537627642 0.30879882976649392 0 -0.34781173286551509 0.29166672549283879 0 -0.35376510334227462 0.2788378370136107 0 -0.37446053560602738 0.27936492828503512 0 -0.34781173286551509 0.29166672549283879 0 -0.34781173286551509 0.29166672549283879 0 -0.34401718288609162 0.28662957458724098 0 -0.35376510334227462 0.2788378370136107 0 -0.34781173286551509 0.29166672549283879 0 -0.34401718288609162 0.28662957458724098 0 -0.33652478204295783 0.29687708265092749 0 -0.33256651446871183 0.29870432440233552 0 -0.31643795825089011 0.2869786749189811 0 -0.34401718288609162 0.28662957458724098 0 -0.33792037189204638 0.2880823587369134 0 -0.33866698758971159 0.27767964397491729 0 -0.34781173286551509 0.29166672549283879 0 -0.34401718288609162 0.28662957458724098 0 -0.33792037189204638 0.2880823587369134 0 -0.34781173286551509 0.29166672549283879 0 -0.33652478204295783 0.29687708265092749 0 -0.34781173286551509 0.29166672549283879 0 -0.33792037189204638 0.2880823587369134 0 -0.33652478204295783 0.29687708265092749 0 -0.33792037189204638 0.2880823587369134 0 -0.33018890995475481 0.28374990321900811 0 -0.33652478204295783 0.29687708265092749 0 -0.33792037189204638 0.2880823587369134 0 -0.33018890995475481 0.28374990321900811 0 -0.33866698758971159 0.27767964397491729 0 -0.33855201040882832 0.31060348800560028 0 -0.33652478204295783 0.29687708265092749 0 -0.33256651446871183 0.29870432440233552 0 -0.33652478204295783 0.29687708265092749 0 -0.33256651446871183 0.29870432440233552 0 -0.33855201040882832 0.31060348800560028 0 -0.32582005946553999 0.30506367367950382 0 -0.32517590408882519 0.31442875956934929 0 -0.33855201040882832 0.31060348800560028 0 -0.33256651446871183 0.29870432440233552 0 -0.32582005946553999 0.30506367367950382 0 -0.32582005946553999 0.30506367367950382 0 -0.31168586343648819 0.30408805895238372 0 -0.32517590408882519 0.31442875956934929 0 -0.33256651446871183 0.29870432440233552 0 -0.32582005946553999 0.30506367367950382 0 -0.32112000492484649 0.29749373746785041 0 -0.32582005946553999 0.30506367367950382 0 -0.32112000492484649 0.29749373746785041 0 -0.31168586343648819 0.30408805895238372 0 -0.32112000492484649 0.29749373746785041 0 -0.31643795825089011 0.2869786749189811 0 -0.31168586343648819 0.30408805895238372 0 -0.33652478204295783 0.29687708265092749 0 -0.31643795825089011 0.2869786749189811 0 -0.33018890995475481 0.28374990321900811 0 -0.33652478204295783 0.29687708265092749 0 -0.31643795825089011 0.2869786749189811 0 -0.33256651446871183 0.29870432440233552 0 -0.32112000492484649 0.29749373746785041 0 -0.31643795825089011 0.2869786749189811 0 -0.33018890995475481 0.28374990321900811 0 -0.31643795825089011 0.2869786749189811 0 -0.32150202317671678 0.27623644789870261 0 -0.31643795825089011 0.2869786749189811 0 -0.32150202317671678 0.27623644789870261 0 -0.31195960136287282 0.26962291925888948 0 -0.32150202317671678 0.27623644789870261 0 -0.32136175601247208 0.26388073200316392 0 -0.31195960136287282 0.26962291925888948 0 -0.32150202317671678 0.27623644789870261 0 -0.33025331396849827 0.2696375314384109 0 -0.32136175601247208 0.26388073200316392 0 -0.33018890995475481 0.28374990321900811 0 -0.32150202317671678 0.27623644789870261 0 -0.33025331396849827 0.2696375314384109 0 -0.33018890995475481 0.28374990321900811 0 -0.33025331396849827 0.2696375314384109 0 -0.33866698758971159 0.27767964397491729 0 -0.33025331396849827 0.2696375314384109 0 -0.33866698758971159 0.27767964397491729 0 -0.33755054413503771 0.26429633844938788 0 -0.34720703070558351 0.26929897502718908 0 -0.33866698758971159 0.27767964397491729 0 -0.33755054413503771 0.26429633844938788 0 -0.34591407613091529 0.27811150765073961 0 -0.34401718288609162 0.28662957458724098 0 -0.33866698758971159 0.27767964397491729 0 -0.34720703070558351 0.26929897502718908 0 -0.34036057209867399 0.25017915505989352 0 -0.33755054413503771 0.26429633844938788 0 -0.33025331396849827 0.2696375314384109 0 -0.33755054413503771 0.26429633844938788 0 -0.32714872946648349 0.25575788971183272 0 -0.34036057209867399 0.25017915505989352 0 -0.33755054413503771 0.26429633844938788 0 -0.32714872946648349 0.25575788971183272 0 -0.32714872946648349 0.25575788971183272 0 -0.32136175601247208 0.26388073200316392 0 -0.3146771263887132 0.25412527527456191 0 -0.33025331396849827 0.2696375314384109 0 -0.32714872946648349 0.25575788971183272 0 -0.32136175601247208 0.26388073200316392 0 -0.32136175601247208 0.26388073200316392 0 -0.3146771263887132 0.25412527527456191 0 -0.31195960136287282 0.26962291925888948 0 -0.30326642638636181 0.246180840641613 0 -0.3146771263887132 0.25412527527456191 0 -0.30217922777833112 0.26042229248340337 0 -0.3146771263887132 0.25412527527456191 0 -0.30217922777833112 0.26042229248340337 0 -0.31195960136287282 0.26962291925888948 0 -0.30326642638636181 0.246180840641613 0 -0.30217922777833112 0.26042229248340337 0 -0.28798919978124021 0.25924800785615942 0 -0.30217922777833112 0.26042229248340337 0 -0.31195960136287282 0.26962291925888948 0 -0.29635113445882399 0.27708026718703171 0 -0.31643795825089011 0.2869786749189811 0 -0.31195960136287282 0.26962291925888948 0 -0.29635113445882399 0.27708026718703171 0 -0.29635113445882399 0.27708026718703171 0 -0.28798919978124021 0.25924800785615942 0 -0.27271197317612289 0.2723151750707109 0 -0.29635113445882399 0.27708026718703171 0 -0.27271197317612289 0.2723151750707109 0 -0.2870878225687607 0.29227142451820382 0 -0.30217922777833112 0.26042229248340337 0 -0.29635113445882399 0.27708026718703171 0 -0.28798919978124021 0.25924800785615942 0 -0.30326642638636181 0.246180840641613 0 -0.28798919978124021 0.25924800785615942 0 -0.2799566251425421 0.23770710518719329 0 -0.28798919978124021 0.25924800785615942 0 -0.2636384904259732 0.25971955861883939 0 -0.28798919978124021 0.25924800785615942 0 -0.27271197317612289 0.2723151750707109 0 -0.2636384904259732 0.25971955861883939 0 -0.28798919978124021 0.25924800785615942 0 -0.27271197317612289 0.2723151750707109 0 -0.27271197317612289 0.2723151750707109 0 -0.26321505039580179 0.28043823832044718 0 -0.2636384904259732 0.25971955861883939 0 -0.27271197317612289 0.2723151750707109 0 -0.26321505039580179 0.28043823832044718 0 -0.2713254725344702 0.28930206205472031 0 -0.27271197317612289 0.2723151750707109 0 -0.26321505039580179 0.28043823832044718 0 -0.27271197317612289 0.2723151750707109 0 -0.2636384904259732 0.25971955861883939 0 -0.25184004474946392 0.27563514826990748 0 -0.2636384904259732 0.25971955861883939 0 -0.26321505039580179 0.28043823832044718 0 -0.25184004474946392 0.27563514826990748 0 -0.2636384904259732 0.25971955861883939 0 -0.25184004474946392 0.27563514826990748 0 -0.2636384904259732 0.25971955861883939 0 -0.24338505276019021 0.2512427650456508 0 -0.25541758599954478 0.24830747332655551 0 -0.2636384904259732 0.25971955861883939 0 -0.24338505276019021 0.2512427650456508 0 -0.25541758599954478 0.24830747332655551 0 -0.2636384904259732 0.25971955861883939 0 -0.26378214128226979 0.31008771729646872 0 -0.25781109301586341 0.29286143278318932 0 -0.24755542725455071 0.30598585151241481 0 -0.26378214128226979 0.31008771729646872 0 -0.25781109301586341 0.29286143278318932 0 -0.26378214128226979 0.31008771729646872 0 -0.24755542725455071 0.30598585151241481 0 -0.26378214128226979 0.31008771729646872 0 -0.25781109301586341 0.29286143278318932 0 -0.27232503468516012 0.30079957346050262 0 -0.25184004474946392 0.27563514826990748 0 -0.25781109301586341 0.29286143278318932 0 -0.26321505039580179 0.28043823832044718 0 -0.25184004474946392 0.27563514826990748 0 -0.25781109301586341 0.29286143278318932 0 -0.25184004474946392 0.27563514826990748 0 -0.25781109301586341 0.29286143278318932 0 -0.24707134328444269 0.28966663642370971 0 -0.25781109301586341 0.29286143278318932 0 -0.24707134328444269 0.28966663642370971 0 -0.24755542725455071 0.30598585151241481 0 -0.26321505039580179 0.28043823832044718 0 -0.25781109301586341 0.29286143278318932 0 -0.2713254725344702 0.28930206205472031 0 -0.27271197317612289 0.2723151750707109 0 -0.2713254725344702 0.28930206205472031 0 -0.2870878225687607 0.29227142451820382 0 -0.25781109301586341 0.29286143278318932 0 -0.2713254725344702 0.28930206205472031 0 -0.27232503468516012 0.30079957346050262 0 -0.27271197317612289 0.2723151750707109 0 -0.2870878225687607 0.29227142451820382 0 -0.2713254725344702 0.28930206205472031 0 -0.27232503468516012 0.30079957346050262 0 -0.2870878225687607 0.29227142451820382 0 -0.27232503468516012 0.30079957346050262 0 -0.2870878225687607 0.29227142451820382 0 -0.27910289682756961 0.31396057059564642 0 -0.26378214128226979 0.31008771729646872 0 -0.27232503468516012 0.30079957346050262 0 -0.27910289682756961 0.31396057059564642 0 -0.26378214128226979 0.31008771729646872 0 -0.27910289682756961 0.31396057059564642 0 -0.2870878225687607 0.29227142451820382 0 -0.30146367196139823 0.31222767396569662 0 -0.30061834607446419 0.3002089775617226 0 -0.2870878225687607 0.29227142451820382 0 -0.30146367196139823 0.31222767396569662 0 -0.2870878225687607 0.29227142451820382 0 -0.2944236523728696 0.31783342389482339 0 -0.27910289682756961 0.31396057059564642 0 -0.2870878225687607 0.29227142451820382 0 -0.30146367196139823 0.31222767396569662 0 -0.2944236523728696 0.31783342389482339 0 -0.2870878225687607 0.29227142451820382 0 -0.30223602633121027 0.29224875281060619 0 -0.30061834607446419 0.3002089775617226 0 -0.29635113445882399 0.27708026718703171 0 -0.2870878225687607 0.29227142451820382 0 -0.30223602633121027 0.29224875281060619 0 -0.31643795825089011 0.2869786749189811 0 -0.29635113445882399 0.27708026718703171 0 -0.31643795825089011 0.2869786749189811 0 -0.30223602633121027 0.29224875281060619 0 -0.31168586343648819 0.30408805895238372 0 -0.31643795825089011 0.2869786749189811 0 -0.29635113445882399 0.27708026718703171 0 -0.30223602633121027 0.29224875281060619 0 -0.30146367196139823 0.31222767396569662 0 -0.30061834607446419 0.3002089775617226 0 -0.31168586343648819 0.30408805895238372 0 -0.30223602633121027 0.29224875281060619 0 -0.30061834607446419 0.3002089775617226 0 -0.31168586343648819 0.30408805895238372 0 -0.30146367196139823 0.31222767396569662 0 -0.31168586343648819 0.30408805895238372 0 -0.30146367196139823 0.31222767396569662 0 -0.31168586343648819 0.30408805895238372 0 -0.30796833827232051 0.3212573138796907 0 -0.30146367196139823 0.31222767396569662 0 -0.30796833827232051 0.3212573138796907 0 -0.30796833827232051 0.3212573138796907 0 -0.29526624734337731 0.33037810690054331 0 -0.2944236523728696 0.31783342389482339 0 -0.30146367196139823 0.31222767396569662 0 -0.30796833827232051 0.3212573138796907 0 -0.2944236523728696 0.31783342389482339 0 -0.30796833827232051 0.3212573138796907 0 -0.2944236523728696 0.31783342389482339 0 -0.30146367196139823 0.31222767396569662 0 -0.2944236523728696 0.31783342389482339 0 -0.30796833827232051 0.3212573138796907 0 -0.30601439834957289 0.33602243128278808 0 -0.32133308448475872 0.33980997132159502 0 -0.30601439834957289 0.33602243128278808 0 -0.30806961983531678 0.34833765359770102 0 -0.32133308448475872 0.33980997132159502 0 -0.30796833827232051 0.3212573138796907 0 -0.30601439834957289 0.33602243128278808 0 -0.29526624734337731 0.33037810690054331 0 -0.30601439834957289 0.33602243128278808 0 -0.29541069820075277 0.34149808184634101 0 -0.30806961983531678 0.34833765359770102 0 -0.30601439834957289 0.33602243128278808 0 -0.29541069820075277 0.34149808184634101 0 -0.29526624734337731 0.33037810690054331 0 -0.29541069820075277 0.34149808184634101 0 -0.29526624734337731 0.33037810690054331 0 -0.27251414952137082 0.33527928359907672 0 -0.2944236523728696 0.31783342389482339 0 -0.27910289682756961 0.31396057059564642 0 -0.27251414952137082 0.33527928359907672 0 -0.29526624734337731 0.33037810690054331 0 -0.2944236523728696 0.31783342389482339 0 -0.27251414952137082 0.33527928359907672 0 -0.2944236523728696 0.31783342389482339 0 -0.27251414952137082 0.33527928359907672 0 -0.2944236523728696 0.31783342389482339 0 -0.27910289682756961 0.31396057059564642 0 -0.26378214128226979 0.31008771729646872 0 -0.27910289682756961 0.31396057059564642 0 -0.27251414952137082 0.33527928359907672 0 -0.26378214128226979 0.31008771729646872 0 -0.27251414952137082 0.33527928359907672 0 -0.27251414952137082 0.33527928359907672 0 -0.25150935396912888 0.32630300467706058 0 -0.25081067524157202 0.35256108912185141 0 -0.26378214128226979 0.31008771729646872 0 -0.27251414952137082 0.33527928359907672 0 -0.25150935396912888 0.32630300467706058 0 -0.26378214128226979 0.31008771729646872 0 -0.25150935396912888 0.32630300467706058 0 -0.24755542725455071 0.30598585151241481 0 -0.26558713847812748 0.37381560635463829 0 -0.25081067524157202 0.35256108912185141 0 -0.2480546724397408 0.37115926237380031 0 -0.27251414952137082 0.33527928359907672 0 -0.25081067524157202 0.35256108912185141 0 -0.27251414952137082 0.33527928359907672 0 -0.25081067524157202 0.35256108912185141 0 -0.28127773455105809 0.36056194793911439 0 -0.27251414952137082 0.33527928359907672 0 -0.28127773455105809 0.36056194793911439 0 -0.26558713847812748 0.37381560635463829 0 -0.25081067524157202 0.35256108912185141 0 -0.28127773455105809 0.36056194793911439 0 -0.26558713847812748 0.37381560635463829 0 -0.28127773455105809 0.36056194793911439 0 -0.29004131958074192 0.38584461227915329 0 -0.28127773455105809 0.36056194793911439 0 -0.30446893160160682 0.36221483421293471 0 -0.29965293341540239 0.37549375058018208 0 -0.28127773455105809 0.36056194793911439 0 -0.29004131958074192 0.38584461227915329 0 -0.28127773455105809 0.36056194793911439 0 -0.29965293341540239 0.37549375058018208 0 -0.29004131958074192 0.38584461227915329 0 -0.28127773455105809 0.36056194793911439 0 -0.2973067460471836 0.35315312939902271 0 -0.30446893160160682 0.36221483421293471 0 -0.29541069820075277 0.34149808184634101 0 -0.27251414952137082 0.33527928359907672 0 -0.28127773455105809 0.36056194793911439 0 -0.29541069820075277 0.34149808184634101 0 -0.28127773455105809 0.36056194793911439 0 -0.2973067460471836 0.35315312939902271 0 -0.29541069820075277 0.34149808184634101 0 -0.2973067460471836 0.35315312939902271 0 -0.30806961983531678 0.34833765359770102 0 -0.2973067460471836 0.35315312939902271 0 -0.30806961983531678 0.34833765359770102 0 -0.30446893160160682 0.36221483421293471 0 -0.30806961983531678 0.34833765359770102 0 -0.30446893160160682 0.36221483421293471 0 -0.31958338114940438 0.36028873148821461 0 -0.30446893160160682 0.36221483421293471 0 -0.31958338114940438 0.36028873148821461 0 -0.30446893160160682 0.36221483421293471 0 -0.31376390798865877 0.37563677908924248 0 -0.29965293341540239 0.37549375058018208 0 -0.30446893160160682 0.36221483421293471 0 -0.31958338114940438 0.36028873148821461 0 -0.31376390798865877 0.37563677908924248 0 -0.31958338114940438 0.36028873148821461 0 -0.32883348760874809 0.37270412238666389 0 -0.33469783069720221 0.35836262876349539 0 -0.31958338114940438 0.36028873148821461 0 -0.32883348760874809 0.37270412238666389 0 -0.31376390798865877 0.37563677908924248 0 -0.32883348760874809 0.37270412238666389 0 -0.33469783069720221 0.35836262876349539 0 -0.34472795190970312 0.37228623045396558 0 -0.33469783069720221 0.35836262876349539 0 -0.34472795190970312 0.37228623045396558 0 -0.33469783069720221 0.35836262876349539 0 -0.32133308448475872 0.33980997132159502 0 -0.34739844239535911 0.3425133571479731 0 -0.30806961983531678 0.34833765359770102 0 -0.31958338114940438 0.36028873148821461 0 -0.32133308448475872 0.33980997132159502 0 -0.31958338114940438 0.36028873148821461 0 -0.33469783069720221 0.35836262876349539 0 -0.32133308448475872 0.33980997132159502 0 -0.33469783069720221 0.35836262876349539 0 -0.32133308448475872 0.33980997132159502 0 -0.31958338114940438 0.36028873148821461 0 -0.33469783069720221 0.35836262876349539 0 -0.30796833827232051 0.3212573138796907 0 -0.32133308448475872 0.33980997132159502 0 -0.33604322139992249 0.32835421608031962 0 -0.30796833827232051 0.3212573138796907 0 -0.32133308448475872 0.33980997132159502 0 -0.30796833827232051 0.3212573138796907 0 -0.33604322139992249 0.32835421608031962 0 -0.31168586343648819 0.30408805895238372 0 -0.30796833827232051 0.3212573138796907 0 -0.32517590408882519 0.31442875956934929 0 -0.30796833827232051 0.3212573138796907 0 -0.32517590408882519 0.31442875956934929 0 -0.33604322139992249 0.32835421608031962 0 -0.33855201040882832 0.31060348800560028 0 -0.32517590408882519 0.31442875956934929 0 -0.33604322139992249 0.32835421608031962 0 -0.33855201040882832 0.31060348800560028 0 -0.33604322139992249 0.32835421608031962 0 -0.35319150088181522 0.32062380914620647 0 -0.32133308448475872 0.33980997132159502 0 -0.33604322139992249 0.32835421608031962 0 -0.34739844239535911 0.3425133571479731 0 -0.33604322139992249 0.32835421608031962 0 -0.34739844239535911 0.3425133571479731 0 -0.3641181045275268 0.33545111828093888 0 -0.33604322139992249 0.32835421608031962 0 -0.3641181045275268 0.33545111828093888 0 -0.33604322139992249 0.32835421608031962 0 -0.35319150088181522 0.32062380914620647 0 -0.3641181045275268 0.33545111828093888 0 -0.36071756537627642 0.30879882976649392 0 -0.33855201040882832 0.31060348800560028 0 -0.35319150088181522 0.32062380914620647 0 -0.36739764409551767 0.31766643323788191 0 -0.3641181045275268 0.33545111828093888 0 -0.35319150088181522 0.32062380914620647 0 -0.36739764409551767 0.31766643323788191 0 -0.3641181045275268 0.33545111828093888 0 -0.36071756537627642 0.30879882976649392 0 -0.36739764409551767 0.31766643323788191 0 -0.36071756537627642 0.30879882976649392 0 -0.36739764409551767 0.31766643323788191 0 -0.36834018418721021 0.31255511247981083 0 -0.36071756537627642 0.30879882976649392 0 -0.35319150088181522 0.32062380914620647 0 -0.36739764409551767 0.31766643323788191 0 -0.3789799740766982 0.31700090293891692 0 -0.36739764409551767 0.31766643323788191 0 -0.37201298923312492 0.31436500150164193 0 -0.36739764409551767 0.31766643323788191 0 -0.36834018418721021 0.31255511247981083 0 -0.37201298923312492 0.31436500150164193 0 -0.36834018418721021 0.31255511247981083 0 -0.36739764409551767 0.31766643323788191 0 -0.37201298923312492 0.31436500150164193 0 -0.36834018418721021 0.31255511247981083 0 -0.38471778892273689 0.34065840426865301 0 -0.3641181045275268 0.33545111828093888 0 -0.36981540343905073 0.34664709977874592 0 -0.38471778892273689 0.34065840426865301 0 -0.3641181045275268 0.33545111828093888 0 -0.38471778892273689 0.34065840426865301 0 -0.36739764409551767 0.31766643323788191 0 -0.3641181045275268 0.33545111828093888 0 -0.3641181045275268 0.33545111828093888 0 -0.36049948502015888 0.35507460715631661 0 -0.38094717128672573 0.35246886593446941 0 -0.36981540343905073 0.34664709977874592 0 -0.36049948502015888 0.35507460715631661 0 -0.38094717128672573 0.35246886593446941 0 -0.36049948502015888 0.35507460715631661 0 -0.38094717128672573 0.35246886593446941 0 -0.36049948502015888 0.35507460715631661 0 -0.37181299918487631 0.36866137828311552 0 -0.3641181045275268 0.33545111828093888 0 -0.36981540343905073 0.34664709977874592 0 -0.36049948502015888 0.35507460715631661 0 -0.37181299918487631 0.36866137828311552 0 -0.35762877907118451 0.37064221965037503 0 -0.36641101093304501 0.38052818063815202 0 -0.36049948502015888 0.35507460715631661 0 -0.37181299918487631 0.36866137828311552 0 -0.35762877907118451 0.37064221965037503 0 -0.36049948502015888 0.35507460715631661 0 -0.35762877907118451 0.37064221965037503 0 -0.34472795190970312 0.37228623045396558 0 -0.33469783069720221 0.35836262876349539 0 -0.36049948502015888 0.35507460715631661 0 -0.34472795190970312 0.37228623045396558 0 -0.36049948502015888 0.35507460715631661 0 -0.35762877907118451 0.37064221965037503 0 -0.33469783069720221 0.35836262876349539 0 -0.36049948502015888 0.35507460715631661 0 -0.33469783069720221 0.35836262876349539 0 -0.34739844239535911 0.3425133571479731 0 -0.36049948502015888 0.35507460715631661 0 -0.34739844239535911 0.3425133571479731 0 -0.3641181045275268 0.33545111828093888 0 -0.36049948502015888 0.35507460715631661 0 -0.35226116924585499 0.39975034540940241 0 -0.35475807312220781 0.38620983214443311 0 -0.35226116924585499 0.39975034540940241 0 -0.34986759722736249 0.3895426107887488 0 -0.35475807312220781 0.38620983214443311 0 -0.35226116924585499 0.39975034540940241 0 -0.34986759722736249 0.3895426107887488 0 -0.33700423851925559 0.39649732904706347 0 -0.35226116924585499 0.39975034540940241 0 -0.34986759722736249 0.3895426107887488 0 -0.34472795190970312 0.37228623045396558 0 -0.34986759722736249 0.3895426107887488 0 -0.33671449047893282 0.38391511960929497 0 -0.34472795190970312 0.37228623045396558 0 -0.34986759722736249 0.3895426107887488 0 -0.35475807312220781 0.38620983214443311 0 -0.34472795190970312 0.37228623045396558 0 -0.35475807312220781 0.38620983214443311 0 -0.35762877907118451 0.37064221965037503 0 -0.35475807312220781 0.38620983214443311 0 -0.35762877907118451 0.37064221965037503 0 -0.34472795190970312 0.37228623045396558 0 -0.35475807312220781 0.38620983214443311 0 -0.35475807312220781 0.38620983214443311 0 -0.36641101093304501 0.38052818063815202 0 -0.37150512957606591 0.39095904218024619 0 -0.35762877907118451 0.37064221965037503 0 -0.35475807312220781 0.38620983214443311 0 -0.36641101093304501 0.38052818063815202 0 -0.37825311405019779 0.38249388649354787 0 -0.37181299918487631 0.36866137828311552 0 -0.36641101093304501 0.38052818063815202 0 -0.37825311405019779 0.38249388649354787 0 -0.36641101093304501 0.38052818063815202 0 -0.37150512957606591 0.39095904218024619 0 -0.35226116924585499 0.39975034540940241 0 -0.35475807312220781 0.38620983214443311 0 -0.37147918536255192 0.40942172577200869 0 -0.35475807312220781 0.38620983214443311 0 -0.37147918536255192 0.40942172577200869 0 -0.35475807312220781 0.38620983214443311 0 -0.37150512957606591 0.39095904218024619 0 -0.37147918536255192 0.40942172577200869 0 -0.35226116924585499 0.39975034540940241 0 -0.37147918536255192 0.40942172577200869 0 -0.35795835204595011 0.42404680679000611 0 -0.37156533459105412 0.43367234415356171 0 -0.35795835204595011 0.42404680679000611 0 -0.36365553484605262 0.44834326817060799 0 -0.37147918536255192 0.40942172577200869 0 -0.37156533459105412 0.43367234415356171 0 -0.35795835204595011 0.42404680679000611 0 -0.35795835204595011 0.42404680679000611 0 -0.36365553484605262 0.44834326817060799 0 -0.34703036928684777 0.42811656202764647 0 -0.35795835204595011 0.42404680679000611 0 -0.36365553484605262 0.44834326817060799 0 -0.35226116924585499 0.39975034540940241 0 -0.34703036928684777 0.42811656202764647 0 -0.35226116924585499 0.39975034540940241 0 -0.34703036928684777 0.42811656202764647 0 -0.35795835204595011 0.42404680679000611 0 -0.35226116924585499 0.39975034540940241 0 -0.34703036928684777 0.42811656202764647 0 -0.33460065715142362 0.41338100170771941 0 -0.35226116924585499 0.39975034540940241 0 -0.35795835204595011 0.42404680679000611 0 -0.34703036928684777 0.42811656202764647 0 -0.32429072454512942 0.43023794992874781 0 -0.32468402948396868 0.44644635980256298 0 -0.34703036928684777 0.42811656202764647 0 -0.33460065715142362 0.41338100170771941 0 -0.32429072454512942 0.43023794992874781 0 -0.32429072454512942 0.43023794992874781 0 -0.32047979403029953 0.41793885952453352 0 -0.30756848964011108 0.43640994095923052 0 -0.33460065715142362 0.41338100170771941 0 -0.32429072454512942 0.43023794992874781 0 -0.32047979403029953 0.41793885952453352 0 -0.32047979403029953 0.41793885952453352 0 -0.32175136786347341 0.40300179943405651 0 -0.29880490461042558 0.41112727661919218 0 -0.33460065715142362 0.41338100170771941 0 -0.32047979403029953 0.41793885952453352 0 -0.32175136786347341 0.40300179943405651 0 -0.32175136786347341 0.40300179943405651 0 -0.32377569084731839 0.38801965307185848 0 -0.30718786431747802 0.39288945982576212 0 -0.32175136786347341 0.40300179943405651 0 -0.33700423851925559 0.39649732904706347 0 -0.32377569084731839 0.38801965307185848 0 -0.35226116924585499 0.39975034540940241 0 -0.33460065715142362 0.41338100170771941 0 -0.33700423851925559 0.39649732904706347 0 -0.33460065715142362 0.41338100170771941 0 -0.32175136786347341 0.40300179943405651 0 -0.33700423851925559 0.39649732904706347 0 -0.32883348760874809 0.37270412238666389 0 -0.34472795190970312 0.37228623045396558 0 -0.33671449047893282 0.38391511960929497 0 -0.34986759722736249 0.3895426107887488 0 -0.33700423851925559 0.39649732904706347 0 -0.33671449047893282 0.38391511960929497 0 -0.33700423851925559 0.39649732904706347 0 -0.33671449047893282 0.38391511960929497 0 -0.32377569084731839 0.38801965307185848 0 -0.32883348760874809 0.37270412238666389 0 -0.33671449047893282 0.38391511960929497 0 -0.32377569084731839 0.38801965307185848 0 -0.32883348760874809 0.37270412238666389 0 -0.32377569084731839 0.38801965307185848 0 -0.31376390798865877 0.37563677908924248 0 -0.32377569084731839 0.38801965307185848 0 -0.31376390798865877 0.37563677908924248 0 -0.30718786431747802 0.39288945982576212 0 -0.29965293341540239 0.37549375058018208 0 -0.30718786431747802 0.39288945982576212 0 -0.29004131958074192 0.38584461227915329 0 -0.31376390798865877 0.37563677908924248 0 -0.29965293341540239 0.37549375058018208 0 -0.30718786431747802 0.39288945982576212 0 -0.32175136786347341 0.40300179943405651 0 -0.30718786431747802 0.39288945982576212 0 -0.29880490461042558 0.41112727661919218 0 -0.30718786431747802 0.39288945982576212 0 -0.29004131958074192 0.38584461227915329 0 -0.29880490461042558 0.41112727661919218 0 -0.28246164030540749 0.40445576446377929 0 -0.29004131958074192 0.38584461227915329 0 -0.29880490461042558 0.41112727661919218 0 -0.29004131958074192 0.38584461227915329 0 -0.29880490461042558 0.41112727661919218 0 -0.26558713847812748 0.37381560635463829 0 -0.29004131958074192 0.38584461227915329 0 -0.26990595781985532 0.39115324257370382 0 -0.28246164030540749 0.40445576446377929 0 -0.29004131958074192 0.38584461227915329 0 -0.26990595781985532 0.39115324257370382 0 -0.28246164030540749 0.40445576446377929 0 -0.26745886824147508 0.40295354508644349 0 -0.26990595781985532 0.39115324257370382 0 -0.26745886824147508 0.40295354508644349 0 -0.26990595781985532 0.39115324257370382 0 -0.25796391924935858 0.39800706273040232 0 -0.26990595781985532 0.39115324257370382 0 -0.25796391924935858 0.39800706273040232 0 -0.25158981473514702 0.38430681601032102 0 -0.25796391924935858 0.39800706273040232 0 -0.25158981473514702 0.38430681601032102 0 -0.2465337738171213 0.4064297105025968 0 -0.26745886824147508 0.40295354508644349 0 -0.25796391924935858 0.39800706273040232 0 -0.25433118163319451 0.40519199947894607 0 -0.25796391924935858 0.39800706273040232 0 -0.25433118163319451 0.40519199947894607 0 -0.2465337738171213 0.4064297105025968 0 -0.26558713847812748 0.37381560635463829 0 -0.26990595781985532 0.39115324257370382 0 -0.25158981473514702 0.38430681601032102 0 -0.26558713847812748 0.37381560635463829 0 -0.25158981473514702 0.38430681601032102 0 -0.2480546724397408 0.37115926237380031 0 -0.25259824932708658 0.41945491575618221 0 -0.27409320698459932 0.4346651173971911 0 -0.25333115244358229 0.44040945367818302 0 -0.25433118163319451 0.40519199947894607 0 -0.25259824932708658 0.41945491575618221 0 -0.27207695096883361 0.4155979799723738 0 -0.26745886824147508 0.40295354508644349 0 -0.25433118163319451 0.40519199947894607 0 -0.27207695096883361 0.4155979799723738 0 -0.25433118163319451 0.40519199947894607 0 -0.27207695096883361 0.4155979799723738 0 -0.25433118163319451 0.40519199947894607 0 -0.25259824932708658 0.41945491575618221 0 -0.2465337738171213 0.4064297105025968 0 -0.27207695096883361 0.4155979799723738 0 -0.28982272030447259 0.42600396046580158 0 -0.28246164030540749 0.40445576446377929 0 -0.26745886824147508 0.40295354508644349 0 -0.27207695096883361 0.4155979799723738 0 -0.27207695096883361 0.4155979799723738 0 -0.27409320698459932 0.4346651173971911 0 -0.28982272030447259 0.42600396046580158 0 -0.25259824932708658 0.41945491575618221 0 -0.27207695096883361 0.4155979799723738 0 -0.27409320698459932 0.4346651173971911 0 -0.27409320698459932 0.4346651173971911 0 -0.28982272030447259 0.42600396046580158 0 -0.29426010315065432 0.43769240885989441 0 -0.28246164030540749 0.40445576446377929 0 -0.27207695096883361 0.4155979799723738 0 -0.28982272030447259 0.42600396046580158 0 -0.28246164030540749 0.40445576446377929 0 -0.28982272030447259 0.42600396046580158 0 -0.29880490461042558 0.41112727661919218 0 -0.32047979403029953 0.41793885952453352 0 -0.29880490461042558 0.41112727661919218 0 -0.30756848964011108 0.43640994095923052 0 -0.28982272030447259 0.42600396046580158 0 -0.30756848964011108 0.43640994095923052 0 -0.28982272030447259 0.42600396046580158 0 -0.29880490461042558 0.41112727661919218 0 -0.30756848964011108 0.43640994095923052 0 -0.29880490461042558 0.41112727661919218 0 -0.30756848964011108 0.43640994095923052 0 -0.28982272030447259 0.42600396046580158 0 -0.30756848964011108 0.43640994095923052 0 -0.29426010315065432 0.43769240885989441 0 -0.30756848964011108 0.43640994095923052 0 -0.31491577553729372 0.45760662730615598 0 -0.30070282520561192 0.44504825281554489 0 -0.31062110137050458 0.45629003579658739 0 -0.28969900316653202 0.45006303123283598 0 -0.30756848964011108 0.43640994095923052 0 -0.31062110137050458 0.45629003579658739 0 -0.31491577553729372 0.45760662730615598 0 -0.30756848964011108 0.43640994095923052 0 -0.30070282520561192 0.44504825281554489 0 -0.31062110137050458 0.45629003579658739 0 -0.30756848964011108 0.43640994095923052 0 -0.30070282520561192 0.44504825281554489 0 -0.29426010315065432 0.43769240885989441 0 -0.31062110137050458 0.45629003579658739 0 -0.28969900316653202 0.45006303123283598 0 -0.29063924486405129 0.47039710747135199 0 -0.31062110137050458 0.45629003579658739 0 -0.29063924486405129 0.47039710747135199 0 -0.30700648351556892 0.47106561290792709 0 -0.31062110137050458 0.45629003579658739 0 -0.29063924486405129 0.47039710747135199 0 -0.31062110137050458 0.45629003579658739 0 -0.30700648351556892 0.47106561290792709 0 -0.31491577553729372 0.45760662730615598 0 -0.28969900316653202 0.45006303123283598 0 -0.27241650689153979 0.46863659627809778 0 -0.29063924486405129 0.47039710747135199 0 -0.27409320698459932 0.4346651173971911 0 -0.29426010315065432 0.43769240885989441 0 -0.28969900316653202 0.45006303123283598 0 -0.30070282520561192 0.44504825281554489 0 -0.29426010315065432 0.43769240885989441 0 -0.28969900316653202 0.45006303123283598 0 -0.27409320698459932 0.4346651173971911 0 -0.28969900316653202 0.45006303123283598 0 -0.26554679583095442 0.45277415297600621 0 -0.28969900316653202 0.45006303123283598 0 -0.27241650689153979 0.46863659627809778 0 -0.26554679583095442 0.45277415297600621 0 -0.27241650689153979 0.46863659627809778 0 -0.2569211326107973 0.46479367291306029 0 -0.26554679583095442 0.45277415297600621 0 -0.2569211326107973 0.46479367291306029 0 -0.26554679583095442 0.45277415297600621 0 -0.24984923763868849 0.45633443145769798 0 -0.27409320698459932 0.4346651173971911 0 -0.26554679583095442 0.45277415297600621 0 -0.25333115244358229 0.44040945367818302 0 -0.26554679583095442 0.45277415297600621 0 -0.25333115244358229 0.44040945367818302 0 -0.24984923763868849 0.45633443145769798 0 -0.25381414164408989 0.479486243032479 0 -0.27065738835759767 0.48450417914611621 0 -0.24870844842941681 0.49999999999999878 0 -0.27065738835759767 0.48450417914611621 0 -0.24870844842941681 0.49999999999999878 0 -0.2733153257480897 0.5 0 -0.27065738835759767 0.48450417914611621 0 -0.24870844842941681 0.49999999999999878 0 -0.25381414164408989 0.479486243032479 0 -0.27065738835759767 0.48450417914611621 0 -0.27241650689153979 0.46863659627809778 0 -0.2569211326107973 0.46479367291306029 0 -0.25381414164408989 0.479486243032479 0 -0.2569211326107973 0.46479367291306029 0 -0.25381414164408989 0.479486243032479 0 -0.24263633984611299 0.46942721424246181 0 -0.27241650689153979 0.46863659627809778 0 -0.27065738835759767 0.48450417914611621 0 -0.29063924486405129 0.47039710747135199 0 -0.27065738835759767 0.48450417914611621 0 -0.29063924486405129 0.47039710747135199 0 -0.27241650689153979 0.46863659627809778 0 -0.25381414164408989 0.479486243032479 0 -0.27065738835759767 0.48450417914611621 0 -0.2733153257480897 0.5 0 -0.27065738835759767 0.48450417914611621 0 -0.29659323437151691 0.49223098031245899 0 -0.27065738835759767 0.48450417914611621 0 -0.29659323437151691 0.49223098031245899 0 -0.2733153257480897 0.5 0 -0.29659323437151691 0.49223098031245899 0 -0.29792220306676259 0.5 0 -0.27065738835759767 0.48450417914611621 0 -0.29659323437151691 0.49223098031245899 0 -0.29063924486405129 0.47039710747135199 0 -0.29659323437151691 0.49223098031245899 0 -0.29063924486405129 0.47039710747135199 0 -0.30700648351556892 0.47106561290792709 0 -0.29659323437151691 0.49223098031245899 0 -0.30700648351556892 0.47106561290792709 0 -0.32226306143447803 0.47880331365308099 0 -0.29659323437151691 0.49223098031245899 0 -0.3225290803854356 0.49995778147880282 0 -0.29659323437151691 0.49223098031245899 0 -0.29792220306676259 0.5 0 -0.3225290803854356 0.49995778147880282 0 -0.3225290803854356 0.49995778147880282 0 -0.32961034733166411 0.50000000000000544 0 -0.32226306143447803 0.47880331365308099 0 -0.32961034733166411 0.50000000000000544 0 -0.32226306143447803 0.47880331365308099 0 -0.29659323437151691 0.49223098031245899 0 -0.3225290803854356 0.49995778147880282 0 -0.32226306143447803 0.47880331365308099 0 -0.33377488691286711 0.50000000000000522 0 -0.33778722812035078 0.47824138932294719 0 -0.32961034733166411 0.50000000000000544 0 -0.33778722812035078 0.47824138932294719 0 -0.32226306143447803 0.47880331365308099 0 -0.33377488691286711 0.50000000000000522 0 -0.33778722812035078 0.47824138932294719 0 -0.35205910045523131 0.48378718647392022 0 -0.33377488691286711 0.50000000000000522 0 -0.32961034733166411 0.50000000000000544 0 -0.33778722812035078 0.47824138932294719 0 -0.33778722812035078 0.47824138932294719 0 -0.32226306143447803 0.47880331365308099 0 -0.32867802903946219 0.4647080132274663 0 -0.30700648351556892 0.47106561290792709 0 -0.32226306143447803 0.47880331365308099 0 -0.31491577553729372 0.45760662730615598 0 -0.32226306143447803 0.47880331365308099 0 -0.31491577553729372 0.45760662730615598 0 -0.31491577553729372 0.45760662730615598 0 -0.32468402948396868 0.44644635980256298 0 -0.32867802903946219 0.4647080132274663 0 -0.32226306143447803 0.47880331365308099 0 -0.31491577553729372 0.45760662730615598 0 -0.32867802903946219 0.4647080132274663 0 -0.30756848964011108 0.43640994095923052 0 -0.31491577553729372 0.45760662730615598 0 -0.32468402948396868 0.44644635980256298 0 -0.32429072454512942 0.43023794992874781 0 -0.30756848964011108 0.43640994095923052 0 -0.32468402948396868 0.44644635980256298 0 -0.30756848964011108 0.43640994095923052 0 -0.32468402948396868 0.44644635980256298 0 -0.34703036928684777 0.42811656202764647 0 -0.32468402948396868 0.44644635980256298 0 -0.34179956932783062 0.45648277864588849 0 -0.32468402948396868 0.44644635980256298 0 -0.34179956932783062 0.45648277864588849 0 -0.33778722812035078 0.47824138932294719 0 -0.32867802903946219 0.4647080132274663 0 -0.34179956932783062 0.45648277864588849 0 -0.32468402948396868 0.44644635980256298 0 -0.32867802903946219 0.4647080132274663 0 -0.34179956932783062 0.45648277864588849 0 -0.33778722812035078 0.47824138932294719 0 -0.34179956932783062 0.45648277864588849 0 -0.33778722812035078 0.47824138932294719 0 -0.34179956932783062 0.45648277864588849 0 -0.35557614348698757 0.46456125409855509 0 -0.34179956932783062 0.45648277864588849 0 -0.35557614348698757 0.46456125409855509 0 -0.36365553484605262 0.44834326817060799 0 -0.34179956932783062 0.45648277864588849 0 -0.35557614348698757 0.46456125409855509 0 -0.34703036928684777 0.42811656202764647 0 -0.34179956932783062 0.45648277864588849 0 -0.36365553484605262 0.44834326817060799 0 -0.34703036928684777 0.42811656202764647 0 -0.34179956932783062 0.45648277864588849 0 -0.37574930311598798 0.45840260136003491 0 -0.37771733629218529 0.44462342228227159 0 -0.36365553484605262 0.44834326817060799 0 -0.37771733629218529 0.44462342228227159 0 -0.37156533459105412 0.43367234415356171 0 -0.36365553484605262 0.44834326817060799 0 -0.36365553484605262 0.44834326817060799 0 -0.36935271764615102 0.47263972955121092 0 -0.35557614348698757 0.46456125409855509 0 -0.36365553484605262 0.44834326817060799 0 -0.36935271764615102 0.47263972955121092 0 -0.37574930311598798 0.45840260136003491 0 -0.36365553484605262 0.44834326817060799 0 -0.36935271764615102 0.47263972955121092 0 -0.35557614348698757 0.46456125409855509 0 -0.36935271764615102 0.47263972955121092 0 -0.37834873548077258 0.46767211073475068 0 -0.37574930311598798 0.45840260136003491 0 -0.36935271764615102 0.47263972955121092 0 -0.3698126641665343 0.47460123811809918 0 -0.36935271764615102 0.47263972955121092 0 -0.35557614348698757 0.46456125409855509 0 -0.36935271764615102 0.47263972955121092 0 -0.36230092682994269 0.47598115658229512 0 -0.3698126641665343 0.47460123811809918 0 -0.36935271764615102 0.47263972955121092 0 -0.36230092682994269 0.47598115658229512 0 -0.3698126641665343 0.47460123811809918 0 -0.36230092682994269 0.47598115658229512 0 -0.36470400839481071 0.48431637466968741 0 -0.36230092682994269 0.47598115658229512 0 -0.36470400839481071 0.48431637466968741 0 -0.35205910045523131 0.48378718647392022 0 -0.3698126641665343 0.47460123811809918 0 -0.36470400839481071 0.48431637466968741 0 -0.37440925376156559 0.48330126246033778 0 -0.38484983308279591 0.5 0 -0.37401948013283348 0.49006754973603561 0 -0.3593123599978314 0.5 0 -0.36470400839481071 0.48431637466968741 0 -0.37440925376156559 0.48330126246033778 0 -0.37401948013283348 0.49006754973603561 0 -0.36470400839481071 0.48431637466968741 0 -0.37401948013283348 0.49006754973603561 0 -0.3593123599978314 0.5 0 -0.33377488691286711 0.50000000000000522 0 -0.3593123599978314 0.5 0 -0.35205910045523131 0.48378718647392022 0 -0.36470400839481071 0.48431637466968741 0 -0.3593123599978314 0.5 0 -0.35205910045523131 0.48378718647392022 0 -0.35557614348698757 0.46456125409855509 0 -0.36230092682994269 0.47598115658229512 0 -0.35205910045523131 0.48378718647392022 0 -0.33778722812035078 0.47824138932294719 0 -0.35557614348698757 0.46456125409855509 0 -0.35205910045523131 0.48378718647392022 0 -0.13820783728696809 0.48264453070264879 0 -0.14199379246180929 0.46216909372876769 0 -0.15836400100807471 0.47901202939611609 0 -0.14962354248004131 0.5 0 -0.13820783728696809 0.48264453070264879 0 -0.15836400100807471 0.47901202939611609 0 -0.14962354248004131 0.5 0 -0.13820783728696809 0.48264453070264879 0 -0.12029679558512429 0.5 0 -0.13820783728696809 0.48264453070264879 0 -0.1207610548997911 0.47204153038836028 0 -0.12029679558512429 0.5 0 -0.13820783728696809 0.48264453070264879 0 -0.14199379246180929 0.46216909372876769 0 -0.1207610548997911 0.47204153038836028 0 -0.12516841094691289 0.4495105975028017 0 -0.14199379246180929 0.46216909372876769 0 -0.1207610548997911 0.47204153038836028 0 -0.12516841094691289 0.4495105975028017 0 -0.14680948991105469 0.44241132777146569 0 -0.13115928916177991 0.43005933000412738 0 -0.12516841094691289 0.4495105975028017 0 -0.14680948991105469 0.44241132777146569 0 -0.14199379246180929 0.46216909372876769 0 -0.14680948991105469 0.44241132777146569 0 -0.14199379246180929 0.46216909372876769 0 -0.16504949182898079 0.45446426552226321 0 -0.14199379246180929 0.46216909372876769 0 -0.16504949182898079 0.45446426552226321 0 -0.15836400100807471 0.47901202939611609 0 -0.16504949182898079 0.45446426552226321 0 -0.17869058373050831 0.47151051333684169 0 -0.15836400100807471 0.47901202939611609 0 -0.14680948991105469 0.44241132777146569 0 -0.16504949182898079 0.45446426552226321 0 -0.16335396365929619 0.43039924576104199 0 -0.16504949182898079 0.45446426552226321 0 -0.1807310376681541 0.43692252717452251 0 -0.16335396365929619 0.43039924576104199 0 -0.18262750892454399 0.45319689895540738 0 -0.1956070203039719 0.44447237049598509 0 -0.1807310376681541 0.43692252717452251 0 -0.16504949182898079 0.45446426552226321 0 -0.18262750892454399 0.45319689895540738 0 -0.1807310376681541 0.43692252717452251 0 -0.16504949182898079 0.45446426552226321 0 -0.18262750892454399 0.45319689895540738 0 -0.17869058373050831 0.47151051333684169 0 -0.18262750892454399 0.45319689895540738 0 -0.17869058373050831 0.47151051333684169 0 -0.19358268682927879 0.4615421021294252 0 -0.17869058373050831 0.47151051333684169 0 -0.15836400100807471 0.47901202939611609 0 -0.17895028937495791 0.5 0 -0.17869058373050831 0.47151051333684169 0 -0.17895028937495791 0.5 0 -0.19769051186747311 0.48124452908984239 0 -0.14962354248004131 0.5 0 -0.15836400100807471 0.47901202939611609 0 -0.17895028937495791 0.5 0 -0.17895028937495791 0.5 0 -0.19769051186747311 0.48124452908984239 0 -0.20827703626987459 0.5 0 -0.19769051186747311 0.48124452908984239 0 -0.21247416894616089 0.46717024805442608 0 -0.19358268682927879 0.4615421021294252 0 -0.17869058373050831 0.47151051333684169 0 -0.19769051186747311 0.48124452908984239 0 -0.19358268682927879 0.4615421021294252 0 -0.19769051186747311 0.48124452908984239 0 -0.21522493999333861 0.48120638219243222 0 -0.21247416894616089 0.46717024805442608 0 -0.21522493999333861 0.48120638219243222 0 -0.20827703626987459 0.5 0 -0.22945574449784709 0.48115526096626182 0 -0.19769051186747311 0.48124452908984239 0 -0.21522493999333861 0.48120638219243222 0 -0.20827703626987459 0.5 0 -0.22514890428408821 0.49999999999999911 0 -0.22945574449784709 0.48115526096626182 0 -0.22514890428408821 0.49999999999999911 0 -0.22945574449784709 0.48115526096626182 0 -0.2408142637458254 0.48741444349690738 0 -0.20827703626987459 0.5 0 -0.22514890428408821 0.49999999999999911 0 -0.22945574449784709 0.48115526096626182 0 -0.20827703626987459 0.5 0 -0.22945574449784709 0.48115526096626182 0 -0.23136565106304399 0.47279839397942369 0 -0.21247416894616089 0.46717024805442608 0 -0.21522493999333861 0.48120638219243222 0 -0.23136565106304399 0.47279839397942369 0 -0.22945574449784709 0.48115526096626182 0 -0.21522493999333861 0.48120638219243222 0 -0.23136565106304399 0.47279839397942369 0 -0.21247416894616089 0.46717024805442608 0 -0.23136565106304399 0.47279839397942369 0 -0.22945574449784709 0.48115526096626182 0 -0.23697089493058221 0.47446830691884162 0 -0.23136565106304399 0.47279839397942369 0 -0.23697089493058221 0.47446830691884162 0 -0.23136565106304399 0.47279839397942369 0 -0.22945574449784709 0.48115526096626182 0 -0.22945574449784709 0.48115526096626182 0 -0.23697089493058221 0.47446830691884162 0 -0.25381414164408989 0.479486243032479 0 -0.23697089493058221 0.47446830691884162 0 -0.22945574449784709 0.48115526096626182 0 -0.23697089493058221 0.47446830691884162 0 -0.2408142637458254 0.48741444349690738 0 -0.25381414164408989 0.479486243032479 0 -0.23697089493058221 0.47446830691884162 0 -0.24263633984611299 0.46942721424246181 0 -0.25381414164408989 0.479486243032479 0 -0.23697089493058221 0.47446830691884162 0 -0.2408142637458254 0.48741444349690738 0 -0.23136565106304399 0.47279839397942369 0 -0.23697089493058221 0.47446830691884162 0 -0.24263633984611299 0.46942721424246181 0 -0.23697089493058221 0.47446830691884162 0 -0.24263633984611299 0.46942721424246181 0 -0.25381414164408989 0.479486243032479 0 -0.24870844842941681 0.49999999999999878 0 -0.2408142637458254 0.48741444349690738 0 -0.22514890428408821 0.49999999999999911 0 -0.24870844842941681 0.49999999999999878 0 -0.2408142637458254 0.48741444349690738 0 -0.25333115244358229 0.44040945367818302 0 -0.23642169198106991 0.45067549948714808 0 -0.24984923763868849 0.45633443145769798 0 -0.25333115244358229 0.44040945367818302 0 -0.23642169198106991 0.45067549948714808 0 -0.24147773289909549 0.42855260499487252 0 -0.23642169198106991 0.45067549948714808 0 -0.24147773289909549 0.42855260499487252 0 -0.24263633984611299 0.46942721424246181 0 -0.23642169198106991 0.45067549948714808 0 -0.24984923763868849 0.45633443145769798 0 -0.23136565106304399 0.47279839397942369 0 -0.24263633984611299 0.46942721424246181 0 -0.23642169198106991 0.45067549948714808 0 -0.2569211326107973 0.46479367291306029 0 -0.24263633984611299 0.46942721424246181 0 -0.24984923763868849 0.45633443145769798 0 -0.23136565106304399 0.47279839397942369 0 -0.2237857313861239 0.45927832396201829 0 -0.21247416894616089 0.46717024805442608 0 -0.23136565106304399 0.47279839397942369 0 -0.23642169198106991 0.45067549948714808 0 -0.2237857313861239 0.45927832396201829 0 -0.23136565106304399 0.47279839397942369 0 -0.23642169198106991 0.45067549948714808 0 -0.23642169198106991 0.45067549948714808 0 -0.21296477718831211 0.44579348771927357 0 -0.221842765274608 0.42965226790896122 0 -0.23642169198106991 0.45067549948714808 0 -0.2237857313861239 0.45927832396201829 0 -0.21296477718831211 0.44579348771927357 0 -0.21296477718831211 0.44579348771927357 0 -0.21247416894616089 0.46717024805442608 0 -0.19358268682927879 0.4615421021294252 0 -0.2237857313861239 0.45927832396201829 0 -0.21296477718831211 0.44579348771927357 0 -0.21247416894616089 0.46717024805442608 0 -0.21247416894616089 0.46717024805442608 0 -0.19358268682927879 0.4615421021294252 0 -0.21296477718831211 0.44579348771927357 0 -0.19358268682927879 0.4615421021294252 0 -0.1956070203039719 0.44447237049598509 0 -0.18262750892454399 0.45319689895540738 0 -0.19358268682927879 0.4615421021294252 0 -0.1956070203039719 0.44447237049598509 0 -0.21296477718831211 0.44579348771927357 0 -0.1956070203039719 0.44447237049598509 0 -0.1993507047282593 0.42613253535429207 0 -0.1956070203039719 0.44447237049598509 0 -0.1993507047282593 0.42613253535429207 0 -0.1807310376681541 0.43692252717452251 0 -0.1993507047282593 0.42613253535429207 0 -0.20848665040798681 0.4109848850885115 0 -0.19174226163675731 0.40334829702492969 0 -0.1993507047282593 0.42613253535429207 0 -0.19174226163675731 0.40334829702492969 0 -0.17840671711275599 0.41649038130278632 0 -0.20848665040798681 0.4109848850885115 0 -0.221842765274608 0.42965226790896122 0 -0.22583910587125769 0.41472502282125978 0 -0.20848665040798681 0.4109848850885115 0 -0.22583910587125769 0.41472502282125978 0 -0.2209238404184849 0.40160143201148207 0 -0.21296477718831211 0.44579348771927357 0 -0.1993507047282593 0.42613253535429207 0 -0.221842765274608 0.42965226790896122 0 -0.1993507047282593 0.42613253535429207 0 -0.20848665040798681 0.4109848850885115 0 -0.221842765274608 0.42965226790896122 0 -0.23642169198106991 0.45067549948714808 0 -0.221842765274608 0.42965226790896122 0 -0.24147773289909549 0.42855260499487252 0 -0.221842765274608 0.42965226790896122 0 -0.22583910587125769 0.41472502282125978 0 -0.24147773289909549 0.42855260499487252 0 -0.22583910587125769 0.41472502282125978 0 -0.24147773289909549 0.42855260499487252 0 -0.23423533906553379 0.4057918665213876 0 -0.22583910587125769 0.41472502282125978 0 -0.23423533906553379 0.4057918665213876 0 -0.2209238404184849 0.40160143201148207 0 -0.2465337738171213 0.4064297105025968 0 -0.24147773289909549 0.42855260499487252 0 -0.25259824932708658 0.41945491575618221 0 -0.2465337738171213 0.4064297105025968 0 -0.24147773289909549 0.42855260499487252 0 -0.2465337738171213 0.4064297105025968 0 -0.24147773289909549 0.42855260499487252 0 -0.23423533906553379 0.4057918665213876 0 -0.25259824932708658 0.41945491575618221 0 -0.25333115244358229 0.44040945367818302 0 -0.24147773289909549 0.42855260499487252 0 -0.23949321978078261 0.38065657007779258 0 -0.23993003901176729 0.3931288928375794 0 -0.22865438006567021 0.38938068545884869 0 -0.25158981473514702 0.38430681601032102 0 -0.23949321978078261 0.38065657007779258 0 -0.2480546724397408 0.37115926237380031 0 -0.25158981473514702 0.38430681601032102 0 -0.23949321978078261 0.38065657007779258 0 -0.23993003901176729 0.3931288928375794 0 -0.25158981473514702 0.38430681601032102 0 -0.2465337738171213 0.4064297105025968 0 -0.23993003901176729 0.3931288928375794 0 -0.25158981473514702 0.38430681601032102 0 -0.2465337738171213 0.4064297105025968 0 -0.2465337738171213 0.4064297105025968 0 -0.23993003901176729 0.3931288928375794 0 -0.23423533906553379 0.4057918665213876 0 -0.23993003901176729 0.3931288928375794 0 -0.23423533906553379 0.4057918665213876 0 -0.22865438006567021 0.38938068545884869 0 -0.2209238404184849 0.40160143201148207 0 -0.22865438006567021 0.38938068545884869 0 -0.20740372668197599 0.3871247001674028 0 -0.23423533906553379 0.4057918665213876 0 -0.2209238404184849 0.40160143201148207 0 -0.22865438006567021 0.38938068545884869 0 -0.23949321978078261 0.38065657007779258 0 -0.22865438006567021 0.38938068545884869 0 -0.22910720096177389 0.36984289464462711 0 -0.22865438006567021 0.38938068545884869 0 -0.20740372668197599 0.3871247001674028 0 -0.22910720096177389 0.36984289464462711 0 -0.20740372668197599 0.3871247001674028 0 -0.22910720096177389 0.36984289464462711 0 -0.20848665040798681 0.4109848850885115 0 -0.2209238404184849 0.40160143201148207 0 -0.20740372668197599 0.3871247001674028 0 -0.20848665040798681 0.4109848850885115 0 -0.20740372668197599 0.3871247001674028 0 -0.19174226163675731 0.40334829702492969 0 -0.20740372668197599 0.3871247001674028 0 -0.19174226163675731 0.40334829702492969 0 -0.18539092126453741 0.38224774035812698 0 -0.20740372668197599 0.3871247001674028 0 -0.18539092126453741 0.38224774035812698 0 -0.19568439231324569 0.36295196832706977 0 -0.18539092126453741 0.38224774035812698 0 -0.16922158813326341 0.37982293467441108 0 -0.17141484962502829 0.39710953987845887 0 -0.18539092126453741 0.38224774035812698 0 -0.16922158813326341 0.37982293467441108 0 -0.17484448275996931 0.36426856049585798 0 -0.16922158813326341 0.37982293467441108 0 -0.17141484962502829 0.39710953987845887 0 -0.15413197797536829 0.3856426389175126 0 -0.16922158813326341 0.37982293467441108 0 -0.15413197797536829 0.3856426389175126 0 -0.154004573206693 0.36558515266464831 0 -0.17141484962502829 0.39710953987845887 0 -0.15699887084931841 0.4016284515504347 0 -0.162844008436758 0.4130073774385068 0 -0.17141484962502829 0.39710953987845887 0 -0.15699887084931841 0.4016284515504347 0 -0.15413197797536829 0.3856426389175126 0 -0.19174226163675731 0.40334829702492969 0 -0.18539092126453741 0.38224774035812698 0 -0.17141484962502829 0.39710953987845887 0 -0.19174226163675731 0.40334829702492969 0 -0.17141484962502829 0.39710953987845887 0 -0.17840671711275599 0.41649038130278632 0 -0.1993507047282593 0.42613253535429207 0 -0.17840671711275599 0.41649038130278632 0 -0.1807310376681541 0.43692252717452251 0 -0.17840671711275599 0.41649038130278632 0 -0.1807310376681541 0.43692252717452251 0 -0.16335396365929619 0.43039924576104199 0 -0.16335396365929619 0.43039924576104199 0 -0.162844008436758 0.4130073774385068 0 -0.1482089051277046 0.42346419669852869 0 -0.17141484962502829 0.39710953987845887 0 -0.17840671711275599 0.41649038130278632 0 -0.162844008436758 0.4130073774385068 0 -0.17840671711275599 0.41649038130278632 0 -0.16335396365929619 0.43039924576104199 0 -0.162844008436758 0.4130073774385068 0 -0.15699887084931841 0.4016284515504347 0 -0.162844008436758 0.4130073774385068 0 -0.1472452939192834 0.40913622176126069 0 -0.162844008436758 0.4130073774385068 0 -0.1472452939192834 0.40913622176126069 0 -0.1482089051277046 0.42346419669852869 0 -0.1472452939192834 0.40913622176126069 0 -0.1482089051277046 0.42346419669852869 0 -0.13602001213434489 0.41601227370225691 0 -0.14680948991105469 0.44241132777146569 0 -0.16335396365929619 0.43039924576104199 0 -0.1482089051277046 0.42346419669852869 0 -0.14680948991105469 0.44241132777146569 0 -0.1482089051277046 0.42346419669852869 0 -0.13115928916177991 0.43005933000412738 0 -0.1482089051277046 0.42346419669852869 0 -0.13115928916177991 0.43005933000412738 0 -0.13602001213434489 0.41601227370225691 0 -0.13602001213434489 0.41601227370225691 0 -0.13679528796964099 0.40454670363436401 0 -0.11669128449331551 0.41285491641300348 0 -0.13115928916177991 0.43005933000412738 0 -0.13602001213434489 0.41601227370225691 0 -0.11669128449331551 0.41285491641300348 0 -0.1472452939192834 0.40913622176126069 0 -0.13602001213434489 0.41601227370225691 0 -0.13679528796964099 0.40454670363436401 0 -0.13534792885000471 0.38922003453882631 0 -0.12489821836988629 0.38504933412521658 0 -0.11669128449331551 0.41285491641300348 0 -0.13679528796964099 0.40454670363436401 0 -0.13534792885000471 0.38922003453882631 0 -0.11669128449331551 0.41285491641300348 0 -0.13534792885000471 0.38922003453882631 0 -0.11669128449331551 0.41285491641300348 0 -0.13679528796964099 0.40454670363436401 0 -0.13534792885000471 0.38922003453882631 0 -0.1464695902775342 0.39691604661442859 0 -0.13534792885000471 0.38922003453882631 0 -0.13445114630382329 0.36682046938555041 0 -0.12489821836988629 0.38504933412521658 0 -0.13534792885000471 0.38922003453882631 0 -0.15413197797536829 0.3856426389175126 0 -0.154004573206693 0.36558515266464831 0 -0.13534792885000471 0.38922003453882631 0 -0.15413197797536829 0.3856426389175126 0 -0.1464695902775342 0.39691604661442859 0 -0.13534792885000471 0.38922003453882631 0 -0.154004573206693 0.36558515266464831 0 -0.15699887084931841 0.4016284515504347 0 -0.15413197797536829 0.3856426389175126 0 -0.1464695902775342 0.39691604661442859 0 -0.15699887084931841 0.4016284515504347 0 -0.1472452939192834 0.40913622176126069 0 -0.1464695902775342 0.39691604661442859 0 -0.1472452939192834 0.40913622176126069 0 -0.13679528796964099 0.40454670363436401 0 -0.1464695902775342 0.39691604661442859 0 -0.14933934793225229 0.34692139600595012 0 -0.154004573206693 0.36558515266464831 0 -0.133105152246457 0.35724375183742962 0 -0.14933934793225229 0.34692139600595012 0 -0.133105152246457 0.35724375183742962 0 -0.14131208612302781 0.32943816954964261 0 -0.154004573206693 0.36558515266464831 0 -0.13445114630382329 0.36682046938555041 0 -0.13534792885000471 0.38922003453882631 0 -0.154004573206693 0.36558515266464831 0 -0.13445114630382329 0.36682046938555041 0 -0.154004573206693 0.36558515266464831 0 -0.13445114630382329 0.36682046938555041 0 -0.133105152246457 0.35724375183742962 0 -0.13445114630382329 0.36682046938555041 0 -0.133105152246457 0.35724375183742962 0 -0.12489821836988629 0.38504933412521658 0 -0.133105152246457 0.35724375183742962 0 -0.12489821836988629 0.38504933412521658 0 -0.133105152246457 0.35724375183742962 0 -0.14131208612302781 0.32943816954964261 0 -0.1157197670586784 0.33804709743087502 0 -0.133105152246457 0.35724375183742962 0 -0.14131208612302781 0.32943816954964261 0 -0.14131208612302781 0.32943816954964261 0 -0.12634938830538101 0.31244775242356221 0 -0.1157197670586784 0.33804709743087502 0 -0.14131208612302781 0.32943816954964261 0 -0.14951901999959841 0.30163258726185571 0 -0.12634938830538101 0.31244775242356221 0 -0.14131208612302781 0.32943816954964261 0 -0.14951901999959841 0.30163258726185571 0 -0.14131208612302781 0.32943816954964261 0 -0.16180539016356299 0.32472147862110229 0 -0.14951901999959841 0.30163258726185571 0 -0.14933934793225229 0.34692139600595012 0 -0.14131208612302781 0.32943816954964261 0 -0.16180539016356299 0.32472147862110229 0 -0.14933934793225229 0.34692139600595012 0 -0.16180539016356299 0.32472147862110229 0 -0.16937638338846969 0.34611161225231468 0 -0.16180539016356299 0.32472147862110229 0 -0.1847481935702453 0.32663807183998028 0 -0.1765373099677843 0.29758703481687121 0 -0.1847481935702453 0.32663807183998028 0 -0.18703654364796671 0.34729763828389232 0 -0.16937638338846969 0.34611161225231468 0 -0.1847481935702453 0.32663807183998028 0 -0.16937638338846969 0.34611161225231468 0 -0.16180539016356299 0.32472147862110229 0 -0.1847481935702453 0.32663807183998028 0 -0.16937638338846969 0.34611161225231468 0 -0.18703654364796671 0.34729763828389232 0 -0.17484448275996931 0.36426856049585798 0 -0.19568439231324569 0.36295196832706977 0 -0.18703654364796671 0.34729763828389232 0 -0.16937638338846969 0.34611161225231468 0 -0.17484448275996931 0.36426856049585798 0 -0.154004573206693 0.36558515266464831 0 -0.16937638338846969 0.34611161225231468 0 -0.14933934793225229 0.34692139600595012 0 -0.154004573206693 0.36558515266464831 0 -0.16937638338846969 0.34611161225231468 0 -0.154004573206693 0.36558515266464831 0 -0.16937638338846969 0.34611161225231468 0 -0.17484448275996931 0.36426856049585798 0 -0.154004573206693 0.36558515266464831 0 -0.17484448275996931 0.36426856049585798 0 -0.16922158813326341 0.37982293467441108 0 -0.154004573206693 0.36558515266464831 0 -0.17484448275996931 0.36426856049585798 0 -0.17484448275996931 0.36426856049585798 0 -0.19568439231324569 0.36295196832706977 0 -0.18539092126453741 0.38224774035812698 0 -0.17484448275996931 0.36426856049585798 0 -0.19568439231324569 0.36295196832706977 0 -0.18703654364796671 0.34729763828389232 0 -0.19568439231324569 0.36295196832706977 0 -0.204646018817213 0.34294342690114171 0 -0.21839608741634339 0.34655692439710761 0 -0.21652430186652219 0.36163537615828162 0 -0.204646018817213 0.34294342690114171 0 -0.19568439231324569 0.36295196832706977 0 -0.21652430186652219 0.36163537615828162 0 -0.204646018817213 0.34294342690114171 0 -0.20740372668197599 0.3871247001674028 0 -0.19568439231324569 0.36295196832706977 0 -0.21652430186652219 0.36163537615828162 0 -0.20740372668197599 0.3871247001674028 0 -0.21652430186652219 0.36163537615828162 0 -0.22910720096177389 0.36984289464462711 0 -0.19568439231324569 0.36295196832706977 0 -0.21652430186652219 0.36163537615828162 0 -0.21652430186652219 0.36163537615828162 0 -0.22910720096177389 0.36984289464462711 0 -0.23053511718252709 0.3487809867133812 0 -0.21839608741634339 0.34655692439710761 0 -0.21652430186652219 0.36163537615828162 0 -0.23053511718252709 0.3487809867133812 0 -0.25081067524157202 0.35256108912185141 0 -0.22910720096177389 0.36984289464462711 0 -0.23053511718252709 0.3487809867133812 0 -0.25081067524157202 0.35256108912185141 0 -0.23053511718252709 0.3487809867133812 0 -0.23758106668090601 0.33531779375075282 0 -0.23949321978078261 0.38065657007779258 0 -0.22910720096177389 0.36984289464462711 0 -0.2480546724397408 0.37115926237380031 0 -0.25081067524157202 0.35256108912185141 0 -0.22910720096177389 0.36984289464462711 0 -0.2480546724397408 0.37115926237380031 0 -0.25081067524157202 0.35256108912185141 0 -0.22910720096177389 0.36984289464462711 0 -0.25150935396912888 0.32630300467706058 0 -0.2369093166351682 0.32060908327358489 0 -0.24755542725455071 0.30598585151241481 0 -0.25150935396912888 0.32630300467706058 0 -0.2369093166351682 0.32060908327358489 0 -0.23758106668090601 0.33531779375075282 0 -0.25150935396912888 0.32630300467706058 0 -0.25081067524157202 0.35256108912185141 0 -0.23758106668090601 0.33531779375075282 0 -0.2369093166351682 0.32060908327358489 0 -0.23758106668090601 0.33531779375075282 0 -0.2234722807959732 0.3310024154658342 0 -0.23053511718252709 0.3487809867133812 0 -0.23758106668090601 0.33531779375075282 0 -0.2234722807959732 0.3310024154658342 0 -0.21839608741634339 0.34655692439710761 0 -0.23053511718252709 0.3487809867133812 0 -0.2234722807959732 0.3310024154658342 0 -0.2369093166351682 0.32060908327358489 0 -0.2234722807959732 0.3310024154658342 0 -0.22462176007741241 0.30848193194543289 0 -0.2234722807959732 0.3310024154658342 0 -0.20724210782116351 0.3238079026991959 0 -0.22462176007741241 0.30848193194543289 0 -0.20724210782116351 0.3238079026991959 0 -0.20012000375202099 0.30716453142764588 0 -0.22462176007741241 0.30848193194543289 0 -0.2234722807959732 0.3310024154658342 0 -0.20724210782116351 0.3238079026991959 0 -0.204646018817213 0.34294342690114171 0 -0.21839608741634339 0.34655692439710761 0 -0.2234722807959732 0.3310024154658342 0 -0.204646018817213 0.34294342690114171 0 -0.1847481935702453 0.32663807183998028 0 -0.20724210782116351 0.3238079026991959 0 -0.204646018817213 0.34294342690114171 0 -0.1847481935702453 0.32663807183998028 0 -0.18703654364796671 0.34729763828389232 0 -0.204646018817213 0.34294342690114171 0 -0.1847481935702453 0.32663807183998028 0 -0.20012000375202099 0.30716453142764588 0 -0.1847481935702453 0.32663807183998028 0 -0.20724210782116351 0.3238079026991959 0 -0.20012000375202099 0.30716453142764588 0 -0.20012000375202099 0.30716453142764588 0 -0.1971227640276092 0.28703109664682741 0 -0.1765373099677843 0.29758703481687121 0 -0.20012000375202099 0.30716453142764588 0 -0.1971227640276092 0.28703109664682741 0 -0.21549181393379671 0.28769099101531143 0 -0.20012000375202099 0.30716453142764588 0 -0.21549181393379671 0.28769099101531143 0 -0.20012000375202099 0.30716453142764588 0 -0.21549181393379671 0.28769099101531143 0 -0.22462176007741241 0.30848193194543289 0 -0.21549181393379671 0.28769099101531143 0 -0.22462176007741241 0.30848193194543289 0 -0.2363657679859677 0.29314318164274888 0 -0.21549181393379671 0.28769099101531143 0 -0.2363657679859677 0.29314318164274888 0 -0.24222133453992581 0.28011813986434392 0 -0.2363657679859677 0.29314318164274888 0 -0.24707134328444269 0.28966663642370971 0 -0.24755542725455071 0.30598585151241481 0 -0.2363657679859677 0.29314318164274888 0 -0.24707134328444269 0.28966663642370971 0 -0.24222133453992581 0.28011813986434392 0 -0.25184004474946392 0.27563514826990748 0 -0.24707134328444269 0.28966663642370971 0 -0.24222133453992581 0.28011813986434392 0 -0.22462176007741241 0.30848193194543289 0 -0.2363657679859677 0.29314318164274888 0 -0.24755542725455071 0.30598585151241481 0 -0.2369093166351682 0.32060908327358489 0 -0.22462176007741241 0.30848193194543289 0 -0.24755542725455071 0.30598585151241481 0 -0.25184004474946392 0.27563514826990748 0 -0.24338505276019021 0.2512427650456508 0 -0.2308636241155724 0.26821745060297691 0 -0.25184004474946392 0.27563514826990748 0 -0.24338505276019021 0.2512427650456508 0 -0.25184004474946392 0.27563514826990748 0 -0.24222133453992581 0.28011813986434392 0 -0.2308636241155724 0.26821745060297691 0 -0.21549181393379671 0.28769099101531143 0 -0.2308636241155724 0.26821745060297691 0 -0.21549181393379671 0.28769099101531143 0 -0.24222133453992581 0.28011813986434392 0 -0.2308636241155724 0.26821745060297691 0 -0.24338505276019021 0.2512427650456508 0 -0.2308636241155724 0.26821745060297691 0 -0.2236563306449528 0.2495190359932952 0 -0.2308636241155724 0.26821745060297691 0 -0.20960446598299651 0.26829989049260811 0 -0.2236563306449528 0.2495190359932952 0 -0.20960446598299651 0.26829989049260811 0 -0.2236563306449528 0.2495190359932952 0 -0.20455644492525299 0.24848876851732821 0 -0.1971227640276092 0.28703109664682741 0 -0.21549181393379671 0.28769099101531143 0 -0.20960446598299651 0.26829989049260811 0 -0.21549181393379671 0.28769099101531143 0 -0.2308636241155724 0.26821745060297691 0 -0.20960446598299651 0.26829989049260811 0 -0.1971227640276092 0.28703109664682741 0 -0.20960446598299651 0.26829989049260811 0 -0.18614839561170071 0.266793386232271 0 -0.20960446598299651 0.26829989049260811 0 -0.18614839561170071 0.266793386232271 0 -0.20455644492525299 0.24848876851732821 0 -0.18614839561170071 0.266793386232271 0 -0.20455644492525299 0.24848876851732821 0 -0.1866445730272448 0.23657667660611509 0 -0.15772595387616911 0.2738270049740687 0 -0.16593288775273979 0.24602142268628169 0 -0.15772595387616911 0.2738270049740687 0 -0.16593288775273979 0.24602142268628169 0 -0.15452019481184001 0.2499777617130321 0 -0.15772595387616911 0.2738270049740687 0 -0.18614839561170071 0.266793386232271 0 -0.16593288775273979 0.24602142268628169 0 -0.15772595387616911 0.2738270049740687 0 -0.18614839561170071 0.266793386232271 0 -0.1765373099677843 0.29758703481687121 0 -0.1971227640276092 0.28703109664682741 0 -0.18614839561170071 0.266793386232271 0 -0.1765373099677843 0.29758703481687121 0 -0.1847481935702453 0.32663807183998028 0 -0.20012000375202099 0.30716453142764588 0 -0.1765373099677843 0.29758703481687121 0 -0.16180539016356299 0.32472147862110229 0 -0.1765373099677843 0.29758703481687121 0 -0.14951901999959841 0.30163258726185571 0 -0.15772595387616911 0.2738270049740687 0 -0.1765373099677843 0.29758703481687121 0 -0.14951901999959841 0.30163258726185571 0 -0.15772595387616911 0.2738270049740687 0 -0.14951901999959841 0.30163258726185571 0 -0.1359635751527129 0.28525615170074259 0 -0.15772595387616911 0.2738270049740687 0 -0.14951901999959841 0.30163258726185571 0 -0.14951901999959841 0.30163258726185571 0 -0.12634938830538101 0.31244775242356221 0 -0.1359635751527129 0.28525615170074259 0 -0.12634938830538101 0.31244775242356221 0 -0.1359635751527129 0.28525615170074259 0 -0.11367602196556489 0.29632709865559298 0 -0.1359635751527129 0.28525615170074259 0 -0.12916530505006499 0.26572700739779009 0 -0.1407083309834119 0.27137979847069921 0 -0.1359635751527129 0.28525615170074259 0 -0.12916530505006499 0.26572700739779009 0 -0.1167278627745047 0.27621312166198508 0 -0.12916530505006499 0.26572700739779009 0 -0.12256057738715639 0.25314703781829762 0 -0.13158174630476269 0.24952230106181231 0 -0.12916530505006499 0.26572700739779009 0 -0.14204412767972491 0.25911492691102972 0 -0.13158174630476269 0.24952230106181231 0 -0.14204412767972491 0.25911492691102972 0 -0.13158174630476269 0.24952230106181231 0 -0.13959886824920911 0.24402894089934959 0 -0.12916530505006499 0.26572700739779009 0 -0.14204412767972491 0.25911492691102972 0 -0.1407083309834119 0.27137979847069921 0 -0.15772595387616911 0.2738270049740687 0 -0.14204412767972491 0.25911492691102972 0 -0.15452019481184001 0.2499777617130321 0 -0.14204412767972491 0.25911492691102972 0 -0.13959886824920911 0.24402894089934959 0 -0.15452019481184001 0.2499777617130321 0 -0.15772595387616911 0.2738270049740687 0 -0.1359635751527129 0.28525615170074259 0 -0.1407083309834119 0.27137979847069921 0 -0.15772595387616911 0.2738270049740687 0 -0.14204412767972491 0.25911492691102972 0 -0.1407083309834119 0.27137979847069921 0 -0.10521388484154311 0.26865956611111891 0 -0.1167278627745047 0.27621312166198508 0 -0.1013635680665509 0.28129993579760099 0 -0.10521388484154311 0.26865956611111891 0 -0.1013635680665509 0.28129993579760099 0 -0.093050787187442419 0.26875452281758683 0 -0.10521388484154311 0.26865956611111891 0 -0.10120816956893711 0.25531151265741342 0 -0.093050787187442419 0.26875452281758683 0 -0.10120816956893711 0.25531151265741342 0 -0.11462926346470829 0.26143145044874638 0 -0.11186130183636819 0.24999957395857081 0 -0.10521388484154311 0.26865956611111891 0 -0.10120816956893711 0.25531151265741342 0 -0.11462926346470829 0.26143145044874638 0 -0.11462926346470829 0.26143145044874638 0 -0.12256057738715639 0.25314703781829762 0 -0.11186130183636819 0.24999957395857081 0 -0.12916530505006499 0.26572700739779009 0 -0.11462926346470829 0.26143145044874638 0 -0.12256057738715639 0.25314703781829762 0 -0.12916530505006499 0.26572700739779009 0 -0.11462926346470829 0.26143145044874638 0 -0.1167278627745047 0.27621312166198508 0 -0.10521388484154311 0.26865956611111891 0 -0.11462926346470829 0.26143145044874638 0 -0.1167278627745047 0.27621312166198508 0 -0.1359635751527129 0.28525615170074259 0 -0.1167278627745047 0.27621312166198508 0 -0.11367602196556489 0.29632709865559298 0 -0.1167278627745047 0.27621312166198508 0 -0.11367602196556489 0.29632709865559298 0 -0.1013635680665509 0.28129993579760099 0 -0.12634938830538101 0.31244775242356221 0 -0.11367602196556489 0.29632709865559298 0 -0.1035302545734969 0.31624112245816582 0 -0.11367602196556489 0.29632709865559298 0 -0.093449172404039937 0.29702708491883267 0 -0.1035302545734969 0.31624112245816582 0 -0.11367602196556489 0.29632709865559298 0 -0.1013635680665509 0.28129993579760099 0 -0.093449172404039937 0.29702708491883267 0 -0.1013635680665509 0.28129993579760099 0 -0.093449172404039937 0.29702708491883267 0 -0.086063679226210457 0.28081822062048961 0 -0.093449172404039937 0.29702708491883267 0 -0.072911247988002081 0.29309125937377623 0 -0.086063679226210457 0.28081822062048961 0 -0.093449172404039937 0.29702708491883267 0 -0.072911247988002081 0.29309125937377623 0 -0.081858418987438786 0.31448739141401127 0 -0.093449172404039937 0.29702708491883267 0 -0.081858418987438786 0.31448739141401127 0 -0.1035302545734969 0.31624112245816582 0 -0.072911247988002081 0.29309125937377623 0 -0.081858418987438786 0.31448739141401127 0 -0.065463073829539947 0.30515557417389122 0 -0.072911247988002081 0.29309125937377623 0 -0.081858418987438786 0.31448739141401127 0 -0.072911247988002081 0.29309125937377623 0 -0.063964076988565738 0.27169512733354101 0 -0.072911247988002081 0.29309125937377623 0 -0.063964076988565738 0.27169512733354101 0 -0.060399798077116922 0.29171607377341852 0 -0.072911247988002081 0.29309125937377623 0 -0.074726041093520199 0.27751355895393742 0 -0.086063679226210457 0.28081822062048961 0 -0.065463073829539947 0.30515557417389122 0 -0.072911247988002081 0.29309125937377623 0 -0.060399798077116922 0.29171607377341852 0 -0.072911247988002081 0.29309125937377623 0 -0.063964076988565738 0.27169512733354101 0 -0.074726041093520199 0.27751355895393742 0 -0.063964076988565738 0.27169512733354101 0 -0.069739189502551729 0.26634192840476412 0 -0.071999823114502703 0.27108200265128463 0 -0.063964076988565738 0.27169512733354101 0 -0.071999823114502703 0.27108200265128463 0 -0.074726041093520199 0.27751355895393742 0 -0.062706457884081149 0.2686876756577477 0 -0.069739189502551729 0.26634192840476412 0 -0.064881249777268793 0.26349265971140501 0 -0.062706457884081149 0.2686876756577477 0 -0.063964076988565738 0.27169512733354101 0 -0.069739189502551729 0.26634192840476412 0 -0.062706457884081149 0.2686876756577477 0 -0.063964076988565738 0.27169512733354101 0 -0.063964076988565738 0.27169512733354101 0 -0.069739189502551729 0.26634192840476412 0 -0.071999823114502703 0.27108200265128463 0 -0.074726041093520199 0.27751355895393742 0 -0.079569984873373134 0.26877739591289579 0 -0.069739189502551729 0.26634192840476412 0 -0.071999823114502703 0.27108200265128463 0 -0.079569984873373134 0.26877739591289579 0 -0.074726041093520199 0.27751355895393742 0 -0.079569984873373134 0.26877739591289579 0 -0.086063679226210457 0.28081822062048961 0 -0.079569984873373134 0.26877739591289579 0 -0.093050787187442419 0.26875452281758683 0 -0.086063679226210457 0.28081822062048961 0 -0.1013635680665509 0.28129993579760099 0 -0.093050787187442419 0.26875452281758683 0 -0.086063679226210457 0.28081822062048961 0 -0.086510550050873436 0.25607580188373752 0 -0.07656571295879723 0.25916245166237628 0 -0.073364677054707741 0.24172195263804999 0 -0.10120816956893711 0.25531151265741342 0 -0.086510550050873436 0.25607580188373752 0 -0.092343926260290629 0.24400901516315271 0 -0.079569984873373134 0.26877739591289579 0 -0.093050787187442419 0.26875452281758683 0 -0.086510550050873436 0.25607580188373752 0 -0.10120816956893711 0.25531151265741342 0 -0.093050787187442419 0.26875452281758683 0 -0.086510550050873436 0.25607580188373752 0 -0.079569984873373134 0.26877739591289579 0 -0.086510550050873436 0.25607580188373752 0 -0.07656571295879723 0.25916245166237628 0 -0.07656571295879723 0.25916245166237628 0 -0.06736922799367713 0.25725327827486499 0 -0.073364677054707741 0.24172195263804999 0 -0.06736922799367713 0.25725327827486499 0 -0.051186381084281467 0.25697912835200742 0 -0.073364677054707741 0.24172195263804999 0 -0.069739189502551729 0.26634192840476412 0 -0.07656571295879723 0.25916245166237628 0 -0.06736922799367713 0.25725327827486499 0 -0.069739189502551729 0.26634192840476412 0 -0.079569984873373134 0.26877739591289579 0 -0.07656571295879723 0.25916245166237628 0 -0.069739189502551729 0.26634192840476412 0 -0.064881249777268793 0.26349265971140501 0 -0.06736922799367713 0.25725327827486499 0 -0.064881249777268793 0.26349265971140501 0 -0.06736922799367713 0.25725327827486499 0 -0.059395664993268593 0.26221740678002858 0 -0.06736922799367713 0.25725327827486499 0 -0.059395664993268593 0.26221740678002858 0 -0.051186381084281467 0.25697912835200742 0 -0.051186381084281467 0.25697912835200742 0 -0.050787047904808619 0.25499776799183832 0 -0.073364677054707741 0.24172195263804999 0 -0.062706457884081149 0.2686876756577477 0 -0.064881249777268793 0.26349265971140501 0 -0.059395664993268593 0.26221740678002858 0 -0.059395664993268593 0.26221740678002858 0 -0.05214389530321855 0.26173000009325093 0 -0.056132354551729137 0.267826554035417 0 -0.05214389530321855 0.26173000009325093 0 -0.051186381084281467 0.25697912835200742 0 -0.05214389530321855 0.26173000009325093 0 -0.051186381084281467 0.25697912835200742 0 -0.039254354261309958 0.26518756014967532 0 -0.059395664993268593 0.26221740678002858 0 -0.05214389530321855 0.26173000009325093 0 -0.051186381084281467 0.25697912835200742 0 -0.051186381084281467 0.25697912835200742 0 -0.050787047904808619 0.25499776799183832 0 -0.039254354261309958 0.26518756014967532 0 -0.051186381084281467 0.25697912835200742 0 -0.050787047904808619 0.25499776799183832 0 -0.063964076988565738 0.27169512733354101 0 -0.051458395637668172 0.27432328406125478 0 -0.048126354135213718 0.28637579040418071 0 -0.063964076988565738 0.27169512733354101 0 -0.048126354135213718 0.28637579040418071 0 -0.062706457884081149 0.2686876756577477 0 -0.063964076988565738 0.27169512733354101 0 -0.056132354551729137 0.267826554035417 0 -0.063964076988565738 0.27169512733354101 0 -0.056132354551729137 0.267826554035417 0 -0.051458395637668172 0.27432328406125478 0 -0.062706457884081149 0.2686876756577477 0 -0.059395664993268593 0.26221740678002858 0 -0.056132354551729137 0.267826554035417 0 -0.05214389530321855 0.26173000009325093 0 -0.056132354551729137 0.267826554035417 0 -0.047988380000449707 0.26894738275422447 0 -0.056132354551729137 0.267826554035417 0 -0.047988380000449707 0.26894738275422447 0 -0.051458395637668172 0.27432328406125478 0 -0.047988380000449707 0.26894738275422447 0 -0.051458395637668172 0.27432328406125478 0 -0.043743154875616141 0.27598066394556792 0 -0.051458395637668172 0.27432328406125478 0 -0.043743154875616141 0.27598066394556792 0 -0.048126354135213718 0.28637579040418071 0 -0.043743154875616141 0.27598066394556792 0 -0.039254354261309958 0.26518756014967532 0 -0.0340178256105177 0.28312538951640759 0 -0.047988380000449707 0.26894738275422447 0 -0.043743154875616141 0.27598066394556792 0 -0.039254354261309958 0.26518756014967532 0 -0.039254354261309958 0.26518756014967532 0 -0.026338222651062022 0.27407298984116008 0 -0.050787047904808619 0.25499776799183832 0 -0.039254354261309958 0.26518756014967532 0 -0.035591639146344299 0.24566544933220499 0 -0.039254354261309958 0.26518756014967532 0 -0.024023074354920858 0.25913543755824808 0 -0.035591639146344299 0.24566544933220499 0 -0.050787047904808619 0.25499776799183832 0 -0.039254354261309958 0.26518756014967532 0 -0.051186381084281467 0.25697912835200742 0 -0.039254354261309958 0.26518756014967532 0 -0.05214389530321855 0.26173000009325093 0 -0.047988380000449707 0.26894738275422447 0 -0.039254354261309958 0.26518756014967532 0 -0.039254354261309958 0.26518756014967532 0 -0.01799077433701185 0.28397514496359078 0 -0.039254354261309958 0.26518756014967532 0 -0.024023074354920858 0.25913543755824808 0 -0.026338222651062022 0.27407298984116008 0 -0.039254354261309958 0.26518756014967532 0 -0.01799077433701185 0.28397514496359078 0 -0.0340178256105177 0.28312538951640759 0 -0.039254354261309958 0.26518756014967532 0 -0.026338222651062022 0.27407298984116008 0 -0.01799077433701185 0.28397514496359078 0 -0.026338222651062022 0.27407298984116008 0 -0.01342209104081396 0.28295841953264478 0 -0.026338222651062022 0.27407298984116008 0 -0.01342209104081396 0.28295841953264478 0 -0.01799077433701185 0.28397514496359078 0 -0.026338222651062022 0.27407298984116008 0 -0.0119776340112673 0.27270923888796778 0 -0.01342209104081396 0.28295841953264478 0 -0.024023074354920858 0.25913543755824808 0 -0.026338222651062022 0.27407298984116008 0 -0.0119776340112673 0.27270923888796778 0 -0.0119776340112673 0.27270923888796778 0 -0.0041687012673470867 0.2876309262329893 0 0.0063279935655279028 0.28150809192884529 0 -0.0119776340112673 0.27270923888796778 0 -0.0047099749423644751 0.25880076386517242 0 0.0063279935655279028 0.28150809192884529 0 -0.0119776340112673 0.27270923888796778 0 -0.0041687012673470867 0.2876309262329893 0 -0.01342209104081396 0.28295841953264478 0 -0.024023074354920858 0.25913543755824808 0 -0.0119776340112673 0.27270923888796778 0 -0.0047099749423644751 0.25880076386517242 0 -0.024023074354920858 0.25913543755824808 0 -0.0047099749423644751 0.25880076386517242 0 -0.015747943450256891 0.2360934358014993 0 -0.01645090842850791 0.31573711654545827 0 0.0018947413267401891 0.29603879189989118 0 -0.01645090842850791 0.31573711654545827 0 0.0040457971871854818 0.31382622979778668 0 0.0018947413267401891 0.29603879189989118 0 -0.01322730633663048 0.29741749454034161 0 -0.01645090842850791 0.31573711654545827 0 0.0018947413267401891 0.29603879189989118 0 -0.01322730633663048 0.29741749454034161 0 -0.0041687012673470867 0.2876309262329893 0 0.0018947413267401891 0.29603879189989118 0 -0.0041687012673470867 0.2876309262329893 0 -0.01342209104081396 0.28295841953264478 0 -0.014403723691439871 0.28978682660767641 0 -0.01342209104081396 0.28295841953264478 0 -0.014403723691439871 0.28978682660767641 0 -0.01799077433701185 0.28397514496359078 0 -0.01322730633663048 0.29741749454034161 0 -0.0041687012673470867 0.2876309262329893 0 -0.014403723691439871 0.28978682660767641 0 -0.01322730633663048 0.29741749454034161 0 -0.024106499083780309 0.29201445593035702 0 -0.032288631281860901 0.30105645347481957 0 -0.024106499083780309 0.29201445593035702 0 -0.032288631281860901 0.30105645347481957 0 -0.0340178256105177 0.28312538951640759 0 -0.01322730633663048 0.29741749454034161 0 -0.014403723691439871 0.28978682660767641 0 -0.024106499083780309 0.29201445593035702 0 -0.01799077433701185 0.28397514496359078 0 -0.024106499083780309 0.29201445593035702 0 -0.0340178256105177 0.28312538951640759 0 -0.014403723691439871 0.28978682660767641 0 -0.01799077433701185 0.28397514496359078 0 -0.024106499083780309 0.29201445593035702 0 -0.01322730633663048 0.29741749454034161 0 -0.032288631281860901 0.30105645347481957 0 -0.01645090842850791 0.31573711654545827 0 -0.032288631281860901 0.30105645347481957 0 -0.01645090842850791 0.31573711654545827 0 -0.032288631281860901 0.30105645347481957 0 -0.04094553049029967 0.31731275277064308 0 -0.01645090842850791 0.31573711654545827 0 -0.032288631281860901 0.30105645347481957 0 -0.051534237444263123 0.30226261758170331 0 -0.04094553049029967 0.31731275277064308 0 -0.032288631281860901 0.30105645347481957 0 -0.0340178256105177 0.28312538951640759 0 -0.048126354135213718 0.28637579040418071 0 -0.032288631281860901 0.30105645347481957 0 -0.048126354135213718 0.28637579040418071 0 -0.032288631281860901 0.30105645347481957 0 -0.048126354135213718 0.28637579040418071 0 -0.051534237444263123 0.30226261758170331 0 -0.043743154875616141 0.27598066394556792 0 -0.0340178256105177 0.28312538951640759 0 -0.048126354135213718 0.28637579040418071 0 -0.063964076988565738 0.27169512733354101 0 -0.048126354135213718 0.28637579040418071 0 -0.060399798077116922 0.29171607377341852 0 -0.048126354135213718 0.28637579040418071 0 -0.060399798077116922 0.29171607377341852 0 -0.051534237444263123 0.30226261758170331 0 -0.065463073829539947 0.30515557417389122 0 -0.051534237444263123 0.30226261758170331 0 -0.060631908069385843 0.3184853463883357 0 -0.065463073829539947 0.30515557417389122 0 -0.060399798077116922 0.29171607377341852 0 -0.051534237444263123 0.30226261758170331 0 -0.060631908069385843 0.3184853463883357 0 -0.053511048601191262 0.33318462431042412 0 -0.07255121919907824 0.32929496760630261 0 -0.060631908069385843 0.3184853463883357 0 -0.053511048601191262 0.33318462431042412 0 -0.04094553049029967 0.31731275277064308 0 -0.051534237444263123 0.30226261758170331 0 -0.060631908069385843 0.3184853463883357 0 -0.04094553049029967 0.31731275277064308 0 -0.060631908069385843 0.3184853463883357 0 -0.053511048601191262 0.33318462431042412 0 -0.053511048601191262 0.33318462431042412 0 -0.046390189132993663 0.34788390223251098 0 -0.07095682951195019 0.34612476998706659 0 -0.053511048601191262 0.33318462431042412 0 -0.046390189132993663 0.34788390223251098 0 -0.053511048601191262 0.33318462431042412 0 -0.031420548780750381 0.33181050938898499 0 -0.046390189132993663 0.34788390223251098 0 -0.031420548780750381 0.33181050938898499 0 -0.02813744613144626 0.34987570033001592 0 -0.046390189132993663 0.34788390223251098 0 -0.031420548780750381 0.33181050938898499 0 -0.046390189132993663 0.34788390223251098 0 -0.053511048601191262 0.33318462431042412 0 -0.031420548780750381 0.33181050938898499 0 -0.04094553049029967 0.31731275277064308 0 -0.031420548780750381 0.33181050938898499 0 -0.04094553049029967 0.31731275277064308 0 -0.01645090842850791 0.31573711654545827 0 -0.031420548780750381 0.33181050938898499 0 -0.01645090842850791 0.31573711654545827 0 -0.031420548780750381 0.33181050938898499 0 -0.014760131845934591 0.33988459958961881 0 -0.02813744613144626 0.34987570033001592 0 -0.031420548780750381 0.33181050938898499 0 -0.01645090842850791 0.31573711654545827 0 -0.014760131845934591 0.33988459958961881 0 -0.014760131845934591 0.33988459958961881 0 -0.00194009678120214 0.32918780883551219 0 0.0041153052395316329 0.34739948802827242 0 -0.01645090842850791 0.31573711654545827 0 -0.014760131845934591 0.33988459958961881 0 -0.00194009678120214 0.32918780883551219 0 -0.01645090842850791 0.31573711654545827 0 -0.00194009678120214 0.32918780883551219 0 0.0040457971871854818 0.31382622979778668 0 -0.01645090842850791 0.31573711654545827 0 -0.00194009678120214 0.32918780883551219 0 -0.015852015901626389 0.37372462600530471 0 0.00037264731633979142 0.38217558503673832 0 0.005774776065040307 0.3645300477706111 0 -0.01087147683341114 0.35612199450665177 0 -0.015852015901626389 0.37372462600530471 0 0.005774776065040307 0.3645300477706111 0 -0.014760131845934591 0.33988459958961881 0 -0.01087147683341114 0.35612199450665177 0 0.0041153052395316329 0.34739948802827242 0 -0.01087147683341114 0.35612199450665177 0 0.0041153052395316329 0.34739948802827242 0 0.005774776065040307 0.3645300477706111 0 -0.014760131845934591 0.33988459958961881 0 -0.01087147683341114 0.35612199450665177 0 -0.02813744613144626 0.34987570033001592 0 -0.01087147683341114 0.35612199450665177 0 -0.02813744613144626 0.34987570033001592 0 -0.02285855075109872 0.36196771770762531 0 -0.02285855075109872 0.36196771770762531 0 -0.015852015901626389 0.37372462600530471 0 -0.03657326413791108 0.36814854998852897 0 -0.02813744613144626 0.34987570033001592 0 -0.02285855075109872 0.36196771770762531 0 -0.03657326413791108 0.36814854998852897 0 -0.01087147683341114 0.35612199450665177 0 -0.02285855075109872 0.36196771770762531 0 -0.015852015901626389 0.37372462600530471 0 -0.02813744613144626 0.34987570033001592 0 -0.03657326413791108 0.36814854998852897 0 -0.046390189132993663 0.34788390223251098 0 -0.03657326413791108 0.36814854998852897 0 -0.046390189132993663 0.34788390223251098 0 -0.046390189132993663 0.34788390223251098 0 -0.062544361299902207 0.36522916565841668 0 -0.046390189132993663 0.34788390223251098 0 -0.062544361299902207 0.36522916565841668 0 -0.07095682951195019 0.34612476998706659 0 -0.03657326413791108 0.36814854998852897 0 -0.062544361299902207 0.36522916565841668 0 -0.0437682588446748 0.38471104712025489 0 -0.03657326413791108 0.36814854998852897 0 -0.046390189132993663 0.34788390223251098 0 -0.062544361299902207 0.36522916565841668 0 -0.062544361299902207 0.36522916565841668 0 -0.081655190734918143 0.36362573609919441 0 -0.078698533466811688 0.38257442908432171 0 -0.062544361299902207 0.36522916565841668 0 -0.078698533466811688 0.38257442908432171 0 -0.081655190734918143 0.36362573609919441 0 -0.093826568502452551 0.37246991762324599 0 -0.078698533466811688 0.38257442908432171 0 -0.081655190734918143 0.36362573609919441 0 -0.093826568502452551 0.37246991762324599 0 -0.099752760986312347 0.35727965549448171 0 -0.081655190734918143 0.36362573609919441 0 -0.085792592805014056 0.35072842125874731 0 -0.099752760986312347 0.35727965549448171 0 -0.081655190734918143 0.36362573609919441 0 -0.085792592805014056 0.35072842125874731 0 -0.07095682951195019 0.34612476998706659 0 -0.085792592805014056 0.35072842125874731 0 -0.07095682951195019 0.34612476998706659 0 -0.090805589986875546 0.33588352345424638 0 -0.085792592805014056 0.35072842125874731 0 -0.090805589986875546 0.33588352345424638 0 -0.099752760986312347 0.35727965549448171 0 -0.062544361299902207 0.36522916565841668 0 -0.081655190734918143 0.36362573609919441 0 -0.07095682951195019 0.34612476998706659 0 -0.07095682951195019 0.34612476998706659 0 -0.07255121919907824 0.32929496760630261 0 -0.090805589986875546 0.33588352345424638 0 -0.053511048601191262 0.33318462431042412 0 -0.07095682951195019 0.34612476998706659 0 -0.07255121919907824 0.32929496760630261 0 -0.060631908069385843 0.3184853463883357 0 -0.07255121919907824 0.32929496760630261 0 -0.081858418987438786 0.31448739141401127 0 -0.065463073829539947 0.30515557417389122 0 -0.060631908069385843 0.3184853463883357 0 -0.081858418987438786 0.31448739141401127 0 -0.081858418987438786 0.31448739141401127 0 -0.090805589986875546 0.33588352345424638 0 -0.081858418987438786 0.31448739141401127 0 -0.090805589986875546 0.33588352345424638 0 -0.1035302545734969 0.31624112245816582 0 -0.07255121919907824 0.32929496760630261 0 -0.081858418987438786 0.31448739141401127 0 -0.090805589986875546 0.33588352345424638 0 -0.090805589986875546 0.33588352345424638 0 -0.1157197670586784 0.33804709743087502 0 -0.099752760986312347 0.35727965549448171 0 -0.090805589986875546 0.33588352345424638 0 -0.1035302545734969 0.31624112245816582 0 -0.1157197670586784 0.33804709743087502 0 -0.12634938830538101 0.31244775242356221 0 -0.1035302545734969 0.31624112245816582 0 -0.1157197670586784 0.33804709743087502 0 -0.133105152246457 0.35724375183742962 0 -0.1157197670586784 0.33804709743087502 0 -0.1148767948118867 0.35407642262420741 0 -0.1157197670586784 0.33804709743087502 0 -0.1148767948118867 0.35407642262420741 0 -0.099752760986312347 0.35727965549448171 0 -0.133105152246457 0.35724375183742962 0 -0.1126294939057787 0.36813572426569119 0 -0.12489821836988629 0.38504933412521658 0 -0.133105152246457 0.35724375183742962 0 -0.1148767948118867 0.35407642262420741 0 -0.1126294939057787 0.36813572426569119 0 -0.1148767948118867 0.35407642262420741 0 -0.1126294939057787 0.36813572426569119 0 -0.099752760986312347 0.35727965549448171 0 -0.1126294939057787 0.36813572426569119 0 -0.093826568502452551 0.37246991762324599 0 -0.099752760986312347 0.35727965549448171 0 -0.090805589986875546 0.33588352345424638 0 -0.099752760986312347 0.35727965549448171 0 -0.096396863418441892 0.39073404317254118 0 -0.110059694654426 0.39856913303451891 0 -0.097277915376510163 0.40877412628587179 0 -0.1126294939057787 0.36813572426569119 0 -0.093826568502452551 0.37246991762324599 0 -0.096396863418441892 0.39073404317254118 0 -0.1126294939057787 0.36813572426569119 0 -0.096396863418441892 0.39073404317254118 0 -0.1126294939057787 0.36813572426569119 0 -0.096396863418441892 0.39073404317254118 0 -0.12489821836988629 0.38504933412521658 0 -0.096396863418441892 0.39073404317254118 0 -0.12489821836988629 0.38504933412521658 0 -0.110059694654426 0.39856913303451891 0 -0.12489821836988629 0.38504933412521658 0 -0.11669128449331551 0.41285491641300348 0 -0.12489821836988629 0.38504933412521658 0 -0.110059694654426 0.39856913303451891 0 -0.11669128449331551 0.41285491641300348 0 -0.110059694654426 0.39856913303451891 0 -0.11669128449331551 0.41285491641300348 0 -0.1062050328026697 0.41524127652315101 0 -0.11669128449331551 0.41285491641300348 0 -0.1062276667539513 0.42611058900440069 0 -0.11669128449331551 0.41285491641300348 0 -0.1062276667539513 0.42611058900440069 0 -0.1062050328026697 0.41524127652315101 0 -0.13115928916177991 0.43005933000412738 0 -0.11669128449331551 0.41285491641300348 0 -0.1102609755425394 0.43464118730975571 0 -0.11669128449331551 0.41285491641300348 0 -0.1102609755425394 0.43464118730975571 0 -0.11669128449331551 0.41285491641300348 0 -0.1102609755425394 0.43464118730975571 0 -0.1062276667539513 0.42611058900440069 0 -0.1062276667539513 0.42611058900440069 0 -0.094509674691452217 0.42362456444705521 0 -0.095764049014587252 0.43936626159579811 0 -0.1102609755425394 0.43464118730975571 0 -0.1062276667539513 0.42611058900440069 0 -0.095764049014587252 0.43936626159579811 0 -0.1062276667539513 0.42611058900440069 0 -0.095764049014587252 0.43936626159579811 0 -0.110059694654426 0.39856913303451891 0 -0.1062050328026697 0.41524127652315101 0 -0.097277915376510163 0.40877412628587179 0 -0.1062276667539513 0.42611058900440069 0 -0.094509674691452217 0.42362456444705521 0 -0.1062050328026697 0.41524127652315101 0 -0.094509674691452217 0.42362456444705521 0 -0.1062050328026697 0.41524127652315101 0 -0.097277915376510163 0.40877412628587179 0 -0.094509674691452217 0.42362456444705521 0 -0.097277915376510163 0.40877412628587179 0 -0.080164232931105001 0.41333236207939128 0 -0.094509674691452217 0.42362456444705521 0 -0.080978629870418192 0.43848125560877338 0 -0.095764049014587252 0.43936626159579811 0 -0.094509674691452217 0.42362456444705521 0 -0.080164232931105001 0.41333236207939128 0 -0.080978629870418192 0.43848125560877338 0 -0.080164232931105001 0.41333236207939128 0 -0.063931602443768262 0.43593068098624121 0 -0.080164232931105001 0.41333236207939128 0 -0.063931602443768262 0.43593068098624121 0 -0.080978629870418192 0.43848125560877338 0 -0.080164232931105001 0.41333236207939128 0 -0.063931602443768262 0.43593068098624121 0 -0.060408009804499348 0.41938366528481241 0 -0.080164232931105001 0.41333236207939128 0 -0.070478030252884544 0.39838004728887472 0 -0.060408009804499348 0.41938366528481241 0 -0.096396863418441892 0.39073404317254118 0 -0.080164232931105001 0.41333236207939128 0 -0.070478030252884544 0.39838004728887472 0 -0.096396863418441892 0.39073404317254118 0 -0.097277915376510163 0.40877412628587179 0 -0.080164232931105001 0.41333236207939128 0 -0.096396863418441892 0.39073404317254118 0 -0.080164232931105001 0.41333236207939128 0 -0.093826568502452551 0.37246991762324599 0 -0.096396863418441892 0.39073404317254118 0 -0.078698533466811688 0.38257442908432171 0 -0.096396863418441892 0.39073404317254118 0 -0.070478030252884544 0.39838004728887472 0 -0.078698533466811688 0.38257442908432171 0 -0.062544361299902207 0.36522916565841668 0 -0.078698533466811688 0.38257442908432171 0 -0.061124326458717473 0.38661122194989178 0 -0.070478030252884544 0.39838004728887472 0 -0.078698533466811688 0.38257442908432171 0 -0.061124326458717473 0.38661122194989178 0 -0.062544361299902207 0.36522916565841668 0 -0.061124326458717473 0.38661122194989178 0 -0.0437682588446748 0.38471104712025489 0 -0.061124326458717473 0.38661122194989178 0 -0.051738268363436722 0.40350616039360587 0 -0.0437682588446748 0.38471104712025489 0 -0.070478030252884544 0.39838004728887472 0 -0.061124326458717473 0.38661122194989178 0 -0.051738268363436722 0.40350616039360587 0 -0.051738268363436722 0.40350616039360587 0 -0.033122516485801973 0.40410368821158382 0 -0.0437682588446748 0.38471104712025489 0 -0.033122516485801973 0.40410368821158382 0 -0.0437682588446748 0.38471104712025489 0 -0.026756339142825551 0.38841319774454552 0 -0.03657326413791108 0.36814854998852897 0 -0.026756339142825551 0.38841319774454552 0 -0.03657326413791108 0.36814854998852897 0 -0.0437682588446748 0.38471104712025489 0 -0.026756339142825551 0.38841319774454552 0 -0.015852015901626389 0.37372462600530471 0 -0.03657326413791108 0.36814854998852897 0 -0.026756339142825551 0.38841319774454552 0 -0.015852015901626389 0.37372462600530471 0 -0.026756339142825551 0.38841319774454552 0 -0.01172806663937228 0.39597676074200899 0 -0.033122516485801973 0.40410368821158382 0 -0.01172806663937228 0.39597676074200899 0 -0.015881701261914329 0.41343615935137962 0 -0.033122516485801973 0.40410368821158382 0 -0.026756339142825551 0.38841319774454552 0 -0.01172806663937228 0.39597676074200899 0 -0.01172806663937228 0.39597676074200899 0 0.0026210578660720301 0.40829700878198949 0 0.00037264731633979142 0.38217558503673832 0 -0.01172806663937228 0.39597676074200899 0 -0.015881701261914329 0.41343615935137962 0 0.0026210578660720301 0.40829700878198949 0 -0.015852015901626389 0.37372462600530471 0 -0.01172806663937228 0.39597676074200899 0 0.00037264731633979142 0.38217558503673832 0 -0.0096688337351077888 0.43518737276166031 0 0.0026210578660720301 0.40829700878198949 0 -0.0096688337351077888 0.43518737276166031 0 -0.015881701261914329 0.41343615935137962 0 0.0026210578660720301 0.40829700878198949 0 -0.033122516485801973 0.40410368821158382 0 -0.015881701261914329 0.41343615935137962 0 -0.027510147315361642 0.42361596625965497 0 -0.0096688337351077888 0.43518737276166031 0 -0.027510147315361642 0.42361596625965497 0 -0.033696299366701279 0.43991361858572448 0 -0.0096688337351077888 0.43518737276166031 0 -0.015881701261914329 0.41343615935137962 0 -0.027510147315361642 0.42361596625965497 0 -0.027510147315361642 0.42361596625965497 0 -0.043483926029717818 0.42086203274591011 0 -0.033696299366701279 0.43991361858572448 0 -0.043483926029717818 0.42086203274591011 0 -0.05329280388715088 0.43473271341375408 0 -0.033696299366701279 0.43991361858572448 0 -0.033122516485801973 0.40410368821158382 0 -0.027510147315361642 0.42361596625965497 0 -0.043483926029717818 0.42086203274591011 0 -0.051738268363436722 0.40350616039360587 0 -0.033122516485801973 0.40410368821158382 0 -0.043483926029717818 0.42086203274591011 0 -0.070478030252884544 0.39838004728887472 0 -0.051738268363436722 0.40350616039360587 0 -0.060408009804499348 0.41938366528481241 0 -0.051738268363436722 0.40350616039360587 0 -0.043483926029717818 0.42086203274591011 0 -0.060408009804499348 0.41938366528481241 0 -0.043483926029717818 0.42086203274591011 0 -0.060408009804499348 0.41938366528481241 0 -0.05329280388715088 0.43473271341375408 0 -0.063931602443768262 0.43593068098624121 0 -0.060408009804499348 0.41938366528481241 0 -0.05329280388715088 0.43473271341375408 0 -0.063931602443768262 0.43593068098624121 0 -0.05329280388715088 0.43473271341375408 0 -0.056824965204818688 0.45120363319616352 0 -0.05329280388715088 0.43473271341375408 0 -0.043770710412306513 0.46185040706737801 0 -0.05329280388715088 0.43473271341375408 0 -0.056824965204818688 0.45120363319616352 0 -0.043770710412306513 0.46185040706737801 0 -0.043770710412306513 0.46185040706737801 0 -0.061958932830245242 0.47681204343206551 0 -0.064939685442891165 0.46182506332271123 0 -0.056824965204818688 0.45120363319616352 0 -0.043770710412306513 0.46185040706737801 0 -0.064939685442891165 0.46182506332271123 0 -0.043770710412306513 0.46185040706737801 0 -0.033696299366701279 0.43991361858572448 0 -0.02195872533628759 0.46207773674133112 0 -0.05329280388715088 0.43473271341375408 0 -0.043770710412306513 0.46185040706737801 0 -0.033696299366701279 0.43991361858572448 0 -0.0096688337351077888 0.43518737276166031 0 -0.033696299366701279 0.43991361858572448 0 -0.02195872533628759 0.46207773674133112 0 -0.0096688337351077888 0.43518737276166031 0 -0.02195872533628759 0.46207773674133112 0 -0.02195872533628759 0.46207773674133112 0 -0.0010394636373830389 0.46156839135186112 0 -0.016574233706221551 0.48079229836293619 0 -0.0096688337351077888 0.43518737276166031 0 -0.02195872533628759 0.46207773674133112 0 -0.0010394636373830389 0.46156839135186112 0 -0.013366155679640499 0.5 0 -0.0048617928662866806 0.48882511462333661 0 0.0036425699470663099 0.50000000000000022 0 -0.0048617928662866806 0.48882511462333661 0 -0.016574233706221551 0.48079229836293619 0 -0.019885136099192721 0.49171710274145508 0 -0.013366155679640499 0.5 0 -0.0048617928662866806 0.48882511462333661 0 -0.019885136099192721 0.49171710274145508 0 -0.0010394636373830389 0.46156839135186112 0 -0.016574233706221551 0.48079229836293619 0 0.005006686924833483 0.47883435105617261 0 -0.0048617928662866806 0.48882511462333661 0 -0.016574233706221551 0.48079229836293619 0 0.005006686924833483 0.47883435105617261 0 -0.02195872533628759 0.46207773674133112 0 -0.016574233706221551 0.48079229836293619 0 -0.03424861693746524 0.48896810072100289 0 -0.02195872533628759 0.46207773674133112 0 -0.03424861693746524 0.48896810072100289 0 -0.016574233706221551 0.48079229836293619 0 -0.019885136099192721 0.49171710274145508 0 -0.03424861693746524 0.48896810072100289 0 -0.013366155679640499 0.5 0 -0.019885136099192721 0.49171710274145508 0 -0.030374881306347339 0.50000000000000067 0 -0.019885136099192721 0.49171710274145508 0 -0.030374881306347339 0.50000000000000067 0 -0.03424861693746524 0.48896810072100289 0 -0.030374881306347339 0.50000000000000067 0 -0.03424861693746524 0.48896810072100289 0 -0.039290603219119369 0.50000000000000444 0 -0.03424861693746524 0.48896810072100289 0 -0.039290603219119369 0.50000000000000444 0 -0.050697572227174269 0.48811845615863642 0 -0.030374881306347339 0.50000000000000067 0 -0.03424861693746524 0.48896810072100289 0 -0.03424861693746524 0.48896810072100289 0 -0.039290603219119369 0.50000000000000444 0 -0.043770710412306513 0.46185040706737801 0 -0.03424861693746524 0.48896810072100289 0 -0.043770710412306513 0.46185040706737801 0 -0.02195872533628759 0.46207773674133112 0 -0.03424861693746524 0.48896810072100289 0 -0.043770710412306513 0.46185040706737801 0 -0.03424861693746524 0.48896810072100289 0 -0.050697572227174269 0.48811845615863642 0 -0.043770710412306513 0.46185040706737801 0 -0.061958932830245242 0.47681204343206551 0 -0.050697572227174269 0.48811845615863642 0 -0.039290603219119369 0.50000000000000444 0 -0.050697572227174269 0.48811845615863642 0 -0.065130325954663393 0.5 0 -0.061958932830245242 0.47681204343206551 0 -0.050697572227174269 0.48811845615863642 0 -0.065130325954663393 0.5 0 -0.090970048690207556 0.50000000000001132 0 -0.07995772443934758 0.47583424420354142 0 -0.097400357640986868 0.47821372910326021 0 -0.065130325954663393 0.5 0 -0.090970048690207556 0.50000000000001132 0 -0.07995772443934758 0.47583424420354142 0 -0.07995772443934758 0.47583424420354142 0 -0.089916595569692198 0.46388016343889982 0 -0.097400357640986868 0.47821372910326021 0 -0.061958932830245242 0.47681204343206551 0 -0.065130325954663393 0.5 0 -0.07995772443934758 0.47583424420354142 0 -0.061958932830245242 0.47681204343206551 0 -0.07995772443934758 0.47583424420354142 0 -0.064939685442891165 0.46182506332271123 0 -0.07995772443934758 0.47583424420354142 0 -0.064939685442891165 0.46182506332271123 0 -0.078570702871028131 0.45745786811289368 0 -0.056824965204818688 0.45120363319616352 0 -0.064939685442891165 0.46182506332271123 0 -0.06855507689960097 0.44779218392422532 0 -0.064939685442891165 0.46182506332271123 0 -0.06855507689960097 0.44779218392422532 0 -0.078570702871028131 0.45745786811289368 0 -0.06855507689960097 0.44779218392422532 0 -0.080978629870418192 0.43848125560877338 0 -0.078570702871028131 0.45745786811289368 0 -0.063931602443768262 0.43593068098624121 0 -0.06855507689960097 0.44779218392422532 0 -0.080978629870418192 0.43848125560877338 0 -0.063931602443768262 0.43593068098624121 0 -0.056824965204818688 0.45120363319616352 0 -0.06855507689960097 0.44779218392422532 0 -0.080978629870418192 0.43848125560877338 0 -0.089823526305335286 0.45146751756829601 0 -0.078570702871028131 0.45745786811289368 0 -0.080978629870418192 0.43848125560877338 0 -0.089823526305335286 0.45146751756829601 0 -0.095764049014587252 0.43936626159579811 0 -0.07995772443934758 0.47583424420354142 0 -0.078570702871028131 0.45745786811289368 0 -0.089916595569692198 0.46388016343889982 0 -0.089823526305335286 0.45146751756829601 0 -0.078570702871028131 0.45745786811289368 0 -0.089916595569692198 0.46388016343889982 0 -0.1038306665917631 0.45642745820650787 0 -0.097400357640986868 0.47821372910326021 0 -0.089916595569692198 0.46388016343889982 0 -0.1038306665917631 0.45642745820650787 0 -0.097400357640986868 0.47821372910326021 0 -0.089823526305335286 0.45146751756829601 0 -0.089916595569692198 0.46388016343889982 0 -0.1038306665917631 0.45642745820650787 0 -0.089823526305335286 0.45146751756829601 0 -0.1038306665917631 0.45642745820650787 0 -0.095764049014587252 0.43936626159579811 0 -0.1102609755425394 0.43464118730975571 0 -0.1038306665917631 0.45642745820650787 0 -0.1102609755425394 0.43464118730975571 0 -0.1038306665917631 0.45642745820650787 0 -0.095764049014587252 0.43936626159579811 0 -0.12516841094691289 0.4495105975028017 0 -0.1102609755425394 0.43464118730975571 0 -0.1038306665917631 0.45642745820650787 0 -0.12516841094691289 0.4495105975028017 0 -0.13115928916177991 0.43005933000412738 0 -0.1102609755425394 0.43464118730975571 0 -0.12516841094691289 0.4495105975028017 0 -0.1038306665917631 0.45642745820650787 0 -0.1207610548997911 0.47204153038836028 0 -0.1207610548997911 0.47204153038836028 0 -0.12029679558512429 0.5 0 -0.097400357640986868 0.47821372910326021 0 -0.090970048690207556 0.50000000000001132 0 -0.097400357640986868 0.47821372910326021 0 -0.090970048690207556 0.50000000000001132 0 -0.12029679558512429 0.5 0 -0.097400357640986868 0.47821372910326021 0 -0.1038306665917631 0.45642745820650787 0 -0.1207610548997911 0.47204153038836028 0 -0.097400357640986868 0.47821372910326021 0 -0.1631225062723298 0.074251314660481599 0 -0.17636165872581869 0.087135549843147378 0 -0.15597343726269891 0.1009701478560803 0 -0.1631225062723298 0.074251314660481599 0 -0.15597343726269891 0.1009701478560803 0 -0.1631225062723298 0.074251314660481599 0 -0.1752433789360254 0.06775480365324249 0 -0.17027157528196421 0.047532481464883793 0 -0.1631225062723298 0.074251314660481599 0 -0.1752433789360254 0.06775480365324249 0 -0.17636165872581869 0.087135549843147378 0 -0.1752433789360254 0.06775480365324249 0 -0.1862002927678873 0.072560731459141534 0 -0.17636165872581869 0.087135549843147378 0 -0.1752433789360254 0.06775480365324249 0 -0.1862002927678873 0.072560731459141534 0 -0.18026086163212859 0.057293940838558627 0 -0.17636165872581869 0.087135549843147378 0 -0.19344216401089839 0.087045725975270535 0 -0.18773081238053349 0.099008793952034019 0 -0.1862002927678873 0.072560731459141534 0 -0.17636165872581869 0.087135549843147378 0 -0.19344216401089839 0.087045725975270535 0 -0.17636165872581869 0.087135549843147378 0 -0.1748826921341991 0.1101507464267184 0 -0.18773081238053349 0.099008793952034019 0 -0.1748826921341991 0.1101507464267184 0 -0.18922286181994319 0.1097882139790686 0 -0.18773081238053349 0.099008793952034019 0 -0.1748826921341991 0.1101507464267184 0 -0.19379194700569921 0.1193313449973568 0 -0.18922286181994319 0.1097882139790686 0 -0.1807055611592753 0.1222213690145703 0 -0.1748826921341991 0.1101507464267184 0 -0.19379194700569921 0.1193313449973568 0 -0.1748826921341991 0.1101507464267184 0 -0.19379194700569921 0.1193313449973568 0 -0.1807055611592753 0.1222213690145703 0 -0.1748826921341991 0.1101507464267184 0 -0.16846530882462071 0.13171392438793991 0 -0.1748826921341991 0.1101507464267184 0 -0.15597343726269891 0.1009701478560803 0 -0.15123419683471551 0.118682520515855 0 -0.1748826921341991 0.1101507464267184 0 -0.15123419683471551 0.118682520515855 0 -0.16846530882462071 0.13171392438793991 0 -0.17636165872581869 0.087135549843147378 0 -0.1748826921341991 0.1101507464267184 0 -0.15597343726269891 0.1009701478560803 0 -0.1748826921341991 0.1101507464267184 0 -0.15597343726269891 0.1009701478560803 0 -0.15597343726269891 0.1009701478560803 0 -0.13354198269330661 0.090079492398921407 0 -0.15597343726269891 0.1009701478560803 0 -0.14016329476371719 0.1103099096129723 0 -0.13354198269330661 0.090079492398921407 0 -0.15597343726269891 0.1009701478560803 0 -0.15123419683471551 0.118682520515855 0 -0.15597343726269891 0.1009701478560803 0 -0.15123419683471551 0.118682520515855 0 -0.14016329476371719 0.1103099096129723 0 -0.15123419683471551 0.118682520515855 0 -0.14888358540213589 0.1274676636848677 0 -0.15123419683471551 0.118682520515855 0 -0.14016329476371719 0.1103099096129723 0 -0.15123419683471551 0.118682520515855 0 -0.13943672542501021 0.1226227336581521 0 -0.14016329476371719 0.1103099096129723 0 -0.15123419683471551 0.118682520515855 0 -0.13943672542501021 0.1226227336581521 0 -0.14888358540213589 0.1274676636848677 0 -0.13943672542501021 0.1226227336581521 0 -0.14016329476371719 0.1103099096129723 0 -0.1284821480166535 0.1137632357378007 0 -0.13943672542501021 0.1226227336581521 0 -0.1284821480166535 0.1137632357378007 0 -0.12699073800916399 0.1277996415964478 0 -0.1284821480166535 0.1137632357378007 0 -0.13354198269330661 0.090079492398921407 0 -0.1177399202292308 0.1070916594883476 0 -0.14016329476371719 0.1103099096129723 0 -0.1284821480166535 0.1137632357378007 0 -0.13354198269330661 0.090079492398921407 0 -0.13354198269330661 0.090079492398921407 0 -0.14705545484781271 0.082154458756640319 0 -0.12936541511880731 0.073230595649532326 0 -0.15597343726269891 0.1009701478560803 0 -0.13354198269330661 0.090079492398921407 0 -0.14705545484781271 0.082154458756640319 0 -0.1631225062723298 0.074251314660481599 0 -0.15597343726269891 0.1009701478560803 0 -0.14705545484781271 0.082154458756640319 0 -0.1631225062723298 0.074251314660481599 0 -0.14705545484781271 0.082154458756640319 0 -0.13981811038868219 0.058494694747308978 0 -0.14705545484781271 0.082154458756640319 0 -0.12936541511880731 0.073230595649532326 0 -0.13981811038868219 0.058494694747308978 0 -0.13981811038868219 0.058494694747308978 0 -0.12735046531874469 0.043680477281468268 0 -0.112497703185479 0.053371735304928732 0 -0.13981811038868219 0.058494694747308978 0 -0.12735046531874469 0.043680477281468268 0 -0.14107983274338759 0.041458619323925028 0 -0.12936541511880731 0.073230595649532326 0 -0.13981811038868219 0.058494694747308978 0 -0.112497703185479 0.053371735304928732 0 -0.12735046531874469 0.043680477281468268 0 -0.1284228677841299 0.032335744680439857 0 -0.14107983274338759 0.041458619323925028 0 -0.1284228677841299 0.032335744680439857 0 -0.14107983274338759 0.041458619323925028 0 -0.13851535798812911 0.028004607003639329 0 -0.14107983274338759 0.041458619323925028 0 -0.13851535798812911 0.028004607003639329 0 -0.15667860297914751 0.034249525881247259 0 -0.14107983274338759 0.041458619323925028 0 -0.15493996292142251 0.0523456432624161 0 -0.15667860297914751 0.034249525881247259 0 -0.1631225062723298 0.074251314660481599 0 -0.13981811038868219 0.058494694747308978 0 -0.15493996292142251 0.0523456432624161 0 -0.13981811038868219 0.058494694747308978 0 -0.14107983274338759 0.041458619323925028 0 -0.15493996292142251 0.0523456432624161 0 -0.13374372074794261 0.0065571909176088926 0 -0.13164590146551461 0.0097877485056629132 0 -0.14728126924118529 0.014505455121504069 0 -0.14385230174742869 -0.0007513362545505406 0 -0.1322115625968833 -0.0048588272694234684 0 -0.13374372074794261 0.0065571909176088926 0 -0.1202061722546995 -0.0013910732862858659 0 -0.13164590146551461 0.0097877485056629132 0 -0.1202061722546995 -0.0013910732862858659 0 -0.1322115625968833 -0.0048588272694234684 0 -0.13374372074794261 0.0065571909176088926 0 -0.1202061722546995 -0.0013910732862858659 0 -0.13374372074794261 0.0065571909176088926 0 -0.1202061722546995 -0.0013910732862858659 0 -0.13374372074794261 0.0065571909176088926 0 -0.13164590146551461 0.0097877485056629132 0 -0.13164590146551461 0.0097877485056629132 0 -0.12972333112282211 0.021635635646294591 0 -0.1187332144630753 0.013936095380259949 0 -0.13164590146551461 0.0097877485056629132 0 -0.14308563067633001 0.02096657029761136 0 -0.13374372074794261 0.0065571909176088926 0 -0.14728126924118529 0.014505455121504069 0 -0.13164590146551461 0.0097877485056629132 0 -0.12972333112282211 0.021635635646294591 0 -0.14308563067633001 0.02096657029761136 0 -0.1284228677841299 0.032335744680439857 0 -0.12972333112282211 0.021635635646294591 0 -0.1174458562074427 0.025546133892312618 0 -0.1284228677841299 0.032335744680439857 0 -0.12972333112282211 0.021635635646294591 0 -0.13851535798812911 0.028004607003639329 0 -0.12972333112282211 0.021635635646294591 0 -0.13851535798812911 0.028004607003639329 0 -0.14308563067633001 0.02096657029761136 0 -0.13851535798812911 0.028004607003639329 0 -0.14308563067633001 0.02096657029761136 0 -0.15667860297914751 0.034249525881247259 0 -0.13851535798812911 0.028004607003639329 0 -0.14308563067633001 0.02096657029761136 0 -0.15202362846444931 0.02217780270195709 0 -0.14308563067633001 0.02096657029761136 0 -0.15667860297914751 0.034249525881247259 0 -0.14308563067633001 0.02096657029761136 0 -0.15667860297914751 0.034249525881247259 0 -0.14728126924118529 0.014505455121504069 0 -0.16103433975605391 0.02258025818658933 0 -0.15202362846444931 0.02217780270195709 0 -0.14728126924118529 0.014505455121504069 0 -0.16103433975605391 0.02258025818658933 0 -0.15202362846444931 0.02217780270195709 0 -0.14308563067633001 0.02096657029761136 0 -0.14728126924118529 0.014505455121504069 0 -0.14308563067633001 0.02096657029761136 0 -0.14728126924118529 0.014505455121504069 0 -0.16139484457369621 -0.0072288850416046789 0 -0.14728126924118529 0.014505455121504069 0 -0.14385230174742869 -0.0007513362545505406 0 -0.16139484457369621 -0.0072288850416046789 0 -0.14728126924118529 0.014505455121504069 0 -0.13164590146551461 0.0097877485056629132 0 -0.14308563067633001 0.02096657029761136 0 -0.14728126924118529 0.014505455121504069 0 -0.14385230174742869 -0.0007513362545505406 0 -0.13374372074794261 0.0065571909176088926 0 -0.14728126924118529 0.014505455121504069 0 -0.14728126924118529 0.014505455121504069 0 -0.16490393677323331 0.0078262417282228373 0 -0.16103433975605391 0.02258025818658933 0 -0.16490393677323331 0.0078262417282228373 0 -0.16103433975605391 0.02258025818658933 0 -0.18012443120693261 0.010708551858828731 0 -0.16139484457369621 -0.0072288850416046789 0 -0.14728126924118529 0.014505455121504069 0 -0.16490393677323331 0.0078262417282228373 0 -0.16103433975605391 0.02258025818658933 0 -0.17478741027092209 0.030655061251675012 0 -0.15667860297914751 0.034249525881247259 0 -0.15202362846444931 0.02217780270195709 0 -0.16103433975605391 0.02258025818658933 0 -0.15667860297914751 0.034249525881247259 0 -0.16103433975605391 0.02258025818658933 0 -0.17478741027092209 0.030655061251675012 0 -0.17478741027092209 0.030655061251675012 0 -0.18012443120693261 0.010708551858828731 0 -0.17478741027092209 0.030655061251675012 0 -0.18012443120693261 0.010708551858828731 0 -0.19569570414869791 0.022048598308245369 0 -0.16103433975605391 0.02258025818658933 0 -0.17478741027092209 0.030655061251675012 0 -0.18012443120693261 0.010708551858828731 0 -0.1854614521429454 -0.0092379575340169606 0 -0.18012443120693261 0.010708551858828731 0 -0.19633944426408809 0.00466060732896001 0 -0.1854614521429454 -0.0092379575340169606 0 -0.18012443120693261 0.010708551858828731 0 -0.17524180425740291 -0.0061600029170402653 0 -0.16490393677323331 0.0078262417282228373 0 -0.18012443120693261 0.010708551858828731 0 -0.1631225062723298 0.074251314660481599 0 -0.17027157528196421 0.047532481464883793 0 -0.1631225062723298 0.074251314660481599 0 -0.15493996292142251 0.0523456432624161 0 -0.17027157528196421 0.047532481464883793 0 -0.15493996292142251 0.0523456432624161 0 -0.17027157528196421 0.047532481464883793 0 -0.15667860297914751 0.034249525881247259 0 -0.17027157528196421 0.047532481464883793 0 -0.15667860297914751 0.034249525881247259 0 -0.17478741027092209 0.030655061251675012 0 -0.17027157528196421 0.047532481464883793 0 -0.15667860297914751 0.034249525881247259 0 -0.17478741027092209 0.030655061251675012 0 -0.17027157528196421 0.047532481464883793 0 -0.18196939148255031 0.045553589834538402 0 -0.17478741027092209 0.030655061251675012 0 -0.18196939148255031 0.045553589834538402 0 -0.19308095671227771 0.04139570165748329 0 -0.17478741027092209 0.030655061251675012 0 -0.17027157528196421 0.047532481464883793 0 -0.17478741027092209 0.030655061251675012 0 -0.19308095671227771 0.04139570165748329 0 -0.1752433789360254 0.06775480365324249 0 -0.17027157528196421 0.047532481464883793 0 -0.18026086163212859 0.057293940838558627 0 -0.18196939148255031 0.045553589834538402 0 -0.18026086163212859 0.057293940838558627 0 -0.19834979291729041 0.055890696194585032 0 -0.17027157528196421 0.047532481464883793 0 -0.18026086163212859 0.057293940838558627 0 -0.17027157528196421 0.047532481464883793 0 -0.18196939148255031 0.045553589834538402 0 -0.18026086163212859 0.057293940838558627 0 -0.18196939148255031 0.045553589834538402 0 -0.19834979291729041 0.055890696194585032 0 -0.19308095671227771 0.04139570165748329 0 -0.1862002927678873 0.072560731459141534 0 -0.18026086163212859 0.057293940838558627 0 -0.19834979291729041 0.055890696194585032 0 -0.19834979291729041 0.055890696194585032 0 -0.19308095671227771 0.04139570165748329 0 -0.20899835239046899 0.035974845264358637 0 -0.17478741027092209 0.030655061251675012 0 -0.19308095671227771 0.04139570165748329 0 -0.19569570414869791 0.022048598308245369 0 -0.19308095671227771 0.04139570165748329 0 -0.20899835239046899 0.035974845264358637 0 -0.19569570414869791 0.022048598308245369 0 -0.19834979291729041 0.055890696194585032 0 -0.20899835239046899 0.035974845264358637 0 -0.22189997168775921 0.056401598624421179 0 -0.19633944426408809 0.00466060732896001 0 -0.19569570414869791 0.022048598308245369 0 -0.2149907176199192 0.011062683029353881 0 -0.18012443120693261 0.010708551858828731 0 -0.19633944426408809 0.00466060732896001 0 -0.19569570414869791 0.022048598308245369 0 -0.20899835239046899 0.035974845264358637 0 -0.19569570414869791 0.022048598308245369 0 -0.2149907176199192 0.011062683029353881 0 -0.20899835239046899 0.035974845264358637 0 -0.2149907176199192 0.011062683029353881 0 -0.22997297125686961 0.02904979377206313 0 -0.20542491620194561 -0.011278839017610971 0 -0.19633944426408809 0.00466060732896001 0 -0.2149907176199192 0.011062683029353881 0 -0.22558477193685969 -0.009933186482104249 0 -0.2149907176199192 0.011062683029353881 0 -0.24246841339286879 0.0059924289061955363 0 -0.2149907176199192 0.011062683029353881 0 -0.22997297125686961 0.02904979377206313 0 -0.24246841339286879 0.0059924289061955363 0 -0.22997297125686961 0.02904979377206313 0 -0.24246841339286879 0.0059924289061955363 0 -0.24959440881251921 0.034531036724415987 0 -0.2583402395750603 0.055023550802444948 0 -0.22189997168775921 0.056401598624421179 0 -0.24959440881251921 0.034531036724415987 0 -0.2583402395750603 0.055023550802444948 0 -0.22189997168775921 0.056401598624421179 0 -0.2377951598790477 0.073523087065822029 0 -0.22997297125686961 0.02904979377206313 0 -0.22189997168775921 0.056401598624421179 0 -0.24959440881251921 0.034531036724415987 0 -0.22997297125686961 0.02904979377206313 0 -0.22189997168775921 0.056401598624421179 0 -0.20899835239046899 0.035974845264358637 0 -0.22997297125686961 0.02904979377206313 0 -0.22189997168775921 0.056401598624421179 0 -0.25705194419740379 0.078948087156403529 0 -0.2377951598790477 0.073523087065822029 0 -0.23785667181636741 0.093488795269061634 0 -0.23785667181636741 0.093488795269061634 0 -0.2138269721186479 0.083753403476778815 0 -0.2377951598790477 0.073523087065822029 0 -0.23785667181636741 0.093488795269061634 0 -0.2138269721186479 0.083753403476778815 0 -0.22189997168775921 0.056401598624421179 0 -0.2377951598790477 0.073523087065822029 0 -0.2138269721186479 0.083753403476778815 0 -0.19834979291729041 0.055890696194585032 0 -0.22189997168775921 0.056401598624421179 0 -0.2138269721186479 0.083753403476778815 0 -0.22189997168775921 0.056401598624421179 0 -0.2138269721186479 0.083753403476778815 0 -0.2138269721186479 0.083753403476778815 0 -0.20309108406160439 0.092770151145250904 0 -0.19344216401089839 0.087045725975270535 0 -0.1862002927678873 0.072560731459141534 0 -0.2138269721186479 0.083753403476778815 0 -0.19344216401089839 0.087045725975270535 0 -0.1862002927678873 0.072560731459141534 0 -0.2138269721186479 0.083753403476778815 0 -0.20309108406160439 0.092770151145250904 0 -0.19344216401089839 0.087045725975270535 0 -0.18773081238053349 0.099008793952034019 0 -0.1862002927678873 0.072560731459141534 0 -0.19834979291729041 0.055890696194585032 0 -0.2138269721186479 0.083753403476778815 0 -0.19723000968486551 0.1156822290439672 0 -0.20721020200087639 0.1061714159472253 0 -0.20059343188310411 0.12858942841767149 0 -0.19723000968486551 0.1156822290439672 0 -0.1914632152496957 0.1302137786519961 0 -0.20059343188310411 0.12858942841767149 0 -0.1807055611592753 0.1222213690145703 0 -0.19379194700569921 0.1193313449973568 0 -0.1914632152496957 0.1302137786519961 0 -0.19723000968486551 0.1156822290439672 0 -0.19379194700569921 0.1193313449973568 0 -0.1914632152496957 0.1302137786519961 0 -0.19723000968486551 0.1156822290439672 0 -0.1914632152496957 0.1302137786519961 0 -0.19723000968486551 0.1156822290439672 0 -0.19379194700569921 0.1193313449973568 0 -0.18922286181994319 0.1097882139790686 0 -0.19723000968486551 0.1156822290439672 0 -0.18922286181994319 0.1097882139790686 0 -0.19690897366454019 0.1053535744445276 0 -0.18922286181994319 0.1097882139790686 0 -0.18773081238053349 0.099008793952034019 0 -0.19690897366454019 0.1053535744445276 0 -0.20309108406160439 0.092770151145250904 0 -0.18773081238053349 0.099008793952034019 0 -0.19690897366454019 0.1053535744445276 0 -0.20309108406160439 0.092770151145250904 0 -0.19690897366454019 0.1053535744445276 0 -0.20721020200087639 0.1061714159472253 0 -0.19723000968486551 0.1156822290439672 0 -0.19690897366454019 0.1053535744445276 0 -0.20721020200087639 0.1061714159472253 0 -0.2138269721186479 0.083753403476778815 0 -0.20309108406160439 0.092770151145250904 0 -0.20721020200087639 0.1061714159472253 0 -0.20721020200087639 0.1061714159472253 0 -0.2151543975621745 0.11318368474237001 0 -0.22476094116670059 0.10521267942639401 0 -0.2138269721186479 0.083753403476778815 0 -0.20721020200087639 0.1061714159472253 0 -0.2138269721186479 0.083753403476778815 0 -0.20721020200087639 0.1061714159472253 0 -0.22476094116670059 0.10521267942639401 0 -0.20721020200087639 0.1061714159472253 0 -0.20059343188310411 0.12858942841767149 0 -0.20721020200087639 0.1061714159472253 0 -0.2151543975621745 0.11318368474237001 0 -0.21093265301325331 0.12023573230752729 0 -0.20721020200087639 0.1061714159472253 0 -0.21093265301325331 0.12023573230752729 0 -0.20059343188310411 0.12858942841767149 0 -0.2151543975621745 0.11318368474237001 0 -0.21093265301325331 0.12023573230752729 0 -0.22002409377351451 0.1212032448750865 0 -0.21093265301325331 0.12023573230752729 0 -0.22002409377351451 0.1212032448750865 0 -0.21228278039494261 0.1320538910935003 0 -0.22002409377351451 0.1212032448750865 0 -0.22476094116670059 0.10521267942639401 0 -0.23465984522559599 0.1213213163240147 0 -0.2151543975621745 0.11318368474237001 0 -0.22002409377351451 0.1212032448750865 0 -0.22476094116670059 0.10521267942639401 0 -0.22002409377351451 0.1212032448750865 0 -0.23465984522559599 0.1213213163240147 0 -0.2255517000595488 0.13214588870121299 0 -0.23785667181636741 0.093488795269061634 0 -0.2138269721186479 0.083753403476778815 0 -0.22476094116670059 0.10521267942639401 0 -0.26188637151409061 0.1032241870613356 0 -0.23785667181636741 0.093488795269061634 0 -0.24538069525023401 0.11002628242505789 0 -0.26188637151409061 0.1032241870613356 0 -0.23785667181636741 0.093488795269061634 0 -0.23785667181636741 0.093488795269061634 0 -0.22476094116670059 0.10521267942639401 0 -0.24538069525023401 0.11002628242505789 0 -0.22476094116670059 0.10521267942639401 0 -0.24538069525023401 0.11002628242505789 0 -0.23465984522559599 0.1213213163240147 0 -0.25522976875176268 0.1246419591823202 0 -0.24538069525023401 0.11002628242505789 0 -0.23465984522559599 0.1213213163240147 0 -0.23819557112678791 0.13286436956006631 0 -0.22885985867031969 0.13974039717775469 0 -0.24579287854133169 0.14255149029060371 0 -0.25522976875176268 0.1246419591823202 0 -0.23819557112678791 0.13286436956006631 0 -0.24579287854133169 0.14255149029060371 0 -0.25522976875176268 0.1246419591823202 0 -0.23465984522559599 0.1213213163240147 0 -0.23819557112678791 0.13286436956006631 0 -0.23465984522559599 0.1213213163240147 0 -0.23819557112678791 0.13286436956006631 0 -0.2255517000595488 0.13214588870121299 0 -0.23819557112678791 0.13286436956006631 0 -0.22885985867031969 0.13974039717775469 0 -0.2255517000595488 0.13214588870121299 0 -0.2255517000595488 0.13214588870121299 0 -0.2188461489734424 0.143731715114643 0 -0.21228278039494261 0.1320538910935003 0 -0.22885985867031969 0.13974039717775469 0 -0.2255517000595488 0.13214588870121299 0 -0.2188461489734424 0.143731715114643 0 -0.22002409377351451 0.1212032448750865 0 -0.2255517000595488 0.13214588870121299 0 -0.21228278039494261 0.1320538910935003 0 -0.22885985867031969 0.13974039717775469 0 -0.22837107978723431 0.15007495277215349 0 -0.24579287854133169 0.14255149029060371 0 -0.21938441050662311 0.15561215485625679 0 -0.22837107978723431 0.15007495277215349 0 -0.2239303690094723 0.16156461377797779 0 -0.21938441050662311 0.15561215485625679 0 -0.2188461489734424 0.143731715114643 0 -0.22837107978723431 0.15007495277215349 0 -0.22885985867031969 0.13974039717775469 0 -0.2188461489734424 0.143731715114643 0 -0.22837107978723431 0.15007495277215349 0 -0.22837107978723431 0.15007495277215349 0 -0.24579287854133169 0.14255149029060371 0 -0.23454669755314431 0.15922491431840621 0 -0.25053511496792102 0.16342135627284449 0 -0.24579287854133169 0.14255149029060371 0 -0.23454669755314431 0.15922491431840621 0 -0.25053511496792102 0.16342135627284449 0 -0.23454669755314431 0.15922491431840621 0 -0.2247428373718505 0.17303974923603191 0 -0.25053511496792102 0.16342135627284449 0 -0.23574730809267661 0.18408729418630121 0 -0.249755023560321 0.19544853815688309 0 -0.25053511496792102 0.16342135627284449 0 -0.2247428373718505 0.17303974923603191 0 -0.25053511496792102 0.16342135627284449 0 -0.23574730809267661 0.18408729418630121 0 -0.2247428373718505 0.17303974923603191 0 -0.2247428373718505 0.17303974923603191 0 -0.22039024680665389 0.184903480549821 0 -0.2143054248316566 0.1673489625025075 0 -0.23574730809267661 0.18408729418630121 0 -0.2247428373718505 0.17303974923603191 0 -0.22039024680665389 0.184903480549821 0 -0.22837107978723431 0.15007495277215349 0 -0.23454669755314431 0.15922491431840621 0 -0.2239303690094723 0.16156461377797779 0 -0.23454669755314431 0.15922491431840621 0 -0.2247428373718505 0.17303974923603191 0 -0.2239303690094723 0.16156461377797779 0 -0.2247428373718505 0.17303974923603191 0 -0.2239303690094723 0.16156461377797779 0 -0.2143054248316566 0.1673489625025075 0 -0.21938441050662311 0.15561215485625679 0 -0.2239303690094723 0.16156461377797779 0 -0.2143054248316566 0.1673489625025075 0 -0.21938441050662311 0.15561215485625679 0 -0.2143054248316566 0.1673489625025075 0 -0.21153416230277799 0.15415509841742381 0 -0.2143054248316566 0.1673489625025075 0 -0.20703526428850499 0.16088329356577671 0 -0.21153416230277799 0.15415509841742381 0 -0.2143054248316566 0.1673489625025075 0 -0.20330696839451731 0.16872747693628681 0 -0.21068596128531261 0.17588789868593799 0 -0.2143054248316566 0.1673489625025075 0 -0.20330696839451731 0.16872747693628681 0 -0.20703526428850499 0.16088329356577671 0 -0.22039024680665389 0.184903480549821 0 -0.21068596128531261 0.17588789868593799 0 -0.20474120510842239 0.182571674755137 0 -0.22039024680665389 0.184903480549821 0 -0.2143054248316566 0.1673489625025075 0 -0.21068596128531261 0.17588789868593799 0 -0.22039024680665389 0.184903480549821 0 -0.20474120510842239 0.182571674755137 0 -0.20934893529800491 0.19460044809958391 0 -0.22039024680665389 0.184903480549821 0 -0.2143054248316566 0.1673489625025075 0 -0.20330696839451731 0.16872747693628681 0 -0.21068596128531261 0.17588789868593799 0 -0.20474120510842239 0.182571674755137 0 -0.19544007764812771 0.1922271735228738 0 -0.18075210167465089 0.19581304056170251 0 -0.18736438171999131 0.17341024072491021 0 -0.20474120510842239 0.182571674755137 0 -0.19544007764812771 0.1922271735228738 0 -0.18736438171999131 0.17341024072491021 0 -0.20330696839451731 0.16872747693628681 0 -0.20474120510842239 0.182571674755137 0 -0.18736438171999131 0.17341024072491021 0 -0.20330696839451731 0.16872747693628681 0 -0.19397666176533099 0.1510074408881176 0 -0.18736438171999131 0.17341024072491021 0 -0.20330696839451731 0.16872747693628681 0 -0.20703526428850499 0.16088329356577671 0 -0.19397666176533099 0.1510074408881176 0 -0.19397666176533099 0.1510074408881176 0 -0.18736438171999131 0.17341024072491021 0 -0.19397666176533099 0.1510074408881176 0 -0.20269140007011091 0.14261348936129739 0 -0.20059343188310411 0.12858942841767149 0 -0.19397666176533099 0.1510074408881176 0 -0.1914632152496957 0.1302137786519961 0 -0.185696420814526 0.14474532826002501 0 -0.20703526428850499 0.16088329356577671 0 -0.19397666176533099 0.1510074408881176 0 -0.20479600616608121 0.15066830331724959 0 -0.20703526428850499 0.16088329356577671 0 -0.19397666176533099 0.1510074408881176 0 -0.19397666176533099 0.1510074408881176 0 -0.20269140007011091 0.14261348936129739 0 -0.20479600616608121 0.15066830331724959 0 -0.19397666176533099 0.1510074408881176 0 -0.185696420814526 0.14474532826002501 0 -0.19397666176533099 0.1510074408881176 0 -0.1914632152496957 0.1302137786519961 0 -0.20059343188310411 0.12858942841767149 0 -0.19397666176533099 0.1510074408881176 0 -0.20059343188310411 0.12858942841767149 0 -0.1914632152496957 0.1302137786519961 0 -0.185696420814526 0.14474532826002501 0 -0.20269140007011091 0.14261348936129739 0 -0.20059343188310411 0.12858942841767149 0 -0.2060775386879595 0.13698475080652539 0 -0.2060775386879595 0.13698475080652539 0 -0.21228278039494261 0.1320538910935003 0 -0.20947172295928279 0.14354686533034189 0 -0.20059343188310411 0.12858942841767149 0 -0.2060775386879595 0.13698475080652539 0 -0.21228278039494261 0.1320538910935003 0 -0.21093265301325331 0.12023573230752729 0 -0.20059343188310411 0.12858942841767149 0 -0.21228278039494261 0.1320538910935003 0 -0.2188461489734424 0.143731715114643 0 -0.21228278039494261 0.1320538910935003 0 -0.20947172295928279 0.14354686533034189 0 -0.2188461489734424 0.143731715114643 0 -0.21153416230277799 0.15415509841742381 0 -0.20947172295928279 0.14354686533034189 0 -0.21938441050662311 0.15561215485625679 0 -0.2188461489734424 0.143731715114643 0 -0.21153416230277799 0.15415509841742381 0 -0.21153416230277799 0.15415509841742381 0 -0.20479600616608121 0.15066830331724959 0 -0.20947172295928279 0.14354686533034189 0 -0.20703526428850499 0.16088329356577671 0 -0.21153416230277799 0.15415509841742381 0 -0.20479600616608121 0.15066830331724959 0 -0.20269140007011091 0.14261348936129739 0 -0.20479600616608121 0.15066830331724959 0 -0.20947172295928279 0.14354686533034189 0 -0.20269140007011091 0.14261348936129739 0 -0.2060775386879595 0.13698475080652539 0 -0.20947172295928279 0.14354686533034189 0 -0.24338505276019021 0.2512427650456508 0 -0.2236563306449528 0.2495190359932952 0 -0.23493006077092071 0.22685038182139261 0 -0.2236563306449528 0.2495190359932952 0 -0.23493006077092071 0.22685038182139261 0 -0.21252951673882989 0.22904377059105041 0 -0.24338505276019021 0.2512427650456508 0 -0.23493006077092071 0.22685038182139261 0 -0.25025753539417261 0.23272492963053659 0 -0.24338505276019021 0.2512427650456508 0 -0.23493006077092071 0.22685038182139261 0 -0.25025753539417261 0.23272492963053659 0 -0.25541758599954478 0.24830747332655551 0 -0.24338505276019021 0.2512427650456508 0 -0.25025753539417261 0.23272492963053659 0 -0.23493006077092071 0.22685038182139261 0 -0.2476151157830245 0.2135097841317026 0 -0.23493006077092071 0.22685038182139261 0 -0.22647506878165119 0.2024579985971344 0 -0.21252951673882989 0.22904377059105041 0 -0.23493006077092071 0.22685038182139261 0 -0.22647506878165119 0.2024579985971344 0 -0.23493006077092071 0.22685038182139261 0 -0.2476151157830245 0.2135097841317026 0 -0.22647506878165119 0.2024579985971344 0 -0.2476151157830245 0.2135097841317026 0 -0.249755023560321 0.19544853815688309 0 -0.22647506878165119 0.2024579985971344 0 -0.23574730809267661 0.18408729418630121 0 -0.249755023560321 0.19544853815688309 0 -0.22647506878165119 0.2024579985971344 0 -0.249755023560321 0.19544853815688309 0 -0.22647506878165119 0.2024579985971344 0 -0.23574730809267661 0.18408729418630121 0 -0.22039024680665389 0.184903480549821 0 -0.22647506878165119 0.2024579985971344 0 -0.22039024680665389 0.184903480549821 0 -0.22647506878165119 0.2024579985971344 0 -0.22039024680665389 0.184903480549821 0 -0.22647506878165119 0.2024579985971344 0 -0.20934893529800491 0.19460044809958391 0 -0.22647506878165119 0.2024579985971344 0 -0.20934893529800491 0.19460044809958391 0 -0.20030744520548019 0.2103369194978135 0 -0.20474120510842239 0.182571674755137 0 -0.20934893529800491 0.19460044809958391 0 -0.19544007764812771 0.1922271735228738 0 -0.19544007764812771 0.1922271735228738 0 -0.20030744520548019 0.2103369194978135 0 -0.18075210167465089 0.19581304056170251 0 -0.20934893529800491 0.19460044809958391 0 -0.19544007764812771 0.1922271735228738 0 -0.20030744520548019 0.2103369194978135 0 -0.22647506878165119 0.2024579985971344 0 -0.20030744520548019 0.2103369194978135 0 -0.22647506878165119 0.2024579985971344 0 -0.20030744520548019 0.2103369194978135 0 -0.21252951673882989 0.22904377059105041 0 -0.20030744520548019 0.2103369194978135 0 -0.21252951673882989 0.22904377059105041 0 -0.1866445730272448 0.23657667660611509 0 -0.21252951673882989 0.22904377059105041 0 -0.20455644492525299 0.24848876851732821 0 -0.1866445730272448 0.23657667660611509 0 -0.2236563306449528 0.2495190359932952 0 -0.21252951673882989 0.22904377059105041 0 -0.20455644492525299 0.24848876851732821 0 -0.16593288775273979 0.24602142268628169 0 -0.15623877798733379 0.223605741643602 0 -0.1509256926292962 0.2385259019661953 0 -0.16593288775273979 0.24602142268628169 0 -0.1509256926292962 0.2385259019661953 0 -0.15452019481184001 0.2499777617130321 0 -0.18614839561170071 0.266793386232271 0 -0.16593288775273979 0.24602142268628169 0 -0.1866445730272448 0.23657667660611509 0 -0.16593288775273979 0.24602142268628169 0 -0.1866445730272448 0.23657667660611509 0 -0.17413982162930969 0.21821584039849459 0 -0.20030744520548019 0.2103369194978135 0 -0.1866445730272448 0.23657667660611509 0 -0.17413982162930969 0.21821584039849459 0 -0.16593288775273979 0.24602142268628169 0 -0.17413982162930969 0.21821584039849459 0 -0.15623877798733379 0.223605741643602 0 -0.16593288775273979 0.24602142268628169 0 -0.17413982162930969 0.21821584039849459 0 -0.17413982162930969 0.21821584039849459 0 -0.15623877798733379 0.223605741643602 0 -0.1606891953035362 0.205863174449815 0 -0.17413982162930969 0.21821584039849459 0 -0.15623877798733379 0.223605741643602 0 -0.1606891953035362 0.205863174449815 0 -0.17413982162930969 0.21821584039849459 0 -0.16942100979499769 0.20068283503150711 0 -0.20030744520548019 0.2103369194978135 0 -0.17413982162930969 0.21821584039849459 0 -0.17413982162930969 0.21821584039849459 0 -0.18075210167465089 0.19581304056170251 0 -0.17413982162930969 0.21821584039849459 0 -0.18075210167465089 0.19581304056170251 0 -0.16942100979499769 0.20068283503150711 0 -0.20030744520548019 0.2103369194978135 0 -0.17413982162930969 0.21821584039849459 0 -0.18075210167465089 0.19581304056170251 0 -0.18075210167465089 0.19581304056170251 0 -0.1683368827877782 0.1884890390588165 0 -0.16942100979499769 0.20068283503150711 0 -0.1683368827877782 0.1884890390588165 0 -0.16942100979499769 0.20068283503150711 0 -0.1626416018629768 0.19516382315250469 0 -0.1606891953035362 0.205863174449815 0 -0.16942100979499769 0.20068283503150711 0 -0.1626416018629768 0.19516382315250469 0 -0.1606891953035362 0.205863174449815 0 -0.1626416018629768 0.19516382315250469 0 -0.15149940635253439 0.19377770389984619 0 -0.1626416018629768 0.19516382315250469 0 -0.15850522842609771 0.18814643760685601 0 -0.15149940635253439 0.19377770389984619 0 -0.1683368827877782 0.1884890390588165 0 -0.1626416018629768 0.19516382315250469 0 -0.15850522842609771 0.18814643760685601 0 -0.15850522842609771 0.18814643760685601 0 -0.15149940635253439 0.19377770389984619 0 -0.15146451258002039 0.1847230872649612 0 -0.1606891953035362 0.205863174449815 0 -0.15149940635253439 0.19377770389984619 0 -0.1481836677827558 0.20606089852096779 0 -0.15149940635253439 0.19377770389984619 0 -0.13660109176338989 0.19482848159924199 0 -0.1481836677827558 0.20606089852096779 0 -0.15149940635253439 0.19377770389984619 0 -0.13660109176338989 0.19482848159924199 0 -0.14189233718696029 0.18648807142098159 0 -0.15149940635253439 0.19377770389984619 0 -0.15146451258002039 0.1847230872649612 0 -0.14189233718696029 0.18648807142098159 0 -0.13660109176338989 0.19482848159924199 0 -0.13459366048807669 0.20813075083642571 0 -0.11816259824302761 0.19546762909377491 0 -0.13660109176338989 0.19482848159924199 0 -0.14189233718696029 0.18648807142098159 0 -0.13340267785405971 0.1820021501253952 0 -0.13660109176338989 0.19482848159924199 0 -0.13340267785405971 0.1820021501253952 0 -0.11816259824302761 0.19546762909377491 0 -0.13340267785405971 0.1820021501253952 0 -0.11816259824302761 0.19546762909377491 0 -0.13660109176338989 0.19482848159924199 0 -0.13459366048807669 0.20813075083642571 0 -0.1481836677827558 0.20606089852096779 0 -0.13459366048807669 0.20813075083642571 0 -0.1279165565020168 0.22345647017760861 0 -0.12074298430650469 0.21208973632973141 0 -0.13459366048807669 0.20813075083642571 0 -0.14309551626886791 0.21762993678426501 0 -0.1279165565020168 0.22345647017760861 0 -0.1606891953035362 0.205863174449815 0 -0.1481836677827558 0.20606089852096779 0 -0.15623877798733379 0.223605741643602 0 -0.14309551626886791 0.21762993678426501 0 -0.1481836677827558 0.20606089852096779 0 -0.15623877798733379 0.223605741643602 0 -0.13459366048807669 0.20813075083642571 0 -0.14309551626886791 0.21762993678426501 0 -0.1481836677827558 0.20606089852096779 0 -0.14309551626886791 0.21762993678426501 0 -0.15623877798733379 0.223605741643602 0 -0.13833773434535829 0.2289956428887108 0 -0.15623877798733379 0.223605741643602 0 -0.13833773434535829 0.2289956428887108 0 -0.15623877798733379 0.223605741643602 0 -0.13833773434535829 0.2289956428887108 0 -0.1509256926292962 0.2385259019661953 0 -0.14309551626886791 0.21762993678426501 0 -0.1279165565020168 0.22345647017760861 0 -0.13833773434535829 0.2289956428887108 0 -0.1279165565020168 0.22345647017760861 0 -0.13833773434535829 0.2289956428887108 0 -0.1246775416865783 0.2380801200856669 0 -0.13833773434535829 0.2289956428887108 0 -0.13959886824920911 0.24402894089934959 0 -0.1246775416865783 0.2380801200856669 0 -0.12693387211038021 0.24110311343421731 0 -0.13959886824920911 0.24402894089934959 0 -0.1246775416865783 0.2380801200856669 0 -0.13959886824920911 0.24402894089934959 0 -0.1246775416865783 0.2380801200856669 0 -0.12693387211038021 0.24110311343421731 0 -0.1246775416865783 0.2380801200856669 0 -0.12256057738715639 0.25314703781829762 0 -0.13158174630476269 0.24952230106181231 0 -0.1248334224459937 0.2471335956147635 0 -0.12693387211038021 0.24110311343421731 0 -0.13158174630476269 0.24952230106181231 0 -0.13959886824920911 0.24402894089934959 0 -0.12693387211038021 0.24110311343421731 0 -0.13158174630476269 0.24952230106181231 0 -0.1248334224459937 0.2471335956147635 0 -0.13959886824920911 0.24402894089934959 0 -0.15452019481184001 0.2499777617130321 0 -0.13959886824920911 0.24402894089934959 0 -0.1509256926292962 0.2385259019661953 0 -0.15452019481184001 0.2499777617130321 0 -0.13833773434535829 0.2289956428887108 0 -0.13959886824920911 0.24402894089934959 0 -0.1509256926292962 0.2385259019661953 0 -0.16864871156116421 0.14300165740095541 0 -0.1715769465467058 0.1528731199043126 0 -0.16009721326309939 0.15024334267750949 0 -0.1715769465467058 0.1528731199043126 0 -0.16009721326309939 0.15024334267750949 0 -0.1661290401471123 0.16020510038341329 0 -0.16864871156116421 0.14300165740095541 0 -0.16009721326309939 0.15024334267750949 0 -0.15740766835686909 0.13543257177499041 0 -0.15123419683471551 0.118682520515855 0 -0.16846530882462071 0.13171392438793991 0 -0.15123419683471551 0.118682520515855 0 -0.15740766835686909 0.13543257177499041 0 -0.16846530882462071 0.13171392438793991 0 -0.16864871156116421 0.14300165740095541 0 -0.15740766835686909 0.13543257177499041 0 -0.16846530882462071 0.13171392438793991 0 -0.1807055611592753 0.1222213690145703 0 -0.16846530882462071 0.13171392438793991 0 -0.185696420814526 0.14474532826002501 0 -0.1807055611592753 0.1222213690145703 0 -0.1914632152496957 0.1302137786519961 0 -0.185696420814526 0.14474532826002501 0 -0.16864871156116421 0.14300165740095541 0 -0.16846530882462071 0.13171392438793991 0 -0.185696420814526 0.14474532826002501 0 -0.16846530882462071 0.13171392438793991 0 -0.185696420814526 0.14474532826002501 0 -0.185696420814526 0.14474532826002501 0 -0.177016651801152 0.1666171836594208 0 -0.16864871156116421 0.14300165740095541 0 -0.1715769465467058 0.1528731199043126 0 -0.185696420814526 0.14474532826002501 0 -0.19397666176533099 0.1510074408881176 0 -0.185696420814526 0.14474532826002501 0 -0.177016651801152 0.1666171836594208 0 -0.1715769465467058 0.1528731199043126 0 -0.185696420814526 0.14474532826002501 0 -0.177016651801152 0.1666171836594208 0 -0.19397666176533099 0.1510074408881176 0 -0.177016651801152 0.1666171836594208 0 -0.18736438171999131 0.17341024072491021 0 -0.1683368827877782 0.1884890390588165 0 -0.177016651801152 0.1666171836594208 0 -0.18075210167465089 0.19581304056170251 0 -0.1683368827877782 0.1884890390588165 0 -0.18736438171999131 0.17341024072491021 0 -0.1683368827877782 0.1884890390588165 0 -0.177016651801152 0.1666171836594208 0 -0.18736438171999131 0.17341024072491021 0 -0.18075210167465089 0.19581304056170251 0 -0.18736438171999131 0.17341024072491021 0 -0.1683368827877782 0.1884890390588165 0 -0.177016651801152 0.1666171836594208 0 -0.1646429546977719 0.1804583221383918 0 -0.177016651801152 0.1666171836594208 0 -0.1646429546977719 0.1804583221383918 0 -0.16450953262285811 0.16871251247338101 0 -0.1646429546977719 0.1804583221383918 0 -0.16450953262285811 0.16871251247338101 0 -0.1547690943726156 0.17090249392968551 0 -0.15850522842609771 0.18814643760685601 0 -0.1646429546977719 0.1804583221383918 0 -0.15146451258002039 0.1847230872649612 0 -0.1683368827877782 0.1884890390588165 0 -0.15850522842609771 0.18814643760685601 0 -0.1646429546977719 0.1804583221383918 0 -0.1715769465467058 0.1528731199043126 0 -0.177016651801152 0.1666171836594208 0 -0.1661290401471123 0.16020510038341329 0 -0.177016651801152 0.1666171836594208 0 -0.1661290401471123 0.16020510038341329 0 -0.16450953262285811 0.16871251247338101 0 -0.16450953262285811 0.16871251247338101 0 -0.15744485650174619 0.16257934320244291 0 -0.1547690943726156 0.17090249392968551 0 -0.1661290401471123 0.16020510038341329 0 -0.16450953262285811 0.16871251247338101 0 -0.15744485650174619 0.16257934320244291 0 -0.16009721326309939 0.15024334267750949 0 -0.1661290401471123 0.16020510038341329 0 -0.15744485650174619 0.16257934320244291 0 -0.15744485650174619 0.16257934320244291 0 -0.1485739983974726 0.16479512205005059 0 -0.14878784752799321 0.15498295845722021 0 -0.15744485650174619 0.16257934320244291 0 -0.1547690943726156 0.17090249392968551 0 -0.1485739983974726 0.16479512205005059 0 -0.1547690943726156 0.17090249392968551 0 -0.1485739983974726 0.16479512205005059 0 -0.14078263623673781 0.1747449012587303 0 -0.1485739983974726 0.16479512205005059 0 -0.14078263623673781 0.1747449012587303 0 -0.1401497048688824 0.16141956162431231 0 -0.1485739983974726 0.16479512205005059 0 -0.1401497048688824 0.16141956162431231 0 -0.14878784752799321 0.15498295845722021 0 -0.1646429546977719 0.1804583221383918 0 -0.14078263623673781 0.1747449012587303 0 -0.1646429546977719 0.1804583221383918 0 -0.1547690943726156 0.17090249392968551 0 -0.14078263623673781 0.1747449012587303 0 -0.1646429546977719 0.1804583221383918 0 -0.15146451258002039 0.1847230872649612 0 -0.14078263623673781 0.1747449012587303 0 -0.15146451258002039 0.1847230872649612 0 -0.14078263623673781 0.1747449012587303 0 -0.14189233718696029 0.18648807142098159 0 -0.14078263623673781 0.1747449012587303 0 -0.13340267785405971 0.1820021501253952 0 -0.1169223177757038 0.1690314803790689 0 -0.14078263623673781 0.1747449012587303 0 -0.1169223177757038 0.1690314803790689 0 -0.14078263623673781 0.1747449012587303 0 -0.14189233718696029 0.18648807142098159 0 -0.13340267785405971 0.1820021501253952 0 -0.14078263623673781 0.1747449012587303 0 -0.12695532145711419 0.1583079532094589 0 -0.1169223177757038 0.1690314803790689 0 -0.14078263623673781 0.1747449012587303 0 -0.1401497048688824 0.16141956162431231 0 -0.12695532145711419 0.1583079532094589 0 -0.12695532145711419 0.1583079532094589 0 -0.13528797331579409 0.1484633567306996 0 -0.11935333803497621 0.14164185470234869 0 -0.13528797331579409 0.1484633567306996 0 -0.13000864654203559 0.13853187066662839 0 -0.11935333803497621 0.14164185470234869 0 -0.13528797331579409 0.1484633567306996 0 -0.13966326666366949 0.13698070410104499 0 -0.13000864654203559 0.13853187066662839 0 -0.1401497048688824 0.16141956162431231 0 -0.12695532145711419 0.1583079532094589 0 -0.13528797331579409 0.1484633567306996 0 -0.13528797331579409 0.1484633567306996 0 -0.14892729287043399 0.1439657801914383 0 -0.14878784752799321 0.15498295845722021 0 -0.1401497048688824 0.16141956162431231 0 -0.13528797331579409 0.1484633567306996 0 -0.14878784752799321 0.15498295845722021 0 -0.13528797331579409 0.1484633567306996 0 -0.14892729287043399 0.1439657801914383 0 -0.13966326666366949 0.13698070410104499 0 -0.16009721326309939 0.15024334267750949 0 -0.15740766835686909 0.13543257177499041 0 -0.14892729287043399 0.1439657801914383 0 -0.16009721326309939 0.15024334267750949 0 -0.15744485650174619 0.16257934320244291 0 -0.14878784752799321 0.15498295845722021 0 -0.16009721326309939 0.15024334267750949 0 -0.14892729287043399 0.1439657801914383 0 -0.14878784752799321 0.15498295845722021 0 -0.15123419683471551 0.118682520515855 0 -0.15740766835686909 0.13543257177499041 0 -0.14888358540213589 0.1274676636848677 0 -0.15740766835686909 0.13543257177499041 0 -0.14892729287043399 0.1439657801914383 0 -0.14847968912886131 0.13615194101135361 0 -0.15740766835686909 0.13543257177499041 0 -0.14888358540213589 0.1274676636848677 0 -0.14847968912886131 0.13615194101135361 0 -0.14888358540213589 0.1274676636848677 0 -0.14847968912886131 0.13615194101135361 0 -0.13966326666366949 0.13698070410104499 0 -0.14892729287043399 0.1439657801914383 0 -0.14847968912886131 0.13615194101135361 0 -0.13966326666366949 0.13698070410104499 0 -0.13943672542501021 0.1226227336581521 0 -0.14888358540213589 0.1274676636848677 0 -0.13966326666366949 0.13698070410104499 0 -0.13943672542501021 0.1226227336581521 0 -0.13966326666366949 0.13698070410104499 0 -0.12699073800916399 0.1277996415964478 0 -0.13000864654203559 0.13853187066662839 0 -0.12699073800916399 0.1277996415964478 0 -0.11935333803497621 0.14164185470234869 0 -0.13966326666366949 0.13698070410104499 0 -0.13000864654203559 0.13853187066662839 0 -0.12699073800916399 0.1277996415964478 0 -0.12699073800916399 0.1277996415964478 0 -0.11935333803497621 0.14164185470234869 0 -0.11302022697949241 0.12467597767196301 0 -0.1037507320866085 0.13909324142158949 0 -0.11935333803497621 0.14164185470234869 0 -0.11302022697949241 0.12467597767196301 0 -0.1037507320866085 0.13909324142158949 0 -0.096892991918933635 0.1257254020939445 0 -0.081757772457370745 0.13052736867413381 0 -0.1037507320866085 0.13909324142158949 0 -0.096892991918933635 0.1257254020939445 0 -0.11302022697949241 0.12467597767196301 0 -0.1037507320866085 0.13909324142158949 0 -0.10923595851059099 0.15454656456159341 0 -0.087910357834401001 0.14556918640721991 0 -0.10923595851059099 0.15454656456159341 0 -0.093061999314669713 0.1633180594994075 0 -0.087910357834401001 0.14556918640721991 0 -0.12695532145711419 0.1583079532094589 0 -0.10923595851059099 0.15454656456159341 0 -0.11935333803497621 0.14164185470234869 0 -0.1037507320866085 0.13909324142158949 0 -0.10923595851059099 0.15454656456159341 0 -0.11935333803497621 0.14164185470234869 0 -0.12695532145711419 0.1583079532094589 0 -0.10923595851059099 0.15454656456159341 0 -0.1169223177757038 0.1690314803790689 0 -0.1169223177757038 0.1690314803790689 0 -0.1196269794972569 0.18242061374926841 0 -0.10631954750553239 0.18641075287122799 0 -0.13340267785405971 0.1820021501253952 0 -0.1169223177757038 0.1690314803790689 0 -0.1196269794972569 0.18242061374926841 0 -0.13340267785405971 0.1820021501253952 0 -0.1196269794972569 0.18242061374926841 0 -0.11816259824302761 0.19546762909377491 0 -0.10631954750553239 0.18641075287122799 0 -0.096889437997602842 0.17514379956296369 0 -0.08636777498719253 0.1867533424581064 0 -0.1169223177757038 0.1690314803790689 0 -0.10631954750553239 0.18641075287122799 0 -0.096889437997602842 0.17514379956296369 0 -0.1169223177757038 0.1690314803790689 0 -0.093061999314669713 0.1633180594994075 0 -0.1169223177757038 0.1690314803790689 0 -0.096889437997602842 0.17514379956296369 0 -0.093061999314669713 0.1633180594994075 0 -0.10923595851059099 0.15454656456159341 0 -0.1169223177757038 0.1690314803790689 0 -0.093061999314669713 0.1633180594994075 0 -0.093061999314669713 0.1633180594994075 0 -0.069201680853635567 0.157604638619746 0 -0.0769466227240687 0.14908516343377379 0 -0.093061999314669713 0.1633180594994075 0 -0.083066784899097815 0.16947868339885649 0 -0.069201680853635567 0.157604638619746 0 -0.093061999314669713 0.1633180594994075 0 -0.069201680853635567 0.157604638619746 0 -0.096889437997602842 0.17514379956296369 0 -0.093061999314669713 0.1633180594994075 0 -0.083066784899097815 0.16947868339885649 0 -0.096889437997602842 0.17514379956296369 0 -0.083066784899097815 0.16947868339885649 0 -0.08636777498719253 0.1867533424581064 0 -0.083066784899097815 0.16947868339885649 0 -0.08636777498719253 0.1867533424581064 0 -0.069813031342388393 0.1645735768540588 0 -0.08636777498719253 0.1867533424581064 0 -0.069813031342388393 0.1645735768540588 0 -0.08636777498719253 0.1867533424581064 0 -0.07211680261717493 0.18012209224344361 0 -0.069813031342388393 0.1645735768540588 0 -0.07211680261717493 0.18012209224344361 0 -0.065665325682302614 0.1716385020771696 0 -0.060138725694013517 0.17494812887204361 0 -0.07211680261717493 0.18012209224344361 0 -0.065665325682302614 0.1716385020771696 0 -0.069813031342388393 0.1645735768540588 0 -0.07211680261717493 0.18012209224344361 0 -0.059444113198955907 0.18942083601934301 0 -0.060138725694013517 0.17494812887204361 0 -0.083066784899097815 0.16947868339885649 0 -0.069813031342388393 0.1645735768540588 0 -0.069201680853635567 0.157604638619746 0 -0.065665325682302614 0.1716385020771696 0 -0.069813031342388393 0.1645735768540588 0 -0.060592743075633629 0.1669102103391325 0 -0.069201680853635567 0.157604638619746 0 -0.066312134153768368 0.14467231459555821 0 -0.053258287697584318 0.14239381125001119 0 -0.069813031342388393 0.1645735768540588 0 -0.069201680853635567 0.157604638619746 0 -0.053258287697584318 0.14239381125001119 0 -0.069201680853635567 0.157604638619746 0 -0.071562864404292742 0.14851093263191431 0 -0.066312134153768368 0.14467231459555821 0 -0.069201680853635567 0.157604638619746 0 -0.071562864404292742 0.14851093263191431 0 -0.0769466227240687 0.14908516343377379 0 -0.071562864404292742 0.14851093263191431 0 -0.073791019885698306 0.142681613878579 0 -0.066312134153768368 0.14467231459555821 0 -0.071562864404292742 0.14851093263191431 0 -0.0769466227240687 0.14908516343377379 0 -0.073791019885698306 0.142681613878579 0 -0.073791019885698306 0.142681613878579 0 -0.066312134153768368 0.14467231459555821 0 -0.067873333925301399 0.1376998478303802 0 -0.067873333925301399 0.1376998478303802 0 -0.073837585331266858 0.1337653411669491 0 -0.06196815372089582 0.13362546866246 0 -0.066312134153768368 0.14467231459555821 0 -0.067873333925301399 0.1376998478303802 0 -0.06196815372089582 0.13362546866246 0 -0.081757772457370745 0.13052736867413381 0 -0.059764812828132792 0.1219614959266782 0 -0.073837585331266858 0.1337653411669491 0 -0.081757772457370745 0.13052736867413381 0 -0.059764812828132792 0.1219614959266782 0 -0.073837585331266858 0.1337653411669491 0 -0.059764812828132792 0.1219614959266782 0 -0.073837585331266858 0.1337653411669491 0 -0.06196815372089582 0.13362546866246 0 -0.059764812828132792 0.1219614959266782 0 -0.073791019885698306 0.142681613878579 0 -0.067873333925301399 0.1376998478303802 0 -0.073837585331266858 0.1337653411669491 0 -0.073837585331266858 0.1337653411669491 0 -0.081757772457370745 0.13052736867413381 0 -0.087910357834401001 0.14556918640721991 0 -0.1037507320866085 0.13909324142158949 0 -0.081757772457370745 0.13052736867413381 0 -0.087910357834401001 0.14556918640721991 0 -0.1037507320866085 0.13909324142158949 0 -0.081757772457370745 0.13052736867413381 0 -0.073837585331266858 0.1337653411669491 0 -0.087910357834401001 0.14556918640721991 0 -0.096892991918933635 0.1257254020939445 0 -0.081757772457370745 0.13052736867413381 0 -0.086648589927463215 0.1192607845507805 0 -0.093061999314669713 0.1633180594994075 0 -0.0769466227240687 0.14908516343377379 0 -0.087910357834401001 0.14556918640721991 0 -0.073791019885698306 0.142681613878579 0 -0.073837585331266858 0.1337653411669491 0 -0.087910357834401001 0.14556918640721991 0 -0.0769466227240687 0.14908516343377379 0 -0.073791019885698306 0.142681613878579 0 -0.087910357834401001 0.14556918640721991 0 -0.1049585748000932 0.2420718400397846 0 -0.095542973025134176 0.2264647769240927 0 -0.092343926260290629 0.24400901516315271 0 -0.10120816956893711 0.25531151265741342 0 -0.1049585748000932 0.2420718400397846 0 -0.092343926260290629 0.24400901516315271 0 -0.10120816956893711 0.25531151265741342 0 -0.1049585748000932 0.2420718400397846 0 -0.11186130183636819 0.24999957395857081 0 -0.1049585748000932 0.2420718400397846 0 -0.11186130183636819 0.24999957395857081 0 -0.1186848207539737 0.24437371303059829 0 -0.12256057738715639 0.25314703781829762 0 -0.1186848207539737 0.24437371303059829 0 -0.1248334224459937 0.2471335956147635 0 -0.12693387211038021 0.24110311343421731 0 -0.1186848207539737 0.24437371303059829 0 -0.1248334224459937 0.2471335956147635 0 -0.12256057738715639 0.25314703781829762 0 -0.11186130183636819 0.24999957395857081 0 -0.1186848207539737 0.24437371303059829 0 -0.12693387211038021 0.24110311343421731 0 -0.1186848207539737 0.24437371303059829 0 -0.1246775416865783 0.2380801200856669 0 -0.1186848207539737 0.24437371303059829 0 -0.1246775416865783 0.2380801200856669 0 -0.110110257355856 0.23227244850488041 0 -0.1246775416865783 0.2380801200856669 0 -0.110110257355856 0.23227244850488041 0 -0.1049585748000932 0.2420718400397846 0 -0.1186848207539737 0.24437371303059829 0 -0.110110257355856 0.23227244850488041 0 -0.1246775416865783 0.2380801200856669 0 -0.110110257355856 0.23227244850488041 0 -0.1138000301592875 0.22350661407391029 0 -0.110110257355856 0.23227244850488041 0 -0.1138000301592875 0.22350661407391029 0 -0.105023887359425 0.22540531759663379 0 -0.1279165565020168 0.22345647017760861 0 -0.1246775416865783 0.2380801200856669 0 -0.1138000301592875 0.22350661407391029 0 -0.1246775416865783 0.2380801200856669 0 -0.1138000301592875 0.22350661407391029 0 -0.1279165565020168 0.22345647017760861 0 -0.1138000301592875 0.22350661407391029 0 -0.12074298430650469 0.21208973632973141 0 -0.095542973025134176 0.2264647769240927 0 -0.1083423445687595 0.2176596703041008 0 -0.095542973025134176 0.2264647769240927 0 -0.10292251863199529 0.2089331080621547 0 -0.086955303506081327 0.2230410527021521 0 -0.105023887359425 0.22540531759663379 0 -0.095542973025134176 0.2264647769240927 0 -0.1083423445687595 0.2176596703041008 0 -0.1138000301592875 0.22350661407391029 0 -0.105023887359425 0.22540531759663379 0 -0.1083423445687595 0.2176596703041008 0 -0.1049585748000932 0.2420718400397846 0 -0.110110257355856 0.23227244850488041 0 -0.095542973025134176 0.2264647769240927 0 -0.110110257355856 0.23227244850488041 0 -0.095542973025134176 0.2264647769240927 0 -0.110110257355856 0.23227244850488041 0 -0.105023887359425 0.22540531759663379 0 -0.095542973025134176 0.2264647769240927 0 -0.095542973025134176 0.2264647769240927 0 -0.10292251863199529 0.2089331080621547 0 -0.1083423445687595 0.2176596703041008 0 -0.10292251863199529 0.2089331080621547 0 -0.086955303506081327 0.2230410527021521 0 -0.1138000301592875 0.22350661407391029 0 -0.10292251863199529 0.2089331080621547 0 -0.1138000301592875 0.22350661407391029 0 -0.10292251863199529 0.2089331080621547 0 -0.1083423445687595 0.2176596703041008 0 -0.13459366048807669 0.20813075083642571 0 -0.12074298430650469 0.21208973632973141 0 -0.11816259824302761 0.19546762909377491 0 -0.1138000301592875 0.22350661407391029 0 -0.10292251863199529 0.2089331080621547 0 -0.12074298430650469 0.21208973632973141 0 -0.10292251863199529 0.2089331080621547 0 -0.12074298430650469 0.21208973632973141 0 -0.11816259824302761 0.19546762909377491 0 -0.10292251863199529 0.2089331080621547 0 -0.11816259824302761 0.19546762909377491 0 -0.1196269794972569 0.18242061374926841 0 -0.10631954750553239 0.18641075287122799 0 -0.11816259824302761 0.19546762909377491 0 -0.10631954750553239 0.18641075287122799 0 -0.10292251863199529 0.2089331080621547 0 -0.11816259824302761 0.19546762909377491 0 -0.08636777498719253 0.1867533424581064 0 -0.10292251863199529 0.2089331080621547 0 -0.10631954750553239 0.18641075287122799 0 -0.08636777498719253 0.1867533424581064 0 -0.10292251863199529 0.2089331080621547 0 -0.08636777498719253 0.1867533424581064 0 -0.07211680261717493 0.18012209224344361 0 -0.076996616971357706 0.1965310314758569 0 -0.08636777498719253 0.1867533424581064 0 -0.10292251863199529 0.2089331080621547 0 -0.086906750494652185 0.20650355793673161 0 -0.08636777498719253 0.1867533424581064 0 -0.076996616971357706 0.1965310314758569 0 -0.086906750494652185 0.20650355793673161 0 -0.076996616971357706 0.1965310314758569 0 -0.059444113198955907 0.18942083601934301 0 -0.076996616971357706 0.1965310314758569 0 -0.065255596314330769 0.20347955561815731 0 -0.059444113198955907 0.18942083601934301 0 -0.07211680261717493 0.18012209224344361 0 -0.076996616971357706 0.1965310314758569 0 -0.059444113198955907 0.18942083601934301 0 -0.076996616971357706 0.1965310314758569 0 -0.077220199285684202 0.20916624694842359 0 -0.065255596314330769 0.20347955561815731 0 -0.077220199285684202 0.20916624694842359 0 -0.069986729141999243 0.21627603700922041 0 -0.086955303506081327 0.2230410527021521 0 -0.065255596314330769 0.20347955561815731 0 -0.069986729141999243 0.21627603700922041 0 -0.053018154777917402 0.2095110213162879 0 -0.077220199285684202 0.20916624694842359 0 -0.065255596314330769 0.20347955561815731 0 -0.069986729141999243 0.21627603700922041 0 -0.10292251863199529 0.2089331080621547 0 -0.086906750494652185 0.20650355793673161 0 -0.086955303506081327 0.2230410527021521 0 -0.077220199285684202 0.20916624694842359 0 -0.086906750494652185 0.20650355793673161 0 -0.086955303506081327 0.2230410527021521 0 -0.076996616971357706 0.1965310314758569 0 -0.077220199285684202 0.20916624694842359 0 -0.086906750494652185 0.20650355793673161 0 -0.095542973025134176 0.2264647769240927 0 -0.086955303506081327 0.2230410527021521 0 -0.073364677054707741 0.24172195263804999 0 -0.069986729141999243 0.21627603700922041 0 -0.086955303506081327 0.2230410527021521 0 -0.095542973025134176 0.2264647769240927 0 -0.073364677054707741 0.24172195263804999 0 -0.095542973025134176 0.2264647769240927 0 -0.086955303506081327 0.2230410527021521 0 -0.069986729141999243 0.21627603700922041 0 -0.086955303506081327 0.2230410527021521 0 -0.068871175705444973 0.23901941034699509 0 -0.069986729141999243 0.21627603700922041 0 -0.068871175705444973 0.23901941034699509 0 -0.056424615767705202 0.22251993524084801 0 -0.086955303506081327 0.2230410527021521 0 -0.068871175705444973 0.23901941034699509 0 -0.050787047904808619 0.25499776799183832 0 -0.073364677054707741 0.24172195263804999 0 -0.068871175705444973 0.23901941034699509 0 -0.086955303506081327 0.2230410527021521 0 -0.073364677054707741 0.24172195263804999 0 -0.068871175705444973 0.23901941034699509 0 -0.086510550050873436 0.25607580188373752 0 -0.073364677054707741 0.24172195263804999 0 -0.092343926260290629 0.24400901516315271 0 -0.095542973025134176 0.2264647769240927 0 -0.073364677054707741 0.24172195263804999 0 -0.092343926260290629 0.24400901516315271 0 -0.035591639146344299 0.24566544933220499 0 -0.033347284585120207 0.22816430810750429 0 -0.046465992091886198 0.23355810521927661 0 -0.050787047904808619 0.25499776799183832 0 -0.035591639146344299 0.24566544933220499 0 -0.046465992091886198 0.23355810521927661 0 -0.050787047904808619 0.25499776799183832 0 -0.046465992091886198 0.23355810521927661 0 -0.050787047904808619 0.25499776799183832 0 -0.068871175705444973 0.23901941034699509 0 -0.050787047904808619 0.25499776799183832 0 -0.068871175705444973 0.23901941034699509 0 -0.046465992091886198 0.23355810521927661 0 -0.051186381084281467 0.25697912835200742 0 -0.073364677054707741 0.24172195263804999 0 -0.068871175705444973 0.23901941034699509 0 -0.056424615767705202 0.22251993524084801 0 -0.046465992091886198 0.23355810521927661 0 -0.056424615767705202 0.22251993524084801 0 -0.046465992091886198 0.23355810521927661 0 -0.042144936278964297 0.21211844244671479 0 -0.046465992091886198 0.23355810521927661 0 -0.042144936278964297 0.21211844244671479 0 -0.033347284585120207 0.22816430810750429 0 -0.046465992091886198 0.23355810521927661 0 -0.042144936278964297 0.21211844244671479 0 -0.042144936278964297 0.21211844244671479 0 -0.037823880466042042 0.1906787796741532 0 -0.02678591195814934 0.21338610773782621 0 -0.033347284585120207 0.22816430810750429 0 -0.042144936278964297 0.21211844244671479 0 -0.02678591195814934 0.21338610773782621 0 -0.056424615767705202 0.22251993524084801 0 -0.042144936278964297 0.21211844244671479 0 -0.053018154777917402 0.2095110213162879 0 -0.069986729141999243 0.21627603700922041 0 -0.053018154777917402 0.2095110213162879 0 -0.069986729141999243 0.21627603700922041 0 -0.056424615767705202 0.22251993524084801 0 -0.053018154777917402 0.2095110213162879 0 -0.065255596314330769 0.20347955561815731 0 -0.053018154777917402 0.2095110213162879 0 -0.055346250240711388 0.19921248599168531 0 -0.042144936278964297 0.21211844244671479 0 -0.053018154777917402 0.2095110213162879 0 -0.047340366145105388 0.20041963960265541 0 -0.059444113198955907 0.18942083601934301 0 -0.048415104207408473 0.1924198992051116 0 -0.041891609426554233 0.18231064056282881 0 -0.047340366145105388 0.20041963960265541 0 -0.055346250240711388 0.19921248599168531 0 -0.048415104207408473 0.1924198992051116 0 -0.053018154777917402 0.2095110213162879 0 -0.047340366145105388 0.20041963960265541 0 -0.055346250240711388 0.19921248599168531 0 -0.065255596314330769 0.20347955561815731 0 -0.055346250240711388 0.19921248599168531 0 -0.059444113198955907 0.18942083601934301 0 -0.055346250240711388 0.19921248599168531 0 -0.059444113198955907 0.18942083601934301 0 -0.048415104207408473 0.1924198992051116 0 -0.042144936278964297 0.21211844244671479 0 -0.047340366145105388 0.20041963960265541 0 -0.037823880466042042 0.1906787796741532 0 -0.037823880466042042 0.1906787796741532 0 -0.02678591195814934 0.21338610773782621 0 -0.042144936278964297 0.21211844244671479 0 -0.037823880466042042 0.1906787796741532 0 -0.048415104207408473 0.1924198992051116 0 -0.037823880466042042 0.1906787796741532 0 -0.041891609426554233 0.18231064056282881 0 -0.047340366145105388 0.20041963960265541 0 -0.048415104207408473 0.1924198992051116 0 -0.037823880466042042 0.1906787796741532 0 -0.037823880466042042 0.1906787796741532 0 -0.015884639254205381 0.20254277528706521 0 -0.02678591195814934 0.21338610773782621 0 -0.037823880466042042 0.1906787796741532 0 -0.02188316075200978 0.18838532689253251 0 -0.015884639254205381 0.20254277528706521 0 -0.037823880466042042 0.1906787796741532 0 -0.02188316075200978 0.18838532689253251 0 -0.029582003495459551 0.1853376704222518 0 -0.015884639254205381 0.20254277528706521 0 -0.0013544956615165211 0.1975138059712592 0 -0.0064423259037591704 0.184638151680309 0 -0.02188316075200978 0.18838532689253251 0 -0.015884639254205381 0.20254277528706521 0 -0.0064423259037591704 0.184638151680309 0 -0.015884639254205381 0.20254277528706521 0 -0.0013544956615165211 0.1975138059712592 0 -0.0043793094578833446 0.21635995093607571 0 -0.015884639254205381 0.20254277528706521 0 -0.0043793094578833446 0.21635995093607571 0 -0.02678591195814934 0.21338610773782621 0 -0.033347284585120207 0.22816430810750429 0 -0.02678591195814934 0.21338610773782621 0 -0.015747943450256891 0.2360934358014993 0 -0.0043793094578833446 0.21635995093607571 0 -0.02678591195814934 0.21338610773782621 0 -0.015747943450256891 0.2360934358014993 0 -0.02678591195814934 0.21338610773782621 0 -0.015747943450256891 0.2360934358014993 0 -0.0043793094578833446 0.21635995093607571 0 -0.015747943450256891 0.2360934358014993 0 0.00201100181985514 0.2363839756251932 0 -0.0047099749423644751 0.25880076386517242 0 -0.015747943450256891 0.2360934358014993 0 -0.0047099749423644751 0.25880076386517242 0 -0.015747943450256891 0.2360934358014993 0 0.00201100181985514 0.2363839756251932 0 -0.024023074354920858 0.25913543755824808 0 -0.035591639146344299 0.24566544933220499 0 -0.015747943450256891 0.2360934358014993 0 -0.035591639146344299 0.24566544933220499 0 -0.033347284585120207 0.22816430810750429 0 -0.015747943450256891 0.2360934358014993 0 -0.040291608771800692 0.1413776843204444 0 -0.044607156712184758 0.15304671176781101 0 -0.053258287697584318 0.14239381125001119 0 -0.044607156712184758 0.15304671176781101 0 -0.032138570515656592 0.15166665760259751 0 -0.037619678191716348 0.16049957479587709 0 -0.040291608771800692 0.1413776843204444 0 -0.044607156712184758 0.15304671176781101 0 -0.032138570515656592 0.15166665760259751 0 -0.040291608771800692 0.1413776843204444 0 -0.032138570515656592 0.15166665760259751 0 -0.0256395341895632 0.1414639460706251 0 -0.040291608771800692 0.1413776843204444 0 -0.03272306926001721 0.13393147464418501 0 -0.041808263404730393 0.12807571896393569 0 -0.040291608771800692 0.1413776843204444 0 -0.03272306926001721 0.13393147464418501 0 -0.0256395341895632 0.1414639460706251 0 -0.03272306926001721 0.13393147464418501 0 -0.032925185909410723 0.12539773662929929 0 -0.041808263404730393 0.12807571896393569 0 -0.040291608771800692 0.1413776843204444 0 -0.041808263404730393 0.12807571896393569 0 -0.051418225284628818 0.13348683582470591 0 -0.041808263404730393 0.12807571896393569 0 -0.051418225284628818 0.13348683582470591 0 -0.059764812828132792 0.1219614959266782 0 -0.040291608771800692 0.1413776843204444 0 -0.051418225284628818 0.13348683582470591 0 -0.053258287697584318 0.14239381125001119 0 -0.051418225284628818 0.13348683582470591 0 -0.06196815372089582 0.13362546866246 0 -0.059764812828132792 0.1219614959266782 0 -0.066312134153768368 0.14467231459555821 0 -0.06196815372089582 0.13362546866246 0 -0.053258287697584318 0.14239381125001119 0 -0.051418225284628818 0.13348683582470591 0 -0.06196815372089582 0.13362546866246 0 -0.053258287697584318 0.14239381125001119 0 -0.069813031342388393 0.1645735768540588 0 -0.053258287697584318 0.14239381125001119 0 -0.055592660255382398 0.1541248149043476 0 -0.069813031342388393 0.1645735768540588 0 -0.053258287697584318 0.14239381125001119 0 -0.044607156712184758 0.15304671176781101 0 -0.053258287697584318 0.14239381125001119 0 -0.055592660255382398 0.1541248149043476 0 -0.069813031342388393 0.1645735768540588 0 -0.055592660255382398 0.1541248149043476 0 -0.060592743075633629 0.1669102103391325 0 -0.055592660255382398 0.1541248149043476 0 -0.060592743075633629 0.1669102103391325 0 -0.048742134840968301 0.16821772773358831 0 -0.065665325682302614 0.1716385020771696 0 -0.060592743075633629 0.1669102103391325 0 -0.060138725694013517 0.17494812887204361 0 -0.060592743075633629 0.1669102103391325 0 -0.048742134840968301 0.16821772773358831 0 -0.060138725694013517 0.17494812887204361 0 -0.055592660255382398 0.1541248149043476 0 -0.048742134840968301 0.16821772773358831 0 -0.044607156712184758 0.15304671176781101 0 -0.055592660255382398 0.1541248149043476 0 -0.048742134840968301 0.16821772773358831 0 -0.059444113198955907 0.18942083601934301 0 -0.041891609426554233 0.18231064056282881 0 -0.059444113198955907 0.18942083601934301 0 -0.052554145790122991 0.17872433329695089 0 -0.041891609426554233 0.18231064056282881 0 -0.059444113198955907 0.18942083601934301 0 -0.060138725694013517 0.17494812887204361 0 -0.052554145790122991 0.17872433329695089 0 -0.048742134840968301 0.16821772773358831 0 -0.060138725694013517 0.17494812887204361 0 -0.052554145790122991 0.17872433329695089 0 -0.048742134840968301 0.16821772773358831 0 -0.052554145790122991 0.17872433329695089 0 -0.041891609426554233 0.18231064056282881 0 -0.037823880466042042 0.1906787796741532 0 -0.041891609426554233 0.18231064056282881 0 -0.048742134840968301 0.16821772773358831 0 -0.041891609426554233 0.18231064056282881 0 -0.034581288993100902 0.16896189081224819 0 -0.048742134840968301 0.16821772773358831 0 -0.041891609426554233 0.18231064056282881 0 -0.041891609426554233 0.18231064056282881 0 -0.035794471335198808 0.17984080240657349 0 -0.034581288993100902 0.16896189081224819 0 -0.037823880466042042 0.1906787796741532 0 -0.041891609426554233 0.18231064056282881 0 -0.035794471335198808 0.17984080240657349 0 -0.037823880466042042 0.1906787796741532 0 -0.035794471335198808 0.17984080240657349 0 -0.029582003495459551 0.1853376704222518 0 -0.037823880466042042 0.1906787796741532 0 -0.035794471335198808 0.17984080240657349 0 -0.041891609426554233 0.18231064056282881 0 -0.035794471335198808 0.17984080240657349 0 -0.044607156712184758 0.15304671176781101 0 -0.048742134840968301 0.16821772773358831 0 -0.037619678191716348 0.16049957479587709 0 -0.048742134840968301 0.16821772773358831 0 -0.034581288993100902 0.16896189081224819 0 -0.037619678191716348 0.16049957479587709 0 -0.032138570515656592 0.15166665760259751 0 -0.037619678191716348 0.16049957479587709 0 -0.027795416935511321 0.16136153572137499 0 -0.034581288993100902 0.16896189081224819 0 -0.037619678191716348 0.16049957479587709 0 -0.027795416935511321 0.16136153572137499 0 -0.027795416935511321 0.16136153572137499 0 -0.018190137581921419 0.17270961158100509 0 -0.019112473417495539 0.15354921648201389 0 -0.034581288993100902 0.16896189081224819 0 -0.027795416935511321 0.16136153572137499 0 -0.018190137581921419 0.17270961158100509 0 -0.035794471335198808 0.17984080240657349 0 -0.018190137581921419 0.17270961158100509 0 -0.035794471335198808 0.17984080240657349 0 -0.018190137581921419 0.17270961158100509 0 -0.029582003495459551 0.1853376704222518 0 -0.02188316075200978 0.18838532689253251 0 -0.018190137581921419 0.17270961158100509 0 -0.029582003495459551 0.1853376704222518 0 -0.035794471335198808 0.17984080240657349 0 -0.034581288993100902 0.16896189081224819 0 -0.018190137581921419 0.17270961158100509 0 -0.02188316075200978 0.18838532689253251 0 -0.018190137581921419 0.17270961158100509 0 -0.0064423259037591704 0.184638151680309 0 -0.018190137581921419 0.17270961158100509 0 -0.0064423259037591704 0.184638151680309 0 0.0055113342627114148 0.16310858259918129 0 -0.018190137581921419 0.17270961158100509 0 -0.002609900621990735 0.1506190610776463 0 -0.019112473417495539 0.15354921648201389 0 -0.018190137581921419 0.17270961158100509 0 -0.002609900621990735 0.1506190610776463 0 0.0055113342627114148 0.16310858259918129 0 -0.018190137581921419 0.17270961158100509 0 0.0055113342627114148 0.16310858259918129 0 -0.002609900621990735 0.1506190610776463 0 -0.01132071856531641 0.14299131520035679 0 -0.019112473417495539 0.15354921648201389 0 -0.002609900621990735 0.1506190610776463 0 -0.0045795472881563423 0.13853451359274119 0 0.0042444643585255182 0.13650405945261521 0 -0.002609900621990735 0.1506190610776463 0 -0.01132071856531641 0.14299131520035679 0 -0.0045795472881563423 0.13853451359274119 0 -0.01132071856531641 0.14299131520035679 0 -0.019112473417495539 0.15354921648201389 0 -0.0256395341895632 0.1414639460706251 0 -0.032138570515656592 0.15166665760259751 0 -0.027795416935511321 0.16136153572137499 0 -0.019112473417495539 0.15354921648201389 0 -0.032138570515656592 0.15166665760259751 0 -0.019112473417495539 0.15354921648201389 0 -0.0256395341895632 0.1414639460706251 0 -0.03272306926001721 0.13393147464418501 0 -0.032925185909410723 0.12539773662929929 0 -0.022830043179404 0.12752502270314461 0 -0.03272306926001721 0.13393147464418501 0 -0.0256395341895632 0.1414639460706251 0 -0.022830043179404 0.12752502270314461 0 -0.01132071856531641 0.14299131520035679 0 -0.0256395341895632 0.1414639460706251 0 -0.022830043179404 0.12752502270314461 0 -0.01132071856531641 0.14299131520035679 0 -0.022830043179404 0.12752502270314461 0 -0.0045795472881563423 0.13853451359274119 0 -0.010257062393283179 0.1217124500946084 0 0.0011193715973417161 0.12735019327789721 0 -0.0045795472881563423 0.13853451359274119 0 -0.010257062393283179 0.1217124500946084 0 -0.022830043179404 0.12752502270314461 0 -0.01224684285653998 0.13269082539771271 0 -0.010257062393283179 0.1217124500946084 0 -0.01224684285653998 0.13269082539771271 0 -0.0045795472881563423 0.13853451359274119 0 -0.010257062393283179 0.1217124500946084 0 -0.01132071856531641 0.14299131520035679 0 -0.01224684285653998 0.13269082539771271 0 -0.0045795472881563423 0.13853451359274119 0 -0.01132071856531641 0.14299131520035679 0 -0.022830043179404 0.12752502270314461 0 -0.01224684285653998 0.13269082539771271 0 -0.010257062393283179 0.1217124500946084 0 0.00071008929500930085 0.1188524068210496 0 0.0011193715973417161 0.12735019327789721 0 -0.010257062393283179 0.1217124500946084 0 -0.0159345774984095 0.1048903865964755 0 -0.010257062393283179 0.1217124500946084 0 -0.0044111750211892663 0.11103904934749929 0 0.00071008929500930085 0.1188524068210496 0 -0.010257062393283179 0.1217124500946084 0 -0.0044111750211892663 0.11103904934749929 0 -0.0159345774984095 0.1048903865964755 0 -0.0044111750211892663 0.11103904934749929 0 -0.0029496625288702172 0.099832989541204259 0 0.006300447950588998 0.1107341990224166 0 -0.0044111750211892663 0.11103904934749929 0 -0.0029496625288702172 0.099832989541204259 0 -0.0159345774984095 0.1048903865964755 0 -0.0029496625288702172 0.099832989541204259 0 -0.0159345774984095 0.1048903865964755 0 -0.0122316139574065 0.090073275501740921 0 -0.0029496625288702172 0.099832989541204259 0 -0.0159345774984095 0.1048903865964755 0 -0.0159345774984095 0.1048903865964755 0 -0.02671300572870099 0.094238570978798564 0 -0.023179241016760679 0.083424976558508168 0 -0.0159345774984095 0.1048903865964755 0 -0.023179241016760679 0.083424976558508168 0 -0.0159345774984095 0.1048903865964755 0 -0.02671300572870099 0.094238570978798564 0 -0.034339367793491227 0.112058730205932 0 -0.0159345774984095 0.1048903865964755 0 -0.034339367793491227 0.112058730205932 0 -0.0159345774984095 0.1048903865964755 0 -0.02206373538878097 0.1155946758511683 0 -0.034339367793491227 0.112058730205932 0 -0.010257062393283179 0.1217124500946084 0 -0.0159345774984095 0.1048903865964755 0 -0.02206373538878097 0.1155946758511683 0 -0.032925185909410723 0.12539773662929929 0 -0.022830043179404 0.12752502270314461 0 -0.034339367793491227 0.112058730205932 0 -0.022830043179404 0.12752502270314461 0 -0.034339367793491227 0.112058730205932 0 -0.022830043179404 0.12752502270314461 0 -0.02206373538878097 0.1155946758511683 0 -0.034339367793491227 0.112058730205932 0 -0.022830043179404 0.12752502270314461 0 -0.010257062393283179 0.1217124500946084 0 -0.02206373538878097 0.1155946758511683 0 -0.01147888043887123 0.063941888187010909 0 -0.0087984771182856841 0.077035775661651693 0 -0.0046535666324173707 0.059196937454625717 0 -0.0087984771182856841 0.077035775661651693 0 -0.0046535666324173707 0.059196937454625717 0 0.002614186996336807 0.085144428290871613 0 -0.0046535666324173707 0.059196937454625717 0 0.002614186996336807 0.085144428290871613 0 -0.01147888043887123 0.063941888187010909 0 -0.01436210511702587 0.071971202675767093 0 -0.02059554625924296 0.071351307862133478 0 -0.01147888043887123 0.063941888187010909 0 -0.0087984771182856841 0.077035775661651693 0 -0.01436210511702587 0.071971202675767093 0 -0.0087984771182856841 0.077035775661651693 0 -0.01436210511702587 0.071971202675767093 0 -0.016995697031592091 0.078242117453946533 0 -0.0087984771182856841 0.077035775661651693 0 -0.0122316139574065 0.090073275501740921 0 -0.016995697031592091 0.078242117453946533 0 -0.0087984771182856841 0.077035775661651693 0 -0.0036295419654841631 0.091177419313066138 0 0.002614186996336807 0.085144428290871613 0 -0.0029496625288702172 0.099832989541204259 0 -0.0036295419654841631 0.091177419313066138 0 -0.0122316139574065 0.090073275501740921 0 -0.0087984771182856841 0.077035775661651693 0 -0.0036295419654841631 0.091177419313066138 0 -0.0122316139574065 0.090073275501740921 0 -0.0159345774984095 0.1048903865964755 0 -0.0122316139574065 0.090073275501740921 0 -0.023179241016760679 0.083424976558508168 0 -0.02671300572870099 0.094238570978798564 0 -0.023179241016760679 0.083424976558508168 0 -0.032085275352561123 0.086498776768861502 0 -0.0122316139574065 0.090073275501740921 0 -0.023179241016760679 0.083424976558508168 0 -0.016995697031592091 0.078242117453946533 0 -0.01147888043887123 0.063941888187010909 0 -0.02059554625924296 0.071351307862133478 0 -0.030423904535110551 0.06195956652054041 0 -0.023179241016760679 0.083424976558508168 0 -0.030423904535110551 0.06195956652054041 0 -0.023179241016760679 0.083424976558508168 0 -0.039056886041314583 0.078105428386646442 0 -0.030423904535110551 0.06195956652054041 0 -0.023179241016760679 0.083424976558508168 0 -0.02059554625924296 0.071351307862133478 0 -0.030423904535110551 0.06195956652054041 0 -0.01147888043887123 0.063941888187010909 0 -0.030423904535110551 0.06195956652054041 0 -0.023179241016760679 0.083424976558508168 0 -0.016995697031592091 0.078242117453946533 0 -0.02059554625924296 0.071351307862133478 0 -0.01436210511702587 0.071971202675767093 0 -0.016995697031592091 0.078242117453946533 0 -0.02059554625924296 0.071351307862133478 0 -0.049620048950082582 0.070637605115496466 0 -0.057781837418566642 0.059096956115336267 0 -0.030423904535110551 0.06195956652054041 0 -0.039056886041314583 0.078105428386646442 0 -0.049620048950082582 0.070637605115496466 0 -0.030423904535110551 0.06195956652054041 0 -0.023179241016760679 0.083424976558508168 0 -0.039056886041314583 0.078105428386646442 0 -0.032085275352561123 0.086498776768861502 0 -0.039056886041314583 0.078105428386646442 0 -0.038791649089106199 0.090338066463285974 0 -0.053470293405297638 0.086350489177398543 0 -0.039056886041314583 0.078105428386646442 0 -0.038791649089106199 0.090338066463285974 0 -0.032085275352561123 0.086498776768861502 0 -0.02671300572870099 0.094238570978798564 0 -0.038791649089106199 0.090338066463285974 0 -0.032085275352561123 0.086498776768861502 0 -0.053470293405297638 0.086350489177398543 0 -0.061638950652943968 0.102511240836571 0 -0.070698736023920045 0.084662900637485508 0 -0.039056886041314583 0.078105428386646442 0 -0.053470293405297638 0.086350489177398543 0 -0.049620048950082582 0.070637605115496466 0 -0.053470293405297638 0.086350489177398543 0 -0.049620048950082582 0.070637605115496466 0 -0.067367323350123465 0.067675585377560576 0 -0.053470293405297638 0.086350489177398543 0 -0.067367323350123465 0.067675585377560576 0 -0.049620048950082582 0.070637605115496466 0 -0.067367323350123465 0.067675585377560576 0 -0.057781837418566642 0.059096956115336267 0 -0.032925185909410723 0.12539773662929929 0 -0.041808263404730393 0.12807571896393569 0 -0.034339367793491227 0.112058730205932 0 -0.041808263404730393 0.12807571896393569 0 -0.034339367793491227 0.112058730205932 0 -0.059764812828132792 0.1219614959266782 0 -0.034339367793491227 0.112058730205932 0 -0.039573263460471839 0.1050253929772364 0 -0.059764812828132792 0.1219614959266782 0 -0.02671300572870099 0.094238570978798564 0 -0.034339367793491227 0.112058730205932 0 -0.039573263460471839 0.1050253929772364 0 -0.053470293405297638 0.086350489177398543 0 -0.039573263460471839 0.1050253929772364 0 -0.038791649089106199 0.090338066463285974 0 -0.053470293405297638 0.086350489177398543 0 -0.039573263460471839 0.1050253929772364 0 -0.034339367793491227 0.112058730205932 0 -0.039573263460471839 0.1050253929772364 0 -0.02671300572870099 0.094238570978798564 0 -0.039573263460471839 0.1050253929772364 0 -0.02671300572870099 0.094238570978798564 0 -0.038791649089106199 0.090338066463285974 0 -0.039573263460471839 0.1050253929772364 0 -0.053470293405297638 0.086350489177398543 0 -0.039573263460471839 0.1050253929772364 0 -0.061638950652943968 0.102511240836571 0 -0.039573263460471839 0.1050253929772364 0 -0.059764812828132792 0.1219614959266782 0 -0.039573263460471839 0.1050253929772364 0 -0.061638950652943968 0.102511240836571 0 -0.059764812828132792 0.1219614959266782 0 -0.034339367793491227 0.112058730205932 0 -0.059764812828132792 0.1219614959266782 0 -0.081757772457370745 0.13052736867413381 0 -0.059764812828132792 0.1219614959266782 0 -0.075310988336478396 0.1148975633648172 0 -0.061638950652943968 0.102511240836571 0 -0.059764812828132792 0.1219614959266782 0 -0.075310988336478396 0.1148975633648172 0 -0.081757772457370745 0.13052736867413381 0 -0.075310988336478396 0.1148975633648172 0 -0.086648589927463215 0.1192607845507805 0 -0.075310988336478396 0.1148975633648172 0 -0.086648589927463215 0.1192607845507805 0 -0.090561300738004294 0.1076127853198109 0 -0.086648589927463215 0.1192607845507805 0 -0.090561300738004294 0.1076127853198109 0 -0.1007093272786552 0.11406161381121049 0 -0.075310988336478396 0.1148975633648172 0 -0.080577539308621132 0.09866222377695924 0 -0.090561300738004294 0.1076127853198109 0 -0.080577539308621132 0.09866222377695924 0 -0.090561300738004294 0.1076127853198109 0 -0.1005834071558389 0.096414591312547371 0 -0.061638950652943968 0.102511240836571 0 -0.080577539308621132 0.09866222377695924 0 -0.070698736023920045 0.084662900637485508 0 -0.061638950652943968 0.102511240836571 0 -0.075310988336478396 0.1148975633648172 0 -0.080577539308621132 0.09866222377695924 0 -0.053470293405297638 0.086350489177398543 0 -0.070698736023920045 0.084662900637485508 0 -0.067367323350123465 0.067675585377560576 0 -0.070698736023920045 0.084662900637485508 0 -0.067367323350123465 0.067675585377560576 0 -0.086832032673588397 0.078387238970616349 0 -0.086832032673588397 0.078387238970616349 0 -0.098895008571251081 0.066795539231860102 0 -0.085139770302022799 0.056234345710132513 0 -0.067367323350123465 0.067675585377560576 0 -0.086832032673588397 0.078387238970616349 0 -0.085139770302022799 0.056234345710132513 0 -0.080577539308621132 0.09866222377695924 0 -0.070698736023920045 0.084662900637485508 0 -0.086832032673588397 0.078387238970616349 0 -0.080577539308621132 0.09866222377695924 0 -0.086832032673588397 0.078387238970616349 0 -0.1005834071558389 0.096414591312547371 0 -0.086832032673588397 0.078387238970616349 0 -0.111110528123914 0.079188836941762805 0 -0.1005834071558389 0.096414591312547371 0 -0.086832032673588397 0.078387238970616349 0 -0.098895008571251081 0.066795539231860102 0 -0.111110528123914 0.079188836941762805 0 -0.098895008571251081 0.066795539231860102 0 -0.111110528123914 0.079188836941762805 0 -0.112497703185479 0.053371735304928732 0 -0.12936541511880731 0.073230595649532326 0 -0.111110528123914 0.079188836941762805 0 -0.112497703185479 0.053371735304928732 0 -0.13354198269330661 0.090079492398921407 0 -0.12936541511880731 0.073230595649532326 0 -0.111110528123914 0.079188836941762805 0 -0.111110528123914 0.079188836941762805 0 -0.11693022257939591 0.093198330194469409 0 -0.1005834071558389 0.096414591312547371 0 -0.13354198269330661 0.090079492398921407 0 -0.111110528123914 0.079188836941762805 0 -0.11693022257939591 0.093198330194469409 0 -0.13354198269330661 0.090079492398921407 0 -0.111110528123914 0.079188836941762805 0 -0.11693022257939591 0.093198330194469409 0 -0.1177399202292308 0.1070916594883476 0 -0.1005834071558389 0.096414591312547371 0 -0.13354198269330661 0.090079492398921407 0 -0.11693022257939591 0.093198330194469409 0 -0.1177399202292308 0.1070916594883476 0 -0.1284821480166535 0.1137632357378007 0 -0.1177399202292308 0.1070916594883476 0 -0.11302022697949241 0.12467597767196301 0 -0.1177399202292308 0.1070916594883476 0 -0.11302022697949241 0.12467597767196301 0 -0.1007093272786552 0.11406161381121049 0 -0.1284821480166535 0.1137632357378007 0 -0.12699073800916399 0.1277996415964478 0 -0.11302022697949241 0.12467597767196301 0 -0.096892991918933635 0.1257254020939445 0 -0.11302022697949241 0.12467597767196301 0 -0.1007093272786552 0.11406161381121049 0 -0.096892991918933635 0.1257254020939445 0 -0.086648589927463215 0.1192607845507805 0 -0.1007093272786552 0.11406161381121049 0 -0.090561300738004294 0.1076127853198109 0 -0.1007093272786552 0.11406161381121049 0 -0.1005834071558389 0.096414591312547371 0 -0.1177399202292308 0.1070916594883476 0 -0.1007093272786552 0.11406161381121049 0 -0.1005834071558389 0.096414591312547371 0 -0.1090292796141264 0.01789533022616098 0 -0.097962843570078312 0.01657098868557726 0 -0.1010304823348539 0.034312711186393341 0 -0.1090292796141264 0.01789533022616098 0 -0.1174458562074427 0.025546133892312618 0 -0.1010304823348539 0.034312711186393341 0 -0.097962843570078312 0.01657098868557726 0 -0.1010304823348539 0.034312711186393341 0 -0.082860375238201195 0.034236227460475568 0 -0.097962843570078312 0.01657098868557726 0 -0.094681377386978766 0.0041082946190843907 0 -0.10766802143425221 0.0057165579607475628 0 -0.097480550556826001 -0.0063456501565944757 0 -0.094681377386978766 0.0041082946190843907 0 -0.10766802143425221 0.0057165579607475628 0 -0.1090292796141264 0.01789533022616098 0 -0.097962843570078312 0.01657098868557726 0 -0.10766802143425221 0.0057165579607475628 0 -0.10766802143425221 0.0057165579607475628 0 -0.1182663443865396 0.0043209969646549216 0 -0.1187332144630753 0.013936095380259949 0 -0.1090292796141264 0.01789533022616098 0 -0.10766802143425221 0.0057165579607475628 0 -0.1187332144630753 0.013936095380259949 0 -0.10766802143425221 0.0057165579607475628 0 -0.11262869904329049 0.0001426134633649314 0 -0.1182663443865396 0.0043209969646549216 0 -0.1081753613973562 -0.005400591745477544 0 -0.10766802143425221 0.0057165579607475628 0 -0.11262869904329049 0.0001426134633649314 0 -0.11871605765840609 -0.002265960235820368 0 -0.11262869904329049 0.0001426134633649314 0 -0.1182663443865396 0.0043209969646549216 0 -0.1202061722546995 -0.0013910732862858659 0 -0.13164590146551461 0.0097877485056629132 0 -0.1182663443865396 0.0043209969646549216 0 -0.11871605765840609 -0.002265960235820368 0 -0.1202061722546995 -0.0013910732862858659 0 -0.1182663443865396 0.0043209969646549216 0 -0.13164590146551461 0.0097877485056629132 0 -0.1182663443865396 0.0043209969646549216 0 -0.1187332144630753 0.013936095380259949 0 -0.12972333112282211 0.021635635646294591 0 -0.1187332144630753 0.013936095380259949 0 -0.1174458562074427 0.025546133892312618 0 -0.1090292796141264 0.01789533022616098 0 -0.1187332144630753 0.013936095380259949 0 -0.1174458562074427 0.025546133892312618 0 -0.12735046531874469 0.043680477281468268 0 -0.1284228677841299 0.032335744680439857 0 -0.1155097120604052 0.037964466990148528 0 -0.1174458562074427 0.025546133892312618 0 -0.1155097120604052 0.037964466990148528 0 -0.1010304823348539 0.034312711186393341 0 -0.1155097120604052 0.037964466990148528 0 -0.112497703185479 0.053371735304928732 0 -0.1010304823348539 0.034312711186393341 0 -0.1284228677841299 0.032335744680439857 0 -0.1174458562074427 0.025546133892312618 0 -0.1155097120604052 0.037964466990148528 0 -0.12735046531874469 0.043680477281468268 0 -0.1155097120604052 0.037964466990148528 0 -0.112497703185479 0.053371735304928732 0 -0.112497703185479 0.053371735304928732 0 -0.085139770302022799 0.056234345710132513 0 -0.098895008571251081 0.066795539231860102 0 -0.112497703185479 0.053371735304928732 0 -0.085139770302022799 0.056234345710132513 0 -0.112497703185479 0.053371735304928732 0 -0.1010304823348539 0.034312711186393341 0 -0.085139770302022799 0.056234345710132513 0 -0.1010304823348539 0.034312711186393341 0 -0.082860375238201195 0.034236227460475568 0 -0.085139770302022799 0.056234345710132513 0 -0.082860375238201195 0.034236227460475568 0 -0.085139770302022799 0.056234345710132513 0 -0.069289052295434195 0.044860843088620879 0 -0.085139770302022799 0.056234345710132513 0 -0.069289052295434195 0.044860843088620879 0 -0.057781837418566642 0.059096956115336267 0 -0.067367323350123465 0.067675585377560576 0 -0.085139770302022799 0.056234345710132513 0 -0.057781837418566642 0.059096956115336267 0 -0.085139770302022799 0.056234345710132513 0 -0.057781837418566642 0.059096956115336267 0 -0.082860375238201195 0.034236227460475568 0 -0.069289052295434195 0.044860843088620879 0 -0.069667582330362729 0.032041941352793243 0 -0.06255160625646039 0.039825698677122059 0 -0.069289052295434195 0.044860843088620879 0 -0.057733142226991468 0.047729889215865608 0 -0.06255160625646039 0.039825698677122059 0 -0.069667582330362729 0.032041941352793243 0 -0.056763431429043651 0.026965294024384089 0 -0.06255160625646039 0.039825698677122059 0 -0.069289052295434195 0.044860843088620879 0 -0.069667582330362729 0.032041941352793243 0 -0.069667582330362729 0.032041941352793243 0 -0.071505759647158412 0.020585879068563021 0 -0.056763431429043651 0.026965294024384089 0 -0.071505759647158412 0.020585879068563021 0 -0.06067299480549232 0.01217424620236909 0 -0.056763431429043651 0.026965294024384089 0 -0.082860375238201195 0.034236227460475568 0 -0.069667582330362729 0.032041941352793243 0 -0.071505759647158412 0.020585879068563021 0 -0.082860375238201195 0.034236227460475568 0 -0.071505759647158412 0.020585879068563021 0 -0.082374423920651516 0.0098715670803008835 0 -0.097962843570078312 0.01657098868557726 0 -0.082860375238201195 0.034236227460475568 0 -0.082374423920651516 0.0098715670803008835 0 -0.084025503774487115 -0.0070039595572996306 0 -0.094681377386978766 0.0041082946190843907 0 -0.082374423920651516 0.0098715670803008835 0 -0.097962843570078312 0.01657098868557726 0 -0.094681377386978766 0.0041082946190843907 0 -0.082374423920651516 0.0098715670803008835 0 -0.071505759647158412 0.020585879068563021 0 -0.082374423920651516 0.0098715670803008835 0 -0.06067299480549232 0.01217424620236909 0 -0.084025503774487115 -0.0070039595572996306 0 -0.062413360479634639 -0.0022353211108208362 0 -0.082374423920651516 0.0098715670803008835 0 -0.062413360479634639 -0.0022353211108208362 0 -0.082374423920651516 0.0098715670803008835 0 -0.06067299480549232 0.01217424620236909 0 -0.062413360479634639 -0.0022353211108208362 0 -0.06067299480549232 0.01217424620236909 0 -0.040801217184782149 0.0025333173356579639 0 -0.06067299480549232 0.01217424620236909 0 -0.048496373427316698 0.016160370759378741 0 -0.040801217184782149 0.0025333173356579639 0 -0.062413360479634639 -0.0022353211108208362 0 -0.040801217184782149 0.0025333173356579639 0 -0.06067299480549232 0.01217424620236909 0 -0.056763431429043651 0.026965294024384089 0 -0.048496373427316698 0.016160370759378741 0 -0.056763431429043651 0.026965294024384089 0 -0.04232356522172491 0.023232971065772379 0 -0.046432685428266222 0.031673371966512508 0 -0.056763431429043651 0.026965294024384089 0 -0.048496373427316698 0.016160370759378741 0 -0.04232356522172491 0.023232971065772379 0 -0.048496373427316698 0.016160370759378741 0 -0.04232356522172491 0.023232971065772379 0 -0.038585309218186127 0.012739855405645701 0 -0.04232356522172491 0.023232971065772379 0 -0.035479304887250408 0.030107493959046008 0 -0.046432685428266222 0.031673371966512508 0 -0.04232356522172491 0.023232971065772379 0 -0.035479304887250408 0.030107493959046008 0 -0.032002510192509458 0.019911394402702901 0 -0.04232356522172491 0.023232971065772379 0 -0.032002510192509458 0.019911394402702901 0 -0.038585309218186127 0.012739855405645701 0 -0.038585309218186127 0.012739855405645701 0 -0.040801217184782149 0.0025333173356579639 0 -0.01918907388992936 0.0073019557821350058 0 -0.048496373427316698 0.016160370759378741 0 -0.038585309218186127 0.012739855405645701 0 -0.040801217184782149 0.0025333173356579639 0 -0.057781837418566642 0.059096956115336267 0 -0.046857431421992807 0.048552745071478533 0 -0.040458018038241061 0.055021118382796483 0 -0.069289052295434195 0.044860843088620879 0 -0.057781837418566642 0.059096956115336267 0 -0.057733142226991468 0.047729889215865608 0 -0.057781837418566642 0.059096956115336267 0 -0.057733142226991468 0.047729889215865608 0 -0.046857431421992807 0.048552745071478533 0 -0.057733142226991468 0.047729889215865608 0 -0.051912510103303222 0.039827108010744107 0 -0.046857431421992807 0.048552745071478533 0 -0.06255160625646039 0.039825698677122059 0 -0.057733142226991468 0.047729889215865608 0 -0.051912510103303222 0.039827108010744107 0 -0.06255160625646039 0.039825698677122059 0 -0.056763431429043651 0.026965294024384089 0 -0.051912510103303222 0.039827108010744107 0 -0.056763431429043651 0.026965294024384089 0 -0.051912510103303222 0.039827108010744107 0 -0.046432685428266222 0.031673371966512508 0 -0.051912510103303222 0.039827108010744107 0 -0.046432685428266222 0.031673371966512508 0 -0.04080651603941611 0.039571236622795172 0 -0.035479304887250408 0.030107493959046008 0 -0.046432685428266222 0.031673371966512508 0 -0.04080651603941611 0.039571236622795172 0 -0.035479304887250408 0.030107493959046008 0 -0.04080651603941611 0.039571236622795172 0 -0.028180735503205271 0.039159590651435462 0 -0.04080651603941611 0.039571236622795172 0 -0.035317015673766237 0.04793965733713855 0 -0.028180735503205271 0.039159590651435462 0 -0.04080651603941611 0.039571236622795172 0 -0.046857431421992807 0.048552745071478533 0 -0.035317015673766237 0.04793965733713855 0 -0.051912510103303222 0.039827108010744107 0 -0.04080651603941611 0.039571236622795172 0 -0.046857431421992807 0.048552745071478533 0 -0.057781837418566642 0.059096956115336267 0 -0.030423904535110551 0.06195956652054041 0 -0.057781837418566642 0.059096956115336267 0 -0.040458018038241061 0.055021118382796483 0 -0.030423904535110551 0.06195956652054041 0 -0.046857431421992807 0.048552745071478533 0 -0.035317015673766237 0.04793965733713855 0 -0.040458018038241061 0.055021118382796483 0 -0.035317015673766237 0.04793965733713855 0 -0.031909901141769073 0.057556666869488633 0 -0.040458018038241061 0.055021118382796483 0 -0.035317015673766237 0.04793965733713855 0 -0.031909901141769073 0.057556666869488633 0 -0.026881181145431369 0.050455417736498837 0 -0.031909901141769073 0.057556666869488633 0 -0.040458018038241061 0.055021118382796483 0 -0.030423904535110551 0.06195956652054041 0 -0.01147888043887123 0.063941888187010909 0 -0.023853393577402359 0.057706687140288419 0 -0.030423904535110551 0.06195956652054041 0 -0.01147888043887123 0.063941888187010909 0 -0.023853393577402359 0.057706687140288419 0 -0.01857310062582954 0.05461989638790328 0 -0.031909901141769073 0.057556666869488633 0 -0.023853393577402359 0.057706687140288419 0 -0.026881181145431369 0.050455417736498837 0 -0.031909901141769073 0.057556666869488633 0 -0.023853393577402359 0.057706687140288419 0 -0.030423904535110551 0.06195956652054041 0 -0.031909901141769073 0.057556666869488633 0 -0.030423904535110551 0.06195956652054041 0 -0.026881181145431369 0.050455417736498837 0 -0.01857310062582954 0.05461989638790328 0 -0.01650993354081606 0.044911529508795157 0 -0.023853393577402359 0.057706687140288419 0 -0.026881181145431369 0.050455417736498837 0 -0.01857310062582954 0.05461989638790328 0 -0.01857310062582954 0.05461989638790328 0 -0.01650993354081606 0.044911529508795157 0 -0.01280387030948355 0.055667562884583757 0 -0.028180735503205271 0.039159590651435462 0 -0.011921320261171551 0.033249446618379842 0 -0.024264904697784952 0.02650944865612001 0 -0.01650993354081606 0.044911529508795157 0 -0.028180735503205271 0.039159590651435462 0 -0.011921320261171551 0.033249446618379842 0 -0.026881181145431369 0.050455417736498837 0 -0.01650993354081606 0.044911529508795157 0 -0.028180735503205271 0.039159590651435462 0 -0.035317015673766237 0.04793965733713855 0 -0.026881181145431369 0.050455417736498837 0 -0.028180735503205271 0.039159590651435462 0 -0.035479304887250408 0.030107493959046008 0 -0.028180735503205271 0.039159590651435462 0 -0.024264904697784952 0.02650944865612001 0 -0.011921320261171551 0.033249446618379842 0 -0.0046535666324173707 0.059196937454625717 0 -0.01650993354081606 0.044911529508795157 0 -0.011921320261171551 0.033249446618379842 0 -0.0046535666324173707 0.059196937454625717 0 -0.011921320261171551 0.033249446618379842 0 -0.0046535666324173707 0.059196937454625717 0 0.0098287769403148338 0.051831970635321307 0 -0.01650993354081606 0.044911529508795157 0 -0.0046535666324173707 0.059196937454625717 0 -0.01280387030948355 0.055667562884583757 0 -0.01147888043887123 0.063941888187010909 0 -0.01857310062582954 0.05461989638790328 0 -0.01280387030948355 0.055667562884583757 0 -0.01147888043887123 0.063941888187010909 0 -0.0046535666324173707 0.059196937454625717 0 -0.01280387030948355 0.055667562884583757 0 -0.032002510192509458 0.019911394402702901 0 -0.038585309218186127 0.012739855405645701 0 -0.01918907388992936 0.0073019557821350058 0 -0.040801217184782149 0.0025333173356579639 0 -0.01918907388992936 0.0073019557821350058 0 -0.029380671470779201 0.0020721751775648329 0 -0.040801217184782149 0.0025333173356579639 0 -0.01918907388992936 0.0073019557821350058 0 -0.02288696417543129 -0.00590033191195867 0 -0.01918907388992936 0.0073019557821350058 0 -0.02288696417543129 -0.00590033191195867 0 -0.01918907388992936 0.0073019557821350058 0 -0.029380671470779201 0.0020721751775648329 0 -0.011921320261171551 0.033249446618379842 0 -0.01918907388992936 0.0073019557821350058 0 -0.024264904697784952 0.02650944865612001 0 -0.032002510192509458 0.019911394402702901 0 -0.01918907388992936 0.0073019557821350058 0 -0.024264904697784952 0.02650944865612001 0 -0.035479304887250408 0.030107493959046008 0 -0.032002510192509458 0.019911394402702901 0 -0.024264904697784952 0.02650944865612001 0 -0.011921320261171551 0.033249446618379842 0 -0.01918907388992936 0.0073019557821350058 0 0.0082561663295642115 0.013357645210898619 0 -0.011921320261171551 0.033249446618379842 0 -0.01918907388992936 0.0073019557821350058 0 -0.0025007363194086028 -0.0051543784696279817 0 -0.01918907388992936 0.0073019557821350058 0 0.0082561663295642115 0.013357645210898619 0 -0.01918907388992936 0.0073019557821350058 0 0.0082561663295642115 0.013357645210898619 0 -0.0025007363194086028 -0.0051543784696279817 0 0.0082561663295642115 0.013357645210898619 0 0.021600236337897379 -0.0042573374784961784 0 -0.011921320261171551 0.033249446618379842 0 0.0082561663295642115 0.013357645210898619 0 0.01404468549316598 0.03390182135376725 0 0.0082561663295642115 0.013357645210898619 0 0.035701406549058158 0.019413334639660499 0 0.0082561663295642115 0.013357645210898619 0 0.01404468549316598 0.03390182135376725 0 0.035701406549058158 0.019413334639660499 0 0.0082561663295642115 0.013357645210898619 0 0.035701406549058158 0.019413334639660499 0 0.021600236337897379 -0.0042573374784961784 0 -0.0046535666324173707 0.059196937454625717 0 0.0098287769403148338 0.051831970635321307 0 0.0098460742479551683 0.06938754726252197 0 0.0098287769403148338 0.051831970635321307 0 0.02331074058952725 0.066237689147358059 0 0.0098460742479551683 0.06938754726252197 0 -0.011921320261171551 0.033249446618379842 0 0.0098287769403148338 0.051831970635321307 0 0.01404468549316598 0.03390182135376725 0 0.0098287769403148338 0.051831970635321307 0 0.01404468549316598 0.03390182135376725 0 0.030659545074026691 0.044725716479398991 0 0.01404468549316598 0.03390182135376725 0 0.030659545074026691 0.044725716479398991 0 0.035701406549058158 0.019413334639660499 0 0.0098287769403148338 0.051831970635321307 0 0.030659545074026691 0.044725716479398991 0 0.02331074058952725 0.066237689147358059 0 0.030659545074026691 0.044725716479398991 0 0.040165888042008581 0.061891739960142862 0 0.02331074058952725 0.066237689147358059 0 0.030659545074026691 0.044725716479398991 0 0.040165888042008581 0.061891739960142862 0 0.045678377839633771 0.048203936203878327 0 0.030659545074026691 0.044725716479398991 0 0.046415764337373461 0.034423647829504543 0 0.035701406549058158 0.019413334639660499 0 0.030659545074026691 0.044725716479398991 0 0.045678377839633771 0.048203936203878327 0 0.046415764337373461 0.034423647829504543 0 0.046415764337373461 0.034423647829504543 0 0.05784179863335101 0.040873919534342072 0 0.063146646768552112 0.025469024068422368 0 0.045678377839633771 0.048203936203878327 0 0.046415764337373461 0.034423647829504543 0 0.05784179863335101 0.040873919534342072 0 0.040165888042008581 0.061891739960142862 0 0.045678377839633771 0.048203936203878327 0 0.059459593045270077 0.058127108528758818 0 0.045678377839633771 0.048203936203878327 0 0.05784179863335101 0.040873919534342072 0 0.059459593045270077 0.058127108528758818 0 0.035701406549058158 0.019413334639660499 0 0.021600236337897379 -0.0042573374784961784 0 0.045049452822597078 -0.003360735619274113 0 0.035701406549058158 0.019413334639660499 0 0.056734102163932411 0.0083852866623192659 0 0.045049452822597078 -0.003360735619274113 0 0.035701406549058158 0.019413334639660499 0 0.063146646768552112 0.025469024068422368 0 0.046415764337373461 0.034423647829504543 0 0.035701406549058158 0.019413334639660499 0 0.063146646768552112 0.025469024068422368 0 0.035701406549058158 0.019413334639660499 0 0.056734102163932411 0.0083852866623192659 0 0.063146646768552112 0.025469024068422368 0 0.056734102163932411 0.0083852866623192659 0 0.073547312206776419 0.0075852302534506694 0 0.063146646768552112 0.025469024068422368 0 0.056734102163932411 0.0083852866623192659 0 0.073547312206776419 0.0075852302534506694 0 0.067710228959486876 -0.01298016752375167 0 0.073547312206776419 0.0075852302534506694 0 0.08961751359136351 0.01379592516480453 0 0.086551077657245498 0.021679917361345939 0 0.073547312206776419 0.0075852302534506694 0 0.08961751359136351 0.01379592516480453 0 0.091180058974594053 0.00073809788061110189 0 0.08961751359136351 0.01379592516480453 0 0.091180058974594053 0.00073809788061110189 0 0.098232693989704814 0.01107556061788258 0 0.073547312206776419 0.0075852302534506694 0 0.086551077657245498 0.021679917361345939 0 0.079194781582778262 0.02900998488962981 0 0.086551077657245498 0.021679917361345939 0 0.090591886988046072 0.031524713497184248 0 0.099164582487104885 0.02290433476640167 0 0.08961751359136351 0.01379592516480453 0 0.086551077657245498 0.021679917361345939 0 0.099164582487104885 0.02290433476640167 0 0.079194781582778262 0.02900998488962981 0 0.090591886988046072 0.031524713497184248 0 0.086551077657245498 0.021679917361345939 0 0.079194781582778262 0.02900998488962981 0 0.090591886988046072 0.031524713497184248 0 0.079194781582778262 0.02900998488962981 0 0.063146646768552112 0.025469024068422368 0 0.073547312206776419 0.0075852302534506694 0 0.079194781582778262 0.02900998488962981 0 0.063146646768552112 0.025469024068422368 0 0.073547312206776419 0.0075852302534506694 0 0.079194781582778262 0.02900998488962981 0 0.05784179863335101 0.040873919534342072 0 0.063146646768552112 0.025469024068422368 0 0.073284617338169863 0.04303076572174093 0 0.079194781582778262 0.02900998488962981 0 0.063146646768552112 0.025469024068422368 0 0.073284617338169863 0.04303076572174093 0 0.059459593045270077 0.058127108528758818 0 0.073284617338169863 0.04303076572174093 0 0.077533063530330196 0.062684014815564182 0 0.05784179863335101 0.040873919534342072 0 0.059459593045270077 0.058127108528758818 0 0.073284617338169863 0.04303076572174093 0 0.073284617338169863 0.04303076572174093 0 0.088936380014242367 0.046459553695004617 0 0.077533063530330196 0.062684014815564182 0 0.088936380014242367 0.046459553695004617 0 0.09447055867425308 0.061338891647816009 0 0.077533063530330196 0.062684014815564182 0 0.073284617338169863 0.04303076572174093 0 0.088936380014242367 0.046459553695004617 0 0.090591886988046072 0.031524713497184248 0 0.079194781582778262 0.02900998488962981 0 0.073284617338169863 0.04303076572174093 0 0.090591886988046072 0.031524713497184248 0 0.088936380014242367 0.046459553695004617 0 0.090591886988046072 0.031524713497184248 0 0.1024245825590273 0.035916799969674937 0 0.088936380014242367 0.046459553695004617 0 0.1024245825590273 0.035916799969674937 0 0.1016136345140651 0.04830582451937273 0 0.1024245825590273 0.035916799969674937 0 0.1016136345140651 0.04830582451937273 0 0.1141197811810003 0.043597982727184612 0 0.088936380014242367 0.046459553695004617 0 0.09447055867425308 0.061338891647816009 0 0.1016136345140651 0.04830582451937273 0 0.1016136345140651 0.04830582451937273 0 0.10891983572964641 0.058185135895093533 0 0.1141197811810003 0.043597982727184612 0 0.09447055867425308 0.061338891647816009 0 0.1016136345140651 0.04830582451937273 0 0.10891983572964641 0.058185135895093533 0 0.10891983572964641 0.058185135895093533 0 0.1234093269503041 0.053135151783242469 0 0.12692345178439729 0.07084319391043982 0 0.10891983572964641 0.058185135895093533 0 0.1234093269503041 0.053135151783242469 0 0.1141197811810003 0.043597982727184612 0 0.1234093269503041 0.053135151783242469 0 0.1141197811810003 0.043597982727184612 0 0.13232217191780229 0.039777085903021488 0 0.1141197811810003 0.043597982727184612 0 0.1167144904564974 0.026418326068680539 0 0.13232217191780229 0.039777085903021488 0 0.1024245825590273 0.035916799969674937 0 0.1141197811810003 0.043597982727184612 0 0.1167144904564974 0.026418326068680539 0 0.1167144904564974 0.026418326068680539 0 0.12108946560642141 0.01154877377898424 0 0.1081744831391009 0.01403292477160068 0 0.1167144904564974 0.026418326068680539 0 0.12108946560642141 0.01154877377898424 0 0.13181535284950829 0.022009500972414942 0 0.12108946560642141 0.01154877377898424 0 0.1195703238469088 0.00072067968360169793 0 0.1124479519792444 0.0053550192033084013 0 0.12108946560642141 0.01154877377898424 0 0.1195703238469088 0.00072067968360169793 0 0.12773595140078731 0.0024735933284422431 0 0.1195703238469088 0.00072067968360169793 0 0.1124479519792444 0.0053550192033084013 0 0.1103786555474302 -0.003433802723639526 0 0.12108946560642141 0.01154877377898424 0 0.1124479519792444 0.0053550192033084013 0 0.1081744831391009 0.01403292477160068 0 0.1081744831391009 0.01403292477160068 0 0.1030268317563607 0.0039065205059949162 0 0.098232693989704814 0.01107556061788258 0 0.1124479519792444 0.0053550192033084013 0 0.1030268317563607 0.0039065205059949162 0 0.1103786555474302 -0.003433802723639526 0 0.1124479519792444 0.0053550192033084013 0 0.1081744831391009 0.01403292477160068 0 0.1030268317563607 0.0039065205059949162 0 0.091180058974594053 0.00073809788061110189 0 0.1030268317563607 0.0039065205059949162 0 0.098232693989704814 0.01107556061788258 0 0.1167144904564974 0.026418326068680539 0 0.1081744831391009 0.01403292477160068 0 0.099164582487104885 0.02290433476640167 0 0.1024245825590273 0.035916799969674937 0 0.1167144904564974 0.026418326068680539 0 0.099164582487104885 0.02290433476640167 0 0.08961751359136351 0.01379592516480453 0 0.098232693989704814 0.01107556061788258 0 0.099164582487104885 0.02290433476640167 0 0.090591886988046072 0.031524713497184248 0 0.1024245825590273 0.035916799969674937 0 0.099164582487104885 0.02290433476640167 0 0.1081744831391009 0.01403292477160068 0 0.098232693989704814 0.01107556061788258 0 0.099164582487104885 0.02290433476640167 0 0.1078785645780025 0.1008655598573608 0 0.1108150050816977 0.1146218667896597 0 0.093607383957468288 0.10837425524325479 0 0.1078785645780025 0.1008655598573608 0 0.096600149433067301 0.090205545678349208 0 0.093607383957468288 0.10837425524325479 0 0.098545111275038774 0.1236658966593453 0 0.093607383957468288 0.10837425524325479 0 0.089459200386390297 0.1190366201411325 0 0.098545111275038774 0.1236658966593453 0 0.1108150050816977 0.1146218667896597 0 0.093607383957468288 0.10837425524325479 0 0.098545111275038774 0.1236658966593453 0 0.1108150050816977 0.1146218667896597 0 0.1107813868236939 0.1261253583884866 0 0.1108150050816977 0.1146218667896597 0 0.12574356414906299 0.1042783247926226 0 0.12912469052369591 0.1215541264122493 0 0.1108150050816977 0.1146218667896597 0 0.1107813868236939 0.1261253583884866 0 0.12912469052369591 0.1215541264122493 0 0.1151634042966601 0.088892019204466016 0 0.13123900241856071 0.088459768899363272 0 0.12574356414906299 0.1042783247926226 0 0.1078785645780025 0.1008655598573608 0 0.1151634042966601 0.088892019204466016 0 0.12574356414906299 0.1042783247926226 0 0.1078785645780025 0.1008655598573608 0 0.1108150050816977 0.1146218667896597 0 0.12574356414906299 0.1042783247926226 0 0.1151634042966601 0.088892019204466016 0 0.12692345178439729 0.07084319391043982 0 0.13123900241856071 0.088459768899363272 0 0.10891983572964641 0.058185135895093533 0 0.104667290586707 0.074454504191819371 0 0.12692345178439729 0.07084319391043982 0 0.1151634042966601 0.088892019204466016 0 0.104667290586707 0.074454504191819371 0 0.12692345178439729 0.07084319391043982 0 0.09447055867425308 0.061338891647816009 0 0.10891983572964641 0.058185135895093533 0 0.104667290586707 0.074454504191819371 0 0.09447055867425308 0.061338891647816009 0 0.104667290586707 0.074454504191819371 0 0.089921353770543513 0.076198431762453389 0 0.1078785645780025 0.1008655598573608 0 0.1151634042966601 0.088892019204466016 0 0.096600149433067301 0.090205545678349208 0 0.1151634042966601 0.088892019204466016 0 0.096600149433067301 0.090205545678349208 0 0.1151634042966601 0.088892019204466016 0 0.104667290586707 0.074454504191819371 0 0.096600149433067301 0.090205545678349208 0 0.104667290586707 0.074454504191819371 0 0.096600149433067301 0.090205545678349208 0 0.089921353770543513 0.076198431762453389 0 0.096600149433067301 0.090205545678349208 0 0.089921353770543513 0.076198431762453389 0 0.078036894569474505 0.091519072152232248 0 0.096600149433067301 0.090205545678349208 0 0.078036894569474505 0.091519072152232248 0 0.089921353770543513 0.076198431762453389 0 0.077533063530330196 0.062684014815564182 0 0.078036894569474505 0.091519072152232248 0 0.09447055867425308 0.061338891647816009 0 0.089921353770543513 0.076198431762453389 0 0.077533063530330196 0.062684014815564182 0 0.059459593045270077 0.058127108528758818 0 0.077533063530330196 0.062684014815564182 0 0.065783855402178709 0.075747004865788295 0 0.077533063530330196 0.062684014815564182 0 0.065783855402178709 0.075747004865788295 0 0.078036894569474505 0.091519072152232248 0 0.077533063530330196 0.062684014815564182 0 0.078036894569474505 0.091519072152232248 0 0.065783855402178709 0.075747004865788295 0 0.078036894569474505 0.091519072152232248 0 0.06198911424134064 0.092654604927220413 0 0.078036894569474505 0.091519072152232248 0 0.06198911424134064 0.092654604927220413 0 0.078036894569474505 0.091519072152232248 0 0.067477225779020975 0.10541209571039491 0 0.06198911424134064 0.092654604927220413 0 0.078036894569474505 0.091519072152232248 0 0.067477225779020975 0.10541209571039491 0 0.078428866709170986 0.11395226551373409 0 0.078036894569474505 0.091519072152232248 0 0.093607383957468288 0.10837425524325479 0 0.078428866709170986 0.11395226551373409 0 0.096600149433067301 0.090205545678349208 0 0.078036894569474505 0.091519072152232248 0 0.093607383957468288 0.10837425524325479 0 0.078036894569474505 0.091519072152232248 0 0.078428866709170986 0.11395226551373409 0 0.089459200386390297 0.1190366201411325 0 0.078428866709170986 0.11395226551373409 0 0.087255439603883184 0.1301540631481958 0 0.098545111275038774 0.1236658966593453 0 0.089459200386390297 0.1190366201411325 0 0.087255439603883184 0.1301540631481958 0 0.093607383957468288 0.10837425524325479 0 0.089459200386390297 0.1190366201411325 0 0.078428866709170986 0.11395226551373409 0 0.067477225779020975 0.10541209571039491 0 0.078428866709170986 0.11395226551373409 0 0.066021638774187874 0.1217927579725754 0 0.078428866709170986 0.11395226551373409 0 0.066021638774187874 0.1217927579725754 0 0.078820838848869645 0.13638545887523601 0 0.067477225779020975 0.10541209571039491 0 0.066021638774187874 0.1217927579725754 0 0.055300292250800687 0.112090061656857 0 0.055300292250800687 0.112090061656857 0 0.037462598884312047 0.1223025056970382 0 0.053408823134691509 0.126130718485017 0 0.066021638774187874 0.1217927579725754 0 0.055300292250800687 0.112090061656857 0 0.053408823134691509 0.126130718485017 0 0.067477225779020975 0.10541209571039491 0 0.055300292250800687 0.112090061656857 0 0.06198911424134064 0.092654604927220413 0 0.055300292250800687 0.112090061656857 0 0.045941333913206872 0.093790137702209286 0 0.06198911424134064 0.092654604927220413 0 0.045941333913206872 0.093790137702209286 0 0.037462598884312047 0.1223025056970382 0 0.026791009695220341 0.095145204905056874 0 0.045941333913206872 0.093790137702209286 0 0.026791009695220341 0.095145204905056874 0 0.045941333913206872 0.093790137702209286 0 0.037462598884312047 0.1223025056970382 0 0.055300292250800687 0.112090061656857 0 0.045941333913206872 0.093790137702209286 0 0.037462598884312047 0.1223025056970382 0 0.040165888042008581 0.061891739960142862 0 0.059459593045270077 0.058127108528758818 0 0.051900611624478087 0.073750223905165779 0 0.059459593045270077 0.058127108528758818 0 0.065783855402178709 0.075747004865788295 0 0.051900611624478087 0.073750223905165779 0 0.045941333913206872 0.093790137702209286 0 0.051900611624478087 0.073750223905165779 0 0.06198911424134064 0.092654604927220413 0 0.045941333913206872 0.093790137702209286 0 0.06198911424134064 0.092654604927220413 0 0.045941333913206872 0.093790137702209286 0 0.051900611624478087 0.073750223905165779 0 0.065783855402178709 0.075747004865788295 0 0.051900611624478087 0.073750223905165779 0 0.06198911424134064 0.092654604927220413 0 0.045941333913206872 0.093790137702209286 0 0.034274508525843961 0.078892906954736802 0 0.026791009695220341 0.095145204905056874 0 0.045941333913206872 0.093790137702209286 0 0.051900611624478087 0.073750223905165779 0 0.034274508525843961 0.078892906954736802 0 0.040165888042008581 0.061891739960142862 0 0.034274508525843961 0.078892906954736802 0 0.02331074058952725 0.066237689147358059 0 0.040165888042008581 0.061891739960142862 0 0.051900611624478087 0.073750223905165779 0 0.034274508525843961 0.078892906954736802 0 0.034274508525843961 0.078892906954736802 0 0.02331074058952725 0.066237689147358059 0 0.01759181497464064 0.082082724633238194 0 0.02331074058952725 0.066237689147358059 0 0.01759181497464064 0.082082724633238194 0 0.0098460742479551683 0.06938754726252197 0 0.034274508525843961 0.078892906954736802 0 0.01759181497464064 0.082082724633238194 0 0.026791009695220341 0.095145204905056874 0 0.01759181497464064 0.082082724633238194 0 0.026791009695220341 0.095145204905056874 0 0.0076406854772338986 0.096500272107905322 0 0.01759181497464064 0.082082724633238194 0 0.002614186996336807 0.085144428290871613 0 0.0098460742479551683 0.06938754726252197 0 0.01759181497464064 0.082082724633238194 0 0.002614186996336807 0.085144428290871613 0 0.0076406854772338986 0.096500272107905322 0 -0.0036295419654841631 0.091177419313066138 0 0.002614186996336807 0.085144428290871613 0 0.0076406854772338986 0.096500272107905322 0 -0.0046535666324173707 0.059196937454625717 0 0.002614186996336807 0.085144428290871613 0 0.0098460742479551683 0.06938754726252197 0 0.037462598884312047 0.1223025056970382 0 0.020122106846360441 0.1149599030008867 0 0.026791009695220341 0.095145204905056874 0 0.020122106846360441 0.1149599030008867 0 0.01064908420355172 0.12508051303934309 0 0.02206443413688185 0.13102259630864349 0 0.037462598884312047 0.1223025056970382 0 0.020122106846360441 0.1149599030008867 0 0.02206443413688185 0.13102259630864349 0 0.020122106846360441 0.1149599030008867 0 0.026791009695220341 0.095145204905056874 0 0.01478399187216007 0.10431115711594351 0 0.026791009695220341 0.095145204905056874 0 0.0076406854772338986 0.096500272107905322 0 0.026791009695220341 0.095145204905056874 0 0.01478399187216007 0.10431115711594351 0 0.0076406854772338986 0.096500272107905322 0 0.01478399187216007 0.10431115711594351 0 0.0076406854772338986 0.096500272107905322 0 0.006300447950588998 0.1107341990224166 0 -0.0029496625288702172 0.099832989541204259 0 -0.0036295419654841631 0.091177419313066138 0 0.0076406854772338986 0.096500272107905322 0 -0.0029496625288702172 0.099832989541204259 0 0.0076406854772338986 0.096500272107905322 0 0.006300447950588998 0.1107341990224166 0 -0.0044111750211892663 0.11103904934749929 0 0.006300447950588998 0.1107341990224166 0 0.00071008929500930085 0.1188524068210496 0 0.020122106846360441 0.1149599030008867 0 0.006300447950588998 0.1107341990224166 0 0.01064908420355172 0.12508051303934309 0 0.020122106846360441 0.1149599030008867 0 0.01478399187216007 0.10431115711594351 0 0.006300447950588998 0.1107341990224166 0 0.00071008929500930085 0.1188524068210496 0 0.0011193715973417161 0.12735019327789721 0 0.01064908420355172 0.12508051303934309 0 0.006300447950588998 0.1107341990224166 0 0.00071008929500930085 0.1188524068210496 0 0.01064908420355172 0.12508051303934309 0 0.0011193715973417161 0.12735019327789721 0 0.0042444643585255182 0.13650405945261521 0 0.01064908420355172 0.12508051303934309 0 0.01064908420355172 0.12508051303934309 0 0.02206443413688185 0.13102259630864349 0 0.013104516894770161 0.14195518611408309 0 0.0042444643585255182 0.13650405945261521 0 0.01064908420355172 0.12508051303934309 0 0.013104516894770161 0.14195518611408309 0 -0.0045795472881563423 0.13853451359274119 0 0.0011193715973417161 0.12735019327789721 0 0.0042444643585255182 0.13650405945261521 0 0.037462598884312047 0.1223025056970382 0 0.02206443413688185 0.13102259630864349 0 0.02898386385541488 0.15081487369186661 0 0.02898386385541488 0.15081487369186661 0 0.013104516894770161 0.14195518611408309 0 0.0055113342627114148 0.16310858259918129 0 0.02206443413688185 0.13102259630864349 0 0.02898386385541488 0.15081487369186661 0 0.013104516894770161 0.14195518611408309 0 -0.002609900621990735 0.1506190610776463 0 0.013104516894770161 0.14195518611408309 0 0.0055113342627114148 0.16310858259918129 0 -0.002609900621990735 0.1506190610776463 0 0.0042444643585255182 0.13650405945261521 0 0.013104516894770161 0.14195518611408309 0 0.0055113342627114148 0.16310858259918129 0 0.013147143564386661 0.183568807750811 0 0.02511526942176252 0.16695833845970359 0 -0.0064423259037591704 0.184638151680309 0 0.0055113342627114148 0.16310858259918129 0 0.013147143564386661 0.183568807750811 0 0.013147143564386661 0.183568807750811 0 0.032248833109440288 0.1787098869238275 0 0.026106082877692109 0.19429571707017981 0 0.013147143564386661 0.183568807750811 0 0.02511526942176252 0.16695833845970359 0 0.032248833109440288 0.1787098869238275 0 0.02898386385541488 0.15081487369186661 0 0.0055113342627114148 0.16310858259918129 0 0.02511526942176252 0.16695833845970359 0 0.02898386385541488 0.15081487369186661 0 0.041699925660515391 0.167684048487799 0 0.051699141817810421 0.15234304802782031 0 0.02511526942176252 0.16695833845970359 0 0.041699925660515391 0.167684048487799 0 0.032248833109440288 0.1787098869238275 0 0.02898386385541488 0.15081487369186661 0 0.02511526942176252 0.16695833845970359 0 0.041699925660515391 0.167684048487799 0 0.032248833109440288 0.1787098869238275 0 0.04502706230478562 0.18324812656011119 0 0.037914474003642652 0.19034218840844691 0 0.041699925660515391 0.167684048487799 0 0.032248833109440288 0.1787098869238275 0 0.04502706230478562 0.18324812656011119 0 0.04502706230478562 0.18324812656011119 0 0.053948328726729 0.17637008034799781 0 0.057895917376250161 0.19116348400882779 0 0.041699925660515391 0.167684048487799 0 0.04502706230478562 0.18324812656011119 0 0.053948328726729 0.17637008034799781 0 0.053948328726729 0.17637008034799781 0 0.062506945745814807 0.16403230899862381 0 0.063941078159025097 0.17791118266295131 0 0.053948328726729 0.17637008034799781 0 0.057895917376250161 0.19116348400882779 0 0.063941078159025097 0.17791118266295131 0 0.041699925660515391 0.167684048487799 0 0.052463585487717401 0.1651073714655602 0 0.051699141817810421 0.15234304802782031 0 0.041699925660515391 0.167684048487799 0 0.053948328726729 0.17637008034799781 0 0.052463585487717401 0.1651073714655602 0 0.053948328726729 0.17637008034799781 0 0.052463585487717401 0.1651073714655602 0 0.062506945745814807 0.16403230899862381 0 0.052463585487717401 0.1651073714655602 0 0.051699141817810421 0.15234304802782031 0 0.062506945745814807 0.16403230899862381 0 0.051699141817810421 0.15234304802782031 0 0.062360141537675537 0.1369512419912835 0 0.045899444226481401 0.1375170251073311 0 0.051699141817810421 0.15234304802782031 0 0.062360141537675537 0.1369512419912835 0 0.067366152097004098 0.14951599360645179 0 0.051699141817810421 0.15234304802782031 0 0.067366152097004098 0.14951599360645179 0 0.062506945745814807 0.16403230899862381 0 0.062360141537675537 0.1369512419912835 0 0.045899444226481401 0.1375170251073311 0 0.062360141537675537 0.1369512419912835 0 0.053408823134691509 0.126130718485017 0 0.045899444226481401 0.1375170251073311 0 0.066021638774187874 0.1217927579725754 0 0.062360141537675537 0.1369512419912835 0 0.053408823134691509 0.126130718485017 0 0.037462598884312047 0.1223025056970382 0 0.02898386385541488 0.15081487369186661 0 0.037462598884312047 0.1223025056970382 0 0.02898386385541488 0.15081487369186661 0 0.045899444226481401 0.1375170251073311 0 0.037462598884312047 0.1223025056970382 0 0.053408823134691509 0.126130718485017 0 0.045899444226481401 0.1375170251073311 0 0.02898386385541488 0.15081487369186661 0 0.051699141817810421 0.15234304802782031 0 0.045899444226481401 0.1375170251073311 0 0.031219584792892802 0.24070969102814579 0 0.015464831166581599 0.2471975019248627 0 0.01942740578319882 0.22346822559835619 0 -0.0047099749423644751 0.25880076386517242 0 0.015464831166581599 0.2471975019248627 0 0.00201100181985514 0.2363839756251932 0 0.015464831166581599 0.2471975019248627 0 0.00201100181985514 0.2363839756251932 0 0.01942740578319882 0.22346822559835619 0 -0.0043793094578833446 0.21635995093607571 0 0.00201100181985514 0.2363839756251932 0 0.01942740578319882 0.22346822559835619 0 0.01942740578319882 0.22346822559835619 0 0.03515856198712615 0.2156326115380518 0 0.035819645317386961 0.2281628124667425 0 0.031219584792892802 0.24070969102814579 0 0.01942740578319882 0.22346822559835619 0 0.035819645317386961 0.2281628124667425 0 0.01942740578319882 0.22346822559835619 0 0.02550077569096983 0.20748047604119749 0 0.01200086362717564 0.2048724414583824 0 0.01942740578319882 0.22346822559835619 0 0.02550077569096983 0.20748047604119749 0 0.03515856198712615 0.2156326115380518 0 -0.0043793094578833446 0.21635995093607571 0 0.01942740578319882 0.22346822559835619 0 0.01200086362717564 0.2048724414583824 0 -0.0013544956615165211 0.1975138059712592 0 -0.0043793094578833446 0.21635995093607571 0 0.01200086362717564 0.2048724414583824 0 -0.0013544956615165211 0.1975138059712592 0 -0.0064423259037591704 0.184638151680309 0 0.013147143564386661 0.183568807750811 0 -0.0013544956615165211 0.1975138059712592 0 0.013147143564386661 0.183568807750811 0 0.01200086362717564 0.2048724414583824 0 0.013147143564386661 0.183568807750811 0 0.01200086362717564 0.2048724414583824 0 0.026106082877692109 0.19429571707017981 0 0.02550077569096983 0.20748047604119749 0 0.01200086362717564 0.2048724414583824 0 0.026106082877692109 0.19429571707017981 0 0.02550077569096983 0.20748047604119749 0 0.026106082877692109 0.19429571707017981 0 0.035824407270537609 0.20080050183841389 0 0.032248833109440288 0.1787098869238275 0 0.026106082877692109 0.19429571707017981 0 0.037914474003642652 0.19034218840844691 0 0.026106082877692109 0.19429571707017981 0 0.037914474003642652 0.19034218840844691 0 0.035824407270537609 0.20080050183841389 0 0.035824407270537609 0.20080050183841389 0 0.045721122981397341 0.19689540901492081 0 0.043625860335615531 0.207719760173041 0 0.037914474003642652 0.19034218840844691 0 0.035824407270537609 0.20080050183841389 0 0.045721122981397341 0.19689540901492081 0 0.04502706230478562 0.18324812656011119 0 0.037914474003642652 0.19034218840844691 0 0.045721122981397341 0.19689540901492081 0 0.04502706230478562 0.18324812656011119 0 0.045721122981397341 0.19689540901492081 0 0.057895917376250161 0.19116348400882779 0 0.057895917376250161 0.19116348400882779 0 0.052524056282064788 0.20411694082907661 0 0.060198036785329007 0.20356177885696711 0 0.057895917376250161 0.19116348400882779 0 0.060198036785329007 0.20356177885696711 0 0.065140009410543362 0.1988754238087819 0 0.045721122981397341 0.19689540901492081 0 0.057895917376250161 0.19116348400882779 0 0.052524056282064788 0.20411694082907661 0 0.045721122981397341 0.19689540901492081 0 0.052524056282064788 0.20411694082907661 0 0.043625860335615531 0.207719760173041 0 0.052524056282064788 0.20411694082907661 0 0.057296507641689642 0.2101310406314551 0 0.050502091077980767 0.2131129688815844 0 0.052524056282064788 0.20411694082907661 0 0.050502091077980767 0.2131129688815844 0 0.043625860335615531 0.207719760173041 0 0.057296507641689642 0.2101310406314551 0 0.061422995389217742 0.2148670278864423 0 0.063698189719642001 0.2065223601024784 0 0.052524056282064788 0.20411694082907661 0 0.057296507641689642 0.2101310406314551 0 0.060198036785329007 0.20356177885696711 0 0.057296507641689642 0.2101310406314551 0 0.060198036785329007 0.20356177885696711 0 0.063698189719642001 0.2065223601024784 0 0.057296507641689642 0.2101310406314551 0 0.061422995389217742 0.2148670278864423 0 0.055422234012061977 0.21773123335735231 0 0.061422995389217742 0.2148670278864423 0 0.055422234012061977 0.21773123335735231 0 0.058155336822065737 0.22037026803838519 0 0.055422234012061977 0.21773123335735231 0 0.050502091077980767 0.2131129688815844 0 0.049594741234372533 0.22016426348813689 0 0.057296507641689642 0.2101310406314551 0 0.055422234012061977 0.21773123335735231 0 0.050502091077980767 0.2131129688815844 0 0.050502091077980767 0.2131129688815844 0 0.043338827008662831 0.21579870203843801 0 0.049594741234372533 0.22016426348813689 0 0.043338827008662831 0.21579870203843801 0 0.043625860335615531 0.207719760173041 0 0.03515856198712615 0.2156326115380518 0 0.043338827008662831 0.21579870203843801 0 0.03515856198712615 0.2156326115380518 0 0.043330837150274387 0.22392436753477921 0 0.050502091077980767 0.2131129688815844 0 0.043338827008662831 0.21579870203843801 0 0.043625860335615531 0.207719760173041 0 0.035824407270537609 0.20080050183841389 0 0.043625860335615531 0.207719760173041 0 0.03515856198712615 0.2156326115380518 0 0.02550077569096983 0.20748047604119749 0 0.035824407270537609 0.20080050183841389 0 0.03515856198712615 0.2156326115380518 0 0.03515856198712615 0.2156326115380518 0 0.035819645317386961 0.2281628124667425 0 0.043330837150274387 0.22392436753477921 0 0.031219584792892802 0.24070969102814579 0 0.035819645317386961 0.2281628124667425 0 0.043894087635332327 0.23369455643748499 0 0.035819645317386961 0.2281628124667425 0 0.043894087635332327 0.23369455643748499 0 0.043330837150274387 0.22392436753477921 0 0.043894087635332327 0.23369455643748499 0 0.043330837150274387 0.22392436753477921 0 0.049814446369391863 0.22696410655742449 0 0.043338827008662831 0.21579870203843801 0 0.043330837150274387 0.22392436753477921 0 0.049594741234372533 0.22016426348813689 0 0.043330837150274387 0.22392436753477921 0 0.049594741234372533 0.22016426348813689 0 0.049814446369391863 0.22696410655742449 0 0.049594741234372533 0.22016426348813689 0 0.055548381490992338 0.22356403233284991 0 0.049814446369391863 0.22696410655742449 0 0.055422234012061977 0.21773123335735231 0 0.049594741234372533 0.22016426348813689 0 0.055548381490992338 0.22356403233284991 0 0.061422995389217742 0.2148670278864423 0 0.058155336822065737 0.22037026803838519 0 0.060227736395990779 0.22531877857689631 0 0.055422234012061977 0.21773123335735231 0 0.058155336822065737 0.22037026803838519 0 0.055548381490992338 0.22356403233284991 0 0.055548381490992338 0.22356403233284991 0 0.060227736395990779 0.22531877857689631 0 0.058155336822065737 0.22037026803838519 0 0.055548381490992338 0.22356403233284991 0 0.060227736395990779 0.22531877857689631 0 0.055548381490992338 0.22356403233284991 0 0.060227736395990779 0.22531877857689631 0 0.055871712085607927 0.23241499856970799 0 0.060227736395990779 0.22531877857689631 0 0.055871712085607927 0.23241499856970799 0 0.066623608715498536 0.2389533359466825 0 0.060227736395990779 0.22531877857689631 0 0.055871712085607927 0.23241499856970799 0 0.043894087635332327 0.23369455643748499 0 0.055871712085607927 0.23241499856970799 0 0.049814446369391863 0.22696410655742449 0 0.055548381490992338 0.22356403233284991 0 0.055871712085607927 0.23241499856970799 0 0.049814446369391863 0.22696410655742449 0 0.055871712085607927 0.23241499856970799 0 0.057146322994644352 0.2488551141305724 0 0.042873870208327558 0.24806069189205859 0 0.043894087635332327 0.23369455643748499 0 0.055871712085607927 0.23241499856970799 0 0.042873870208327558 0.24806069189205859 0 0.055871712085607927 0.23241499856970799 0 0.057146322994644352 0.2488551141305724 0 0.066623608715498536 0.2389533359466825 0 0.055871712085607927 0.23241499856970799 0 0.042873870208327558 0.24806069189205859 0 0.031219584792892802 0.24070969102814579 0 0.043894087635332327 0.23369455643748499 0 0.042873870208327558 0.24806069189205859 0 0.08244168361355847 0.23364895255105039 0 0.071186561255840705 0.25827523459292862 0 0.089649969986245248 0.25250598727088341 0 0.08244168361355847 0.23364895255105039 0 0.1068336825019828 0.2427958903882515 0 0.089649969986245248 0.25250598727088341 0 0.08244168361355847 0.23364895255105039 0 0.071186561255840705 0.25827523459292862 0 0.057146322994644352 0.2488551141305724 0 0.066623608715498536 0.2389533359466825 0 0.071186561255840705 0.25827523459292862 0 0.066623608715498536 0.2389533359466825 0 0.08244168361355847 0.23364895255105039 0 0.071186561255840705 0.25827523459292862 0 0.060227736395990779 0.22531877857689631 0 0.076251013533837092 0.22299451411089441 0 0.072268827030295246 0.212853884566161 0 0.060227736395990779 0.22531877857689631 0 0.066623608715498536 0.2389533359466825 0 0.08244168361355847 0.23364895255105039 0 0.060227736395990779 0.22531877857689631 0 0.076251013533837092 0.22299451411089441 0 0.08244168361355847 0.23364895255105039 0 0.060227736395990779 0.22531877857689631 0 0.08244168361355847 0.23364895255105039 0 0.060227736395990779 0.22531877857689631 0 0.072268827030295246 0.212853884566161 0 0.076251013533837092 0.22299451411089441 0 0.08244168361355847 0.23364895255105039 0 0.088821516944922005 0.21968983509280279 0 0.08244168361355847 0.23364895255105039 0 0.088821516944922005 0.21968983509280279 0 0.08244168361355847 0.23364895255105039 0 0.088821516944922005 0.21968983509280279 0 0.097923035445779308 0.22240863984332371 0 0.089991207666326956 0.20862751883695871 0 0.072268827030295246 0.212853884566161 0 0.083065627514017859 0.19992238489875869 0 0.088821516944922005 0.21968983509280279 0 0.089991207666326956 0.20862751883695871 0 0.072268827030295246 0.212853884566161 0 0.076251013533837092 0.22299451411089441 0 0.088821516944922005 0.21968983509280279 0 0.072268827030295246 0.212853884566161 0 0.088821516944922005 0.21968983509280279 0 0.089991207666326956 0.20862751883695871 0 0.097923035445779308 0.22240863984332371 0 0.060227736395990779 0.22531877857689631 0 0.075653910899527277 0.2001886323415622 0 0.060227736395990779 0.22531877857689631 0 0.072268827030295246 0.212853884566161 0 0.075653910899527277 0.2001886323415622 0 0.061422995389217742 0.2148670278864423 0 0.060227736395990779 0.22531877857689631 0 0.075653910899527277 0.2001886323415622 0 0.061422995389217742 0.2148670278864423 0 0.063698189719642001 0.2065223601024784 0 0.075653910899527277 0.2001886323415622 0 0.072268827030295246 0.212853884566161 0 0.075653910899527277 0.2001886323415622 0 0.083065627514017859 0.19992238489875869 0 0.072268827030295246 0.212853884566161 0 0.083065627514017859 0.19992238489875869 0 0.063698189719642001 0.2065223601024784 0 0.075653910899527277 0.2001886323415622 0 0.065140009410543362 0.1988754238087819 0 0.060198036785329007 0.20356177885696711 0 0.063698189719642001 0.2065223601024784 0 0.065140009410543362 0.1988754238087819 0 0.057895917376250161 0.19116348400882779 0 0.065140009410543362 0.1988754238087819 0 0.07136024166488722 0.18539387987123121 0 0.075653910899527277 0.2001886323415622 0 0.065140009410543362 0.1988754238087819 0 0.07136024166488722 0.18539387987123121 0 0.075653910899527277 0.2001886323415622 0 0.091080085403063574 0.17505848610622801 0 0.075653910899527277 0.2001886323415622 0 0.083065627514017859 0.19992238489875869 0 0.091080085403063574 0.17505848610622801 0 0.083065627514017859 0.19992238489875869 0 0.095813250339389242 0.19030775386741439 0 0.091080085403063574 0.17505848610622801 0 0.089991207666326956 0.20862751883695871 0 0.083065627514017859 0.19992238489875869 0 0.096078211198278474 0.20026324321788261 0 0.083065627514017859 0.19992238489875869 0 0.095813250339389242 0.19030775386741439 0 0.096078211198278474 0.20026324321788261 0 0.095813250339389242 0.19030775386741439 0 0.1067308700710667 0.1953618125128633 0 0.1118295113761069 0.18306003647659161 0 0.095813250339389242 0.19030775386741439 0 0.096078211198278474 0.20026324321788261 0 0.1067308700710667 0.1953618125128633 0 0.096078211198278474 0.20026324321788261 0 0.1067308700710667 0.1953618125128633 0 0.10428021400655441 0.20742015802549749 0 0.1067308700710667 0.1953618125128633 0 0.11840869754852509 0.20035290941287359 0 0.1118295113761069 0.18306003647659161 0 0.11840869754852509 0.20035290941287359 0 0.1118295113761069 0.18306003647659161 0 0.12996447077162951 0.18655620125725311 0 0.1067308700710667 0.1953618125128633 0 0.11840869754852509 0.20035290941287359 0 0.10428021400655441 0.20742015802549749 0 0.11840869754852509 0.20035290941287359 0 0.11516990794133131 0.22226948416538131 0 0.13151560086974989 0.21569004199298589 0 0.11840869754852509 0.20035290941287359 0 0.10428021400655441 0.20742015802549749 0 0.11516990794133131 0.22226948416538131 0 0.10428021400655441 0.20742015802549749 0 0.097923035445779308 0.22240863984332371 0 0.11516990794133131 0.22226948416538131 0 0.089991207666326956 0.20862751883695871 0 0.096078211198278474 0.20026324321788261 0 0.10428021400655441 0.20742015802549749 0 0.089991207666326956 0.20862751883695871 0 0.10428021400655441 0.20742015802549749 0 0.097923035445779308 0.22240863984332371 0 0.08244168361355847 0.23364895255105039 0 0.097923035445779308 0.22240863984332371 0 0.1068336825019828 0.2427958903882515 0 0.097923035445779308 0.22240863984332371 0 0.11516990794133131 0.22226948416538131 0 0.1068336825019828 0.2427958903882515 0 0.11516990794133131 0.22226948416538131 0 0.1068336825019828 0.2427958903882515 0 0.12583423215518319 0.23459787797161591 0 0.11516990794133131 0.22226948416538131 0 0.12583423215518319 0.23459787797161591 0 0.13151560086974989 0.21569004199298589 0 0.1068336825019828 0.2427958903882515 0 0.12583423215518319 0.23459787797161591 0 0.13122568139040239 0.2519428282254651 0 0.1068336825019828 0.2427958903882515 0 0.13122568139040239 0.2519428282254651 0 0.08244168361355847 0.23364895255105039 0 0.1068336825019828 0.2427958903882515 0 0.085319724767530386 0.14721149976944439 0 0.078927626003802751 0.14249705878887439 0 0.07854165043725235 0.1509394595851295 0 0.085319724767530386 0.14721149976944439 0 0.085741026012009669 0.141037901073995 0 0.078927626003802751 0.14249705878887439 0 0.085319724767530386 0.14721149976944439 0 0.07854165043725235 0.1509394595851295 0 0.084858822293069638 0.15732263486858161 0 0.085319724767530386 0.14721149976944439 0 0.093002027369840173 0.1523519579172313 0 0.084858822293069638 0.15732263486858161 0 0.085319724767530386 0.14721149976944439 0 0.093002027369840173 0.1523519579172313 0 0.091814312994936406 0.14375469938262159 0 0.085319724767530386 0.14721149976944439 0 0.085741026012009669 0.141037901073995 0 0.091814312994936406 0.14375469938262159 0 0.085741026012009669 0.141037901073995 0 0.091814312994936406 0.14375469938262159 0 0.093989139172761998 0.13586409771658381 0 0.078820838848869645 0.13638545887523601 0 0.093989139172761998 0.13586409771658381 0 0.078428866709170986 0.11395226551373409 0 0.078820838848869645 0.13638545887523601 0 0.078428866709170986 0.11395226551373409 0 0.087255439603883184 0.1301540631481958 0 0.078820838848869645 0.13638545887523601 0 0.085741026012009669 0.141037901073995 0 0.078820838848869645 0.13638545887523601 0 0.093989139172761998 0.13586409771658381 0 0.087255439603883184 0.1301540631481958 0 0.078820838848869645 0.13638545887523601 0 0.093989139172761998 0.13586409771658381 0 0.087255439603883184 0.1301540631481958 0 0.093989139172761998 0.13586409771658381 0 0.098545111275038774 0.1236658966593453 0 0.087255439603883184 0.1301540631481958 0 0.093989139172761998 0.13586409771658381 0 0.078927626003802751 0.14249705878887439 0 0.078820838848869645 0.13638545887523601 0 0.085741026012009669 0.141037901073995 0 0.078927626003802751 0.14249705878887439 0 0.078820838848869645 0.13638545887523601 0 0.066021638774187874 0.1217927579725754 0 0.062360141537675537 0.1369512419912835 0 0.078820838848869645 0.13638545887523601 0 0.062360141537675537 0.1369512419912835 0 0.078927626003802751 0.14249705878887439 0 0.078820838848869645 0.13638545887523601 0 0.062360141537675537 0.1369512419912835 0 0.078820838848869645 0.13638545887523601 0 0.062360141537675537 0.1369512419912835 0 0.078927626003802751 0.14249705878887439 0 0.067366152097004098 0.14951599360645179 0 0.078927626003802751 0.14249705878887439 0 0.07854165043725235 0.1509394595851295 0 0.067366152097004098 0.14951599360645179 0 0.07854165043725235 0.1509394595851295 0 0.067366152097004098 0.14951599360645179 0 0.076350623487661709 0.16105177096487441 0 0.067366152097004098 0.14951599360645179 0 0.062506945745814807 0.16403230899862381 0 0.076350623487661709 0.16105177096487441 0 0.062506945745814807 0.16403230899862381 0 0.063941078159025097 0.17791118266295131 0 0.073993957281444256 0.17259616008807621 0 0.062506945745814807 0.16403230899862381 0 0.076350623487661709 0.16105177096487441 0 0.073993957281444256 0.17259616008807621 0 0.057895917376250161 0.19116348400882779 0 0.063941078159025097 0.17791118266295131 0 0.07136024166488722 0.18539387987123121 0 0.063941078159025097 0.17791118266295131 0 0.073993957281444256 0.17259616008807621 0 0.07136024166488722 0.18539387987123121 0 0.073993957281444256 0.17259616008807621 0 0.07136024166488722 0.18539387987123121 0 0.091080085403063574 0.17505848610622801 0 0.075653910899527277 0.2001886323415622 0 0.07136024166488722 0.18539387987123121 0 0.091080085403063574 0.17505848610622801 0 0.076350623487661709 0.16105177096487441 0 0.091080085403063574 0.17505848610622801 0 0.084858822293069638 0.15732263486858161 0 0.076350623487661709 0.16105177096487441 0 0.073993957281444256 0.17259616008807621 0 0.091080085403063574 0.17505848610622801 0 0.093002027369840173 0.1523519579172313 0 0.091080085403063574 0.17505848610622801 0 0.084858822293069638 0.15732263486858161 0 0.07854165043725235 0.1509394595851295 0 0.076350623487661709 0.16105177096487441 0 0.084858822293069638 0.15732263486858161 0 0.093002027369840173 0.1523519579172313 0 0.091080085403063574 0.17505848610622801 0 0.1065062599065999 0.14992833987089391 0 0.091080085403063574 0.17505848610622801 0 0.10917524673971821 0.16569994347185199 0 0.1065062599065999 0.14992833987089391 0 0.091080085403063574 0.17505848610622801 0 0.1065062599065999 0.14992833987089391 0 0.095813250339389242 0.19030775386741439 0 0.091080085403063574 0.17505848610622801 0 0.1118295113761069 0.18306003647659161 0 0.091080085403063574 0.17505848610622801 0 0.10917524673971821 0.16569994347185199 0 0.1118295113761069 0.18306003647659161 0 0.10917524673971821 0.16569994347185199 0 0.1118295113761069 0.18306003647659161 0 0.1311670250327171 0.16739015724277351 0 0.1118295113761069 0.18306003647659161 0 0.1311670250327171 0.16739015724277351 0 0.12996447077162951 0.18655620125725311 0 0.1125780821027394 0.1516271274796788 0 0.1311670250327171 0.16739015724277351 0 0.10917524673971821 0.16569994347185199 0 0.1125780821027394 0.1516271274796788 0 0.1311670250327171 0.16739015724277351 0 0.1125780821027394 0.1516271274796788 0 0.1214329880652753 0.13492080436459461 0 0.13428360934926181 0.15011916444648901 0 0.10917524673971821 0.16569994347185199 0 0.1125780821027394 0.1516271274796788 0 0.1065062599065999 0.14992833987089391 0 0.1125780821027394 0.1516271274796788 0 0.1065062599065999 0.14992833987089391 0 0.098714167044500992 0.1442610567409828 0 0.1125780821027394 0.1516271274796788 0 0.098714167044500992 0.1442610567409828 0 0.093989139172761998 0.13586409771658381 0 0.1125780821027394 0.1516271274796788 0 0.093989139172761998 0.13586409771658381 0 0.1125780821027394 0.1516271274796788 0 0.093989139172761998 0.13586409771658381 0 0.1214329880652753 0.13492080436459461 0 0.091814312994936406 0.14375469938262159 0 0.098714167044500992 0.1442610567409828 0 0.093989139172761998 0.13586409771658381 0 0.093002027369840173 0.1523519579172313 0 0.091814312994936406 0.14375469938262159 0 0.098714167044500992 0.1442610567409828 0 0.093002027369840173 0.1523519579172313 0 0.1065062599065999 0.14992833987089391 0 0.098714167044500992 0.1442610567409828 0 0.093989139172761998 0.13586409771658381 0 0.1107813868236939 0.1261253583884866 0 0.1214329880652753 0.13492080436459461 0 0.098545111275038774 0.1236658966593453 0 0.093989139172761998 0.13586409771658381 0 0.1107813868236939 0.1261253583884866 0 0.093989139172761998 0.13586409771658381 0 0.1214329880652753 0.13492080436459461 0 0.1107813868236939 0.1261253583884866 0 0.1214329880652753 0.13492080436459461 0 0.12912469052369591 0.1215541264122493 0 0.1214329880652753 0.13492080436459461 0 0.14887683695778881 0.1339775110126088 0 0.12912469052369591 0.1215541264122493 0 0.1214329880652753 0.13492080436459461 0 0.14887683695778881 0.1339775110126088 0 0.13428360934926181 0.15011916444648901 0 0.1214329880652753 0.13492080436459461 0 0.14887683695778881 0.1339775110126088 0 0.14887683695778881 0.1339775110126088 0 0.14399047736256479 0.1174506220742596 0 0.14887683695778881 0.1339775110126088 0 0.15736311458778851 0.16268022213278921 0 0.14887683695778881 0.1339775110126088 0 0.13428360934926181 0.15011916444648901 0 0.15736311458778851 0.16268022213278921 0 0.1125780821027394 0.1516271274796788 0 0.13428360934926181 0.15011916444648901 0 0.1311670250327171 0.16739015724277351 0 0.1311670250327171 0.16739015724277351 0 0.12996447077162951 0.18655620125725311 0 0.14975596796269469 0.18315318700586811 0 0.1311670250327171 0.16739015724277351 0 0.14975596796269469 0.18315318700586811 0 0.1311670250327171 0.16739015724277351 0 0.14975596796269469 0.18315318700586811 0 0.15736311458778851 0.16268022213278921 0 0.13428360934926181 0.15011916444648901 0 0.1311670250327171 0.16739015724277351 0 0.15736311458778851 0.16268022213278921 0 0.15736311458778851 0.16268022213278921 0 0.1768094201995728 0.1722128868422394 0 0.17285918811573581 0.15625359736987171 0 0.15736311458778851 0.16268022213278921 0 0.1768094201995728 0.1722128868422394 0 0.16584939221778741 0.19138293325297009 0 0.15736311458778851 0.16268022213278921 0 0.16584939221778741 0.19138293325297009 0 0.14975596796269469 0.18315318700586811 0 0.15736311458778851 0.16268022213278921 0 0.16584939221778741 0.19138293325297009 0 0.1768094201995728 0.1722128868422394 0 0.16584939221778741 0.19138293325297009 0 0.1768094201995728 0.1722128868422394 0 0.16584939221778741 0.19138293325297009 0 0.1844417781694678 0.19424764872600209 0 0.1768094201995728 0.1722128868422394 0 0.1844417781694678 0.19424764872600209 0 0.19470962495045599 0.168956692956271 0 0.1768094201995728 0.1722128868422394 0 0.18776944818135929 0.1530428404315092 0 0.1768094201995728 0.1722128868422394 0 0.17285918811573581 0.15625359736987171 0 0.18776944818135929 0.1530428404315092 0 0.1768094201995728 0.1722128868422394 0 0.18776944818135929 0.1530428404315092 0 0.19470962495045599 0.168956692956271 0 0.17285918811573581 0.15625359736987171 0 0.17709310291946739 0.13300766832749891 0 0.18776944818135929 0.1530428404315092 0 0.1866930490288588 0.12703253422057989 0 0.17709310291946739 0.13300766832749891 0 0.17854276971843239 0.1233172163296401 0 0.17709310291946739 0.13300766832749891 0 0.16837534816006999 0.11884179722547419 0 0.17854276971843239 0.1233172163296401 0 0.14887683695778881 0.1339775110126088 0 0.17709310291946739 0.13300766832749891 0 0.16339054528446789 0.14529225780325641 0 0.14887683695778881 0.1339775110126088 0 0.17709310291946739 0.13300766832749891 0 0.1577610861918583 0.1224796992451784 0 0.14887683695778881 0.1339775110126088 0 0.17709310291946739 0.13300766832749891 0 0.15736311458778851 0.16268022213278921 0 0.17285918811573581 0.15625359736987171 0 0.16339054528446789 0.14529225780325641 0 0.14887683695778881 0.1339775110126088 0 0.15736311458778851 0.16268022213278921 0 0.16339054528446789 0.14529225780325641 0 0.17285918811573581 0.15625359736987171 0 0.17709310291946739 0.13300766832749891 0 0.16339054528446789 0.14529225780325641 0 0.14953261231820489 0.2452533771335165 0 0.14276691833286489 0.23175619656796731 0 0.13122568139040239 0.2519428282254651 0 0.14953261231820489 0.2452533771335165 0 0.14276691833286489 0.23175619656796731 0 0.1583580250602083 0.22796613818656211 0 0.14276691833286489 0.23175619656796731 0 0.13122568139040239 0.2519428282254651 0 0.12583423215518319 0.23459787797161591 0 0.14276691833286489 0.23175619656796731 0 0.13122568139040239 0.2519428282254651 0 0.12583423215518319 0.23459787797161591 0 0.14276691833286489 0.23175619656796731 0 0.13151560086974989 0.21569004199298589 0 0.14276691833286489 0.23175619656796731 0 0.1543081552753256 0.21156956491046841 0 0.1583580250602083 0.22796613818656211 0 0.14276691833286489 0.23175619656796731 0 0.1543081552753256 0.21156956491046841 0 0.13151560086974989 0.21569004199298589 0 0.14276691833286489 0.23175619656796731 0 0.1543081552753256 0.21156956491046841 0 0.1543081552753256 0.21156956491046841 0 0.13151560086974989 0.21569004199298589 0 0.13866115193810369 0.1988247161481588 0 0.11840869754852509 0.20035290941287359 0 0.13151560086974989 0.21569004199298589 0 0.13866115193810369 0.1988247161481588 0 0.12996447077162951 0.18655620125725311 0 0.14975596796269469 0.18315318700586811 0 0.13866115193810369 0.1988247161481588 0 0.11840869754852509 0.20035290941287359 0 0.12996447077162951 0.18655620125725311 0 0.13866115193810369 0.1988247161481588 0 0.14975596796269469 0.18315318700586811 0 0.1521436668484776 0.19623260032936621 0 0.16584939221778741 0.19138293325297009 0 0.14975596796269469 0.18315318700586811 0 0.13866115193810369 0.1988247161481588 0 0.1521436668484776 0.19623260032936621 0 0.1543081552753256 0.21156956491046841 0 0.13866115193810369 0.1988247161481588 0 0.1521436668484776 0.19623260032936621 0 0.1543081552753256 0.21156956491046841 0 0.1521436668484776 0.19623260032936621 0 0.16584939221778741 0.19138293325297009 0 0.1543081552753256 0.21156956491046841 0 0.16584939221778741 0.19138293325297009 0 0.16584939221778741 0.19138293325297009 0 0.1844417781694678 0.19424764872600209 0 0.17417393138848261 0.21953860449573409 0 0.1844417781694678 0.19424764872600209 0 0.17417393138848261 0.21953860449573409 0 0.1962007281551649 0.2183812629531425 0 0.1844417781694678 0.19424764872600209 0 0.17417393138848261 0.21953860449573409 0 0.16584939221778741 0.19138293325297009 0 0.17417393138848261 0.21953860449573409 0 0.1543081552753256 0.21156956491046841 0 0.16584939221778741 0.19138293325297009 0 0.17417393138848261 0.21953860449573409 0 0.1583580250602083 0.22796613818656211 0 0.17417393138848261 0.21953860449573409 0 0.1666530113961299 0.23806354540412281 0 0.1543081552753256 0.21156956491046841 0 0.1583580250602083 0.22796613818656211 0 0.17417393138848261 0.21953860449573409 0 0.17417393138848261 0.21953860449573409 0 0.1666530113961299 0.23806354540412281 0 0.17417393138848261 0.21953860449573409 0 0.1788874318502679 0.23548084065838609 0 0.1666530113961299 0.23806354540412281 0 0.17417393138848261 0.21953860449573409 0 0.1788874318502679 0.23548084065838609 0 0.17417393138848261 0.21953860449573409 0 0.1788874318502679 0.23548084065838609 0 0.1962007281551649 0.2183812629531425 0 0.1748650477234398 0.2394535717158319 0 0.1788874318502679 0.23548084065838609 0 0.1666530113961299 0.23806354540412281 0 0.1748650477234398 0.2394535717158319 0 0.1788874318502679 0.23548084065838609 0 0.17494309726484791 0.2453188763195476 0 0.1788874318502679 0.23548084065838609 0 0.17494309726484791 0.2453188763195476 0 0.17828623373862171 0.25254967586398591 0 0.1788874318502679 0.23548084065838609 0 0.18737767064019339 0.2641969494110829 0 0.1748650477234398 0.2394535717158319 0 0.1788874318502679 0.23548084065838609 0 0.17494309726484791 0.2453188763195476 0 0.17132064302414021 0.24562659744895199 0 0.171356129987773 0.25348369591058117 0 0.1748650477234398 0.2394535717158319 0 0.17494309726484791 0.2453188763195476 0 0.17132064302414021 0.24562659744895199 0 0.14953261231820489 0.2452533771335165 0 0.1666530113961299 0.23806354540412281 0 0.1591320914037804 0.25658848631251258 0 0.14953261231820489 0.2452533771335165 0 0.1583580250602083 0.22796613818656211 0 0.1666530113961299 0.23806354540412281 0 0.16832310546349971 0.24771796654975209 0 0.17132064302414021 0.24562659744895199 0 0.171356129987773 0.25348369591058117 0 0.1666530113961299 0.23806354540412281 0 0.1591320914037804 0.25658848631251258 0 0.16832310546349971 0.24771796654975209 0 0.1666530113961299 0.23806354540412281 0 0.1639626374459556 0.25369802743535241 0 0.1666530113961299 0.23806354540412281 0 0.1639626374459556 0.25369802743535241 0 0.1591320914037804 0.25658848631251258 0 0.16832310546349971 0.24771796654975209 0 0.17132064302414021 0.24562659744895199 0 0.1666530113961299 0.23806354540412281 0 0.1748650477234398 0.2394535717158319 0 0.17132064302414021 0.24562659744895199 0 0.1666530113961299 0.23806354540412281 0 0.21841260707924079 0.24787849365120351 0 0.20149263876269899 0.2490339844868433 0 0.20846504295291571 0.2295912129597131 0 0.21841260707924079 0.24787849365120351 0 0.20846504295291571 0.2295912129597131 0 0.22753365594074271 0.23226686392712151 0 0.1788874318502679 0.23548084065838609 0 0.20149263876269899 0.2490339844868433 0 0.18737767064019339 0.2641969494110829 0 0.1788874318502679 0.23548084065838609 0 0.20149263876269899 0.2490339844868433 0 0.20846504295291571 0.2295912129597131 0 0.1788874318502679 0.23548084065838609 0 0.20846504295291571 0.2295912129597131 0 0.1962007281551649 0.2183812629531425 0 0.1788874318502679 0.23548084065838609 0 0.1962007281551649 0.2183812629531425 0 0.1962007281551649 0.2183812629531425 0 0.2135140244600576 0.2012816852478943 0 0.20846504295291571 0.2295912129597131 0 0.2135140244600576 0.2012816852478943 0 0.22587745015449329 0.2155760325110502 0 0.20846504295291571 0.2295912129597131 0 0.1962007281551649 0.2183812629531425 0 0.2135140244600576 0.2012816852478943 0 0.1844417781694678 0.19424764872600209 0 0.1962007281551649 0.2183812629531425 0 0.2135140244600576 0.2012816852478943 0 0.1844417781694678 0.19424764872600209 0 0.2135140244600576 0.2012816852478943 0 0.2079247611249643 0.18018719905815939 0 0.2135140244600576 0.2012816852478943 0 0.2079247611249643 0.18018719905815939 0 0.23082732076495061 0.18418210754264661 0 0.2135140244600576 0.2012816852478943 0 0.23082732076495061 0.18418210754264661 0 0.2135140244600576 0.2012816852478943 0 0.24157592692321239 0.20102918882948601 0 0.23082732076495061 0.18418210754264661 0 0.24157592692321239 0.20102918882948601 0 0.23082732076495061 0.18418210754264661 0 0.24157592692321239 0.20102918882948601 0 0.24181394639938389 0.18517864377364759 0 0.25096185484086497 0.18748103319587661 0 0.24157592692321239 0.20102918882948601 0 0.23082732076495061 0.18418210754264661 0 0.24181394639938389 0.18517864377364759 0 0.24157592692321239 0.20102918882948601 0 0.25096185484086497 0.18748103319587661 0 0.25692254755214899 0.19625362416250361 0 0.24157592692321239 0.20102918882948601 0 0.24035615561101209 0.21854709006987949 0 0.25140047973087548 0.2169793571628218 0 0.24157592692321239 0.20102918882948601 0 0.24035615561101209 0.21854709006987949 0 0.22587745015449329 0.2155760325110502 0 0.2135140244600576 0.2012816852478943 0 0.24157592692321239 0.20102918882948601 0 0.22587745015449329 0.2155760325110502 0 0.24035615561101209 0.21854709006987949 0 0.22587745015449329 0.2155760325110502 0 0.22753365594074271 0.23226686392712151 0 0.20846504295291571 0.2295912129597131 0 0.22587745015449329 0.2155760325110502 0 0.22753365594074271 0.23226686392712151 0 0.24035615561101209 0.21854709006987949 0 0.22753365594074271 0.23226686392712151 0 0.2408850773256794 0.23609943885122481 0 0.24035615561101209 0.21854709006987949 0 0.2408850773256794 0.23609943885122481 0 0.25556301788750557 0.2273286642810339 0 0.24035615561101209 0.21854709006987949 0 0.25556301788750557 0.2273286642810339 0 0.25140047973087548 0.2169793571628218 0 0.2408850773256794 0.23609943885122481 0 0.231750085001796 0.2465167433246036 0 0.24356618594519031 0.25228373232622581 0 0.2408850773256794 0.23609943885122481 0 0.24356618594519031 0.25228373232622581 0 0.25010503738555478 0.24259371671335209 0 0.2408850773256794 0.23609943885122481 0 0.25010503738555478 0.24259371671335209 0 0.25556301788750557 0.2273286642810339 0 0.22753365594074271 0.23226686392712151 0 0.2408850773256794 0.23609943885122481 0 0.231750085001796 0.2465167433246036 0 0.21841260707924079 0.24787849365120351 0 0.22753365594074271 0.23226686392712151 0 0.231750085001796 0.2465167433246036 0 0.20497747173144229 0.1436657371865393 0 0.21086623431790841 0.1528956280684238 0 0.20320904086342431 0.16391619207060729 0 0.20497747173144229 0.1436657371865393 0 0.21086623431790841 0.1528956280684238 0 0.21086623431790841 0.1528956280684238 0 0.21917467245504241 0.14093776455188739 0 0.22370457905656779 0.1554340634577904 0 0.20497747173144229 0.1436657371865393 0 0.21086623431790841 0.1528956280684238 0 0.21917467245504241 0.14093776455188739 0 0.21086623431790841 0.1528956280684238 0 0.21917467245504241 0.14093776455188739 0 0.20904055294359919 0.1336578738616101 0 0.21917467245504241 0.14093776455188739 0 0.22215804802789371 0.13664396139298551 0 0.20904055294359919 0.1336578738616101 0 0.21917467245504241 0.14093776455188739 0 0.20497747173144229 0.1436657371865393 0 0.20904055294359919 0.1336578738616101 0 0.21917467245504241 0.14093776455188739 0 0.21236938067208411 0.12545856619354839 0 0.22215804802789371 0.13664396139298551 0 0.21236938067208411 0.12545856619354839 0 0.20904055294359919 0.1336578738616101 0 0.22215804802789371 0.13664396139298551 0 0.21236938067208411 0.12545856619354839 0 0.20904055294359919 0.1336578738616101 0 0.20904055294359919 0.1336578738616101 0 0.19872947616314399 0.13387279402077801 0 0.20181847652677501 0.12846986252900869 0 0.21236938067208411 0.12545856619354839 0 0.20904055294359919 0.1336578738616101 0 0.20181847652677501 0.12846986252900869 0 0.20904055294359919 0.1336578738616101 0 0.20181847652677501 0.12846986252900869 0 0.20497747173144229 0.1436657371865393 0 0.20904055294359919 0.1336578738616101 0 0.20497747173144229 0.1436657371865393 0 0.20904055294359919 0.1336578738616101 0 0.19872947616314399 0.13387279402077801 0 0.17709310291946739 0.13300766832749891 0 0.19872947616314399 0.13387279402077801 0 0.18776944818135929 0.1530428404315092 0 0.20497747173144229 0.1436657371865393 0 0.19872947616314399 0.13387279402077801 0 0.1866930490288588 0.12703253422057989 0 0.17709310291946739 0.13300766832749891 0 0.19872947616314399 0.13387279402077801 0 0.19872947616314399 0.13387279402077801 0 0.20181847652677501 0.12846986252900869 0 0.19872947616314399 0.13387279402077801 0 0.20181847652677501 0.12846986252900869 0 0.19630065585608991 0.1300659252471445 0 0.19872947616314399 0.13387279402077801 0 0.19630065585608991 0.1300659252471445 0 0.1866930490288588 0.12703253422057989 0 0.19872947616314399 0.13387279402077801 0 0.19630065585608991 0.1300659252471445 0 0.20497747173144229 0.1436657371865393 0 0.18776944818135929 0.1530428404315092 0 0.19470962495045599 0.168956692956271 0 0.20497747173144229 0.1436657371865393 0 0.19872947616314399 0.13387279402077801 0 0.18776944818135929 0.1530428404315092 0 0.19872947616314399 0.13387279402077801 0 0.18776944818135929 0.1530428404315092 0 0.20497747173144229 0.1436657371865393 0 0.19470962495045599 0.168956692956271 0 0.20497747173144229 0.1436657371865393 0 0.19470962495045599 0.168956692956271 0 0.20320904086342431 0.16391619207060729 0 0.19470962495045599 0.168956692956271 0 0.2079247611249643 0.18018719905815939 0 0.20320904086342431 0.16391619207060729 0 0.1844417781694678 0.19424764872600209 0 0.19470962495045599 0.168956692956271 0 0.2079247611249643 0.18018719905815939 0 0.1844417781694678 0.19424764872600209 0 0.19470962495045599 0.168956692956271 0 0.21086623431790841 0.1528956280684238 0 0.20320904086342431 0.16391619207060729 0 0.2208467775414294 0.16853886780553529 0 0.21086623431790841 0.1528956280684238 0 0.2208467775414294 0.16853886780553529 0 0.22370457905656779 0.1554340634577904 0 0.2079247611249643 0.18018719905815939 0 0.20320904086342431 0.16391619207060729 0 0.2208467775414294 0.16853886780553529 0 0.21086623431790841 0.1528956280684238 0 0.2208467775414294 0.16853886780553529 0 0.21086623431790841 0.1528956280684238 0 0.20320904086342431 0.16391619207060729 0 0.2208467775414294 0.16853886780553529 0 0.23276552945806661 0.1628388057214942 0 0.22370457905656779 0.1554340634577904 0 0.2208467775414294 0.16853886780553529 0 0.23053412189689709 0.17019828773544429 0 0.23276552945806661 0.1628388057214942 0 0.23053412189689709 0.17019828773544429 0 0.23276552945806661 0.1628388057214942 0 0.23700976475696689 0.1694324350274036 0 0.23276552945806661 0.1628388057214942 0 0.23732753427187131 0.15397795512720039 0 0.22370457905656779 0.1554340634577904 0 0.2208467775414294 0.16853886780553529 0 0.23053412189689709 0.17019828773544429 0 0.23082732076495061 0.18418210754264661 0 0.2208467775414294 0.16853886780553529 0 0.23082732076495061 0.18418210754264661 0 0.2079247611249643 0.18018719905815939 0 0.2208467775414294 0.16853886780553529 0 0.23082732076495061 0.18418210754264661 0 0.23053412189689709 0.17019828773544429 0 0.23082732076495061 0.18418210754264661 0 0.23700976475696689 0.1694324350274036 0 0.24069716399492569 0.17443409952167299 0 0.24826796332043391 0.17979306739518369 0 0.2570848785433778 0.1721788521524327 0 0.24069716399492569 0.17443409952167299 0 0.2570848785433778 0.1721788521524327 0 0.23082732076495061 0.18418210754264661 0 0.24181394639938389 0.18517864377364759 0 0.24069716399492569 0.17443409952167299 0 0.23082732076495061 0.18418210754264661 0 0.24069716399492569 0.17443409952167299 0 0.23700976475696689 0.1694324350274036 0 0.23082732076495061 0.18418210754264661 0 0.24069716399492569 0.17443409952167299 0 0.24181394639938389 0.18517864377364759 0 0.24826796332043391 0.17979306739518369 0 0.25096185484086497 0.18748103319587661 0 0.24181394639938389 0.18517864377364759 0 0.24069716399492569 0.17443409952167299 0 0.24826796332043391 0.17979306739518369 0 0.23732753427187131 0.15397795512720039 0 0.25680141540481938 0.16796710591659411 0 0.24402545139701359 0.161631586345304 0 0.23732753427187131 0.15397795512720039 0 0.25680141540481938 0.16796710591659411 0 0.24069716399492569 0.17443409952167299 0 0.24689640026790671 0.16831138779212901 0 0.2570848785433778 0.1721788521524327 0 0.23276552945806661 0.1628388057214942 0 0.24402545139701359 0.161631586345304 0 0.23732753427187131 0.15397795512720039 0 0.24402545139701359 0.161631586345304 0 0.23732753427187131 0.15397795512720039 0 0.24069716399492569 0.17443409952167299 0 0.23700976475696689 0.1694324350274036 0 0.24689640026790671 0.16831138779212901 0 0.23276552945806661 0.1628388057214942 0 0.23700976475696689 0.1694324350274036 0 0.24402545139701359 0.161631586345304 0 0.23700976475696689 0.1694324350274036 0 0.24689640026790671 0.16831138779212901 0 0.24402545139701359 0.161631586345304 0 0.24689640026790671 0.16831138779212901 0 0.24402545139701359 0.161631586345304 0 0.25680141540481938 0.16796710591659411 0 0.24069716399492569 0.17443409952167299 0 0.24689640026790671 0.16831138779212901 0 0.23732753427187131 0.15397795512720039 0 0.22215804802789371 0.13664396139298551 0 0.24689748716589169 0.13668034068660331 0 0.23732753427187131 0.15397795512720039 0 0.24689748716589169 0.13668034068660331 0 0.2601429464355336 0.15325935293470719 0 0.23732753427187131 0.15397795512720039 0 0.22215804802789371 0.13664396139298551 0 0.23732753427187131 0.15397795512720039 0 0.21917467245504241 0.14093776455188739 0 0.23732753427187131 0.15397795512720039 0 0.21917467245504241 0.14093776455188739 0 0.22370457905656779 0.1554340634577904 0 0.23732753427187131 0.15397795512720039 0 0.21917467245504241 0.14093776455188739 0 0.22215804802789371 0.13664396139298551 0 0.21236938067208411 0.12545856619354839 0 0.22215804802789371 0.13664396139298551 0 0.23365202789624959 0.1201013284384997 0 0.22215804802789371 0.13664396139298551 0 0.24689748716589169 0.13668034068660331 0 0.23365202789624959 0.1201013284384997 0 0.22215804802789371 0.13664396139298551 0 0.23365202789624959 0.1201013284384997 0 0.21917467245504241 0.14093776455188739 0 0.22215804802789371 0.13664396139298551 0 0.24689748716589169 0.13668034068660331 0 0.2485501070929089 0.1191882429421139 0 0.23365202789624959 0.1201013284384997 0 0.24689748716589169 0.13668034068660331 0 0.23365202789624959 0.1201013284384997 0 0.24304896194163839 0.1065768545320899 0 0.23381975300694871 0.1025864079887793 0 0.23365202789624959 0.1201013284384997 0 0.2485501070929089 0.1191882429421139 0 0.24304896194163839 0.1065768545320899 0 0.25513117456964352 0.1062350585458208 0 0.2485501070929089 0.1191882429421139 0 0.24304896194163839 0.1065768545320899 0 0.23365202789624959 0.1201013284384997 0 0.24304896194163839 0.1065768545320899 0 0.23365202789624959 0.1201013284384997 0 0.24304896194163839 0.1065768545320899 0 0.23381975300694871 0.1025864079887793 0 0.25244589598702583 0.093052380625679054 0 0.23381975300694871 0.1025864079887793 0 0.22584541507168079 0.092265454022949223 0 0.25244589598702583 0.093052380625679054 0 0.24304896194163839 0.1065768545320899 0 0.25244589598702583 0.093052380625679054 0 0.23381975300694871 0.1025864079887793 0 0.2209825566030523 0.10424326602851609 0 0.23365202789624959 0.1201013284384997 0 0.23381975300694871 0.1025864079887793 0 0.2209825566030523 0.10424326602851609 0 0.22584541507168079 0.092265454022949223 0 0.2209825566030523 0.10424326602851609 0 0.2179366517400578 0.10027776599344849 0 0.2209825566030523 0.10424326602851609 0 0.22584541507168079 0.092265454022949223 0 0.2209825566030523 0.10424326602851609 0 0.2179366517400578 0.10027776599344849 0 0.22584541507168079 0.092265454022949223 0 0.21236938067208411 0.12545856619354839 0 0.2209825566030523 0.10424326602851609 0 0.23365202789624959 0.1201013284384997 0 0.2209825566030523 0.10424326602851609 0 0.23365202789624959 0.1201013284384997 0 0.21236938067208411 0.12545856619354839 0 0.2209825566030523 0.10424326602851609 0 0.2070290089386356 0.1193561861473444 0 0.2070290089386356 0.1193561861473444 0 0.2179366517400578 0.10027776599344849 0 0.21236938067208411 0.12545856619354839 0 0.2209825566030523 0.10424326602851609 0 0.21236938067208411 0.12545856619354839 0 0.20181847652677501 0.12846986252900869 0 0.2070290089386356 0.1193561861473444 0 0.20181847652677501 0.12846986252900869 0 0.2070290089386356 0.1193561861473444 0 0.21236938067208411 0.12545856619354839 0 0.2070290089386356 0.1193561861473444 0 0.2209825566030523 0.10424326602851609 0 0.2070290089386356 0.1193561861473444 0 0.2179366517400578 0.10027776599344849 0 0.2070290089386356 0.1193561861473444 0 0.2179366517400578 0.10027776599344849 0 0.20533665370800289 0.1017162195105626 0 0.2179366517400578 0.10027776599344849 0 0.2110637689994003 0.091828166044458259 0 0.22584541507168079 0.092265454022949223 0 0.2179366517400578 0.10027776599344849 0 0.20533665370800289 0.1017162195105626 0 0.2110637689994003 0.091828166044458259 0 0.2179366517400578 0.10027776599344849 0 0.2110637689994003 0.091828166044458259 0 0.20362333758179721 0.09592360215689269 0 0.20533665370800289 0.1017162195105626 0 0.2110637689994003 0.091828166044458259 0 0.2070290089386356 0.1193561861473444 0 0.20533665370800289 0.1017162195105626 0 0.19386327257216349 0.1043118538599872 0 0.20533665370800289 0.1017162195105626 0 0.19843742196656561 0.098659349645111222 0 0.19386327257216349 0.1043118538599872 0 0.20362333758179721 0.09592360215689269 0 0.19843742196656561 0.098659349645111222 0 0.1996555056532201 0.091490673427439398 0 0.20362333758179721 0.09592360215689269 0 0.20533665370800289 0.1017162195105626 0 0.19843742196656561 0.098659349645111222 0 0.1996555056532201 0.091490673427439398 0 0.18488111528520451 0.10685895814173441 0 0.18701897933715261 0.096741055042958574 0 0.19843742196656561 0.098659349645111222 0 0.1996555056532201 0.091490673427439398 0 0.18488111528520451 0.10685895814173441 0 0.1996555056532201 0.091490673427439398 0 0.18488111528520451 0.10685895814173441 0 0.19386327257216349 0.1043118538599872 0 0.18961408497240831 0.110719377881787 0 0.18488111528520451 0.10685895814173441 0 0.19843742196656561 0.098659349645111222 0 0.19386327257216349 0.1043118538599872 0 0.18488111528520451 0.10685895814173441 0 0.20181847652677501 0.12846986252900869 0 0.18411534335686641 0.1157527365658864 0 0.19386327257216349 0.1043118538599872 0 0.18961408497240831 0.110719377881787 0 0.1955966086753988 0.11595396295954009 0 0.18961408497240831 0.110719377881787 0 0.1955966086753988 0.11595396295954009 0 0.18411534335686641 0.1157527365658864 0 0.20181847652677501 0.12846986252900869 0 0.1955966086753988 0.11595396295954009 0 0.18411534335686641 0.1157527365658864 0 0.20181847652677501 0.12846986252900869 0 0.19630065585608991 0.1300659252471445 0 0.18411534335686641 0.1157527365658864 0 0.1866930490288588 0.12703253422057989 0 0.19630065585608991 0.1300659252471445 0 0.18411534335686641 0.1157527365658864 0 0.20181847652677501 0.12846986252900869 0 0.2070290089386356 0.1193561861473444 0 0.1955966086753988 0.11595396295954009 0 0.2070290089386356 0.1193561861473444 0 0.19386327257216349 0.1043118538599872 0 0.1955966086753988 0.11595396295954009 0 0.2070290089386356 0.1193561861473444 0 0.19386327257216349 0.1043118538599872 0 0.190307811557094 0.065848449852526927 0 0.20573871747785549 0.085162931370429018 0 0.20425730163472969 0.056535555477401647 0 0.190307811557094 0.065848449852526927 0 0.20573871747785549 0.085162931370429018 0 0.190307811557094 0.065848449852526927 0 0.18762704384774159 0.079800563564754345 0 0.20573871747785549 0.085162931370429018 0 0.18762704384774159 0.079800563564754345 0 0.19586118661271579 0.091378425434566465 0 0.20573871747785549 0.085162931370429018 0 0.19586118661271579 0.091378425434566465 0 0.1996555056532201 0.091490673427439398 0 0.18701897933715261 0.096741055042958574 0 0.19586118661271579 0.091378425434566465 0 0.18701897933715261 0.096741055042958574 0 0.18697511259490299 0.089516710579921333 0 0.18762704384774159 0.079800563564754345 0 0.19586118661271579 0.091378425434566465 0 0.18697511259490299 0.089516710579921333 0 0.19586118661271579 0.091378425434566465 0 0.1996555056532201 0.091490673427439398 0 0.20573871747785549 0.085162931370429018 0 0.19586118661271579 0.091378425434566465 0 0.1996555056532201 0.091490673427439398 0 0.1996555056532201 0.091490673427439398 0 0.20573871747785549 0.085162931370429018 0 0.1996555056532201 0.091490673427439398 0 0.20573871747785549 0.085162931370429018 0 0.2110637689994003 0.091828166044458259 0 0.1996555056532201 0.091490673427439398 0 0.2110637689994003 0.091828166044458259 0 0.20362333758179721 0.09592360215689269 0 0.1996555056532201 0.091490673427439398 0 0.2110637689994003 0.091828166044458259 0 0.20573871747785549 0.085162931370429018 0 0.2110637689994003 0.091828166044458259 0 0.2110637689994003 0.091828166044458259 0 0.22584541507168079 0.092265454022949223 0 0.20573871747785549 0.085162931370429018 0 0.2110637689994003 0.091828166044458259 0 0.22079508848582721 0.080347437221244961 0 0.20573871747785549 0.085162931370429018 0 0.2256370960416432 0.064464686671064184 0 0.20573871747785549 0.085162931370429018 0 0.2256370960416432 0.064464686671064184 0 0.20425730163472969 0.056535555477401647 0 0.20573871747785549 0.085162931370429018 0 0.2256370960416432 0.064464686671064184 0 0.22079508848582721 0.080347437221244961 0 0.2256370960416432 0.064464686671064184 0 0.22079508848582721 0.080347437221244961 0 0.23569044483855631 0.068015947997324702 0 0.22584541507168079 0.092265454022949223 0 0.23569044483855631 0.068015947997324702 0 0.22584541507168079 0.092265454022949223 0 0.22079508848582721 0.080347437221244961 0 0.23569044483855631 0.068015947997324702 0 0.2110637689994003 0.091828166044458259 0 0.22584541507168079 0.092265454022949223 0 0.22079508848582721 0.080347437221244961 0 0.22584541507168079 0.092265454022949223 0 0.2477663946351947 0.078357918266048876 0 0.23569044483855631 0.068015947997324702 0 0.22584541507168079 0.092265454022949223 0 0.2477663946351947 0.078357918266048876 0 0.25244589598702583 0.093052380625679054 0 0.22584541507168079 0.092265454022949223 0 0.25244589598702583 0.093052380625679054 0 0.23569044483855631 0.068015947997324702 0 0.25656045389062482 0.059112627339890603 0 0.2509897177165582 0.070498448047813717 0 0.2477663946351947 0.078357918266048876 0 0.23569044483855631 0.068015947997324702 0 0.2509897177165582 0.070498448047813717 0 0.23569044483855631 0.068015947997324702 0 0.24553547460543171 0.043766441971699953 0 0.2256370960416432 0.064464686671064184 0 0.23569044483855631 0.068015947997324702 0 0.24553547460543171 0.043766441971699953 0 0.23569044483855631 0.068015947997324702 0 0.24553547460543171 0.043766441971699953 0 0.25656045389062482 0.059112627339890603 0 0.2256370960416432 0.064464686671064184 0 0.24553547460543171 0.043766441971699953 0 0.24553547460543171 0.043766441971699953 0 0.22913918346662371 0.033274829617706073 0 0.24345244955096459 0.029488498618385289 0 0.24553547460543171 0.043766441971699953 0 0.24345244955096459 0.029488498618385289 0 0.25489883525781248 0.020703345573159691 0 0.24553547460543171 0.043766441971699953 0 0.22913918346662371 0.033274829617706073 0 0.2168914885008609 0.045503982729149933 0 0.22913918346662371 0.033274829617706073 0 0.2168914885008609 0.045503982729149933 0 0.2256370960416432 0.064464686671064184 0 0.24553547460543171 0.043766441971699953 0 0.2168914885008609 0.045503982729149933 0 0.24666420319168639 0.01542139876343003 0 0.2301876845731515 0.0022250632122473471 0 0.24311130928645741 -0.005463409046427151 0 0.24666420319168639 0.01542139876343003 0 0.2297620653858409 0.01691760108263499 0 0.2301876845731515 0.0022250632122473471 0 0.22913918346662371 0.033274829617706073 0 0.24666420319168639 0.01542139876343003 0 0.24345244955096459 0.029488498618385289 0 0.22913918346662371 0.033274829617706073 0 0.24666420319168639 0.01542139876343003 0 0.2297620653858409 0.01691760108263499 0 0.22913918346662371 0.033274829617706073 0 0.24666420319168639 0.01542139876343003 0 0.24666420319168639 0.01542139876343003 0 0.24345244955096459 0.029488498618385289 0 0.25489883525781248 0.020703345573159691 0 0.22913918346662371 0.033274829617706073 0 0.2297620653858409 0.01691760108263499 0 0.21324779508725131 0.016702537929435289 0 0.2297620653858409 0.01691760108263499 0 0.2301876845731515 0.0022250632122473471 0 0.21324779508725131 0.016702537929435289 0 0.21324779508725131 0.016702537929435289 0 0.1925679174992857 0.0043077106914305597 0 0.21191963030083841 -0.0024113053172400609 0 0.2301876845731515 0.0022250632122473471 0 0.21324779508725131 0.016702537929435289 0 0.21191963030083841 -0.0024113053172400609 0 0.22913918346662371 0.033274829617706073 0 0.21324779508725131 0.016702537929435289 0 0.20191274216380409 0.03992768638002539 0 0.21324779508725131 0.016702537929435289 0 0.19691263259589739 0.020820467345102501 0 0.20191274216380409 0.03992768638002539 0 0.19691263259589739 0.020820467345102501 0 0.1925679174992857 0.0043077106914305597 0 0.17992207563324869 0.022343934379518759 0 0.19691263259589739 0.020820467345102501 0 0.20191274216380409 0.03992768638002539 0 0.17992207563324869 0.022343934379518759 0 0.21324779508725131 0.016702537929435289 0 0.19691263259589739 0.020820467345102501 0 0.1925679174992857 0.0043077106914305597 0 0.2256370960416432 0.064464686671064184 0 0.20425730163472969 0.056535555477401647 0 0.2168914885008609 0.045503982729149933 0 0.20425730163472969 0.056535555477401647 0 0.2168914885008609 0.045503982729149933 0 0.20191274216380409 0.03992768638002539 0 0.22913918346662371 0.033274829617706073 0 0.2168914885008609 0.045503982729149933 0 0.20191274216380409 0.03992768638002539 0 0.22913918346662371 0.033274829617706073 0 0.20191274216380409 0.03992768638002539 0 0.20191274216380409 0.03992768638002539 0 0.17487690563633401 0.046533968334623768 0 0.190307811557094 0.065848449852526927 0 0.20425730163472969 0.056535555477401647 0 0.17487690563633401 0.046533968334623768 0 0.20425730163472969 0.056535555477401647 0 0.20191274216380409 0.03992768638002539 0 0.17487690563633401 0.046533968334623768 0 0.190307811557094 0.065848449852526927 0 0.17487690563633401 0.046533968334623768 0 0.16763517883160731 0.070948302271564262 0 0.190307811557094 0.065848449852526927 0 0.17487690563633401 0.046533968334623768 0 0.20191274216380409 0.03992768638002539 0 0.17487690563633401 0.046533968334623768 0 0.17992207563324869 0.022343934379518759 0 0.17487690563633401 0.046533968334623768 0 0.1603796395955521 0.02838810065565249 0 0.15524179467059751 0.051331862386012422 0 0.17487690563633401 0.046533968334623768 0 0.17992207563324869 0.022343934379518759 0 0.1603796395955521 0.02838810065565249 0 0.17487690563633401 0.046533968334623768 0 0.1603796395955521 0.02838810065565249 0 0.17487690563633401 0.046533968334623768 0 0.15524179467059751 0.051331862386012422 0 0.17487690563633401 0.046533968334623768 0 0.15524179467059751 0.051331862386012422 0 0.16763517883160731 0.070948302271564262 0 0.1925679174992857 0.0043077106914305597 0 0.17354728991198329 0.0029068343059747781 0 0.17992207563324869 0.022343934379518759 0 0.17354728991198329 0.0029068343059747781 0 0.17992207563324869 0.022343934379518759 0 0.16323000135621479 0.01253044391235518 0 0.17992207563324869 0.022343934379518759 0 0.1603796395955521 0.02838810065565249 0 0.16323000135621479 0.01253044391235518 0 0.1603796395955521 0.02838810065565249 0 0.16323000135621479 0.01253044391235518 0 0.14588237355477091 0.010242232976680719 0 0.17354728991198329 0.0029068343059747781 0 0.16323000135621479 0.01253044391235518 0 0.15641862808551901 -0.001228882756050856 0 0.14588237355477091 0.010242232976680719 0 0.13138510751398111 -0.0079036347022841107 0 0.15641862808551901 -0.001228882756050856 0 0.16323000135621479 0.01253044391235518 0 0.14588237355477091 0.010242232976680719 0 0.15641862808551901 -0.001228882756050856 0 0.1603796395955521 0.02838810065565249 0 0.14588237355477091 0.010242232976680719 0 0.1603796395955521 0.02838810065565249 0 0.14588237355477091 0.010242232976680719 0 0.14512826651764621 0.030349756578756409 0 0.14588237355477091 0.010242232976680719 0 0.14512826651764621 0.030349756578756409 0 0.13181535284950829 0.022009500972414942 0 0.1167144904564974 0.026418326068680539 0 0.13181535284950829 0.022009500972414942 0 0.13232217191780229 0.039777085903021488 0 0.14512826651764621 0.030349756578756409 0 0.13181535284950829 0.022009500972414942 0 0.13232217191780229 0.039777085903021488 0 0.14588237355477091 0.010242232976680719 0 0.13138510751398111 -0.0079036347022841107 0 0.14588237355477091 0.010242232976680719 0 0.13213487022227541 0.0082800473563394636 0 0.13138510751398111 -0.0079036347022841107 0 0.13213487022227541 0.0082800473563394636 0 0.12773595140078731 0.0024735933284422431 0 0.13138510751398111 -0.0079036347022841107 0 0.14588237355477091 0.010242232976680719 0 0.13181535284950829 0.022009500972414942 0 0.13213487022227541 0.0082800473563394636 0 0.12108946560642141 0.01154877377898424 0 0.13181535284950829 0.022009500972414942 0 0.13213487022227541 0.0082800473563394636 0 0.12108946560642141 0.01154877377898424 0 0.13213487022227541 0.0082800473563394636 0 0.12773595140078731 0.0024735933284422431 0 0.15524179467059751 0.051331862386012422 0 0.13232217191780229 0.039777085903021488 0 0.13761776913131249 0.056214300637891637 0 0.15524179467059751 0.051331862386012422 0 0.13761776913131249 0.056214300637891637 0 0.150192100333461 0.065984209206741959 0 0.1603796395955521 0.02838810065565249 0 0.14512826651764621 0.030349756578756409 0 0.15524179467059751 0.051331862386012422 0 0.14512826651764621 0.030349756578756409 0 0.15524179467059751 0.051331862386012422 0 0.13232217191780229 0.039777085903021488 0 0.1234093269503041 0.053135151783242469 0 0.13232217191780229 0.039777085903021488 0 0.13761776913131249 0.056214300637891637 0 0.1234093269503041 0.053135151783242469 0 0.13761776913131249 0.056214300637891637 0 0.12692345178439729 0.07084319391043982 0 0.13761776913131249 0.056214300637891637 0 0.12692345178439729 0.07084319391043982 0 0.150192100333461 0.065984209206741959 0 0.12692345178439729 0.07084319391043982 0 0.150192100333461 0.065984209206741959 0 0.14502875406654389 0.080596893271668732 0 0.150192100333461 0.065984209206741959 0 0.14502875406654389 0.080596893271668732 0 0.16763517883160731 0.070948302271564262 0 0.14502875406654389 0.080596893271668732 0 0.1433358377961387 0.097688413317619099 0 0.15891299345502169 0.091713579409896162 0 0.14502875406654389 0.080596893271668732 0 0.13123900241856071 0.088459768899363272 0 0.1433358377961387 0.097688413317619099 0 0.12692345178439729 0.07084319391043982 0 0.14502875406654389 0.080596893271668732 0 0.13123900241856071 0.088459768899363272 0 0.12574356414906299 0.1042783247926226 0 0.14399047736256479 0.1174506220742596 0 0.1433358377961387 0.097688413317619099 0 0.13123900241856071 0.088459768899363272 0 0.12574356414906299 0.1042783247926226 0 0.1433358377961387 0.097688413317619099 0 0.12574356414906299 0.1042783247926226 0 0.12912469052369591 0.1215541264122493 0 0.14399047736256479 0.1174506220742596 0 0.14887683695778881 0.1339775110126088 0 0.14399047736256479 0.1174506220742596 0 0.1577610861918583 0.1224796992451784 0 0.14887683695778881 0.1339775110126088 0 0.12912469052369591 0.1215541264122493 0 0.14399047736256479 0.1174506220742596 0 0.14399047736256479 0.1174506220742596 0 0.15456580580175391 0.1081392555232893 0 0.1577610861918583 0.1224796992451784 0 0.14399047736256479 0.1174506220742596 0 0.1433358377961387 0.097688413317619099 0 0.15456580580175391 0.1081392555232893 0 0.1433358377961387 0.097688413317619099 0 0.15456580580175391 0.1081392555232893 0 0.15891299345502169 0.091713579409896162 0 0.15456580580175391 0.1081392555232893 0 0.16641221018695751 0.10303561060276439 0 0.15891299345502169 0.091713579409896162 0 0.16641221018695751 0.10303561060276439 0 0.17739324058200201 0.090146798277405973 0 0.15891299345502169 0.091713579409896162 0 0.17709310291946739 0.13300766832749891 0 0.1577610861918583 0.1224796992451784 0 0.16837534816006999 0.11884179722547419 0 0.15456580580175391 0.1081392555232893 0 0.16641221018695751 0.10303561060276439 0 0.16837534816006999 0.11884179722547419 0 0.15456580580175391 0.1081392555232893 0 0.1577610861918583 0.1224796992451784 0 0.16837534816006999 0.11884179722547419 0 0.16837534816006999 0.11884179722547419 0 0.17854276971843239 0.1233172163296401 0 0.18411534335686641 0.1157527365658864 0 0.16641221018695751 0.10303561060276439 0 0.18411534335686641 0.1157527365658864 0 0.16641221018695751 0.10303561060276439 0 0.16837534816006999 0.11884179722547419 0 0.18411534335686641 0.1157527365658864 0 0.18961408497240831 0.110719377881787 0 0.18411534335686641 0.1157527365658864 0 0.18488111528520451 0.10685895814173441 0 0.1866930490288588 0.12703253422057989 0 0.17854276971843239 0.1233172163296401 0 0.18411534335686641 0.1157527365658864 0 0.16641221018695751 0.10303561060276439 0 0.18411534335686641 0.1157527365658864 0 0.17869333051835781 0.1007799758272333 0 0.16641221018695751 0.10303561060276439 0 0.17869333051835781 0.1007799758272333 0 0.17739324058200201 0.090146798277405973 0 0.18411534335686641 0.1157527365658864 0 0.17869333051835781 0.1007799758272333 0 0.18488111528520451 0.10685895814173441 0 0.17869333051835781 0.1007799758272333 0 0.18701897933715261 0.096741055042958574 0 0.17739324058200201 0.090146798277405973 0 0.17869333051835781 0.1007799758272333 0 0.18488111528520451 0.10685895814173441 0 0.18701897933715261 0.096741055042958574 0 0.18762704384774159 0.079800563564754345 0 0.18697511259490299 0.089516710579921333 0 0.17739324058200201 0.090146798277405973 0 0.18701897933715261 0.096741055042958574 0 0.18697511259490299 0.089516710579921333 0 0.17739324058200201 0.090146798277405973 0 0.18762704384774159 0.079800563564754345 0 0.17739324058200201 0.090146798277405973 0 0.16763517883160731 0.070948302271564262 0 0.190307811557094 0.065848449852526927 0 0.18762704384774159 0.079800563564754345 0 0.16763517883160731 0.070948302271564262 0 0.15524179467059751 0.051331862386012422 0 0.150192100333461 0.065984209206741959 0 0.16763517883160731 0.070948302271564262 0 0.14502875406654389 0.080596893271668732 0 0.16763517883160731 0.070948302271564262 0 0.15891299345502169 0.091713579409896162 0 0.17739324058200201 0.090146798277405973 0 0.16763517883160731 0.070948302271564262 0 0.15891299345502169 0.091713579409896162 0 0.1015092313666741 0.46885267931762442 0 0.09856111858623981 0.48220110895488177 0 0.085113728383667694 0.47407075850570468 0 0.09856111858623981 0.48220110895488177 0 0.1087338631646388 0.48948086548723768 0 0.1106038686939541 0.47496441608381762 0 0.1015092313666741 0.46885267931762442 0 0.09856111858623981 0.48220110895488177 0 0.1106038686939541 0.47496441608381762 0 0.09856111858623981 0.48220110895488177 0 0.099171959641662616 0.4981791176696525 0 0.1087338631646388 0.48948086548723768 0 0.099171959641662616 0.4981791176696525 0 0.1180890437532176 0.49570144938853022 0 0.099171959641662616 0.4981791176696525 0 0.09682727784289813 0.5 0 0.1125539615505905 0.49999999999999939 0 0.099171959641662616 0.4981791176696525 0 0.1087338631646388 0.48948086548723768 0 0.1180890437532176 0.49570144938853022 0 0.09856111858623981 0.48220110895488177 0 0.099171959641662616 0.4981791176696525 0 0.086533125229488153 0.48674796456480579 0 0.1180890437532176 0.49570144938853022 0 0.1106038686939541 0.47496441608381762 0 0.099171959641662616 0.4981791176696525 0 0.1125539615505905 0.49999999999999939 0 0.1180890437532176 0.49570144938853022 0 0.1087338631646388 0.48948086548723768 0 0.1180890437532176 0.49570144938853022 0 0.1106038686939541 0.47496441608381762 0 0.1125539615505905 0.49999999999999939 0 0.1180890437532176 0.49570144938853022 0 0.1125539615505905 0.49999999999999939 0 0.1196406352154659 0.50000000000000067 0 0.1180890437532176 0.49570144938853022 0 0.1196406352154659 0.50000000000000067 0 0.1180890437532176 0.49570144938853022 0 0.1180890437532176 0.49570144938853022 0 0.1232626025210715 0.47962859419113252 0 0.1106038686939541 0.47496441608381762 0 0.1232626025210715 0.47962859419113252 0 0.1106038686939541 0.47496441608381762 0 0.12759513619708221 0.46664877989488568 0 0.1106038686939541 0.47496441608381762 0 0.1151324701229109 0.46194043672083551 0 0.1031186936346911 0.45422738277910479 0 0.1106038686939541 0.47496441608381762 0 0.1151324701229109 0.46194043672083551 0 0.12759513619708221 0.46664877989488568 0 0.1151324701229109 0.46194043672083551 0 0.1192121819659164 0.45192116812553379 0 0.1031186936346911 0.45422738277910479 0 0.1151324701229109 0.46194043672083551 0 0.1192121819659164 0.45192116812553379 0 0.12759513619708221 0.46664877989488568 0 0.1192121819659164 0.45192116812553379 0 0.1168219467785717 0.42740703270861741 0 0.13595725424645819 0.4468779553736183 0 0.1192121819659164 0.45192116812553379 0 0.1084284855668544 0.44080338890191822 0 0.1031186936346911 0.45422738277910479 0 0.1192121819659164 0.45192116812553379 0 0.1084284855668544 0.44080338890191822 0 0.1168219467785717 0.42740703270861741 0 0.1084284855668544 0.44080338890191822 0 0.1031186936346911 0.45422738277910479 0 0.088030501340678025 0.43172035259367342 0 0.1031186936346911 0.45422738277910479 0 0.091026905563830557 0.46029793026709281 0 0.088030501340678025 0.43172035259367342 0 0.1106038686939541 0.47496441608381762 0 0.1031186936346911 0.45422738277910479 0 0.1015092313666741 0.46885267931762442 0 0.1106038686939541 0.47496441608381762 0 0.1031186936346911 0.45422738277910479 0 0.1015092313666741 0.46885267931762442 0 0.1031186936346911 0.45422738277910479 0 0.091026905563830557 0.46029793026709281 0 0.078374363370671468 0.45550459514373159 0 0.091026905563830557 0.46029793026709281 0 0.085113728383667694 0.47407075850570468 0 0.1015092313666741 0.46885267931762442 0 0.091026905563830557 0.46029793026709281 0 0.085113728383667694 0.47407075850570468 0 0.078374363370671468 0.45550459514373159 0 0.091026905563830557 0.46029793026709281 0 0.088030501340678025 0.43172035259367342 0 0.078374363370671468 0.45550459514373159 0 0.06814706788555637 0.43575275865951968 0 0.088030501340678025 0.43172035259367342 0 0.078374363370671468 0.45550459514373159 0 0.088030501340678025 0.43172035259367342 0 0.078374363370671468 0.45550459514373159 0 0.053311478262955313 0.46172382295177999 0 0.06814706788555637 0.43575275865951968 0 0.078374363370671468 0.45550459514373159 0 0.068718225400662469 0.47928883769378888 0 0.078374363370671468 0.45550459514373159 0 0.068718225400662469 0.47928883769378888 0 0.053311478262955313 0.46172382295177999 0 0.078374363370671468 0.45550459514373159 0 0.068718225400662469 0.47928883769378888 0 0.085113728383667694 0.47407075850570468 0 0.068718225400662469 0.47928883769378888 0 0.085113728383667694 0.47407075850570468 0 0.1015092313666741 0.46885267931762442 0 0.085113728383667694 0.47407075850570468 0 0.068718225400662469 0.47928883769378888 0 0.085113728383667694 0.47407075850570468 0 0.086533125229488153 0.48674796456480579 0 0.09856111858623981 0.48220110895488177 0 0.085113728383667694 0.47407075850570468 0 0.086533125229488153 0.48674796456480579 0 0.099171959641662616 0.4981791176696525 0 0.09682727784289813 0.5 0 0.081100594135205761 0.5 0 0.068718225400662469 0.47928883769378888 0 0.081100594135205761 0.5 0 0.086533125229488153 0.48674796456480579 0 0.099171959641662616 0.4981791176696525 0 0.081100594135205761 0.5 0 0.099171959641662616 0.4981791176696525 0 0.081100594135205761 0.5 0 0.086533125229488153 0.48674796456480579 0 0.068718225400662469 0.47928883769378888 0 0.060309723833859359 0.49999999999997319 0 0.068718225400662469 0.47928883769378888 0 0.081100594135205761 0.5 0 0.060309723833859359 0.49999999999997319 0 0.060309723833859359 0.49999999999997319 0 0.050891050234957387 0.48496256492318679 0 0.037064476467779148 0.50000000000000133 0 0.068718225400662469 0.47928883769378888 0 0.060309723833859359 0.49999999999997319 0 0.050891050234957387 0.48496256492318679 0 0.068718225400662469 0.47928883769378888 0 0.050891050234957387 0.48496256492318679 0 0.053311478262955313 0.46172382295177999 0 0.068718225400662469 0.47928883769378888 0 0.050891050234957387 0.48496256492318679 0 0.050891050234957387 0.48496256492318679 0 0.038461855878232823 0.47482627442724218 0 0.053311478262955313 0.46172382295177999 0 0.050891050234957387 0.48496256492318679 0 0.038461855878232823 0.47482627442724218 0 0.03306387506925329 0.49063629215258781 0 0.038461855878232823 0.47482627442724218 0 0.03306387506925329 0.49063629215258781 0 0.023923895755198338 0.46924348454627052 0 0.050891050234957387 0.48496256492318679 0 0.03306387506925329 0.49063629215258781 0 0.037064476467779148 0.50000000000000133 0 0.050891050234957387 0.48496256492318679 0 0.03306387506925329 0.49063629215258781 0 0.03306387506925329 0.49063629215258781 0 0.037064476467779148 0.50000000000000133 0 0.03306387506925329 0.49063629215258781 0 0.037064476467779148 0.50000000000000133 0 0.02035352320742273 0.5 0 0.03306387506925329 0.49063629215258781 0 0.018353222508159951 0.49531814607629449 0 0.02035352320742273 0.5 0 0.03306387506925329 0.49063629215258781 0 0.018353222508159951 0.49531814607629449 0 0.03306387506925329 0.49063629215258781 0 0.018353222508159951 0.49531814607629449 0 0.023923895755198338 0.46924348454627052 0 0.018353222508159951 0.49531814607629449 0 0.023923895755198338 0.46924348454627052 0 0.005006686924833483 0.47883435105617261 0 0.03306387506925329 0.49063629215258781 0 0.023923895755198338 0.46924348454627052 0 -0.0010394636373830389 0.46156839135186112 0 0.023923895755198338 0.46924348454627052 0 0.005006686924833483 0.47883435105617261 0 0.018353222508159951 0.49531814607629449 0 0.005006686924833483 0.47883435105617261 0 0.0036425699470663099 0.50000000000000022 0 0.018353222508159951 0.49531814607629449 0 0.02035352320742273 0.5 0 0.0036425699470663099 0.50000000000000022 0 -0.0048617928662866806 0.48882511462333661 0 0.005006686924833483 0.47883435105617261 0 0.0036425699470663099 0.50000000000000022 0 0.018353222508159951 0.49531814607629449 0 0.0036425699470663099 0.50000000000000022 0 -0.0096688337351077888 0.43518737276166031 0 0.014783916441143361 0.44785067693995328 0 0.0088949481809326297 0.42962804516099001 0 -0.0096688337351077888 0.43518737276166031 0 -0.0010394636373830389 0.46156839135186112 0 0.014783916441143361 0.44785067693995328 0 -0.0010394636373830389 0.46156839135186112 0 0.023923895755198338 0.46924348454627052 0 0.014783916441143361 0.44785067693995328 0 0.023923895755198338 0.46924348454627052 0 0.014783916441143361 0.44785067693995328 0 0.023923895755198338 0.46924348454627052 0 0.014783916441143361 0.44785067693995328 0 0.03538648274820308 0.45359631184323401 0 0.014783916441143361 0.44785067693995328 0 0.03538648274820308 0.45359631184323401 0 0.029529644837417979 0.42525207208252819 0 0.03538648274820308 0.45359631184323401 0 0.053311478262955313 0.46172382295177999 0 0.048580639521774473 0.43858287609485608 0 0.03538648274820308 0.45359631184323401 0 0.048580639521774473 0.43858287609485608 0 0.029529644837417979 0.42525207208252819 0 0.038461855878232823 0.47482627442724218 0 0.03538648274820308 0.45359631184323401 0 0.053311478262955313 0.46172382295177999 0 0.038461855878232823 0.47482627442724218 0 0.023923895755198338 0.46924348454627052 0 0.03538648274820308 0.45359631184323401 0 0.053311478262955313 0.46172382295177999 0 0.048580639521774473 0.43858287609485608 0 0.06814706788555637 0.43575275865951968 0 0.048580639521774473 0.43858287609485608 0 0.056346908752467367 0.41976576480584687 0 0.06814706788555637 0.43575275865951968 0 0.056346908752467367 0.41976576480584687 0 0.043885641663795397 0.40470818775342499 0 0.068469171063409162 0.4000531208199174 0 0.056346908752467367 0.41976576480584687 0 0.029529644837417979 0.42525207208252819 0 0.043885641663795397 0.40470818775342499 0 0.029529644837417979 0.42525207208252819 0 0.0247516766036926 0.40034955714721088 0 0.043885641663795397 0.40470818775342499 0 0.048580639521774473 0.43858287609485608 0 0.056346908752467367 0.41976576480584687 0 0.029529644837417979 0.42525207208252819 0 0.014783916441143361 0.44785067693995328 0 0.029529644837417979 0.42525207208252819 0 0.0088949481809326297 0.42962804516099001 0 0.029529644837417979 0.42525207208252819 0 0.0026210578660720301 0.40829700878198949 0 0.0247516766036926 0.40034955714721088 0 0.029529644837417979 0.42525207208252819 0 0.0026210578660720301 0.40829700878198949 0 0.0088949481809326297 0.42962804516099001 0 -0.0096688337351077888 0.43518737276166031 0 0.0026210578660720301 0.40829700878198949 0 0.0088949481809326297 0.42962804516099001 0 0.014910949467251191 0.38140664480231828 0 0.00037264731633979142 0.38217558503673832 0 0.005774776065040307 0.3645300477706111 0 0.014910949467251191 0.38140664480231828 0 0.00037264731633979142 0.38217558503673832 0 0.0026210578660720301 0.40829700878198949 0 0.014910949467251191 0.38140664480231828 0 0.00037264731633979142 0.38217558503673832 0 0.0026210578660720301 0.40829700878198949 0 0.014910949467251191 0.38140664480231828 0 0.0247516766036926 0.40034955714721088 0 0.0026210578660720301 0.40829700878198949 0 0.014910949467251191 0.38140664480231828 0 0.014910949467251191 0.38140664480231828 0 0.0247516766036926 0.40034955714721088 0 0.036718800627353283 0.38025321340371399 0 0.014910949467251191 0.38140664480231828 0 0.036718800627353283 0.38025321340371399 0 0.036718800627353283 0.38025321340371399 0 0.043885641663795397 0.40470818775342499 0 0.058526651787455322 0.37909978200510908 0 0.0247516766036926 0.40034955714721088 0 0.036718800627353283 0.38025321340371399 0 0.043885641663795397 0.40470818775342499 0 0.043885641663795397 0.40470818775342499 0 0.058526651787455322 0.37909978200510908 0 0.043885641663795397 0.40470818775342499 0 0.058526651787455322 0.37909978200510908 0 0.068469171063409162 0.4000531208199174 0 0.036718800627353283 0.38025321340371399 0 0.058526651787455322 0.37909978200510908 0 0.058526651787455322 0.37909978200510908 0 0.071784947017816764 0.3874889064942868 0 0.078605222722461551 0.37803781335971232 0 0.058526651787455322 0.37909978200510908 0 0.078605222722461551 0.37803781335971232 0 0.058526651787455322 0.37909978200510908 0 0.071784947017816764 0.3874889064942868 0 0.068469171063409162 0.4000531208199174 0 0.071784947017816764 0.3874889064942868 0 0.078605222722461551 0.37803781335971232 0 0.08153874249794095 0.3927649097924073 0 0.078605222722461551 0.37803781335971232 0 0.098683793657467711 0.37697584471431439 0 0.078605222722461551 0.37803781335971232 0 0.089731439849604439 0.38679450235663221 0 0.098683793657467711 0.37697584471431439 0 0.078605222722461551 0.37803781335971232 0 0.089731439849604439 0.38679450235663221 0 0.08153874249794095 0.3927649097924073 0 0.086617354394175922 0.39863984336071218 0 0.093234720788219885 0.40340610908035368 0 0.090468512261014572 0.39494232901019238 0 0.086617354394175922 0.39863984336071218 0 0.093234720788219885 0.40340610908035368 0 0.081227442029528335 0.4034460255598955 0 0.086617354394175922 0.39863984336071218 0 0.090468512261014572 0.39494232901019238 0 0.08153874249794095 0.3927649097924073 0 0.089731439849604439 0.38679450235663221 0 0.090468512261014572 0.39494232901019238 0 0.08153874249794095 0.3927649097924073 0 0.089731439849604439 0.38679450235663221 0 0.090468512261014572 0.39494232901019238 0 0.098104747128125933 0.39101494253770669 0 0.086617354394175922 0.39863984336071218 0 0.08153874249794095 0.3927649097924073 0 0.081227442029528335 0.4034460255598955 0 0.08153874249794095 0.3927649097924073 0 0.081227442029528335 0.4034460255598955 0 0.068469171063409162 0.4000531208199174 0 0.081227442029528335 0.4034460255598955 0 0.068469171063409162 0.4000531208199174 0 0.07946928754285093 0.41424557342483509 0 0.071784947017816764 0.3874889064942868 0 0.08153874249794095 0.3927649097924073 0 0.068469171063409162 0.4000531208199174 0 0.056346908752467367 0.41976576480584687 0 0.068469171063409162 0.4000531208199174 0 0.07946928754285093 0.41424557342483509 0 0.056346908752467367 0.41976576480584687 0 0.06814706788555637 0.43575275865951968 0 0.07946928754285093 0.41424557342483509 0 0.06814706788555637 0.43575275865951968 0 0.088030501340678025 0.43172035259367342 0 0.07946928754285093 0.41424557342483509 0 0.088030501340678025 0.43172035259367342 0 0.07946928754285093 0.41424557342483509 0 0.097686639310685761 0.40793611004361569 0 0.093234720788219885 0.40340610908035368 0 0.07946928754285093 0.41424557342483509 0 0.097686639310685761 0.40793611004361569 0 0.088030501340678025 0.43172035259367342 0 0.097686639310685761 0.40793611004361569 0 0.093234720788219885 0.40340610908035368 0 0.081227442029528335 0.4034460255598955 0 0.07946928754285093 0.41424557342483509 0 0.097686639310685761 0.40793611004361569 0 0.1168219467785717 0.42740703270861741 0 0.088030501340678025 0.43172035259367342 0 0.097686639310685761 0.40793611004361569 0 0.1168219467785717 0.42740703270861741 0 0.1084284855668544 0.44080338890191822 0 0.088030501340678025 0.43172035259367342 0 0.1168219467785717 0.42740703270861741 0 0.097686639310685761 0.40793611004361569 0 0.1168219467785717 0.42740703270861741 0 0.11870975264124969 0.40634132692798602 0 0.1168219467785717 0.42740703270861741 0 0.11870975264124969 0.40634132692798602 0 0.13181225149328279 0.41872548653505398 0 0.11870975264124969 0.40634132692798602 0 0.1086124476283081 0.38102451496399092 0 0.1386154779954 0.39661349038865229 0 0.1086124476283081 0.38102451496399092 0 0.098683793657467711 0.37697584471431439 0 0.098104747128125933 0.39101494253770669 0 0.089731439849604439 0.38679450235663221 0 0.098683793657467711 0.37697584471431439 0 0.098104747128125933 0.39101494253770669 0 0.097686639310685761 0.40793611004361569 0 0.1086124476283081 0.38102451496399092 0 0.098104747128125933 0.39101494253770669 0 0.097686639310685761 0.40793611004361569 0 0.11870975264124969 0.40634132692798602 0 0.1086124476283081 0.38102451496399092 0 0.093234720788219885 0.40340610908035368 0 0.097686639310685761 0.40793611004361569 0 0.098104747128125933 0.39101494253770669 0 0.097686639310685761 0.40793611004361569 0 0.1086124476283081 0.38102451496399092 0 0.093234720788219885 0.40340610908035368 0 0.090468512261014572 0.39494232901019238 0 0.098104747128125933 0.39101494253770669 0 0.093234720788219885 0.40340610908035368 0 0.097686639310685761 0.40793611004361569 0 0.1086124476283081 0.38102451496399092 0 0.119538255945931 0.35411291988436611 0 0.14253274960608461 0.36884263540487072 0 0.10432716433042651 0.36321798270586392 0 0.094358051536754001 0.3379830910141598 0 0.090373595547454943 0.35670796548039302 0 0.10432716433042651 0.36321798270586392 0 0.119538255945931 0.35411291988436611 0 0.094358051536754001 0.3379830910141598 0 0.119538255945931 0.35411291988436611 0 0.094358051536754001 0.3379830910141598 0 0.1086124476283081 0.38102451496399092 0 0.098683793657467711 0.37697584471431439 0 0.10432716433042651 0.36321798270586392 0 0.098683793657467711 0.37697584471431439 0 0.10432716433042651 0.36321798270586392 0 0.088451662633471678 0.36854767778347552 0 0.10432716433042651 0.36321798270586392 0 0.090373595547454943 0.35670796548039302 0 0.088451662633471678 0.36854767778347552 0 0.1086124476283081 0.38102451496399092 0 0.10432716433042651 0.36321798270586392 0 0.119538255945931 0.35411291988436611 0 0.1086124476283081 0.38102451496399092 0 0.119538255945931 0.35411291988436611 0 0.119538255945931 0.35411291988436611 0 0.12943671481039379 0.32973181149140279 0 0.119538255945931 0.35411291988436611 0 0.1080330750292892 0.32733043907607301 0 0.12943671481039379 0.32973181149140279 0 0.1080330750292892 0.32733043907607301 0 0.11991313284415681 0.30732148064363052 0 0.12943671481039379 0.32973181149140279 0 0.1080330750292892 0.32733043907607301 0 0.099139559301931329 0.30806425880927002 0 0.11991313284415681 0.30732148064363052 0 0.1080330750292892 0.32733043907607301 0 0.085601923463772003 0.33174276654121609 0 0.099139559301931329 0.30806425880927002 0 0.1080330750292892 0.32733043907607301 0 0.094358051536754001 0.3379830910141598 0 0.085601923463772003 0.33174276654121609 0 0.119538255945931 0.35411291988436611 0 0.1080330750292892 0.32733043907607301 0 0.094358051536754001 0.3379830910141598 0 0.094358051536754001 0.3379830910141598 0 0.085601923463772003 0.33174276654121609 0 0.072064287625612761 0.35542127427316211 0 0.085601923463772003 0.33174276654121609 0 0.072064287625612761 0.35542127427316211 0 0.085601923463772003 0.33174276654121609 0 0.072780197750291362 0.32213322335791411 0 0.099139559301931329 0.30806425880927002 0 0.085601923463772003 0.33174276654121609 0 0.099139559301931329 0.30806425880927002 0 0.072780197750291362 0.32213322335791411 0 0.062281829815626299 0.33634963852293281 0 0.057465011680707723 0.31742312292188191 0 0.072780197750291362 0.32213322335791411 0 0.057465011680707723 0.31742312292188191 0 0.075869072833835566 0.30641066564036268 0 0.085601923463772003 0.33174276654121609 0 0.072064287625612761 0.35542127427316211 0 0.062281829815626299 0.33634963852293281 0 0.085601923463772003 0.33174276654121609 0 0.072780197750291362 0.32213322335791411 0 0.062281829815626299 0.33634963852293281 0 0.094358051536754001 0.3379830910141598 0 0.072064287625612761 0.35542127427316211 0 0.090373595547454943 0.35670796548039302 0 0.078605222722461551 0.37803781335971232 0 0.072064287625612761 0.35542127427316211 0 0.088451662633471678 0.36854767778347552 0 0.072064287625612761 0.35542127427316211 0 0.090373595547454943 0.35670796548039302 0 0.088451662633471678 0.36854767778347552 0 0.078605222722461551 0.37803781335971232 0 0.098683793657467711 0.37697584471431439 0 0.088451662633471678 0.36854767778347552 0 0.058526651787455322 0.37909978200510908 0 0.072064287625612761 0.35542127427316211 0 0.058526651787455322 0.37909978200510908 0 0.078605222722461551 0.37803781335971232 0 0.072064287625612761 0.35542127427316211 0 0.036718800627353283 0.38025321340371399 0 0.058526651787455322 0.37909978200510908 0 0.048863139310617427 0.35667639194732043 0 0.058526651787455322 0.37909978200510908 0 0.072064287625612761 0.35542127427316211 0 0.048863139310617427 0.35667639194732043 0 0.072064287625612761 0.35542127427316211 0 0.048863139310617427 0.35667639194732043 0 0.062281829815626299 0.33634963852293281 0 0.026166071824969599 0.35678036276044067 0 0.037421194182687363 0.33215408071856273 0 0.048863139310617427 0.35667639194732043 0 0.026166071824969599 0.35678036276044067 0 0.037421194182687363 0.33215408071856273 0 0.036718800627353283 0.38025321340371399 0 0.048863139310617427 0.35667639194732043 0 0.026166071824969599 0.35678036276044067 0 0.014910949467251191 0.38140664480231828 0 0.026166071824969599 0.35678036276044067 0 0.014910949467251191 0.38140664480231828 0 0.036718800627353283 0.38025321340371399 0 0.026166071824969599 0.35678036276044067 0 0.026166071824969599 0.35678036276044067 0 0.0041153052395316329 0.34739948802827242 0 0.018543060905211659 0.33908285926150961 0 0.026166071824969599 0.35678036276044067 0 0.0041153052395316329 0.34739948802827242 0 0.005774776065040307 0.3645300477706111 0 0.014910949467251191 0.38140664480231828 0 0.026166071824969599 0.35678036276044067 0 0.005774776065040307 0.3645300477706111 0 -0.00194009678120214 0.32918780883551219 0 0.0040457971871854818 0.31382622979778668 0 0.018712590883725261 0.32124155685585631 0 0.0040457971871854818 0.31382622979778668 0 0.018712590883725261 0.32124155685585631 0 0.017365962073420289 0.30421541999251828 0 -0.00194009678120214 0.32918780883551219 0 0.0041153052395316329 0.34739948802827242 0 0.018543060905211659 0.33908285926150961 0 -0.00194009678120214 0.32918780883551219 0 0.018543060905211659 0.33908285926150961 0 0.018712590883725261 0.32124155685585631 0 0.018543060905211659 0.33908285926150961 0 0.018712590883725261 0.32124155685585631 0 0.037421194182687363 0.33215408071856273 0 0.026166071824969599 0.35678036276044067 0 0.018543060905211659 0.33908285926150961 0 0.037421194182687363 0.33215408071856273 0 0.018712590883725261 0.32124155685585631 0 0.037421194182687363 0.33215408071856273 0 0.031862019177160521 0.30618053129548167 0 0.037421194182687363 0.33215408071856273 0 0.048676316540405121 0.30752779867668473 0 0.037421194182687363 0.33215408071856273 0 0.048676316540405121 0.30752779867668473 0 0.031862019177160521 0.30618053129548167 0 0.048863139310617427 0.35667639194732043 0 0.037421194182687363 0.33215408071856273 0 0.062281829815626299 0.33634963852293281 0 0.037421194182687363 0.33215408071856273 0 0.062281829815626299 0.33634963852293281 0 0.057465011680707723 0.31742312292188191 0 0.037421194182687363 0.33215408071856273 0 0.057465011680707723 0.31742312292188191 0 0.048676316540405121 0.30752779867668473 0 0.057465011680707723 0.31742312292188191 0 0.048676316540405121 0.30752779867668473 0 0.064144699390204493 0.29992903665449261 0 0.048676316540405121 0.30752779867668473 0 0.059931438898122899 0.28290151663480673 0 0.048676316540405121 0.30752779867668473 0 0.059931438898122899 0.28290151663480673 0 0.04178513167057963 0.28581574009899757 0 0.048676316540405121 0.30752779867668473 0 0.059931438898122899 0.28290151663480673 0 0.064144699390204493 0.29992903665449261 0 0.04178513167057963 0.28581574009899757 0 0.031862019177160521 0.30618053129548167 0 0.024947464648828719 0.28416393596947082 0 0.048676316540405121 0.30752779867668473 0 0.04178513167057963 0.28581574009899757 0 0.031862019177160521 0.30618053129548167 0 0.018712590883725261 0.32124155685585631 0 0.031862019177160521 0.30618053129548167 0 0.017365962073420289 0.30421541999251828 0 0.031862019177160521 0.30618053129548167 0 0.017365962073420289 0.30421541999251828 0 0.024947464648828719 0.28416393596947082 0 0.017365962073420289 0.30421541999251828 0 0.024947464648828719 0.28416393596947082 0 0.0063279935655279028 0.28150809192884529 0 0.017365962073420289 0.30421541999251828 0 0.0063279935655279028 0.28150809192884529 0 0.0018947413267401891 0.29603879189989118 0 0.017365962073420289 0.30421541999251828 0 0.0063279935655279028 0.28150809192884529 0 -0.0041687012673470867 0.2876309262329893 0 0.0063279935655279028 0.28150809192884529 0 0.0018947413267401891 0.29603879189989118 0 0.0040457971871854818 0.31382622979778668 0 0.017365962073420289 0.30421541999251828 0 0.0018947413267401891 0.29603879189989118 0 -0.0047099749423644751 0.25880076386517242 0 0.015464831166581599 0.2471975019248627 0 0.012078757279971441 0.26467623500623122 0 -0.0047099749423644751 0.25880076386517242 0 0.0063279935655279028 0.28150809192884529 0 -0.0047099749423644751 0.25880076386517242 0 0.0063279935655279028 0.28150809192884529 0 0.012078757279971441 0.26467623500623122 0 0.024947464648828719 0.28416393596947082 0 0.0063279935655279028 0.28150809192884529 0 0.012078757279971441 0.26467623500623122 0 0.024947464648828719 0.28416393596947082 0 0.012078757279971441 0.26467623500623122 0 0.029837668646529539 0.26367435784936971 0 0.031219584792892802 0.24070969102814579 0 0.015464831166581599 0.2471975019248627 0 0.029837668646529539 0.26367435784936971 0 0.015464831166581599 0.2471975019248627 0 0.012078757279971441 0.26467623500623122 0 0.029837668646529539 0.26367435784936971 0 0.031219584792892802 0.24070969102814579 0 0.042873870208327558 0.24806069189205859 0 0.029837668646529539 0.26367435784936971 0 0.042873870208327558 0.24806069189205859 0 0.029837668646529539 0.26367435784936971 0 0.05002358996047078 0.26573112706225188 0 0.042873870208327558 0.24806069189205859 0 0.029837668646529539 0.26367435784936971 0 0.04178513167057963 0.28581574009899757 0 0.029837668646529539 0.26367435784936971 0 0.05002358996047078 0.26573112706225188 0 0.04178513167057963 0.28581574009899757 0 0.024947464648828719 0.28416393596947082 0 0.029837668646529539 0.26367435784936971 0 0.059931438898122899 0.28290151663480673 0 0.05002358996047078 0.26573112706225188 0 0.071186561255840705 0.25827523459292862 0 0.059931438898122899 0.28290151663480673 0 0.04178513167057963 0.28581574009899757 0 0.05002358996047078 0.26573112706225188 0 0.057146322994644352 0.2488551141305724 0 0.042873870208327558 0.24806069189205859 0 0.05002358996047078 0.26573112706225188 0 0.057146322994644352 0.2488551141305724 0 0.05002358996047078 0.26573112706225188 0 0.071186561255840705 0.25827523459292862 0 0.071186561255840705 0.25827523459292862 0 0.089649969986245248 0.25250598727088341 0 0.088889742928091223 0.26762100673300099 0 0.088889742928091223 0.26762100673300099 0 0.078781656997951185 0.2853820793987274 0 0.097084742481585745 0.28007049267947492 0 0.071186561255840705 0.25827523459292862 0 0.088889742928091223 0.26762100673300099 0 0.078781656997951185 0.2853820793987274 0 0.059931438898122899 0.28290151663480673 0 0.071186561255840705 0.25827523459292862 0 0.078781656997951185 0.2853820793987274 0 0.059931438898122899 0.28290151663480673 0 0.071186561255840705 0.25827523459292862 0 0.059931438898122899 0.28290151663480673 0 0.064144699390204493 0.29992903665449261 0 0.078781656997951185 0.2853820793987274 0 0.057465011680707723 0.31742312292188191 0 0.075869072833835566 0.30641066564036268 0 0.064144699390204493 0.29992903665449261 0 0.057465011680707723 0.31742312292188191 0 0.075869072833835566 0.30641066564036268 0 0.075869072833835566 0.30641066564036268 0 0.064144699390204493 0.29992903665449261 0 0.078781656997951185 0.2853820793987274 0 0.075869072833835566 0.30641066564036268 0 0.094273133986963409 0.29539820835884367 0 0.075869072833835566 0.30641066564036268 0 0.094273133986963409 0.29539820835884367 0 0.099139559301931329 0.30806425880927002 0 0.072780197750291362 0.32213322335791411 0 0.075869072833835566 0.30641066564036268 0 0.099139559301931329 0.30806425880927002 0 0.075869072833835566 0.30641066564036268 0 0.078781656997951185 0.2853820793987274 0 0.094273133986963409 0.29539820835884367 0 0.078781656997951185 0.2853820793987274 0 0.094273133986963409 0.29539820835884367 0 0.097084742481585745 0.28007049267947492 0 0.094273133986963409 0.29539820835884367 0 0.112677195140091 0.28438575107732411 0 0.097084742481585745 0.28007049267947492 0 0.099139559301931329 0.30806425880927002 0 0.112677195140091 0.28438575107732411 0 0.094273133986963409 0.29539820835884367 0 0.112677195140091 0.28438575107732411 0 0.094273133986963409 0.29539820835884367 0 0.099139559301931329 0.30806425880927002 0 0.112677195140091 0.28438575107732411 0 0.099139559301931329 0.30806425880927002 0 0.11991313284415681 0.30732148064363052 0 0.112677195140091 0.28438575107732411 0 0.11991313284415681 0.30732148064363052 0 0.112677195140091 0.28438575107732411 0 0.13085707910837999 0.28906592030927403 0 0.112677195140091 0.28438575107732411 0 0.1219514382652474 0.26816428965139488 0 0.112677195140091 0.28438575107732411 0 0.1219514382652474 0.26816428965139488 0 0.13291544907068301 0.27227576594910741 0 0.112677195140091 0.28438575107732411 0 0.13291544907068301 0.27227576594910741 0 0.112677195140091 0.28438575107732411 0 0.1219514382652474 0.26816428965139488 0 0.1066621654992829 0.26236336030148599 0 0.1068336825019828 0.2427958903882515 0 0.1066621654992829 0.26236336030148599 0 0.13122568139040239 0.2519428282254651 0 0.1219514382652474 0.26816428965139488 0 0.1066621654992829 0.26236336030148599 0 0.13122568139040239 0.2519428282254651 0 0.1068336825019828 0.2427958903882515 0 0.089649969986245248 0.25250598727088341 0 0.1066621654992829 0.26236336030148599 0 0.089649969986245248 0.25250598727088341 0 0.088889742928091223 0.26762100673300099 0 0.1066621654992829 0.26236336030148599 0 0.088889742928091223 0.26762100673300099 0 0.1066621654992829 0.26236336030148599 0 0.097084742481585745 0.28007049267947492 0 0.112677195140091 0.28438575107732411 0 0.1066621654992829 0.26236336030148599 0 0.097084742481585745 0.28007049267947492 0 0.14923363253931801 0.280969594705476 0 0.155884306966624 0.26118975039563702 0 0.15315370300127379 0.26016578082088859 0 0.14923363253931801 0.280969594705476 0 0.1591320914037804 0.25658848631251258 0 0.15315370300127379 0.26016578082088859 0 0.13291544907068301 0.27227576594910741 0 0.14923363253931801 0.280969594705476 0 0.15315370300127379 0.26016578082088859 0 0.13291544907068301 0.27227576594910741 0 0.14923363253931801 0.280969594705476 0 0.155884306966624 0.26118975039563702 0 0.1591320914037804 0.25658848631251258 0 0.15315370300127379 0.26016578082088859 0 0.13122568139040239 0.2519428282254651 0 0.14953261231820489 0.2452533771335165 0 0.15315370300127379 0.26016578082088859 0 0.13122568139040239 0.2519428282254651 0 0.155884306966624 0.26118975039563702 0 0.15315370300127379 0.26016578082088859 0 0.1591320914037804 0.25658848631251258 0 0.155884306966624 0.26118975039563702 0 0.15315370300127379 0.26016578082088859 0 0.15315370300127379 0.26016578082088859 0 0.1591320914037804 0.25658848631251258 0 0.14953261231820489 0.2452533771335165 0 0.15315370300127379 0.26016578082088859 0 0.1591320914037804 0.25658848631251258 0 0.15315370300127379 0.26016578082088859 0 0.13122568139040239 0.2519428282254651 0 0.13291544907068301 0.27227576594910741 0 0.1219514382652474 0.26816428965139488 0 0.13122568139040239 0.2519428282254651 0 0.13291544907068301 0.27227576594910741 0 0.1219514382652474 0.26816428965139488 0 0.13122568139040239 0.2519428282254651 0 0.14923363253931801 0.280969594705476 0 0.13291544907068301 0.27227576594910741 0 0.13085707910837999 0.28906592030927403 0 0.14923363253931801 0.280969594705476 0 0.13085707910837999 0.28906592030927403 0 0.1393351736748559 0.30535070309843942 0 0.112677195140091 0.28438575107732411 0 0.13291544907068301 0.27227576594910741 0 0.13085707910837999 0.28906592030927403 0 0.11991313284415681 0.30732148064363052 0 0.13085707910837999 0.28906592030927403 0 0.1393351736748559 0.30535070309843942 0 0.1393351736748559 0.30535070309843942 0 0.16673801442492631 0.30121514566668012 0 0.15569772888161729 0.31958815155185433 0 0.14923363253931801 0.280969594705476 0 0.1393351736748559 0.30535070309843942 0 0.16673801442492631 0.30121514566668012 0 0.14923363253931801 0.280969594705476 0 0.1393351736748559 0.30535070309843942 0 0.14923363253931801 0.280969594705476 0 0.16673801442492631 0.30121514566668012 0 0.17331301505058261 0.28599479422872931 0 0.16673801442492631 0.30121514566668012 0 0.18483506371288891 0.30503971889256382 0 0.18054577202729241 0.32086316863929037 0 0.16673801442492631 0.30121514566668012 0 0.18483506371288891 0.30503971889256382 0 0.18184033423852461 0.29321643337169678 0 0.16673801442492631 0.30121514566668012 0 0.17331301505058261 0.28599479422872931 0 0.18184033423852461 0.29321643337169678 0 0.17331301505058261 0.28599479422872931 0 0.18184033423852461 0.29321643337169678 0 0.18844766857410339 0.28091944990673212 0 0.1798820481515078 0.27340802659417351 0 0.18737767064019339 0.2641969494110829 0 0.18844766857410339 0.28091944990673212 0 0.17331301505058261 0.28599479422872931 0 0.1798820481515078 0.27340802659417351 0 0.18844766857410339 0.28091944990673212 0 0.1798820481515078 0.27340802659417351 0 0.175888488925729 0.2630763494105231 0 0.18737767064019339 0.2641969494110829 0 0.1798820481515078 0.27340802659417351 0 0.16973145039304791 0.27306171450738459 0 0.175888488925729 0.2630763494105231 0 0.17331301505058261 0.28599479422872931 0 0.1798820481515078 0.27340802659417351 0 0.16973145039304791 0.27306171450738459 0 0.14923363253931801 0.280969594705476 0 0.16973145039304791 0.27306171450738459 0 0.1677282449820045 0.261801601778761 0 0.14923363253931801 0.280969594705476 0 0.1591320914037804 0.25658848631251258 0 0.1677282449820045 0.261801601778761 0 0.14923363253931801 0.280969594705476 0 0.17331301505058261 0.28599479422872931 0 0.16973145039304791 0.27306171450738459 0 0.16973145039304791 0.27306171450738459 0 0.1677282449820045 0.261801601778761 0 0.175888488925729 0.2630763494105231 0 0.1639626374459556 0.25369802743535241 0 0.1591320914037804 0.25658848631251258 0 0.1677282449820045 0.261801601778761 0 0.1639626374459556 0.25369802743535241 0 0.1591320914037804 0.25658848631251258 0 0.1677282449820045 0.261801601778761 0 0.171356129987773 0.25348369591058117 0 0.175888488925729 0.2630763494105231 0 0.1639626374459556 0.25369802743535241 0 0.1677282449820045 0.261801601778761 0 0.171356129987773 0.25348369591058117 0 0.16832310546349971 0.24771796654975209 0 0.1639626374459556 0.25369802743535241 0 0.171356129987773 0.25348369591058117 0 0.171356129987773 0.25348369591058117 0 0.17828623373862171 0.25254967586398591 0 0.175888488925729 0.2630763494105231 0 0.17494309726484791 0.2453188763195476 0 0.171356129987773 0.25348369591058117 0 0.17828623373862171 0.25254967586398591 0 0.1788874318502679 0.23548084065838609 0 0.17828623373862171 0.25254967586398591 0 0.18737767064019339 0.2641969494110829 0 0.17828623373862171 0.25254967586398591 0 0.175888488925729 0.2630763494105231 0 0.18737767064019339 0.2641969494110829 0 0.20149263876269899 0.2490339844868433 0 0.18737767064019339 0.2641969494110829 0 0.214150153564312 0.26677760297049358 0 0.18737767064019339 0.2641969494110829 0 0.19586790943012261 0.29291305816377861 0 0.18737767064019339 0.2641969494110829 0 0.2086367352644965 0.28490268152118792 0 0.19586790943012261 0.29291305816377861 0 0.18737767064019339 0.2641969494110829 0 0.18844766857410339 0.28091944990673212 0 0.19586790943012261 0.29291305816377861 0 0.214150153564312 0.26677760297049358 0 0.22205014142501481 0.2874809391323267 0 0.2086367352644965 0.28490268152118792 0 0.18737767064019339 0.2641969494110829 0 0.214150153564312 0.26677760297049358 0 0.2086367352644965 0.28490268152118792 0 0.21841260707924079 0.24787849365120351 0 0.20149263876269899 0.2490339844868433 0 0.214150153564312 0.26677760297049358 0 0.21841260707924079 0.24787849365120351 0 0.214150153564312 0.26677760297049358 0 0.2266753757092165 0.26009697955843819 0 0.231750085001796 0.2465167433246036 0 0.2266753757092165 0.26009697955843819 0 0.24356618594519031 0.25228373232622581 0 0.21841260707924079 0.24787849365120351 0 0.231750085001796 0.2465167433246036 0 0.2266753757092165 0.26009697955843819 0 0.2266753757092165 0.26009697955843819 0 0.23039588099971919 0.27573358083610178 0 0.2266753757092165 0.26009697955843819 0 0.23039588099971919 0.27573358083610178 0 0.2420987772361087 0.26631129006276572 0 0.214150153564312 0.26677760297049358 0 0.2266753757092165 0.26009697955843819 0 0.23039588099971919 0.27573358083610178 0 0.214150153564312 0.26677760297049358 0 0.23039588099971919 0.27573358083610178 0 0.22205014142501481 0.2874809391323267 0 0.23039588099971919 0.27573358083610178 0 0.2420987772361087 0.26631129006276572 0 0.2459560110871154 0.28044065192532458 0 0.2420987772361087 0.26631129006276572 0 0.2459560110871154 0.28044065192532458 0 0.25616004720769131 0.26912097196986329 0 0.2420987772361087 0.26631129006276572 0 0.24356618594519031 0.25228373232622581 0 0.25441855054454432 0.25563729412123742 0 0.2266753757092165 0.26009697955843819 0 0.2420987772361087 0.26631129006276572 0 0.24356618594519031 0.25228373232622581 0 0.24356618594519031 0.25228373232622581 0 0.25441855054454432 0.25563729412123742 0 0.25010503738555478 0.24259371671335209 0 0.2366197322972719 0.30189128618857808 0 0.23411638629022291 0.29137018211376542 0 0.25279455652671928 0.29739060879247697 0 0.2366197322972719 0.30189128618857808 0 0.25279455652671928 0.29739060879247697 0 0.2366197322972719 0.30189128618857808 0 0.24922446385908911 0.31055272940810158 0 0.25279455652671928 0.29739060879247697 0 0.2459560110871154 0.28044065192532458 0 0.23411638629022291 0.29137018211376542 0 0.25279455652671928 0.29739060879247697 0 0.23039588099971919 0.27573358083610178 0 0.2459560110871154 0.28044065192532458 0 0.23411638629022291 0.29137018211376542 0 0.23411638629022291 0.29137018211376542 0 0.25279455652671928 0.29739060879247697 0 0.2366197322972719 0.30189128618857808 0 0.23411638629022291 0.29137018211376542 0 0.23039588099971919 0.27573358083610178 0 0.23411638629022291 0.29137018211376542 0 0.23411638629022291 0.29137018211376542 0 0.22205014142501481 0.2874809391323267 0 0.23039588099971919 0.27573358083610178 0 0.23411638629022291 0.29137018211376542 0 0.22205014142501481 0.2874809391323267 0 0.22665945925953221 0.29526942567089459 0 0.23411638629022291 0.29137018211376542 0 0.22205014142501481 0.2874809391323267 0 0.2366197322972719 0.30189128618857808 0 0.22665945925953221 0.29526942567089459 0 0.23411638629022291 0.29137018211376542 0 0.22665945925953221 0.29526942567089459 0 0.22205014142501481 0.2874809391323267 0 0.2169565781320372 0.2947626909600376 0 0.22665945925953221 0.29526942567089459 0 0.22197056787226049 0.30097010900729632 0 0.2169565781320372 0.2947626909600376 0 0.2366197322972719 0.30189128618857808 0 0.21082386396199829 0.30906903847091832 0 0.22663575745614609 0.31595253699026088 0 0.2366197322972719 0.30189128618857808 0 0.21082386396199829 0.30906903847091832 0 0.2366197322972719 0.30189128618857808 0 0.22197056787226049 0.30097010900729632 0 0.21082386396199829 0.30906903847091832 0 0.2366197322972719 0.30189128618857808 0 0.22665945925953221 0.29526942567089459 0 0.22197056787226049 0.30097010900729632 0 0.20827641787248311 0.29867136572204173 0 0.20649357279260391 0.31008770873289632 0 0.19586790943012261 0.29291305816377861 0 0.21082386396199829 0.30906903847091832 0 0.20649357279260391 0.31008770873289632 0 0.21891355412437341 0.31825440876570399 0 0.21414614709843641 0.30128162470647868 0 0.20827641787248311 0.29867136572204173 0 0.21082386396199829 0.30906903847091832 0 0.22197056787226049 0.30097010900729632 0 0.21414614709843641 0.30128162470647868 0 0.2169565781320372 0.2947626909600376 0 0.22197056787226049 0.30097010900729632 0 0.21414614709843641 0.30128162470647868 0 0.21082386396199829 0.30906903847091832 0 0.21414614709843641 0.30128162470647868 0 0.20827641787248311 0.29867136572204173 0 0.2169565781320372 0.2947626909600376 0 0.20827641787248311 0.29867136572204173 0 0.21082386396199829 0.30906903847091832 0 0.20649357279260391 0.31008770873289632 0 0.22205014142501481 0.2874809391323267 0 0.2169565781320372 0.2947626909600376 0 0.2086367352644965 0.28490268152118792 0 0.20827641787248311 0.29867136572204173 0 0.2169565781320372 0.2947626909600376 0 0.2086367352644965 0.28490268152118792 0 0.20827641787248311 0.29867136572204173 0 0.2086367352644965 0.28490268152118792 0 0.19586790943012261 0.29291305816377861 0 0.18184033423852461 0.29321643337169678 0 0.18844766857410339 0.28091944990673212 0 0.19586790943012261 0.29291305816377861 0 0.18844766857410339 0.28091944990673212 0 0.19586790943012261 0.29291305816377861 0 0.19586790943012261 0.29291305816377861 0 0.20295986136148311 0.31689981141875823 0 0.20649357279260391 0.31008770873289632 0 0.19586790943012261 0.29291305816377861 0 0.20649357279260391 0.31008770873289632 0 0.19586790943012261 0.29291305816377861 0 0.20295986136148311 0.31689981141875823 0 0.18483506371288891 0.30503971889256382 0 0.19586790943012261 0.29291305816377861 0 0.20295986136148311 0.31689981141875823 0 0.18483506371288891 0.30503971889256382 0 0.18184033423852461 0.29321643337169678 0 0.19586790943012261 0.29291305816377861 0 0.20295986136148311 0.31689981141875823 0 0.18648354949151361 0.34196188923230719 0 0.18054577202729241 0.32086316863929037 0 0.18483506371288891 0.30503971889256382 0 0.20295986136148311 0.31689981141875823 0 0.18054577202729241 0.32086316863929037 0 0.20295986136148311 0.31689981141875823 0 0.21005181329284439 0.34088656467373751 0 0.18648354949151361 0.34196188923230719 0 0.21005181329284439 0.34088656467373751 0 0.2105366722849733 0.31662271917213219 0 0.22520543513982319 0.34033238018048639 0 0.20295986136148311 0.31689981141875823 0 0.21005181329284439 0.34088656467373751 0 0.2105366722849733 0.31662271917213219 0 0.22520543513982319 0.34033238018048639 0 0.20295986136148311 0.31689981141875823 0 0.21005181329284439 0.34088656467373751 0 0.2105366722849733 0.31662271917213219 0 0.20649357279260391 0.31008770873289632 0 0.21891355412437341 0.31825440876570399 0 0.22562490612484809 0.33316813187751609 0 0.20649357279260391 0.31008770873289632 0 0.2105366722849733 0.31662271917213219 0 0.22562490612484809 0.33316813187751609 0 0.20649357279260391 0.31008770873289632 0 0.22562490612484809 0.33316813187751609 0 0.20649357279260391 0.31008770873289632 0 0.2105366722849733 0.31662271917213219 0 0.20649357279260391 0.31008770873289632 0 0.20295986136148311 0.31689981141875823 0 0.2105366722849733 0.31662271917213219 0 0.21082386396199829 0.30906903847091832 0 0.21891355412437341 0.31825440876570399 0 0.22663575745614609 0.31595253699026088 0 0.22663575745614609 0.31595253699026088 0 0.23027840384392059 0.32653647068308411 0 0.24240589367588089 0.32620946109790611 0 0.21891355412437341 0.31825440876570399 0 0.22663575745614609 0.31595253699026088 0 0.22487036444620789 0.32306844024519921 0 0.23027840384392059 0.32653647068308411 0 0.22487036444620789 0.32306844024519921 0 0.22562490612484809 0.33316813187751609 0 0.22663575745614609 0.31595253699026088 0 0.23027840384392059 0.32653647068308411 0 0.22487036444620789 0.32306844024519921 0 0.21891355412437341 0.31825440876570399 0 0.22487036444620789 0.32306844024519921 0 0.22562490612484809 0.33316813187751609 0 0.2105366722849733 0.31662271917213219 0 0.22520543513982319 0.34033238018048639 0 0.22562490612484809 0.33316813187751609 0 0.22520543513982319 0.34033238018048639 0 0.22562490612484809 0.33316813187751609 0 0.24463693361703029 0.35632236751040602 0 0.22562490612484809 0.33316813187751609 0 0.2342033766661907 0.33188151686399109 0 0.2389561519157361 0.33984295390763841 0 0.23027840384392059 0.32653647068308411 0 0.22562490612484809 0.33316813187751609 0 0.2342033766661907 0.33188151686399109 0 0.2342033766661907 0.33188151686399109 0 0.2389561519157361 0.33984295390763841 0 0.24240589367588089 0.32620946109790611 0 0.2389561519157361 0.33984295390763841 0 0.24240589367588089 0.32620946109790611 0 0.24819205505449121 0.35052763600723369 0 0.23027840384392059 0.32653647068308411 0 0.2342033766661907 0.33188151686399109 0 0.24240589367588089 0.32620946109790611 0 0.24240589367588089 0.32620946109790611 0 0.24819205505449121 0.35052763600723369 0 0.25786204442318528 0.33476587005469932 0 0.22562490612484809 0.33316813187751609 0 0.2389561519157361 0.33984295390763841 0 0.24463693361703029 0.35632236751040602 0 0.24240589367588089 0.32620946109790611 0 0.24819205505449121 0.35052763600723369 0 0.2366197322972719 0.30189128618857808 0 0.22663575745614609 0.31595253699026088 0 0.24240589367588089 0.32620946109790611 0 0.2366197322972719 0.30189128618857808 0 0.24240589367588089 0.32620946109790611 0 0.2366197322972719 0.30189128618857808 0 0.24922446385908911 0.31055272940810158 0 0.24240589367588089 0.32620946109790611 0 0.24922446385908911 0.31055272940810158 0 0.24240589367588089 0.32620946109790611 0 0.25268802066888468 0.32026758447247022 0 0.23988792781026089 0.3640335467861231 0 0.25451163841684538 0.38770107459702913 0 0.25183242829235308 0.36582745696640578 0 0.23988792781026089 0.3640335467861231 0 0.24463693361703029 0.35632236751040602 0 0.25129995781948239 0.36358958124085561 0 0.23988792781026089 0.3640335467861231 0 0.25129995781948239 0.36358958124085561 0 0.25183242829235308 0.36582745696640578 0 0.23988792781026089 0.3640335467861231 0 0.25129995781948239 0.36358958124085561 0 0.23988792781026089 0.3640335467861231 0 0.24463693361703029 0.35632236751040602 0 0.24463693361703029 0.35632236751040602 0 0.25129995781948239 0.36358958124085561 0 0.2389561519157361 0.33984295390763841 0 0.24463693361703029 0.35632236751040602 0 0.24819205505449121 0.35052763600723369 0 0.22520543513982319 0.34033238018048639 0 0.23988792781026089 0.3640335467861231 0 0.24463693361703029 0.35632236751040602 0 0.24819205505449121 0.35052763600723369 0 0.25129995781948239 0.36358958124085561 0 0.22562490612484809 0.33316813187751609 0 0.24463693361703029 0.35632236751040602 0 0.24463693361703029 0.35632236751040602 0 0.24819205505449121 0.35052763600723369 0 0.25129995781948239 0.36358958124085561 0 0.24463693361703029 0.35632236751040602 0 0.24819205505449121 0.35052763600723369 0 0.22520543513982319 0.34033238018048639 0 0.23988792781026089 0.3640335467861231 0 0.21714376522420531 0.36487331792871691 0 0.22520543513982319 0.34033238018048639 0 0.23988792781026089 0.3640335467861231 0 0.21714376522420531 0.36487331792871691 0 0.2218990160605783 0.38095676428897779 0 0.23988792781026089 0.3640335467861231 0 0.21714376522420531 0.36487331792871691 0 0.2281454248876012 0.37111394237565198 0 0.21714376522420531 0.36487331792871691 0 0.2218990160605783 0.38095676428897779 0 0.23988792781026089 0.3640335467861231 0 0.22698970540829039 0.38508677149596959 0 0.23988792781026089 0.3640335467861231 0 0.2281454248876012 0.37111394237565198 0 0.22698970540829039 0.38508677149596959 0 0.23988792781026089 0.3640335467861231 0 0.2281454248876012 0.37111394237565198 0 0.21714376522420531 0.36487331792871691 0 0.21714376522420531 0.36487331792871691 0 0.20998443472073941 0.37703502113432891 0 0.2218990160605783 0.38095676428897779 0 0.21714376522420531 0.36487331792871691 0 0.18728183956809041 0.3659956575872737 0 0.20998443472073941 0.37703502113432891 0 0.21005181329284439 0.34088656467373751 0 0.22520543513982319 0.34033238018048639 0 0.21714376522420531 0.36487331792871691 0 0.21005181329284439 0.34088656467373751 0 0.21714376522420531 0.36487331792871691 0 0.18728183956809041 0.3659956575872737 0 0.21005181329284439 0.34088656467373751 0 0.21714376522420531 0.36487331792871691 0 0.21005181329284439 0.34088656467373751 0 0.18728183956809041 0.3659956575872737 0 0.18648354949151361 0.34196188923230719 0 0.21714376522420531 0.36487331792871691 0 0.18728183956809041 0.3659956575872737 0 0.18728183956809041 0.3659956575872737 0 0.1650582005908772 0.35831292079260652 0 0.16552724326623841 0.38357235092537523 0 0.1650582005908772 0.35831292079260652 0 0.14253274960608461 0.36884263540487072 0 0.16552724326623841 0.38357235092537523 0 0.1650582005908772 0.35831292079260652 0 0.166468501539215 0.33776789220838599 0 0.14645535856235331 0.34472605522224781 0 0.18728183956809041 0.3659956575872737 0 0.1650582005908772 0.35831292079260652 0 0.18648354949151361 0.34196188923230719 0 0.1650582005908772 0.35831292079260652 0 0.18648354949151361 0.34196188923230719 0 0.166468501539215 0.33776789220838599 0 0.18648354949151361 0.34196188923230719 0 0.18054577202729241 0.32086316863929037 0 0.166468501539215 0.33776789220838599 0 0.16673801442492631 0.30121514566668012 0 0.18054577202729241 0.32086316863929037 0 0.15569772888161729 0.31958815155185433 0 0.18054577202729241 0.32086316863929037 0 0.166468501539215 0.33776789220838599 0 0.15569772888161729 0.31958815155185433 0 0.166468501539215 0.33776789220838599 0 0.15569772888161729 0.31958815155185433 0 0.14645535856235331 0.34472605522224781 0 0.15569772888161729 0.31958815155185433 0 0.12943671481039379 0.32973181149140279 0 0.14645535856235331 0.34472605522224781 0 0.1393351736748559 0.30535070309843942 0 0.15569772888161729 0.31958815155185433 0 0.12943671481039379 0.32973181149140279 0 0.1393351736748559 0.30535070309843942 0 0.12943671481039379 0.32973181149140279 0 0.11991313284415681 0.30732148064363052 0 0.1393351736748559 0.30535070309843942 0 0.12943671481039379 0.32973181149140279 0 0.119538255945931 0.35411291988436611 0 0.12943671481039379 0.32973181149140279 0 0.14645535856235331 0.34472605522224781 0 0.119538255945931 0.35411291988436611 0 0.14253274960608461 0.36884263540487072 0 0.14645535856235331 0.34472605522224781 0 0.119538255945931 0.35411291988436611 0 0.14253274960608461 0.36884263540487072 0 0.1650582005908772 0.35831292079260652 0 0.14253274960608461 0.36884263540487072 0 0.14645535856235331 0.34472605522224781 0 0.1086124476283081 0.38102451496399092 0 0.14253274960608461 0.36884263540487072 0 0.1386154779954 0.39661349038865229 0 0.1386154779954 0.39661349038865229 0 0.15799535506677109 0.4060298896552893 0 0.16552724326623841 0.38357235092537523 0 0.1386154779954 0.39661349038865229 0 0.14626194503061651 0.41454532034434372 0 0.15799535506677109 0.4060298896552893 0 0.14253274960608461 0.36884263540487072 0 0.1386154779954 0.39661349038865229 0 0.16552724326623841 0.38357235092537523 0 0.14253274960608461 0.36884263540487072 0 0.16552724326623841 0.38357235092537523 0 0.11870975264124969 0.40634132692798602 0 0.1386154779954 0.39661349038865229 0 0.13181225149328279 0.41872548653505398 0 0.1386154779954 0.39661349038865229 0 0.13181225149328279 0.41872548653505398 0 0.14626194503061651 0.41454532034434372 0 0.1168219467785717 0.42740703270861741 0 0.13595725424645819 0.4468779553736183 0 0.13181225149328279 0.41872548653505398 0 0.1445399414656286 0.42959263459747088 0 0.13595725424645819 0.4468779553736183 0 0.1168219467785717 0.42740703270861741 0 0.13181225149328279 0.41872548653505398 0 0.13595725424645819 0.4468779553736183 0 0.13181225149328279 0.41872548653505398 0 0.1445399414656286 0.42959263459747088 0 0.1445399414656286 0.42959263459747088 0 0.15834669913199989 0.42176510054525179 0 0.16153948285195829 0.43184494892766012 0 0.1445399414656286 0.42959263459747088 0 0.16153948285195829 0.43184494892766012 0 0.15726763143797409 0.44045978265988822 0 0.1445399414656286 0.42959263459747088 0 0.14626194503061651 0.41454532034434372 0 0.15834669913199989 0.42176510054525179 0 0.1445399414656286 0.42959263459747088 0 0.15726763143797409 0.44045978265988822 0 0.14626194503061651 0.41454532034434372 0 0.15834669913199989 0.42176510054525179 0 0.15799535506677109 0.4060298896552893 0 0.13181225149328279 0.41872548653505398 0 0.1445399414656286 0.42959263459747088 0 0.14626194503061651 0.41454532034434372 0 0.15834669913199989 0.42176510054525179 0 0.1701479884028079 0.41689159193388692 0 0.15799535506677109 0.4060298896552893 0 0.1701479884028079 0.41689159193388692 0 0.17249349256676769 0.40288843770321231 0 0.15799535506677109 0.4060298896552893 0 0.16153948285195829 0.43184494892766012 0 0.1736053197762995 0.43553926414648542 0 0.15726763143797409 0.44045978265988822 0 0.15834669913199989 0.42176510054525179 0 0.16153948285195829 0.43184494892766012 0 0.17099641743617441 0.43010412641891421 0 0.15834669913199989 0.42176510054525179 0 0.1701479884028079 0.41689159193388692 0 0.17099641743617441 0.43010412641891421 0 0.16153948285195829 0.43184494892766012 0 0.17099641743617441 0.43010412641891421 0 0.1736053197762995 0.43553926414648542 0 0.1736053197762995 0.43553926414648542 0 0.19217045122072629 0.42994789337943712 0 0.1736053197762995 0.43553926414648542 0 0.18155633864448081 0.42635377174963912 0 0.19217045122072629 0.42994789337943712 0 0.1736053197762995 0.43553926414648542 0 0.19217045122072629 0.42994789337943712 0 0.18741467994240299 0.43899267402683828 0 0.17099641743617441 0.43010412641891421 0 0.1736053197762995 0.43553926414648542 0 0.18155633864448081 0.42635377174963912 0 0.17099641743617441 0.43010412641891421 0 0.1736053197762995 0.43553926414648542 0 0.1701479884028079 0.41689159193388692 0 0.17099641743617441 0.43010412641891421 0 0.18155633864448081 0.42635377174963912 0 0.1701479884028079 0.41689159193388692 0 0.18164418233165611 0.41218184746913772 0 0.17249349256676769 0.40288843770321231 0 0.1701479884028079 0.41689159193388692 0 0.18155633864448081 0.42635377174963912 0 0.18164418233165611 0.41218184746913772 0 0.18155633864448081 0.42635377174963912 0 0.18164418233165611 0.41218184746913772 0 0.19387868201084149 0.41532017307991898 0 0.16552724326623841 0.38357235092537523 0 0.18852173692639221 0.39830206644587968 0 0.18164418233165611 0.41218184746913772 0 0.17249349256676769 0.40288843770321231 0 0.18852173692639221 0.39830206644587968 0 0.17249349256676769 0.40288843770321231 0 0.16552724326623841 0.38357235092537523 0 0.18852173692639221 0.39830206644587968 0 0.18728183956809041 0.3659956575872737 0 0.16552724326623841 0.38357235092537523 0 0.18852173692639221 0.39830206644587968 0 0.17249349256676769 0.40288843770321231 0 0.15799535506677109 0.4060298896552893 0 0.16552724326623841 0.38357235092537523 0 0.18728183956809041 0.3659956575872737 0 0.20287133985599159 0.38684575588517373 0 0.18852173692639221 0.39830206644587968 0 0.18728183956809041 0.3659956575872737 0 0.20287133985599159 0.38684575588517373 0 0.20998443472073941 0.37703502113432891 0 0.20287133985599159 0.38684575588517373 0 0.18852173692639221 0.39830206644587968 0 0.2095338735621928 0.4032467413459554 0 0.18852173692639221 0.39830206644587968 0 0.2095338735621928 0.4032467413459554 0 0.19387868201084149 0.41532017307991898 0 0.20287133985599159 0.38684575588517373 0 0.2095338735621928 0.4032467413459554 0 0.21803677108623029 0.38989931817929468 0 0.2095338735621928 0.4032467413459554 0 0.21803677108623029 0.38989931817929468 0 0.22460951656628669 0.40129663711876218 0 0.20287133985599159 0.38684575588517373 0 0.20998443472073941 0.37703502113432891 0 0.21803677108623029 0.38989931817929468 0 0.20998443472073941 0.37703502113432891 0 0.21803677108623029 0.38989931817929468 0 0.2218990160605783 0.38095676428897779 0 0.2281454248876012 0.37111394237565198 0 0.2218990160605783 0.38095676428897779 0 0.22698970540829039 0.38508677149596959 0 0.23988792781026089 0.3640335467861231 0 0.22698970540829039 0.38508677149596959 0 0.23550800752949 0.38302305041629398 0 0.22698970540829039 0.38508677149596959 0 0.22999548749159809 0.39247146935510208 0 0.23550800752949 0.38302305041629398 0 0.21803677108623029 0.38989931817929468 0 0.22698970540829039 0.38508677149596959 0 0.22999548749159809 0.39247146935510208 0 0.21803677108623029 0.38989931817929468 0 0.2218990160605783 0.38095676428897779 0 0.22698970540829039 0.38508677149596959 0 0.21803677108623029 0.38989931817929468 0 0.22460951656628669 0.40129663711876218 0 0.22999548749159809 0.39247146935510208 0 0.22460951656628669 0.40129663711876218 0 0.22999548749159809 0.39247146935510208 0 0.23909663522386471 0.4033934452323234 0 0.23883212737032269 0.39158225067295888 0 0.2470447434231034 0.39635895695318368 0 0.25451163841684538 0.38770107459702913 0 0.22999548749159809 0.39247146935510208 0 0.23883212737032269 0.39158225067295888 0 0.23909663522386471 0.4033934452323234 0 0.23883212737032269 0.39158225067295888 0 0.23909663522386471 0.4033934452323234 0 0.2470447434231034 0.39635895695318368 0 0.23909663522386471 0.4033934452323234 0 0.2470447434231034 0.39635895695318368 0 0.25299666832954271 0.40433951365922183 0 0.23988792781026089 0.3640335467861231 0 0.2418353545011532 0.38195624489153718 0 0.25451163841684538 0.38770107459702913 0 0.23883212737032269 0.39158225067295888 0 0.2418353545011532 0.38195624489153718 0 0.25451163841684538 0.38770107459702913 0 0.23988792781026089 0.3640335467861231 0 0.2418353545011532 0.38195624489153718 0 0.23550800752949 0.38302305041629398 0 0.23988792781026089 0.3640335467861231 0 0.25451163841684538 0.38770107459702913 0 0.23883212737032269 0.39158225067295888 0 0.2418353545011532 0.38195624489153718 0 0.23550800752949 0.38302305041629398 0 0.22999548749159809 0.39247146935510208 0 0.23883212737032269 0.39158225067295888 0 0.23550800752949 0.38302305041629398 0 0.22673894926793259 0.41525826488246581 0 0.22700703455972099 0.43280214576235038 0 0.2503840746753393 0.42450906341010719 0 0.22700703455972099 0.43280214576235038 0 0.23752794432869631 0.45206970256460899 0 0.2503840746753393 0.42450906341010719 0 0.22700703455972099 0.43280214576235038 0 0.2503840746753393 0.42450906341010719 0 0.23909663522386471 0.4033934452323234 0 0.2503840746753393 0.42450906341010719 0 0.25299666832954271 0.40433951365922183 0 0.23909663522386471 0.4033934452323234 0 0.22673894926793259 0.41525826488246581 0 0.2503840746753393 0.42450906341010719 0 0.2095338735621928 0.4032467413459554 0 0.22460951656628669 0.40129663711876218 0 0.22673894926793259 0.41525826488246581 0 0.22460951656628669 0.40129663711876218 0 0.23909663522386471 0.4033934452323234 0 0.22673894926793259 0.41525826488246581 0 0.22673894926793259 0.41525826488246581 0 0.22700703455972099 0.43280214576235038 0 0.209845509379601 0.42188871808946549 0 0.22700703455972099 0.43280214576235038 0 0.209845509379601 0.42188871808946549 0 0.2036299944441026 0.44109522811459351 0 0.22700703455972099 0.43280214576235038 0 0.2036299944441026 0.44109522811459351 0 0.2095338735621928 0.4032467413459554 0 0.22673894926793259 0.41525826488246581 0 0.209845509379601 0.42188871808946549 0 0.2095338735621928 0.4032467413459554 0 0.209845509379601 0.42188871808946549 0 0.19387868201084149 0.41532017307991898 0 0.18164418233165611 0.41218184746913772 0 0.18852173692639221 0.39830206644587968 0 0.19387868201084149 0.41532017307991898 0 0.19217045122072629 0.42994789337943712 0 0.2036299944441026 0.44109522811459351 0 0.18741467994240299 0.43899267402683828 0 0.209845509379601 0.42188871808946549 0 0.19387868201084149 0.41532017307991898 0 0.19217045122072629 0.42994789337943712 0 0.209845509379601 0.42188871808946549 0 0.19217045122072629 0.42994789337943712 0 0.2036299944441026 0.44109522811459351 0 0.18155633864448081 0.42635377174963912 0 0.19387868201084149 0.41532017307991898 0 0.19217045122072629 0.42994789337943712 0 0.19260685828549559 0.45449981646333992 0 0.2036299944441026 0.44109522811459351 0 0.1802529543284844 0.44938831046683669 0 0.2036299944441026 0.44109522811459351 0 0.18741467994240299 0.43899267402683828 0 0.1802529543284844 0.44938831046683669 0 0.2036299944441026 0.44109522811459351 0 0.1802529543284844 0.44938831046683669 0 0.19260685828549559 0.45449981646333992 0 0.201140618399857 0.45551598919379033 0 0.2036299944441026 0.44109522811459351 0 0.19269621362185471 0.46669697742160582 0 0.18895317060149469 0.46751350932007879 0 0.1972397647304695 0.46874892956654368 0 0.18895317060149469 0.46751350932007879 0 0.19454291012931321 0.46207631342111949 0 0.19260685828549559 0.45449981646333992 0 0.19269621362185471 0.46669697742160582 0 0.19454291012931321 0.46207631342111949 0 0.1972397647304695 0.46874892956654368 0 0.19269621362185471 0.46669697742160582 0 0.18895317060149469 0.46751350932007879 0 0.19454291012931321 0.46207631342111949 0 0.19454291012931321 0.46207631342111949 0 0.19260685828549559 0.45449981646333992 0 0.201140618399857 0.45551598919379033 0 0.19454291012931321 0.46207631342111949 0 0.201140618399857 0.45551598919379033 0 0.20566686028218609 0.46771526295748261 0 0.19454291012931321 0.46207631342111949 0 0.1972397647304695 0.46874892956654368 0 0.20566686028218609 0.46771526295748261 0 0.201140618399857 0.45551598919379033 0 0.20566686028218609 0.46771526295748261 0 0.21604384559765999 0.45276209419538371 0 0.20566686028218609 0.46771526295748261 0 0.21604384559765999 0.45276209419538371 0 0.22129062157139731 0.46737423657947658 0 0.22700703455972099 0.43280214576235038 0 0.2036299944441026 0.44109522811459351 0 0.21604384559765999 0.45276209419538371 0 0.201140618399857 0.45551598919379033 0 0.2036299944441026 0.44109522811459351 0 0.21604384559765999 0.45276209419538371 0 0.22700703455972099 0.43280214576235038 0 0.21604384559765999 0.45276209419538371 0 0.23752794432869631 0.45206970256460899 0 0.22129062157139731 0.46737423657947658 0 0.23752794432869631 0.45206970256460899 0 0.23939303546495361 0.47803087059540622 0 0.21604384559765999 0.45276209419538371 0 0.22129062157139731 0.46737423657947658 0 0.23752794432869631 0.45206970256460899 0 0.23752794432869631 0.45206970256460899 0 0.23939303546495361 0.47803087059540622 0 0.25801153696436802 0.46349667030790959 0 0.23939303546495361 0.47803087059540622 0 0.23114640959924179 0.5 0 0.25774591651410728 0.5 0 0.22129062157139731 0.46737423657947658 0 0.23939303546495361 0.47803087059540622 0 0.21591899326600669 0.48335714075320629 0 0.23939303546495361 0.47803087059540622 0 0.23114640959924179 0.5 0 0.21591899326600669 0.48335714075320629 0 0.20454690268437639 0.49999999999999772 0 0.21591899326600669 0.48335714075320629 0 0.19675003664293569 0.4837567546600382 0 0.23114640959924179 0.5 0 0.20454690268437639 0.49999999999999772 0 0.21591899326600669 0.48335714075320629 0 0.20566686028218609 0.46771526295748261 0 0.22129062157139731 0.46737423657947658 0 0.21591899326600669 0.48335714075320629 0 0.20566686028218609 0.46771526295748261 0 0.21591899326600669 0.48335714075320629 0 0.19675003664293569 0.4837567546600382 0 0.18895317060149469 0.46751350932007879 0 0.19675003664293569 0.4837567546600382 0 0.18895317060149469 0.46751350932007879 0 0.1972397647304695 0.46874892956654368 0 0.19675003664293569 0.4837567546600382 0 0.18895317060149469 0.46751350932007879 0 0.19675003664293569 0.4837567546600382 0 0.18077718349567851 0.48088985431255121 0 0.1972397647304695 0.46874892956654368 0 0.20566686028218609 0.46771526295748261 0 0.19675003664293569 0.4837567546600382 0 0.20454690268437639 0.49999999999999772 0 0.19675003664293569 0.4837567546600382 0 0.17624481352807289 0.5 0 0.20454690268437639 0.49999999999999772 0 0.19675003664293569 0.4837567546600382 0 0.19675003664293569 0.4837567546600382 0 0.17624481352807289 0.5 0 0.18077718349567851 0.48088985431255121 0 0.17624481352807289 0.5 0 0.1681431187988032 0.48254533678629657 0 0.18077718349567851 0.48088985431255121 0 0.17624481352807289 0.5 0 0.15631848890352171 0.48831663670280251 0 0.1681431187988032 0.48254533678629657 0 0.17624481352807289 0.5 0 0.15631848890352171 0.48831663670280251 0 0.1479427243717695 0.5 0 0.1583490938558704 0.46966252667427522 0 0.15847840770813509 0.47828849798465839 0 0.1647093752224133 0.47372451391905679 0 0.1583490938558704 0.46966252667427522 0 0.1647093752224133 0.47372451391905679 0 0.16478147784217109 0.46749253735371182 0 0.15631848890352171 0.48831663670280251 0 0.15847840770813509 0.47828849798465839 0 0.1681431187988032 0.48254533678629657 0 0.15847840770813509 0.47828849798465839 0 0.1681431187988032 0.48254533678629657 0 0.1647093752224133 0.47372451391905679 0 0.1681431187988032 0.48254533678629657 0 0.1647093752224133 0.47372451391905679 0 0.1737947779070865 0.47063367079634227 0 0.1647093752224133 0.47372451391905679 0 0.1737947779070865 0.47063367079634227 0 0.16478147784217109 0.46749253735371182 0 0.1681431187988032 0.48254533678629657 0 0.1737947779070865 0.47063367079634227 0 0.18077718349567851 0.48088985431255121 0 0.18895317060149469 0.46751350932007879 0 0.1737947779070865 0.47063367079634227 0 0.18077718349567851 0.48088985431255121 0 0.18895317060149469 0.46751350932007879 0 0.17311040101973479 0.45398664598998312 0 0.1802529543284844 0.44938831046683669 0 0.18895317060149469 0.46751350932007879 0 0.1802529543284844 0.44938831046683669 0 0.18895317060149469 0.46751350932007879 0 0.19260685828549559 0.45449981646333992 0 0.1802529543284844 0.44938831046683669 0 0.18895317060149469 0.46751350932007879 0 0.1737947779070865 0.47063367079634227 0 0.17311040101973479 0.45398664598998312 0 0.18895317060149469 0.46751350932007879 0 0.17311040101973479 0.45398664598998312 0 0.17311040101973479 0.45398664598998312 0 0.17155474086404329 0.45265839323685719 0 0.1736053197762995 0.43553926414648542 0 0.1802529543284844 0.44938831046683669 0 0.17155474086404329 0.45265839323685719 0 0.1736053197762995 0.43553926414648542 0 0.18741467994240299 0.43899267402683828 0 0.1802529543284844 0.44938831046683669 0 0.17311040101973479 0.45398664598998312 0 0.1802529543284844 0.44938831046683669 0 0.17155474086404329 0.45265839323685719 0 0.1802529543284844 0.44938831046683669 0 0.17155474086404329 0.45265839323685719 0 0.1736053197762995 0.43553926414648542 0 0.1802529543284844 0.44938831046683669 0 0.1736053197762995 0.43553926414648542 0 0.17155474086404329 0.45265839323685719 0 0.15726763143797409 0.44045978265988822 0 0.1736053197762995 0.43553926414648542 0 0.15726763143797409 0.44045978265988822 0 0.17155474086404329 0.45265839323685719 0 0.15726763143797409 0.44045978265988822 0 0.1682054510419807 0.46045098750551888 0 0.17155474086404329 0.45265839323685719 0 0.15726763143797409 0.44045978265988822 0 0.1737947779070865 0.47063367079634227 0 0.17311040101973479 0.45398664598998312 0 0.1682054510419807 0.46045098750551888 0 0.15726763143797409 0.44045978265988822 0 0.1682054510419807 0.46045098750551888 0 0.1604414964263981 0.46281049047032768 0 0.1737947779070865 0.47063367079634227 0 0.16478147784217109 0.46749253735371182 0 0.1682054510419807 0.46045098750551888 0 0.16478147784217109 0.46749253735371182 0 0.1682054510419807 0.46045098750551888 0 0.1604414964263981 0.46281049047032768 0 0.17311040101973479 0.45398664598998312 0 0.17155474086404329 0.45265839323685719 0 0.1682054510419807 0.46045098750551888 0 0.1604414964263981 0.46281049047032768 0 0.15543567912684561 0.46669801340606221 0 0.1583490938558704 0.46966252667427522 0 0.16478147784217109 0.46749253735371182 0 0.1604414964263981 0.46281049047032768 0 0.1583490938558704 0.46966252667427522 0 0.1604414964263981 0.46281049047032768 0 0.15543567912684561 0.46669801340606221 0 0.1583490938558704 0.46966252667427522 0 0.15543567912684561 0.46669801340606221 0 0.1604414964263981 0.46281049047032768 0 0.15543567912684561 0.46669801340606221 0 0.13595725424645819 0.4468779553736183 0 0.15543567912684561 0.46669801340606221 0 0.13595725424645819 0.4468779553736183 0 0.15726763143797409 0.44045978265988822 0 0.1604414964263981 0.46281049047032768 0 0.13595725424645819 0.4468779553736183 0 0.1445399414656286 0.42959263459747088 0 0.15726763143797409 0.44045978265988822 0 0.13595725424645819 0.4468779553736183 0 0.15726763143797409 0.44045978265988822 0 0.13595725424645819 0.4468779553736183 0 0.1192121819659164 0.45192116812553379 0 0.13595725424645819 0.4468779553736183 0 0.1192121819659164 0.45192116812553379 0 0.13595725424645819 0.4468779553736183 0 0.12759513619708221 0.46664877989488568 0 0.15543567912684561 0.46669801340606221 0 0.13595725424645819 0.4468779553736183 0 0.12759513619708221 0.46664877989488568 0 0.15543567912684561 0.46669801340606221 0 0.12759513619708221 0.46664877989488568 0 0.13676236144003179 0.48119973139729638 0 0.1232626025210715 0.47962859419113252 0 0.12759513619708221 0.46664877989488568 0 0.13676236144003179 0.48119973139729638 0 0.1180890437532176 0.49570144938853022 0 0.1232626025210715 0.47962859419113252 0 0.13676236144003179 0.48119973139729638 0 0.1180890437532176 0.49570144938853022 0 0.13676236144003179 0.48119973139729638 0 0.14384397992645689 0.48588288138850211 0 0.1196406352154659 0.50000000000000067 0 0.1180890437532176 0.49570144938853022 0 0.1480579640994828 0.4932533326377061 0 0.1196406352154659 0.50000000000000067 0 0.1480579640994828 0.4932533326377061 0 0.1479427243717695 0.5 0 0.1180890437532176 0.49570144938853022 0 0.13676236144003179 0.48119973139729638 0 0.1180890437532176 0.49570144938853022 0 0.14384397992645689 0.48588288138850211 0 0.1480579640994828 0.4932533326377061 0 0.1180890437532176 0.49570144938853022 0 0.1480579640994828 0.4932533326377061 0 0.15631848890352171 0.48831663670280251 0 0.1480579640994828 0.4932533326377061 0 0.1479427243717695 0.5 0 0.15631848890352171 0.48831663670280251 0 0.14384397992645689 0.48588288138850211 0 0.1480579640994828 0.4932533326377061 0 0.15631848890352171 0.48831663670280251 0 0.14384397992645689 0.48588288138850211 0 0.1515184138919313 0.478246408122455 0 0.15631848890352171 0.48831663670280251 0 0.15847840770813509 0.47828849798465839 0 0.1515184138919313 0.478246408122455 0 0.15543567912684561 0.46669801340606221 0 0.13676236144003179 0.48119973139729638 0 0.1515184138919313 0.478246408122455 0 0.15543567912684561 0.46669801340606221 0 0.13676236144003179 0.48119973139729638 0 0.1583490938558704 0.46966252667427522 0 0.15847840770813509 0.47828849798465839 0 0.1515184138919313 0.478246408122455 0 0.1583490938558704 0.46966252667427522 0 0.15543567912684561 0.46669801340606221 0 0.1515184138919313 0.478246408122455 0 0.13676236144003179 0.48119973139729638 0 0.14384397992645689 0.48588288138850211 0 0.1515184138919313 0.478246408122455 0 0.3553244230430046 0.47627173306018428 0 0.36561871567760679 0.5 0 0.33754443725870342 0.50000000000000333 0 0.3553244230430046 0.47627173306018428 0 0.36561871567760679 0.5 0 0.37122403352689548 0.48327155723405818 0 0.3553244230430046 0.47627173306018428 0 0.37122403352689548 0.48327155723405818 0 0.37446310876981698 0.46179544865201161 0 0.3553244230430046 0.47627173306018428 0 0.37446310876981698 0.46179544865201161 0 0.34847144679069408 0.45209741771530199 0 0.37446310876981698 0.46179544865201161 0 0.36930359675366592 0.44331647074245623 0 0.34847144679069408 0.45209741771530199 0 0.36930359675366592 0.44331647074245623 0 0.34847144679069408 0.45209741771530199 0 0.3590748149936096 0.42912889851320901 0 0.34847144679069408 0.45209741771530199 0 0.31624615723092592 0.44493973804889259 0 0.32689529724481398 0.47246986902444821 0 0.31624615723092592 0.44493973804889259 0 0.32689529724481398 0.47246986902444821 0 0.30580760756344788 0.47809769063423863 0 0.3553244230430046 0.47627173306018428 0 0.34847144679069408 0.45209741771530199 0 0.32689529724481398 0.47246986902444821 0 0.34847144679069408 0.45209741771530199 0 0.31624615723092592 0.44493973804889259 0 0.34140729616956639 0.43127008199152628 0 0.31624615723092592 0.44493973804889259 0 0.32689529724481398 0.47246986902444821 0 0.32689529724481398 0.47246986902444821 0 0.31094493034383802 0.5 0 0.30580760756344788 0.47809769063423863 0 0.3553244230430046 0.47627173306018428 0 0.32689529724481398 0.47246986902444821 0 0.33754443725870342 0.50000000000000333 0 0.32689529724481398 0.47246986902444821 0 0.33754443725870342 0.50000000000000333 0 0.32689529724481398 0.47246986902444821 0 0.33754443725870342 0.50000000000000333 0 0.31094493034383802 0.5 0 0.30580760756344788 0.47809769063423863 0 0.28434542342897268 0.5 0 0.28558141289854688 0.46545756090431573 0 0.31094493034383802 0.5 0 0.30580760756344788 0.47809769063423863 0 0.28434542342897268 0.5 0 0.28434542342897268 0.5 0 0.26717730903792991 0.48091913099149319 0 0.28558141289854688 0.46545756090431573 0 0.28434542342897268 0.5 0 0.26717730903792991 0.48091913099149319 0 0.25774591651410728 0.5 0 0.26717730903792991 0.48091913099149319 0 0.25801153696436802 0.46349667030790959 0 0.28558141289854688 0.46545756090431573 0 0.23939303546495361 0.47803087059540622 0 0.26717730903792991 0.48091913099149319 0 0.25801153696436802 0.46349667030790959 0 0.23939303546495361 0.47803087059540622 0 0.26717730903792991 0.48091913099149319 0 0.25774591651410728 0.5 0 0.23752794432869631 0.45206970256460899 0 0.26329708128488211 0.44180356248081881 0 0.2503840746753393 0.42450906341010719 0 0.23752794432869631 0.45206970256460899 0 0.26329708128488211 0.44180356248081881 0 0.25801153696436802 0.46349667030790959 0 0.26329708128488211 0.44180356248081881 0 0.25801153696436802 0.46349667030790959 0 0.28558141289854688 0.46545756090431573 0 0.26329708128488211 0.44180356248081881 0 0.28558141289854688 0.46545756090431573 0 0.2837865192611902 0.43501914141340631 0 0.31624615723092592 0.44493973804889259 0 0.30580760756344788 0.47809769063423863 0 0.28558141289854688 0.46545756090431573 0 0.31624615723092592 0.44493973804889259 0 0.28558141289854688 0.46545756090431573 0 0.2837865192611902 0.43501914141340631 0 0.31624615723092592 0.44493973804889259 0 0.30559701721703758 0.41740960707333702 0 0.31624615723092592 0.44493973804889259 0 0.30559701721703758 0.41740960707333702 0 0.2837865192611902 0.43501914141340631 0 0.30559701721703758 0.41740960707333702 0 0.28703009886063813 0.41645110963371668 0 0.29494787720314941 0.38987947609778129 0 0.30559701721703758 0.41740960707333702 0 0.28703009886063813 0.41645110963371668 0 0.2837865192611902 0.43501914141340631 0 0.26329708128488211 0.44180356248081881 0 0.2837865192611902 0.43501914141340631 0 0.26914907883901779 0.41136010800521761 0 0.2837865192611902 0.43501914141340631 0 0.26914907883901779 0.41136010800521761 0 0.28703009886063813 0.41645110963371668 0 0.2837865192611902 0.43501914141340631 0 0.26914907883901779 0.41136010800521761 0 0.28703009886063813 0.41645110963371668 0 0.26914907883901779 0.41136010800521761 0 0.28039375594173838 0.40002264983454972 0 0.26914907883901779 0.41136010800521761 0 0.2503840746753393 0.42450906341010719 0 0.25299666832954271 0.40433951365922183 0 0.26329708128488211 0.44180356248081881 0 0.26914907883901779 0.41136010800521761 0 0.2503840746753393 0.42450906341010719 0 0.25451163841684538 0.38770107459702913 0 0.26934552241690951 0.38641429155500778 0 0.25183242829235308 0.36582745696640578 0 0.26934552241690951 0.38641429155500778 0 0.25129995781948239 0.36358958124085561 0 0.26914907883901779 0.41136010800521761 0 0.25451163841684538 0.38770107459702913 0 0.26934552241690951 0.38641429155500778 0 0.26914907883901779 0.41136010800521761 0 0.25451163841684538 0.38770107459702913 0 0.25299666832954271 0.40433951365922183 0 0.26914907883901779 0.41136010800521761 0 0.25451163841684538 0.38770107459702913 0 0.2470447434231034 0.39635895695318368 0 0.25451163841684538 0.38770107459702913 0 0.25299666832954271 0.40433951365922183 0 0.26914907883901779 0.41136010800521761 0 0.28039375594173838 0.40002264983454972 0 0.26934552241690951 0.38641429155500778 0 0.26934552241690951 0.38641429155500778 0 0.29494787720314941 0.38987947609778129 0 0.27648167010992503 0.37417026719607138 0 0.29494787720314941 0.38987947609778129 0 0.2842987371892608 0.36234934512222589 0 0.29494787720314941 0.38987947609778129 0 0.2842987371892608 0.36234934512222589 0 0.27648167010992503 0.37417026719607138 0 0.28039375594173838 0.40002264983454972 0 0.26934552241690951 0.38641429155500778 0 0.29494787720314941 0.38987947609778129 0 0.28703009886063813 0.41645110963371668 0 0.28039375594173838 0.40002264983454972 0 0.29494787720314941 0.38987947609778129 0 0.30559701721703758 0.41740960707333702 0 0.29494787720314941 0.38987947609778129 0 0.30559701721703758 0.41740960707333702 0 0.29494787720314941 0.38987947609778129 0 0.31230223974095989 0.39343347392106709 0 0.29494787720314941 0.38987947609778129 0 0.30581500257232769 0.37582932693955301 0 0.29592449394281062 0.36924747941366282 0 0.29494787720314941 0.38987947609778129 0 0.31230223974095989 0.39343347392106709 0 0.30581500257232769 0.37582932693955301 0 0.31230223974095989 0.39343347392106709 0 0.30581500257232769 0.37582932693955301 0 0.32061406952607252 0.37851981779320448 0 0.32061406952607252 0.37851981779320448 0 0.32857617081417267 0.4000422627741077 0 0.33581017480710212 0.37430744675231742 0 0.32857617081417267 0.4000422627741077 0 0.34831437634838441 0.38494394491492628 0 0.33581017480710212 0.37430744675231742 0 0.32857617081417267 0.4000422627741077 0 0.34991746872144869 0.40628802966486732 0 0.34831437634838441 0.38494394491492628 0 0.31230223974095989 0.39343347392106709 0 0.32061406952607252 0.37851981779320448 0 0.32857617081417267 0.4000422627741077 0 0.30559701721703758 0.41740960707333702 0 0.31230223974095989 0.39343347392106709 0 0.32857617081417267 0.4000422627741077 0 0.30559701721703758 0.41740960707333702 0 0.32857617081417267 0.4000422627741077 0 0.32588966147874843 0.42176958134409098 0 0.31624615723092592 0.44493973804889259 0 0.32588966147874843 0.42176958134409098 0 0.34140729616956639 0.43127008199152628 0 0.31624615723092592 0.44493973804889259 0 0.30559701721703758 0.41740960707333702 0 0.32588966147874843 0.42176958134409098 0 0.32588966147874843 0.42176958134409098 0 0.34140729616956639 0.43127008199152628 0 0.34991746872144869 0.40628802966486732 0 0.32857617081417267 0.4000422627741077 0 0.32588966147874843 0.42176958134409098 0 0.34991746872144869 0.40628802966486732 0 0.34991746872144869 0.40628802966486732 0 0.3590748149936096 0.42912889851320901 0 0.36588602204460519 0.41465886817914538 0 0.34847144679069408 0.45209741771530199 0 0.34140729616956639 0.43127008199152628 0 0.3590748149936096 0.42912889851320901 0 0.34140729616956639 0.43127008199152628 0 0.34991746872144869 0.40628802966486732 0 0.3590748149936096 0.42912889851320901 0 0.3590748149936096 0.42912889851320901 0 0.36588602204460519 0.41465886817914538 0 0.37994859105186052 0.42257609133380858 0 0.36930359675366592 0.44331647074245623 0 0.3590748149936096 0.42912889851320901 0 0.37994859105186052 0.42257609133380858 0 0.36588602204460519 0.41465886817914538 0 0.3753335618341983 0.40308257339433501 0 0.37994859105186052 0.42257609133380858 0 0.34991746872144869 0.40628802966486732 0 0.36588602204460519 0.41465886817914538 0 0.3753335618341983 0.40308257339433501 0 0.34991746872144869 0.40628802966486732 0 0.37316426570948041 0.38583691766786932 0 0.3753335618341983 0.40308257339433501 0 0.37316426570948041 0.38583691766786932 0 0.34831437634838441 0.38494394491492628 0 0.36527241956673562 0.37048534447309872 0 0.37316426570948041 0.38583691766786932 0 0.34831437634838441 0.38494394491492628 0 0.37316426570948041 0.38583691766786932 0 0.36527241956673562 0.37048534447309872 0 0.3801807417636644 0.37252583622892033 0 0.34991746872144869 0.40628802966486732 0 0.37316426570948041 0.38583691766786932 0 0.34831437634838441 0.38494394491492628 0 0.35613397368114941 0.35296939807249628 0 0.35010440123723008 0.36316433422236422 0 0.34323575832283038 0.34704683967312022 0 0.35613397368114941 0.35296939807249628 0 0.35010440123723008 0.36316433422236422 0 0.36143556578496122 0.36058754635609552 0 0.35613397368114941 0.35296939807249628 0 0.34991518076625888 0.33978523139775563 0 0.34323575832283038 0.34704683967312022 0 0.34831437634838441 0.38494394491492628 0 0.35010440123723008 0.36316433422236422 0 0.33581017480710212 0.37430744675231742 0 0.34831437634838441 0.38494394491492628 0 0.35010440123723008 0.36316433422236422 0 0.36527241956673562 0.37048534447309872 0 0.35010440123723008 0.36316433422236422 0 0.36143556578496122 0.36058754635609552 0 0.36527241956673562 0.37048534447309872 0 0.36527241956673562 0.37048534447309872 0 0.37423146865472978 0.35573110865642288 0 0.3801807417636644 0.37252583622892033 0 0.36143556578496122 0.36058754635609552 0 0.36527241956673562 0.37048534447309872 0 0.37423146865472978 0.35573110865642288 0 0.37423146865472978 0.35573110865642288 0 0.37484275173419918 0.34129884314659548 0 0.34991518076625888 0.33978523139775563 0 0.35613397368114941 0.35296939807249628 0 0.37423146865472978 0.35573110865642288 0 0.34991518076625888 0.33978523139775563 0 0.37423146865472978 0.35573110865642288 0 0.34991518076625888 0.33978523139775563 0 0.35613397368114941 0.35296939807249628 0 0.36143556578496122 0.36058754635609552 0 0.37423146865472978 0.35573110865642288 0 0.37484275173419918 0.34129884314659548 0 0.35405576734947591 0.33515486288744728 0 0.34991518076625888 0.33978523139775563 0 0.37484275173419918 0.34129884314659548 0 0.35405576734947591 0.33515486288744728 0 0.37484275173419918 0.34129884314659548 0 0.36617301799765462 0.33143204923777531 0 0.35405576734947591 0.33515486288744728 0 0.36617301799765462 0.33143204923777531 0 0.3672774944111874 0.32408139195737828 0 0.37575503919442549 0.32913182526222517 0 0.37484275173419918 0.34129884314659548 0 0.36617301799765462 0.33143204923777531 0 0.37575503919442549 0.32913182526222517 0 0.36617301799765462 0.33143204923777531 0 0.35833246542315489 0.32550358875337881 0 0.35405576734947591 0.33515486288744728 0 0.37302190852298428 0.31709005754215652 0 0.3672774944111874 0.32408139195737828 0 0.37575503919442549 0.32913182526222517 0 0.3672774944111874 0.32408139195737828 0 0.36095161746539761 0.3137777563083386 0 0.35833246542315489 0.32550358875337881 0 0.36617301799765462 0.33143204923777531 0 0.3672774944111874 0.32408139195737828 0 0.35833246542315489 0.32550358875337881 0 0.37302190852298428 0.31709005754215652 0 0.3672774944111874 0.32408139195737828 0 0.36095161746539761 0.3137777563083386 0 0.36095161746539761 0.3137777563083386 0 0.35833246542315489 0.32550358875337881 0 0.35151498172173712 0.31756409687413539 0 0.36095161746539761 0.3137777563083386 0 0.35151498172173712 0.31756409687413539 0 0.35023758078297429 0.30802941204737189 0 0.35833246542315489 0.32550358875337881 0 0.35214611883526808 0.32617929020781711 0 0.35151498172173712 0.31756409687413539 0 0.35214611883526808 0.32617929020781711 0 0.34468126084670481 0.32649461231630678 0 0.35151498172173712 0.31756409687413539 0 0.34468126084670481 0.32649461231630678 0 0.35405576734947591 0.33515486288744728 0 0.33326878296475271 0.32901088262829897 0 0.35833246542315489 0.32550358875337881 0 0.35214611883526808 0.32617929020781711 0 0.35405576734947591 0.33515486288744728 0 0.35214611883526808 0.32617929020781711 0 0.34468126084670481 0.32649461231630678 0 0.35405576734947591 0.33515486288744728 0 0.35405576734947591 0.33515486288744728 0 0.34991518076625888 0.33978523139775563 0 0.34152934965685028 0.3378534408173971 0 0.34991518076625888 0.33978523139775563 0 0.34152934965685028 0.3378534408173971 0 0.34323575832283038 0.34704683967312022 0 0.35405576734947591 0.33515486288744728 0 0.33326878296475271 0.32901088262829897 0 0.35405576734947591 0.33515486288744728 0 0.34152934965685028 0.3378534408173971 0 0.33326878296475271 0.32901088262829897 0 0.34152934965685028 0.3378534408173971 0 0.33612048527201011 0.34132432046527672 0 0.34323575832283038 0.34704683967312022 0 0.34152934965685028 0.3378534408173971 0 0.33612048527201011 0.34132432046527672 0 0.33338987415993793 0.33635297992587931 0 0.34152934965685028 0.3378534408173971 0 0.33326878296475271 0.32901088262829897 0 0.33338987415993793 0.33635297992587931 0 0.33326878296475271 0.32901088262829897 0 0.33338987415993793 0.33635297992587931 0 0.32735671467570299 0.33400101735882709 0 0.328674038230373 0.33957523835959652 0 0.33338987415993793 0.33635297992587931 0 0.32735671467570299 0.33400101735882709 0 0.33612048527201011 0.34132432046527672 0 0.328674038230373 0.33957523835959652 0 0.33284763329226408 0.34734143382917371 0 0.33612048527201011 0.34132432046527672 0 0.328674038230373 0.33957523835959652 0 0.33338987415993793 0.33635297992587931 0 0.35151498172173712 0.31756409687413539 0 0.33199839015088323 0.32021549962164297 0 0.3421876984749066 0.31066267255465407 0 0.34468126084670481 0.32649461231630678 0 0.35151498172173712 0.31756409687413539 0 0.33199839015088323 0.32021549962164297 0 0.35151498172173712 0.31756409687413539 0 0.33199839015088323 0.32021549962164297 0 0.34468126084670481 0.32649461231630678 0 0.33326878296475271 0.32901088262829897 0 0.33199839015088323 0.32021549962164297 0 0.33199839015088323 0.32021549962164297 0 0.33272829778035801 0.30991178056899582 0 0.3421876984749066 0.31066267255465407 0 0.33199839015088323 0.32021549962164297 0 0.32491099881883512 0.31235209566326189 0 0.33272829778035801 0.30991178056899582 0 0.33199839015088323 0.32021549962164297 0 0.31248179858002939 0.32286690236915072 0 0.33326878296475271 0.32901088262829897 0 0.33199839015088323 0.32021549962164297 0 0.31248179858002939 0.32286690236915072 0 0.33199839015088323 0.32021549962164297 0 0.32044353590665697 0.31701450652592961 0 0.31248179858002939 0.32286690236915072 0 0.33326878296475271 0.32901088262829897 0 0.31248179858002939 0.32286690236915072 0 0.33326878296475271 0.32901088262829897 0 0.32144263132468298 0.33093810828180109 0 0.31248179858002939 0.32286690236915072 0 0.33199839015088323 0.32021549962164297 0 0.32044353590665697 0.31701450652592961 0 0.32491099881883512 0.31235209566326189 0 0.32044353590665697 0.31701450652592961 0 0.31853047402505091 0.31242401551197252 0 0.32491099881883512 0.31235209566326189 0 0.32044353590665697 0.31701450652592961 0 0.31429601795848622 0.31721401946361982 0 0.31248179858002939 0.32286690236915072 0 0.31429601795848622 0.31721401946361982 0 0.31853047402505091 0.31242401551197252 0 0.31352345225364919 0.30899693970393022 0 0.32044353590665697 0.31701450652592961 0 0.31429601795848622 0.31721401946361982 0 0.31853047402505091 0.31242401551197252 0 0.328674038230373 0.33957523835959652 0 0.32063910695375242 0.33680590759552459 0 0.32735671467570299 0.33400101735882709 0 0.32063910695375242 0.33680590759552459 0 0.31858607760659291 0.34292399296466491 0 0.32418323241696889 0.34502259354020998 0 0.328674038230373 0.33957523835959652 0 0.32063910695375242 0.33680590759552459 0 0.32418323241696889 0.34502259354020998 0 0.33326878296475271 0.32901088262829897 0 0.32735671467570299 0.33400101735882709 0 0.32144263132468298 0.33093810828180109 0 0.32063910695375242 0.33680590759552459 0 0.32735671467570299 0.33400101735882709 0 0.32144263132468298 0.33093810828180109 0 0.32063910695375242 0.33680590759552459 0 0.32144263132468298 0.33093810828180109 0 0.31346675344917779 0.33200583145720453 0 0.32144263132468298 0.33093810828180109 0 0.31346675344917779 0.33200583145720453 0 0.31248179858002939 0.32286690236915072 0 0.32063910695375242 0.33680590759552459 0 0.31346675344917779 0.33200583145720453 0 0.31292197000169958 0.33938673636739458 0 0.32063910695375242 0.33680590759552459 0 0.31292197000169958 0.33938673636739458 0 0.31858607760659291 0.34292399296466491 0 0.31292197000169958 0.33938673636739458 0 0.31858607760659291 0.34292399296466491 0 0.31660000105395047 0.35048073435553029 0 0.31858607760659291 0.34292399296466491 0 0.31660000105395047 0.35048073435553029 0 0.32418323241696889 0.34502259354020998 0 0.31660000105395047 0.35048073435553029 0 0.32587863845982229 0.36292843421553589 0 0.3130936187719397 0.36327065740186898 0 0.31660000105395047 0.35048073435553029 0 0.3130936187719397 0.36327065740186898 0 0.30850769695047908 0.35193407353077671 0 0.31660000105395047 0.35048073435553029 0 0.32727233231668912 0.35275015822697681 0 0.32587863845982229 0.36292843421553589 0 0.31660000105395047 0.35048073435553029 0 0.32727233231668912 0.35275015822697681 0 0.32418323241696889 0.34502259354020998 0 0.32727233231668912 0.35275015822697681 0 0.32418323241696889 0.34502259354020998 0 0.33284763329226408 0.34734143382917371 0 0.35010440123723008 0.36316433422236422 0 0.33685215636043958 0.35797759519443401 0 0.34323575832283038 0.34704683967312022 0 0.328674038230373 0.33957523835959652 0 0.32418323241696889 0.34502259354020998 0 0.33284763329226408 0.34734143382917371 0 0.32727233231668912 0.35275015822697681 0 0.33284763329226408 0.34734143382917371 0 0.33685215636043958 0.35797759519443401 0 0.32727233231668912 0.35275015822697681 0 0.33685215636043958 0.35797759519443401 0 0.32587863845982229 0.36292843421553589 0 0.33284763329226408 0.34734143382917371 0 0.33685215636043958 0.35797759519443401 0 0.34323575832283038 0.34704683967312022 0 0.33612048527201011 0.34132432046527672 0 0.33284763329226408 0.34734143382917371 0 0.34323575832283038 0.34704683967312022 0 0.33685215636043958 0.35797759519443401 0 0.33581017480710212 0.37430744675231742 0 0.32587863845982229 0.36292843421553589 0 0.35010440123723008 0.36316433422236422 0 0.33685215636043958 0.35797759519443401 0 0.33581017480710212 0.37430744675231742 0 0.32061406952607252 0.37851981779320448 0 0.33581017480710212 0.37430744675231742 0 0.32587863845982229 0.36292843421553589 0 0.30581500257232769 0.37582932693955301 0 0.32061406952607252 0.37851981779320448 0 0.3130936187719397 0.36327065740186898 0 0.32061406952607252 0.37851981779320448 0 0.32587863845982229 0.36292843421553589 0 0.3130936187719397 0.36327065740186898 0 0.30581500257232769 0.37582932693955301 0 0.3130936187719397 0.36327065740186898 0 0.30334852578774751 0.36556858311058787 0 0.3130936187719397 0.36327065740186898 0 0.30334852578774751 0.36556858311058787 0 0.30295020748880158 0.35736922054048459 0 0.30334852578774751 0.36556858311058787 0 0.29592449394281062 0.36924747941366282 0 0.29684277243989748 0.35973412968445251 0 0.30334852578774751 0.36556858311058787 0 0.30295020748880158 0.35736922054048459 0 0.29684277243989748 0.35973412968445251 0 0.30581500257232769 0.37582932693955301 0 0.30334852578774751 0.36556858311058787 0 0.29592449394281062 0.36924747941366282 0 0.31292197000169958 0.33938673636739458 0 0.31660000105395047 0.35048073435553029 0 0.3064222474616064 0.34438857639467102 0 0.31660000105395047 0.35048073435553029 0 0.3064222474616064 0.34438857639467102 0 0.30850769695047908 0.35193407353077671 0 0.3064222474616064 0.34438857639467102 0 0.30850769695047908 0.35193407353077671 0 0.30231067060964101 0.35008178746936908 0 0.3130936187719397 0.36327065740186898 0 0.30850769695047908 0.35193407353077671 0 0.30295020748880158 0.35736922054048459 0 0.30295020748880158 0.35736922054048459 0 0.29629308619899769 0.3525518371948505 0 0.29684277243989748 0.35973412968445251 0 0.30295020748880158 0.35736922054048459 0 0.30231067060964101 0.35008178746936908 0 0.29629308619899769 0.3525518371948505 0 0.30850769695047908 0.35193407353077671 0 0.30295020748880158 0.35736922054048459 0 0.30231067060964101 0.35008178746936908 0 0.29738011494832017 0.34416522968606278 0 0.30231067060964101 0.35008178746936908 0 0.29629308619899769 0.3525518371948505 0 0.3064222474616064 0.34438857639467102 0 0.29738011494832017 0.34416522968606278 0 0.30231067060964101 0.35008178746936908 0 0.28850183994036321 0.3471122666085753 0 0.2842987371892608 0.36234934512222589 0 0.27774728655223813 0.34541255080062672 0 0.29738011494832017 0.34416522968606278 0 0.28850183994036321 0.3471122666085753 0 0.29196103858734451 0.34055515538070719 0 0.29738011494832017 0.34416522968606278 0 0.29629308619899769 0.3525518371948505 0 0.28850183994036321 0.3471122666085753 0 0.29629308619899769 0.3525518371948505 0 0.29158151817008482 0.35706234600622999 0 0.28850183994036321 0.3471122666085753 0 0.29629308619899769 0.3525518371948505 0 0.29158151817008482 0.35706234600622999 0 0.29684277243989748 0.35973412968445251 0 0.29158151817008482 0.35706234600622999 0 0.28850183994036321 0.3471122666085753 0 0.2842987371892608 0.36234934512222589 0 0.29494787720314941 0.38987947609778129 0 0.29592449394281062 0.36924747941366282 0 0.2842987371892608 0.36234934512222589 0 0.29592449394281062 0.36924747941366282 0 0.29029404846448031 0.3621240155273765 0 0.2842987371892608 0.36234934512222589 0 0.29592449394281062 0.36924747941366282 0 0.29684277243989748 0.35973412968445251 0 0.29029404846448031 0.3621240155273765 0 0.29158151817008482 0.35706234600622999 0 0.29684277243989748 0.35973412968445251 0 0.29029404846448031 0.3621240155273765 0 0.29029404846448031 0.3621240155273765 0 0.2842987371892608 0.36234934512222589 0 0.29158151817008482 0.35706234600622999 0 0.29029404846448031 0.3621240155273765 0 0.2842987371892608 0.36234934512222589 0 0.26934552241690951 0.38641429155500778 0 0.27648167010992503 0.37417026719607138 0 0.26779934750437168 0.362969463181543 0 0.2842987371892608 0.36234934512222589 0 0.26779934750437168 0.362969463181543 0 0.2842987371892608 0.36234934512222589 0 0.27648167010992503 0.37417026719607138 0 0.26779934750437168 0.362969463181543 0 0.2842987371892608 0.36234934512222589 0 0.27774728655223813 0.34541255080062672 0 0.26779934750437168 0.362969463181543 0 0.27774728655223813 0.34541255080062672 0 0.26304427533009372 0.34879241369253022 0 0.2842987371892608 0.36234934512222589 0 0.26779934750437168 0.362969463181543 0 0.27774728655223813 0.34541255080062672 0 0.27774728655223813 0.34541255080062672 0 0.26304427533009372 0.34879241369253022 0 0.26715791754237111 0.33930200970935331 0 0.26779934750437168 0.362969463181543 0 0.26304427533009372 0.34879241369253022 0 0.25630035840621962 0.35549909445953209 0 0.24819205505449121 0.35052763600723369 0 0.26304427533009372 0.34879241369253022 0 0.25786204442318528 0.33476587005469932 0 0.24819205505449121 0.35052763600723369 0 0.25630035840621962 0.35549909445953209 0 0.25129995781948239 0.36358958124085561 0 0.24819205505449121 0.35052763600723369 0 0.26304427533009372 0.34879241369253022 0 0.25630035840621962 0.35549909445953209 0 0.26779934750437168 0.362969463181543 0 0.25630035840621962 0.35549909445953209 0 0.25129995781948239 0.36358958124085561 0 0.26779934750437168 0.362969463181543 0 0.25129995781948239 0.36358958124085561 0 0.26934552241690951 0.38641429155500778 0 0.26779934750437168 0.362969463181543 0 0.25129995781948239 0.36358958124085561 0 0.26934552241690951 0.38641429155500778 0 0.25129995781948239 0.36358958124085561 0 0.25183242829235308 0.36582745696640578 0 0.25129995781948239 0.36358958124085561 0 0.25183242829235308 0.36582745696640578 0 0.26018463714650741 0.31952255250017653 0 0.25786204442318528 0.33476587005469932 0 0.26753203379187518 0.31900410410216251 0 0.25786204442318528 0.33476587005469932 0 0.26753203379187518 0.31900410410216251 0 0.25786204442318528 0.33476587005469932 0 0.2639942282968149 0.3294541220997142 0 0.26753203379187518 0.31900410410216251 0 0.26463857124487072 0.31688866937927862 0 0.26018463714650741 0.31952255250017653 0 0.26753203379187518 0.31900410410216251 0 0.26463857124487072 0.31688866937927862 0 0.26358957808755612 0.31280891701441499 0 0.26018463714650741 0.31952255250017653 0 0.26463857124487072 0.31688866937927862 0 0.26358957808755612 0.31280891701441499 0 0.26642741735105052 0.31478224243593911 0 0.26358957808755612 0.31280891701441499 0 0.26018463714650741 0.31952255250017653 0 0.25720587426967922 0.31417611785015809 0 0.24922446385908911 0.31055272940810158 0 0.25720587426967922 0.31417611785015809 0 0.25268802066888468 0.32026758447247022 0 0.26018463714650741 0.31952255250017653 0 0.25720587426967922 0.31417611785015809 0 0.25268802066888468 0.32026758447247022 0 0.26018463714650741 0.31952255250017653 0 0.25268802066888468 0.32026758447247022 0 0.25786204442318528 0.33476587005469932 0 0.24240589367588089 0.32620946109790611 0 0.25268802066888468 0.32026758447247022 0 0.25786204442318528 0.33476587005469932 0 0.24819205505449121 0.35052763600723369 0 0.25786204442318528 0.33476587005469932 0 0.26304427533009372 0.34879241369253022 0 0.25786204442318528 0.33476587005469932 0 0.26715791754237111 0.33930200970935331 0 0.25786204442318528 0.33476587005469932 0 0.2639942282968149 0.3294541220997142 0 0.26715791754237111 0.33930200970935331 0 0.27774728655223813 0.34541255080062672 0 0.27119583591521418 0.32847575647902788 0 0.26715791754237111 0.33930200970935331 0 0.2639942282968149 0.3294541220997142 0 0.27119583591521418 0.32847575647902788 0 0.2639942282968149 0.3294541220997142 0 0.27119583591521418 0.32847575647902788 0 0.26715791754237111 0.33930200970935331 0 0.27774728655223813 0.34541255080062672 0 0.27119583591521418 0.32847575647902788 0 0.27774728655223813 0.34541255080062672 0 0.27119583591521418 0.32847575647902788 0 0.28567039964146301 0.33629025236978938 0 0.27119583591521418 0.32847575647902788 0 0.27381596447230078 0.31864211696870282 0 0.28237437344001259 0.31953235338459041 0 0.27119583591521418 0.32847575647902788 0 0.26753203379187518 0.31900410410216251 0 0.27381596447230078 0.31864211696870282 0 0.2639942282968149 0.3294541220997142 0 0.27119583591521418 0.32847575647902788 0 0.26753203379187518 0.31900410410216251 0 0.27119583591521418 0.32847575647902788 0 0.26753203379187518 0.31900410410216251 0 0.26642741735105052 0.31478224243593911 0 0.26961350770576992 0.31561136979644733 0 0.26827072202398339 0.31083485523110149 0 0.26358957808755612 0.31280891701441499 0 0.26642741735105052 0.31478224243593911 0 0.26827072202398339 0.31083485523110149 0 0.26642741735105052 0.31478224243593911 0 0.26753203379187518 0.31900410410216251 0 0.26961350770576992 0.31561136979644733 0 0.26463857124487072 0.31688866937927862 0 0.26642741735105052 0.31478224243593911 0 0.26753203379187518 0.31900410410216251 0 0.26753203379187518 0.31900410410216251 0 0.26961350770576992 0.31561136979644733 0 0.26753203379187518 0.31900410410216251 0 0.26961350770576992 0.31561136979644733 0 0.27381596447230078 0.31864211696870282 0 0.26961350770576992 0.31561136979644733 0 0.27435521668882262 0.31159788122818499 0 0.26827072202398339 0.31083485523110149 0 0.26961350770576992 0.31561136979644733 0 0.27381596447230078 0.31864211696870282 0 0.27435521668882262 0.31159788122818499 0 0.27381596447230078 0.31864211696870282 0 0.28237437344001259 0.31953235338459041 0 0.27435521668882262 0.31159788122818499 0 0.28237437344001259 0.31953235338459041 0 0.29341850763442601 0.31723239179866791 0 0.27435521668882262 0.31159788122818499 0 0.27119583591521418 0.32847575647902788 0 0.28237437344001259 0.31953235338459041 0 0.29183881724762178 0.32567132942408927 0 0.29341850763442601 0.31723239179866791 0 0.29379553081456411 0.31060621590657178 0 0.27435521668882262 0.31159788122818499 0 0.29341850763442601 0.31723239179866791 0 0.27435521668882262 0.31159788122818499 0 0.27119583591521418 0.32847575647902788 0 0.29183881724762178 0.32567132942408927 0 0.28237437344001259 0.31953235338459041 0 0.29183881724762178 0.32567132942408927 0 0.29341850763442601 0.31723239179866791 0 0.27119583591521418 0.32847575647902788 0 0.29183881724762178 0.32567132942408927 0 0.28567039964146301 0.33629025236978938 0 0.28850183994036321 0.3471122666085753 0 0.28567039964146301 0.33629025236978938 0 0.29196103858734451 0.34055515538070719 0 0.28850183994036321 0.3471122666085753 0 0.27774728655223813 0.34541255080062672 0 0.28567039964146301 0.33629025236978938 0 0.29183881724762178 0.32567132942408927 0 0.29629179981923182 0.3346528728584014 0 0.30082469637776332 0.33251644108614342 0 0.29183881724762178 0.32567132942408927 0 0.28567039964146301 0.33629025236978938 0 0.29629179981923182 0.3346528728584014 0 0.29738011494832017 0.34416522968606278 0 0.29629179981923182 0.3346528728584014 0 0.29196103858734451 0.34055515538070719 0 0.28567039964146301 0.33629025236978938 0 0.29629179981923182 0.3346528728584014 0 0.29196103858734451 0.34055515538070719 0 0.29738011494832017 0.34416522968606278 0 0.29629179981923182 0.3346528728584014 0 0.30162601951859103 0.33867567876518018 0 0.3064222474616064 0.34438857639467102 0 0.29738011494832017 0.34416522968606278 0 0.30162601951859103 0.33867567876518018 0 0.29183881724762178 0.32567132942408927 0 0.30082469637776332 0.33251644108614342 0 0.30688042728313469 0.32816760187025917 0 0.30162601951859103 0.33867567876518018 0 0.30082469637776332 0.33251644108614342 0 0.30748641802023718 0.33541472251278731 0 0.29629179981923182 0.3346528728584014 0 0.30162601951859103 0.33867567876518018 0 0.30082469637776332 0.33251644108614342 0 0.31346675344917779 0.33200583145720453 0 0.30688042728313469 0.32816760187025917 0 0.30748641802023718 0.33541472251278731 0 0.31346675344917779 0.33200583145720453 0 0.31292197000169958 0.33938673636739458 0 0.30748641802023718 0.33541472251278731 0 0.30082469637776332 0.33251644108614342 0 0.30688042728313469 0.32816760187025917 0 0.30748641802023718 0.33541472251278731 0 0.31292197000169958 0.33938673636739458 0 0.3064222474616064 0.34438857639467102 0 0.30748641802023718 0.33541472251278731 0 0.3064222474616064 0.34438857639467102 0 0.30162601951859103 0.33867567876518018 0 0.30748641802023718 0.33541472251278731 0 0.29341850763442601 0.31723239179866791 0 0.31248179858002939 0.32286690236915072 0 0.29341850763442601 0.31723239179866791 0 0.30349796374687638 0.31697988238450248 0 0.31248179858002939 0.32286690236915072 0 0.29183881724762178 0.32567132942408927 0 0.30688042728313469 0.32816760187025917 0 0.31248179858002939 0.32286690236915072 0 0.29183881724762178 0.32567132942408927 0 0.29341850763442601 0.31723239179866791 0 0.31248179858002939 0.32286690236915072 0 0.31429601795848622 0.31721401946361982 0 0.29379553081456411 0.31060621590657178 0 0.31429601795848622 0.31721401946361982 0 0.30349796374687638 0.31697988238450248 0 0.29379553081456411 0.31060621590657178 0 0.31429601795848622 0.31721401946361982 0 0.30534239959038151 0.30988738182549441 0 0.29379553081456411 0.31060621590657178 0 0.29183881724762178 0.32567132942408927 0 0.31248179858002939 0.32286690236915072 0 0.29341850763442601 0.31723239179866791 0 0.30349796374687638 0.31697988238450248 0 0.29379553081456411 0.31060621590657178 0 0.31346675344917779 0.33200583145720453 0 0.30688042728313469 0.32816760187025917 0 0.31248179858002939 0.32286690236915072 0 0.31429601795848622 0.31721401946361982 0 0.30349796374687638 0.31697988238450248 0 0.31248179858002939 0.32286690236915072 0 0.31429601795848622 0.31721401946361982 0 0.30534239959038151 0.30988738182549441 0 0.31352345225364919 0.30899693970393022 0 0.30534239959038151 0.30988738182549441 0 0.30892579758494759 0.30483780258744853 0 0.31352345225364919 0.30899693970393022 0 0.30534239959038151 0.30988738182549441 0 0.30892579758494759 0.30483780258744853 0 0.30395441681617591 0.30350851143386282 0 0.30892579758494759 0.30483780258744853 0 0.31352345225364919 0.30899693970393022 0 0.31446660992211689 0.3019499571308506 0 0.30892579758494759 0.30483780258744853 0 0.30759408463550653 0.29850737988544901 0 0.31446660992211689 0.3019499571308506 0 0.30892579758494759 0.30483780258744853 0 0.30759408463550653 0.29850737988544901 0 0.30395441681617591 0.30350851143386282 0 0.30759408463550653 0.29850737988544901 0 0.30395441681617591 0.30350851143386282 0 0.29910240461630561 0.29876443063801078 0 0.30395441681617591 0.30350851143386282 0 0.29910240461630561 0.29876443063801078 0 0.29880739765373843 0.30554556223291113 0 0.30534239959038151 0.30988738182549441 0 0.29880739765373843 0.30554556223291113 0 0.29379553081456411 0.31060621590657178 0 0.30534239959038151 0.30988738182549441 0 0.30395441681617591 0.30350851143386282 0 0.29880739765373843 0.30554556223291113 0 0.3065733436439933 0.28186517086237928 0 0.30986842677000798 0.28980602033589992 0 0.30178950298104767 0.28934972057157488 0 0.3065733436439933 0.28186517086237928 0 0.30986842677000798 0.28980602033589992 0 0.31665490986542899 0.28530550918560188 0 0.30759408463550653 0.29850737988544901 0 0.30986842677000798 0.28980602033589992 0 0.31673029272406361 0.29400232117449421 0 0.30759408463550653 0.29850737988544901 0 0.30986842677000798 0.28980602033589992 0 0.30178950298104767 0.28934972057157488 0 0.29910240461630561 0.29876443063801078 0 0.30178950298104767 0.28934972057157488 0 0.29064574571043078 0.28685843922092208 0 0.30759408463550653 0.29850737988544901 0 0.29910240461630561 0.29876443063801078 0 0.30178950298104767 0.28934972057157488 0 0.30178950298104767 0.28934972057157488 0 0.29064574571043078 0.28685843922092208 0 0.2991991428216611 0.2758214958226074 0 0.3065733436439933 0.28186517086237928 0 0.30178950298104767 0.28934972057157488 0 0.2991991428216611 0.2758214958226074 0 0.29910240461630561 0.29876443063801078 0 0.29064574571043078 0.28685843922092208 0 0.29263855728370242 0.30246668823221451 0 0.29064574571043078 0.28685843922092208 0 0.29263855728370242 0.30246668823221451 0 0.28558840090096599 0.30048073887375037 0 0.29064574571043078 0.28685843922092208 0 0.28558840090096599 0.30048073887375037 0 0.28031233535015337 0.29586552861272419 0 0.29379553081456411 0.31060621590657178 0 0.28558840090096599 0.30048073887375037 0 0.27329504367064178 0.30399841234952379 0 0.29379553081456411 0.31060621590657178 0 0.27329504367064178 0.30399841234952379 0 0.29880739765373843 0.30554556223291113 0 0.29379553081456411 0.31060621590657178 0 0.29263855728370242 0.30246668823221451 0 0.29910240461630561 0.29876443063801078 0 0.29880739765373843 0.30554556223291113 0 0.29263855728370242 0.30246668823221451 0 0.29379553081456411 0.31060621590657178 0 0.29263855728370242 0.30246668823221451 0 0.28558840090096599 0.30048073887375037 0 0.29379553081456411 0.31060621590657178 0 0.27435521668882262 0.31159788122818499 0 0.27329504367064178 0.30399841234952379 0 0.27329504367064178 0.30399841234952379 0 0.27172015111857523 0.29212452400670019 0 0.25279455652671928 0.29739060879247697 0 0.26827072202398339 0.31083485523110149 0 0.27329504367064178 0.30399841234952379 0 0.26034267158635888 0.3077288058556274 0 0.27435521668882262 0.31159788122818499 0 0.26827072202398339 0.31083485523110149 0 0.27329504367064178 0.30399841234952379 0 0.27329504367064178 0.30399841234952379 0 0.28031233535015337 0.29586552861272419 0 0.27172015111857523 0.29212452400670019 0 0.28558840090096599 0.30048073887375037 0 0.27329504367064178 0.30399841234952379 0 0.28031233535015337 0.29586552861272419 0 0.29064574571043078 0.28685843922092208 0 0.28031233535015337 0.29586552861272419 0 0.27172015111857523 0.29212452400670019 0 0.29064574571043078 0.28685843922092208 0 0.27279422699126449 0.28183374064655481 0 0.27172015111857523 0.29212452400670019 0 0.29064574571043078 0.28685843922092208 0 0.27172015111857523 0.29212452400670019 0 0.27279422699126449 0.28183374064655481 0 0.27172015111857523 0.29212452400670019 0 0.26066338764889041 0.28239648693970559 0 0.2459560110871154 0.28044065192532458 0 0.26066338764889041 0.28239648693970559 0 0.25279455652671928 0.29739060879247697 0 0.27172015111857523 0.29212452400670019 0 0.25279455652671928 0.29739060879247697 0 0.27172015111857523 0.29212452400670019 0 0.26066338764889041 0.28239648693970559 0 0.25279455652671928 0.29739060879247697 0 0.27329504367064178 0.30399841234952379 0 0.25279455652671928 0.29739060879247697 0 0.26034267158635888 0.3077288058556274 0 0.27329504367064178 0.30399841234952379 0 0.25279455652671928 0.29739060879247697 0 0.24922446385908911 0.31055272940810158 0 0.25720587426967922 0.31417611785015809 0 0.26034267158635888 0.3077288058556274 0 0.24922446385908911 0.31055272940810158 0 0.25279455652671928 0.29739060879247697 0 0.26034267158635888 0.3077288058556274 0 0.26358957808755612 0.31280891701441499 0 0.26827072202398339 0.31083485523110149 0 0.26034267158635888 0.3077288058556274 0 0.26358957808755612 0.31280891701441499 0 0.25720587426967922 0.31417611785015809 0 0.26034267158635888 0.3077288058556274 0 0.25441855054454432 0.25563729412123742 0 0.2667221708860909 0.25716103573333499 0 0.26031403403548131 0.2402604575509816 0 0.25441855054454432 0.25563729412123742 0 0.25616004720769131 0.26912097196986329 0 0.2667221708860909 0.25716103573333499 0 0.2420987772361087 0.26631129006276572 0 0.25441855054454432 0.25563729412123742 0 0.25616004720769131 0.26912097196986329 0 0.2459560110871154 0.28044065192532458 0 0.26066338764889041 0.28239648693970559 0 0.25616004720769131 0.26912097196986329 0 0.26066338764889041 0.28239648693970559 0 0.25616004720769131 0.26912097196986329 0 0.26856145263663073 0.27108666602127529 0 0.25616004720769131 0.26912097196986329 0 0.26856145263663073 0.27108666602127529 0 0.2667221708860909 0.25716103573333499 0 0.29064574571043078 0.28685843922092208 0 0.27279422699126449 0.28183374064655481 0 0.27888155031670941 0.27423723597352317 0 0.27279422699126449 0.28183374064655481 0 0.26066338764889041 0.28239648693970559 0 0.26856145263663073 0.27108666602127529 0 0.27279422699126449 0.28183374064655481 0 0.26856145263663073 0.27108666602127529 0 0.27888155031670941 0.27423723597352317 0 0.26856145263663073 0.27108666602127529 0 0.27888155031670941 0.27423723597352317 0 0.27702159914609131 0.26417280055534931 0 0.2667221708860909 0.25716103573333499 0 0.28350982114301537 0.25340827336100907 0 0.26031403403548131 0.2402604575509816 0 0.27702159914609131 0.26417280055534931 0 0.2667221708860909 0.25716103573333499 0 0.28350982114301537 0.25340827336100907 0 0.26856145263663073 0.27108666602127529 0 0.27702159914609131 0.26417280055534931 0 0.2667221708860909 0.25716103573333499 0 0.27702159914609131 0.26417280055534931 0 0.28350982114301537 0.25340827336100907 0 0.28918153350191728 0.26977534306896139 0 0.28350982114301537 0.25340827336100907 0 0.30642368583217472 0.253973570375916 0 0.29769131417516809 0.24543768908422581 0 0.28350982114301537 0.25340827336100907 0 0.28918153350191728 0.26977534306896139 0 0.30670560825054971 0.26655608917103668 0 0.28350982114301537 0.25340827336100907 0 0.30670560825054971 0.26655608917103668 0 0.29064574571043078 0.28685843922092208 0 0.28918153350191728 0.26977534306896139 0 0.2991991428216611 0.2758214958226074 0 0.29064574571043078 0.28685843922092208 0 0.27888155031670941 0.27423723597352317 0 0.28918153350191728 0.26977534306896139 0 0.27888155031670941 0.27423723597352317 0 0.27702159914609131 0.26417280055534931 0 0.28918153350191728 0.26977534306896139 0 0.3065733436439933 0.28186517086237928 0 0.30670560825054971 0.26655608917103668 0 0.31665490986542899 0.28530550918560188 0 0.28918153350191728 0.26977534306896139 0 0.2991991428216611 0.2758214958226074 0 0.30670560825054971 0.26655608917103668 0 0.3065733436439933 0.28186517086237928 0 0.2991991428216611 0.2758214958226074 0 0.30670560825054971 0.26655608917103668 0 0.28350982114301537 0.25340827336100907 0 0.30670560825054971 0.26655608917103668 0 0.30642368583217472 0.253973570375916 0 0.30670560825054971 0.26655608917103668 0 0.30642368583217472 0.253973570375916 0 0.31796767809076099 0.2637123738068729 0 0.30642368583217472 0.253973570375916 0 0.31779452277496761 0.25393542713122691 0 0.31796767809076099 0.2637123738068729 0 0.31779452277496761 0.25393542713122691 0 0.31796767809076099 0.2637123738068729 0 0.32901317823802939 0.26439287737511979 0 0.31779452277496761 0.25393542713122691 0 0.32851575443267339 0.25368014921509868 0 0.3322433811071151 0.24362456497306439 0 0.31779452277496761 0.25393542713122691 0 0.32851575443267339 0.25368014921509868 0 0.32901317823802939 0.26439287737511979 0 0.32851575443267339 0.25368014921509868 0 0.32901317823802939 0.26439287737511979 0 0.34361429855155301 0.25969992717376572 0 0.32851575443267339 0.25368014921509868 0 0.34361429855155301 0.25969992717376572 0 0.34225011193596688 0.24554605033966259 0 0.34361429855155301 0.25969992717376572 0 0.32990139535808338 0.2797039049810649 0 0.32901317823802939 0.26439287737511979 0 0.34361429855155301 0.25969992717376572 0 0.32990139535808338 0.2797039049810649 0 0.34361429855155301 0.25969992717376572 0 0.32990139535808338 0.2797039049810649 0 0.34469680888834142 0.27443361327585558 0 0.30670560825054971 0.26655608917103668 0 0.32990139535808338 0.2797039049810649 0 0.31665490986542899 0.28530550918560188 0 0.31796767809076099 0.2637123738068729 0 0.32901317823802939 0.26439287737511979 0 0.32990139535808338 0.2797039049810649 0 0.30670560825054971 0.26655608917103668 0 0.32990139535808338 0.2797039049810649 0 0.30670560825054971 0.26655608917103668 0 0.31796767809076099 0.2637123738068729 0 0.32990139535808338 0.2797039049810649 0 0.31665490986542899 0.28530550918560188 0 0.31673029272406361 0.29400232117449421 0 0.32441144175356468 0.28771248700913571 0 0.30986842677000798 0.28980602033589992 0 0.31665490986542899 0.28530550918560188 0 0.31673029272406361 0.29400232117449421 0 0.32441144175356468 0.28771248700913571 0 0.32522033212370283 0.29755915780397763 0 0.33036147648750791 0.29421103015776923 0 0.31673029272406361 0.29400232117449421 0 0.32441144175356468 0.28771248700913571 0 0.32522033212370283 0.29755915780397763 0 0.32990139535808338 0.2797039049810649 0 0.32441144175356468 0.28771248700913571 0 0.32990139535808338 0.2797039049810649 0 0.31665490986542899 0.28530550918560188 0 0.32441144175356468 0.28771248700913571 0 0.31853047402505091 0.31242401551197252 0 0.31352345225364919 0.30899693970393022 0 0.32036537141965887 0.30573167234587662 0 0.31352345225364919 0.30899693970393022 0 0.31446660992211689 0.3019499571308506 0 0.32036537141965887 0.30573167234587662 0 0.30759408463550653 0.29850737988544901 0 0.31673029272406361 0.29400232117449421 0 0.31446660992211689 0.3019499571308506 0 0.31673029272406361 0.29400232117449421 0 0.31446660992211689 0.3019499571308506 0 0.31930982488521742 0.29965544982636189 0 0.31446660992211689 0.3019499571308506 0 0.31930982488521742 0.29965544982636189 0 0.32036537141965887 0.30573167234587662 0 0.31673029272406361 0.29400232117449421 0 0.31930982488521742 0.29965544982636189 0 0.32522033212370283 0.29755915780397763 0 0.32522033212370283 0.29755915780397763 0 0.32036537141965887 0.30573167234587662 0 0.32707784670554813 0.30552214869972327 0 0.31930982488521742 0.29965544982636189 0 0.32522033212370283 0.29755915780397763 0 0.32036537141965887 0.30573167234587662 0 0.32036537141965887 0.30573167234587662 0 0.32707784670554813 0.30552214869972327 0 0.32491099881883512 0.31235209566326189 0 0.31853047402505091 0.31242401551197252 0 0.32036537141965887 0.30573167234587662 0 0.32491099881883512 0.31235209566326189 0 0.33272829778035801 0.30991178056899582 0 0.33216423338518541 0.30205603711650492 0 0.33953053981004883 0.3043435964177893 0 0.32707784670554813 0.30552214869972327 0 0.32491099881883512 0.31235209566326189 0 0.33272829778035801 0.30991178056899582 0 0.32707784670554813 0.30552214869972327 0 0.33272829778035801 0.30991178056899582 0 0.33216423338518541 0.30205603711650492 0 0.33216423338518541 0.30205603711650492 0 0.33571406082174943 0.29753790917151768 0 0.33036147648750791 0.29421103015776923 0 0.32522033212370283 0.29755915780397763 0 0.32707784670554813 0.30552214869972327 0 0.33216423338518541 0.30205603711650492 0 0.32522033212370283 0.29755915780397763 0 0.33216423338518541 0.30205603711650492 0 0.33036147648750791 0.29421103015776923 0 0.33216423338518541 0.30205603711650492 0 0.33571406082174943 0.29753790917151768 0 0.33953053981004883 0.3043435964177893 0 0.34101753954911329 0.29819624987115262 0 0.33953053981004883 0.3043435964177893 0 0.34909472845644812 0.29943140968975729 0 0.33571406082174943 0.29753790917151768 0 0.34101753954911329 0.29819624987115262 0 0.33953053981004883 0.3043435964177893 0 0.33571406082174943 0.29753790917151768 0 0.34101753954911329 0.29819624987115262 0 0.33848717940555162 0.29525005689364658 0 0.33272829778035801 0.30991178056899582 0 0.33953053981004883 0.3043435964177893 0 0.3421876984749066 0.31066267255465407 0 0.32990139535808338 0.2797039049810649 0 0.33479481016680512 0.28947684146712599 0 0.34772931370392612 0.28980911010304278 0 0.32990139535808338 0.2797039049810649 0 0.34772931370392612 0.28980911010304278 0 0.34469680888834142 0.27443361327585558 0 0.32990139535808338 0.2797039049810649 0 0.34772931370392612 0.28980911010304278 0 0.32990139535808338 0.2797039049810649 0 0.32441144175356468 0.28771248700913571 0 0.33479481016680512 0.28947684146712599 0 0.32441144175356468 0.28771248700913571 0 0.33036147648750791 0.29421103015776923 0 0.33479481016680512 0.28947684146712599 0 0.33571406082174943 0.29753790917151768 0 0.33036147648750791 0.29421103015776923 0 0.33525228080207259 0.29306671959905461 0 0.33036147648750791 0.29421103015776923 0 0.33525228080207259 0.29306671959905461 0 0.33479481016680512 0.28947684146712599 0 0.33479481016680512 0.28947684146712599 0 0.34111295289567639 0.29235779695268899 0 0.34772931370392612 0.28980911010304278 0 0.33525228080207259 0.29306671959905461 0 0.33479481016680512 0.28947684146712599 0 0.34111295289567639 0.29235779695268899 0 0.33571406082174943 0.29753790917151768 0 0.33525228080207259 0.29306671959905461 0 0.33848717940555162 0.29525005689364658 0 0.33525228080207259 0.29306671959905461 0 0.33848717940555162 0.29525005689364658 0 0.34111295289567639 0.29235779695268899 0 0.34101753954911329 0.29819624987115262 0 0.33848717940555162 0.29525005689364658 0 0.34111295289567639 0.29235779695268899 0 0.34101753954911329 0.29819624987115262 0 0.34111295289567639 0.29235779695268899 0 0.34446975161280058 0.29533266062561958 0 0.34111295289567639 0.29235779695268899 0 0.34466376525287662 0.29247391179380472 0 0.34446975161280058 0.29533266062561958 0 0.34689760215594861 0.29156126125139148 0 0.34824017483828218 0.2939758134459084 0 0.34772931370392612 0.28980911010304278 0 0.34111295289567639 0.29235779695268899 0 0.34466376525287662 0.29247391179380472 0 0.34772931370392612 0.28980911010304278 0 0.34466376525287662 0.29247391179380472 0 0.34689760215594861 0.29156126125139148 0 0.34772931370392612 0.28980911010304278 0 0.34466376525287662 0.29247391179380472 0 0.34689760215594861 0.29156126125139148 0 0.34824017483828218 0.2939758134459084 0 0.34689760215594861 0.29156126125139148 0 0.34772931370392612 0.28980911010304278 0 0.34446975161280058 0.29533266062561958 0 0.34824017483828218 0.2939758134459084 0 0.34909472845644812 0.29943140968975729 0 0.34466376525287662 0.29247391179380472 0 0.34446975161280058 0.29533266062561958 0 0.34824017483828218 0.2939758134459084 0 0.34824017483828218 0.2939758134459084 0 0.35527484712623147 0.29408606277401389 0 0.34909472845644812 0.29943140968975729 0 0.34824017483828218 0.2939758134459084 0 0.34772931370392612 0.28980911010304278 0 0.35527484712623147 0.29408606277401389 0 0.34772931370392612 0.28980911010304278 0 0.35527484712623147 0.29408606277401389 0 0.35527484712623147 0.29408606277401389 0 0.35586514006528158 0.28842442188692902 0 0.36479342988713021 0.29187454911648608 0 0.34772931370392612 0.28980911010304278 0 0.35527484712623147 0.29408606277401389 0 0.35586514006528158 0.28842442188692902 0 0.34772931370392612 0.28980911010304278 0 0.35586514006528158 0.28842442188692902 0 0.35800453213486461 0.28047575811749648 0 0.33953053981004883 0.3043435964177893 0 0.3421876984749066 0.31066267255465407 0 0.35023758078297429 0.30802941204737189 0 0.35151498172173712 0.31756409687413539 0 0.3421876984749066 0.31066267255465407 0 0.35023758078297429 0.30802941204737189 0 0.34101753954911329 0.29819624987115262 0 0.34446975161280058 0.29533266062561958 0 0.34909472845644812 0.29943140968975729 0 0.33953053981004883 0.3043435964177893 0 0.35023758078297429 0.30802941204737189 0 0.34909472845644812 0.29943140968975729 0 0.35527484712623147 0.29408606277401389 0 0.35814591876930779 0.302396940439557 0 0.36150688891513072 0.29776438437414088 0 0.35527484712623147 0.29408606277401389 0 0.34909472845644812 0.29943140968975729 0 0.35814591876930779 0.302396940439557 0 0.35023758078297429 0.30802941204737189 0 0.34909472845644812 0.29943140968975729 0 0.35814591876930779 0.302396940439557 0 0.36095161746539761 0.3137777563083386 0 0.35023758078297429 0.30802941204737189 0 0.35814591876930779 0.302396940439557 0 0.36095161746539761 0.3137777563083386 0 0.35814591876930779 0.302396940439557 0 0.36781335987785352 0.30269998516650659 0 0.35814591876930779 0.302396940439557 0 0.36150688891513072 0.29776438437414088 0 0.36781335987785352 0.30269998516650659 0 0.36150688891513072 0.29776438437414088 0 0.36781335987785352 0.30269998516650659 0 0.36479342988713021 0.29187454911648608 0 0.36781335987785352 0.30269998516650659 0 0.36479342988713021 0.29187454911648608 0 0.37722208914542582 0.29958875219635028 0 0.37302190852298428 0.31709005754215652 0 0.36781335987785352 0.30269998516650659 0 0.37998594236581662 0.30927504867216532 0 0.37302190852298428 0.31709005754215652 0 0.36095161746539761 0.3137777563083386 0 0.36781335987785352 0.30269998516650659 0 0.36479342988713021 0.29187454911648608 0 0.36912642802107543 0.28416235758397929 0 0.35800453213486461 0.28047575811749648 0 0.35586514006528158 0.28842442188692902 0 0.36479342988713021 0.29187454911648608 0 0.35800453213486461 0.28047575811749648 0 0.35527484712623147 0.29408606277401389 0 0.36150688891513072 0.29776438437414088 0 0.36479342988713021 0.29187454911648608 0 0.36479342988713021 0.29187454911648608 0 0.37514976041025022 0.28965247107150671 0 0.37722208914542582 0.29958875219635028 0 0.36479342988713021 0.29187454911648608 0 0.36912642802107543 0.28416235758397929 0 0.37514976041025022 0.28965247107150671 0 0.36912642802107543 0.28416235758397929 0 0.37678656735923372 0.28367546688784001 0 0.37514976041025022 0.28965247107150671 0 0.36912642802107543 0.28416235758397929 0 0.371360058165775 0.27502180372513629 0 0.37678656735923372 0.28367546688784001 0 0.36912642802107543 0.28416235758397929 0 0.371360058165775 0.27502180372513629 0 0.35800453213486461 0.28047575811749648 0 0.371360058165775 0.27502180372513629 0 0.35800453213486461 0.28047575811749648 0 0.35873962363736528 0.26661389628105681 0 0.371360058165775 0.27502180372513629 0 0.37293787395815842 0.26127074722223992 0 0.35873962363736528 0.26661389628105681 0 0.35569285218755903 0.25327773526953179 0 0.35873962363736528 0.26661389628105681 0 0.36974993357080471 0.24341868245907089 0 0.37293787395815842 0.26127074722223992 0 0.35873962363736528 0.26661389628105681 0 0.36974993357080471 0.24341868245907089 0 0.35873962363736528 0.26661389628105681 0 0.36974993357080471 0.24341868245907089 0 0.34361429855155301 0.25969992717376572 0 0.35569285218755903 0.25327773526953179 0 0.35873962363736528 0.26661389628105681 0 0.34361429855155301 0.25969992717376572 0 0.35569285218755903 0.25327773526953179 0 0.35732720174502253 0.2396959493664664 0 0.34772931370392612 0.28980911010304278 0 0.35800453213486461 0.28047575811749648 0 0.35873962363736528 0.26661389628105681 0 0.34772931370392612 0.28980911010304278 0 0.34469680888834142 0.27443361327585558 0 0.35873962363736528 0.26661389628105681 0 0.34361429855155301 0.25969992717376572 0 0.34469680888834142 0.27443361327585558 0 0.35873962363736528 0.26661389628105681 0 0.34772931370392612 0.28980911010304278 0 0.35873962363736528 0.26661389628105681 0 0.39248939350051659 0.27574953490451742 0 0.39863758833667479 0.2707375214346176 0 0.39187553093117222 0.26396458929953648 0 0.39248939350051659 0.27574953490451742 0 0.40275071125601097 0.27937970635757298 0 0.39863758833667479 0.2707375214346176 0 0.39248939350051659 0.27574953490451742 0 0.38383366625453369 0.27988570212326319 0 0.39566959796774592 0.28648720872322397 0 0.39248939350051659 0.27574953490451742 0 0.40275071125601097 0.27937970635757298 0 0.39566959796774592 0.28648720872322397 0 0.40275071125601097 0.27937970635757298 0 0.39863758833667479 0.2707375214346176 0 0.41274192034078039 0.27085888931392449 0 0.39863758833667479 0.2707375214346176 0 0.4044679409571878 0.26117564424635642 0 0.41274192034078039 0.27085888931392449 0 0.4044679409571878 0.26117564424635642 0 0.39567832587374102 0.25400701171074253 0 0.40754113612963189 0.246839457821182 0 0.39863758833667479 0.2707375214346176 0 0.4044679409571878 0.26117564424635642 0 0.39187553093117222 0.26396458929953648 0 0.4044679409571878 0.26117564424635642 0 0.39567832587374102 0.25400701171074253 0 0.39187553093117222 0.26396458929953648 0 0.39187553093117222 0.26396458929953648 0 0.38274786304311942 0.25292179484764721 0 0.38209189137372768 0.26837755879828812 0 0.37293787395815842 0.26127074722223992 0 0.38274786304311942 0.25292179484764721 0 0.36974993357080471 0.24341868245907089 0 0.39567832587374102 0.25400701171074253 0 0.39187553093117222 0.26396458929953648 0 0.38274786304311942 0.25292179484764721 0 0.37293787395815842 0.26127074722223992 0 0.38274786304311942 0.25292179484764721 0 0.38209189137372768 0.26837755879828812 0 0.371360058165775 0.27502180372513629 0 0.37293787395815842 0.26127074722223992 0 0.38209189137372768 0.26837755879828812 0 0.39248939350051659 0.27574953490451742 0 0.39187553093117222 0.26396458929953648 0 0.38209189137372768 0.26837755879828812 0 0.39248939350051659 0.27574953490451742 0 0.38209189137372768 0.26837755879828812 0 0.38383366625453369 0.27988570212326319 0 0.371360058165775 0.27502180372513629 0 0.38209189137372768 0.26837755879828812 0 0.38383366625453369 0.27988570212326319 0 0.371360058165775 0.27502180372513629 0 0.38383366625453369 0.27988570212326319 0 0.37678656735923372 0.28367546688784001 0 0.38383366625453369 0.27988570212326319 0 0.37678656735923372 0.28367546688784001 0 0.38446292394453402 0.28965499993531402 0 0.37678656735923372 0.28367546688784001 0 0.37514976041025022 0.28965247107150671 0 0.38446292394453402 0.28965499993531402 0 0.37514976041025022 0.28965247107150671 0 0.38446292394453402 0.28965499993531402 0 0.37722208914542582 0.29958875219635028 0 0.38446292394453402 0.28965499993531402 0 0.38753516813738892 0.30199986757746983 0 0.39410748963890108 0.2955640527176801 0 0.38383366625453369 0.27988570212326319 0 0.38446292394453402 0.28965499993531402 0 0.39566959796774592 0.28648720872322397 0 0.37998594236581662 0.30927504867216532 0 0.37722208914542582 0.29958875219635028 0 0.38753516813738892 0.30199986757746983 0 0.36781335987785352 0.30269998516650659 0 0.37998594236581662 0.30927504867216532 0 0.37722208914542582 0.29958875219635028 0 0.38446292394453402 0.28965499993531402 0 0.37722208914542582 0.29958875219635028 0 0.38753516813738892 0.30199986757746983 0 0.37998594236581662 0.30927504867216532 0 0.38753516813738892 0.30199986757746983 0 0.39044665743362073 0.31291507673879898 0 0.38753516813738892 0.30199986757746983 0 0.3979016482081229 0.30417423703416602 0 0.39044665743362073 0.31291507673879898 0 0.3979016482081229 0.30417423703416602 0 0.40156093075114491 0.31750113488738668 0 0.39044665743362073 0.31291507673879898 0 0.38753516813738892 0.30199986757746983 0 0.3979016482081229 0.30417423703416602 0 0.39410748963890108 0.2955640527176801 0 0.3979016482081229 0.30417423703416602 0 0.40496810993671362 0.29550395031822663 0 0.40798185198282472 0.30578497682145339 0 0.3979016482081229 0.30417423703416602 0 0.39410748963890108 0.2955640527176801 0 0.40496810993671362 0.29550395031822663 0 0.3979016482081229 0.30417423703416602 0 0.40798185198282472 0.30578497682145339 0 0.40156093075114491 0.31750113488738668 0 0.38446292394453402 0.28965499993531402 0 0.39566959796774592 0.28648720872322397 0 0.39410748963890108 0.2955640527176801 0 0.39566959796774592 0.28648720872322397 0 0.39410748963890108 0.2955640527176801 0 0.40496810993671362 0.29550395031822663 0 0.39566959796774592 0.28648720872322397 0 0.40496810993671362 0.29550395031822663 0 0.41081127132350409 0.28535349298561152 0 0.40275071125601097 0.27937970635757298 0 0.39566959796774592 0.28648720872322397 0 0.41081127132350409 0.28535349298561152 0 0.40496810993671362 0.29550395031822663 0 0.41081127132350409 0.28535349298561152 0 0.42035770799925731 0.29772621354516748 0 0.41081127132350409 0.28535349298561152 0 0.42035770799925731 0.29772621354516748 0 0.42434335213425689 0.28614863634830062 0 0.41081127132350409 0.28535349298561152 0 0.42434335213425689 0.28614863634830062 0 0.42274689909491447 0.27622649405033228 0 0.40798185198282472 0.30578497682145339 0 0.42035770799925731 0.29772621354516748 0 0.41574865387928661 0.31370289353735298 0 0.40798185198282472 0.30578497682145339 0 0.41574865387928661 0.31370289353735298 0 0.40156093075114491 0.31750113488738668 0 0.40496810993671362 0.29550395031822663 0 0.40798185198282472 0.30578497682145339 0 0.42035770799925731 0.29772621354516748 0 0.42035770799925731 0.29772621354516748 0 0.43191122018887401 0.30926646631787291 0 0.43754814168937878 0.29879090876172321 0 0.42035770799925731 0.29772621354516748 0 0.43191122018887401 0.30926646631787291 0 0.41574865387928661 0.31370289353735298 0 0.42035770799925731 0.29772621354516748 0 0.43275556760223771 0.29000473586690972 0 0.43754814168937878 0.29879090876172321 0 0.42035770799925731 0.29772621354516748 0 0.42434335213425689 0.28614863634830062 0 0.43275556760223771 0.29000473586690972 0 0.42434335213425689 0.28614863634830062 0 0.43275556760223771 0.29000473586690972 0 0.43556407436591738 0.27911116701335448 0 0.43556407436591738 0.27911116701335448 0 0.42833434115884389 0.26672955608571242 0 0.44174642944027509 0.26491600711757551 0 0.42434335213425689 0.28614863634830062 0 0.43556407436591738 0.27911116701335448 0 0.42274689909491447 0.27622649405033228 0 0.43556407436591738 0.27911116701335448 0 0.42833434115884389 0.26672955608571242 0 0.42274689909491447 0.27622649405033228 0 0.41081127132350409 0.28535349298561152 0 0.42274689909491447 0.27622649405033228 0 0.41274192034078039 0.27085888931392449 0 0.42833434115884389 0.26672955608571242 0 0.42274689909491447 0.27622649405033228 0 0.41274192034078039 0.27085888931392449 0 0.40275071125601097 0.27937970635757298 0 0.41081127132350409 0.28535349298561152 0 0.41274192034078039 0.27085888931392449 0 0.4044679409571878 0.26117564424635642 0 0.4182419991507712 0.25735599640832502 0 0.40754113612963189 0.246839457821182 0 0.4044679409571878 0.26117564424635642 0 0.41274192034078039 0.27085888931392449 0 0.4182419991507712 0.25735599640832502 0 0.42833434115884389 0.26672955608571242 0 0.41274192034078039 0.27085888931392449 0 0.4182419991507712 0.25735599640832502 0 0.4182419991507712 0.25735599640832502 0 0.43248491923257842 0.25319244582003908 0 0.42199558299019008 0.24569146256226659 0 0.42833434115884389 0.26672955608571242 0 0.4182419991507712 0.25735599640832502 0 0.43248491923257842 0.25319244582003908 0 0.42833434115884389 0.26672955608571242 0 0.43248491923257842 0.25319244582003908 0 0.44174642944027509 0.26491600711757551 0 0.43248491923257842 0.25319244582003908 0 0.44174642944027509 0.26491600711757551 0 0.44788526557016878 0.25020789551764 0 0.44174642944027509 0.26491600711757551 0 0.44788526557016878 0.25020789551764 0 0.45655858182448111 0.26534480755249162 0 0.43556407436591738 0.27911116701335448 0 0.44174642944027509 0.26491600711757551 0 0.44752591000311559 0.27678982065315599 0 0.44174642944027509 0.26491600711757551 0 0.44752591000311559 0.27678982065315599 0 0.45655858182448111 0.26534480755249162 0 0.44752591000311559 0.27678982065315599 0 0.45655858182448111 0.26534480755249162 0 0.45978069088433948 0.28459156019592008 0 0.45655858182448111 0.26534480755249162 0 0.47902351714129782 0.26830615939274788 0 0.45978069088433948 0.28459156019592008 0 0.44788526557016878 0.25020789551764 0 0.45655858182448111 0.26534480755249162 0 0.47348108634361091 0.24801343307443799 0 0.45655858182448111 0.26534480755249162 0 0.47902351714129782 0.26830615939274788 0 0.47348108634361091 0.24801343307443799 0 0.47902351714129782 0.26830615939274788 0 0.4880543619955422 0.24607784998085619 0 0.47348108634361091 0.24801343307443799 0 0.47902351714129782 0.26830615939274788 0 0.47727061725723519 0.28827712183477983 0 0.45978069088433948 0.28459156019592008 0 0.47902351714129782 0.26830615939274788 0 0.5 0.25993336992503602 0 0.500000000000001 0.28823975784905742 0 0.47902351714129782 0.26830615939274788 0 0.5 0.25993336992503602 0 0.4880543619955422 0.24607784998085619 0 0.48197448657339709 0.30051234434679541 0 0.48348447871644412 0.3180101078017229 0 0.5 0.31421137154141993 0 0.500000000000001 0.28823975784905742 0 0.48197448657339709 0.30051234434679541 0 0.5 0.31421137154141993 0 0.500000000000001 0.28823975784905742 0 0.47727061725723519 0.28827712183477983 0 0.48197448657339709 0.30051234434679541 0 0.500000000000001 0.28823975784905742 0 0.48197448657339709 0.30051234434679541 0 0.47902351714129782 0.26830615939274788 0 0.500000000000001 0.28823975784905742 0 0.47727061725723519 0.28827712183477983 0 0.47727061725723519 0.28827712183477983 0 0.48197448657339709 0.30051234434679541 0 0.46557439168714132 0.29973578738937828 0 0.48197448657339709 0.30051234434679541 0 0.46557439168714132 0.29973578738937828 0 0.46394897314679301 0.31278493084453268 0 0.48197448657339709 0.30051234434679541 0 0.46394897314679301 0.31278493084453268 0 0.47362542423666798 0.31621415828313992 0 0.48197448657339709 0.30051234434679541 0 0.47362542423666798 0.31621415828313992 0 0.48348447871644412 0.3180101078017229 0 0.48197448657339709 0.30051234434679541 0 0.46394897314679301 0.31278493084453268 0 0.46557439168714132 0.29973578738937828 0 0.45469936348261603 0.3085567918636537 0 0.46394897314679301 0.31278493084453268 0 0.46557439168714132 0.29973578738937828 0 0.45469936348261603 0.3085567918636537 0 0.45201550091125647 0.2990892228864232 0 0.47727061725723519 0.28827712183477983 0 0.46557439168714132 0.29973578738937828 0 0.45978069088433948 0.28459156019592008 0 0.46557439168714132 0.29973578738937828 0 0.45978069088433948 0.28459156019592008 0 0.45201550091125647 0.2990892228864232 0 0.44752591000311559 0.27678982065315599 0 0.45978069088433948 0.28459156019592008 0 0.44596456182237793 0.28824675366600239 0 0.45978069088433948 0.28459156019592008 0 0.44596456182237793 0.28824675366600239 0 0.45201550091125647 0.2990892228864232 0 0.43275556760223771 0.29000473586690972 0 0.44596456182237793 0.28824675366600239 0 0.43754814168937878 0.29879090876172321 0 0.44596456182237793 0.28824675366600239 0 0.45201550091125647 0.2990892228864232 0 0.43754814168937878 0.29879090876172321 0 0.43556407436591738 0.27911116701335448 0 0.44752591000311559 0.27678982065315599 0 0.44596456182237793 0.28824675366600239 0 0.43275556760223771 0.29000473586690972 0 0.43556407436591738 0.27911116701335448 0 0.44596456182237793 0.28824675366600239 0 0.45469936348261603 0.3085567918636537 0 0.44376901021643039 0.30652275271224072 0 0.44543953504141592 0.31666756211984809 0 0.45469936348261603 0.3085567918636537 0 0.45201550091125647 0.2990892228864232 0 0.44376901021643039 0.30652275271224072 0 0.45201550091125647 0.2990892228864232 0 0.43754814168937878 0.29879090876172321 0 0.44376901021643039 0.30652275271224072 0 0.43191122018887401 0.30926646631787291 0 0.44376901021643039 0.30652275271224072 0 0.44543953504141592 0.31666756211984809 0 0.43191122018887401 0.30926646631787291 0 0.43754814168937878 0.29879090876172321 0 0.44376901021643039 0.30652275271224072 0 0.44543953504141592 0.31666756211984809 0 0.44257020435793321 0.33665364845929419 0 0.45424517514217122 0.32463369919780949 0 0.44543953504141592 0.31666756211984809 0 0.44257020435793321 0.33665364845929419 0 0.42860427230747539 0.32218846723090511 0 0.44543953504141592 0.31666756211984809 0 0.45744876989265859 0.31654049522949979 0 0.45424517514217122 0.32463369919780949 0 0.45469936348261603 0.3085567918636537 0 0.44543953504141592 0.31666756211984809 0 0.45744876989265859 0.31654049522949979 0 0.44257020435793321 0.33665364845929419 0 0.45689553987369869 0.33358485780245573 0 0.45653613640839091 0.35111882968768338 0 0.44257020435793321 0.33665364845929419 0 0.45689553987369869 0.33358485780245573 0 0.45424517514217122 0.32463369919780949 0 0.46716399060695191 0.34283180243565792 0 0.46382591275505652 0.32007959395524238 0 0.47489326999164938 0.32968381446740602 0 0.46716399060695191 0.34283180243565792 0 0.46382591275505652 0.32007959395524238 0 0.46716399060695191 0.34283180243565792 0 0.45689553987369869 0.33358485780245573 0 0.46382591275505652 0.32007959395524238 0 0.46716399060695191 0.34283180243565792 0 0.45689553987369869 0.33358485780245573 0 0.45653613640839091 0.35111882968768338 0 0.45469936348261603 0.3085567918636537 0 0.45744876989265859 0.31654049522949979 0 0.46394897314679301 0.31278493084453268 0 0.45689553987369869 0.33358485780245573 0 0.45424517514217122 0.32463369919780949 0 0.46382591275505652 0.32007959395524238 0 0.45744876989265859 0.31654049522949979 0 0.45424517514217122 0.32463369919780949 0 0.46382591275505652 0.32007959395524238 0 0.46382591275505652 0.32007959395524238 0 0.46394897314679301 0.31278493084453268 0 0.47362542423666798 0.31621415828313992 0 0.45744876989265859 0.31654049522949979 0 0.46382591275505652 0.32007959395524238 0 0.46394897314679301 0.31278493084453268 0 0.47362542423666798 0.31621415828313992 0 0.48348447871644412 0.3180101078017229 0 0.47489326999164938 0.32968381446740602 0 0.48348447871644412 0.3180101078017229 0 0.47489326999164938 0.32968381446740602 0 0.48830863285995402 0.32924757222372908 0 0.46382591275505652 0.32007959395524238 0 0.47362542423666798 0.31621415828313992 0 0.47489326999164938 0.32968381446740602 0 0.46716399060695191 0.34283180243565792 0 0.47489326999164938 0.32968381446740602 0 0.48316541559167642 0.34414958207431418 0 0.47489326999164938 0.32968381446740602 0 0.48830863285995402 0.32924757222372908 0 0.48316541559167642 0.34414958207431418 0 0.48830863285995402 0.32924757222372908 0 0.5 0.34018298523378232 0 0.48316541559167642 0.34414958207431418 0 0.48348447871644412 0.3180101078017229 0 0.48830863285995402 0.32924757222372908 0 0.5 0.31421137154141993 0 0.48830863285995402 0.32924757222372908 0 0.5 0.34018298523378232 0 0.5 0.31421137154141993 0 0.48640059536559199 0.36319241239761602 0 0.48292898413899299 0.37845515956363512 0 0.48758600672376579 0.38178438639747231 0 0.49999999999999623 0.36615459892614483 0 0.48640059536559199 0.36319241239761602 0 0.48758600672376579 0.38178438639747231 0 0.49999999999999623 0.36615459892614483 0 0.48758600672376579 0.38178438639747231 0 0.5 0.34018298523378232 0 0.48640059536559199 0.36319241239761602 0 0.48316541559167642 0.34414958207431418 0 0.5 0.34018298523378232 0 0.49999999999999623 0.36615459892614483 0 0.48640059536559199 0.36319241239761602 0 0.46716399060695191 0.34283180243565792 0 0.47050206845884812 0.36558401091607318 0 0.46716399060695191 0.34283180243565792 0 0.48316541559167642 0.34414958207431418 0 0.47050206845884812 0.36558401091607318 0 0.48640059536559199 0.36319241239761602 0 0.48316541559167642 0.34414958207431418 0 0.47050206845884812 0.36558401091607318 0 0.47050206845884812 0.36558401091607318 0 0.47283704095319162 0.38149909239243718 0 0.48640059536559199 0.36319241239761602 0 0.47050206845884812 0.36558401091607318 0 0.48292898413899299 0.37845515956363512 0 0.47050206845884812 0.36558401091607318 0 0.48292898413899299 0.37845515956363512 0 0.47050206845884812 0.36558401091607318 0 0.45714468107918838 0.36433986445942129 0 0.46057222873200832 0.37906575395452807 0 0.47050206845884812 0.36558401091607318 0 0.45714468107918838 0.36433986445942129 0 0.45653613640839091 0.35111882968768338 0 0.45714468107918838 0.36433986445942129 0 0.4495579792964649 0.37314688040072252 0 0.46057222873200832 0.37906575395452807 0 0.46716399060695191 0.34283180243565792 0 0.47050206845884812 0.36558401091607318 0 0.45653613640839091 0.35111882968768338 0 0.47050206845884812 0.36558401091607318 0 0.45653613640839091 0.35111882968768338 0 0.44257020435793321 0.33665364845929419 0 0.45653613640839091 0.35111882968768338 0 0.44124510463397942 0.35839417272234009 0 0.45714468107918838 0.36433986445942129 0 0.45653613640839091 0.35111882968768338 0 0.44124510463397942 0.35839417272234009 0 0.44257020435793321 0.33665364845929419 0 0.45653613640839091 0.35111882968768338 0 0.45714468107918838 0.36433986445942129 0 0.44124510463397942 0.35839417272234009 0 0.4495579792964649 0.37314688040072252 0 0.44124510463397942 0.35839417272234009 0 0.4495579792964649 0.37314688040072252 0 0.43202728635656862 0.37343319421170462 0 0.44124510463397942 0.35839417272234009 0 0.43202728635656862 0.37343319421170462 0 0.42431881728001242 0.35889122946854152 0 0.43202728635656862 0.37343319421170462 0 0.41702867676469868 0.37022354078881159 0 0.42431881728001242 0.35889122946854152 0 0.41702867676469868 0.37022354078881159 0 0.40777386762573792 0.35921131176911009 0 0.39854775654320063 0.37167698591509041 0 0.41702867676469868 0.37022354078881159 0 0.40777386762573792 0.35921131176911009 0 0.42431881728001242 0.35889122946854152 0 0.41253718014815122 0.34470854235263448 0 0.42431881728001242 0.35889122946854152 0 0.42810286762690652 0.34276053940587098 0 0.41253718014815122 0.34470854235263448 0 0.40777386762573792 0.35921131176911009 0 0.42431881728001242 0.35889122946854152 0 0.44124510463397942 0.35839417272234009 0 0.42431881728001242 0.35889122946854152 0 0.42810286762690652 0.34276053940587098 0 0.44257020435793321 0.33665364845929419 0 0.44124510463397942 0.35839417272234009 0 0.42810286762690652 0.34276053940587098 0 0.42810286762690652 0.34276053940587098 0 0.42860427230747539 0.32218846723090511 0 0.41431194774180302 0.32894976871354581 0 0.44257020435793321 0.33665364845929419 0 0.42810286762690652 0.34276053940587098 0 0.42860427230747539 0.32218846723090511 0 0.44257020435793321 0.33665364845929419 0 0.42860427230747539 0.32218846723090511 0 0.43191122018887401 0.30926646631787291 0 0.44543953504141592 0.31666756211984809 0 0.42860427230747539 0.32218846723090511 0 0.43191122018887401 0.30926646631787291 0 0.42860427230747539 0.32218846723090511 0 0.41574865387928661 0.31370289353735298 0 0.42860427230747539 0.32218846723090511 0 0.41574865387928661 0.31370289353735298 0 0.41431194774180302 0.32894976871354581 0 0.41574865387928661 0.31370289353735298 0 0.41431194774180302 0.32894976871354581 0 0.40156093075114491 0.31750113488738668 0 0.41253718014815122 0.34470854235263448 0 0.41431194774180302 0.32894976871354581 0 0.39994557259825481 0.33252058008215751 0 0.41253718014815122 0.34470854235263448 0 0.42810286762690652 0.34276053940587098 0 0.41431194774180302 0.32894976871354581 0 0.41253718014815122 0.34470854235263448 0 0.39994557259825481 0.33252058008215751 0 0.39741345787776872 0.34803921187177739 0 0.39994557259825481 0.33252058008215751 0 0.38634799782322599 0.32357433788632539 0 0.38689900690283591 0.33782963351874529 0 0.39994557259825481 0.33252058008215751 0 0.38689900690283591 0.33782963351874529 0 0.39741345787776872 0.34803921187177739 0 0.41431194774180302 0.32894976871354581 0 0.39994557259825481 0.33252058008215751 0 0.40156093075114491 0.31750113488738668 0 0.39994557259825481 0.33252058008215751 0 0.40156093075114491 0.31750113488738668 0 0.38634799782322599 0.32357433788632539 0 0.40156093075114491 0.31750113488738668 0 0.39044665743362073 0.31291507673879898 0 0.38634799782322599 0.32357433788632539 0 0.37998594236581662 0.30927504867216532 0 0.39044665743362073 0.31291507673879898 0 0.38634799782322599 0.32357433788632539 0 0.37302190852298428 0.31709005754215652 0 0.38634799782322599 0.32357433788632539 0 0.37575503919442549 0.32913182526222517 0 0.37302190852298428 0.31709005754215652 0 0.37998594236581662 0.30927504867216532 0 0.38634799782322599 0.32357433788632539 0 0.38634799782322599 0.32357433788632539 0 0.38689900690283591 0.33782963351874529 0 0.37575503919442549 0.32913182526222517 0 0.37484275173419918 0.34129884314659548 0 0.38689900690283591 0.33782963351874529 0 0.37575503919442549 0.32913182526222517 0 0.37484275173419918 0.34129884314659548 0 0.38689900690283591 0.33782963351874529 0 0.38606956259201392 0.34875387061004898 0 0.37423146865472978 0.35573110865642288 0 0.37484275173419918 0.34129884314659548 0 0.38606956259201392 0.34875387061004898 0 0.37423146865472978 0.35573110865642288 0 0.38606956259201392 0.34875387061004898 0 0.39280722265869022 0.35668249776449001 0 0.38689900690283591 0.33782963351874529 0 0.38606956259201392 0.34875387061004898 0 0.39741345787776872 0.34803921187177739 0 0.37423146865472978 0.35573110865642288 0 0.39854775654320063 0.37167698591509041 0 0.3801807417636644 0.37252583622892033 0 0.39854775654320063 0.37167698591509041 0 0.38747672977173048 0.37919240755817307 0 0.37423146865472978 0.35573110865642288 0 0.3801807417636644 0.37252583622892033 0 0.39854775654320063 0.37167698591509041 0 0.37423146865472978 0.35573110865642288 0 0.39854775654320063 0.37167698591509041 0 0.39280722265869022 0.35668249776449001 0 0.40777386762573792 0.35921131176911009 0 0.39854775654320063 0.37167698591509041 0 0.39280722265869022 0.35668249776449001 0 0.40777386762573792 0.35921131176911009 0 0.39741345787776872 0.34803921187177739 0 0.39280722265869022 0.35668249776449001 0 0.41253718014815122 0.34470854235263448 0 0.40777386762573792 0.35921131176911009 0 0.39741345787776872 0.34803921187177739 0 0.38606956259201392 0.34875387061004898 0 0.39741345787776872 0.34803921187177739 0 0.39280722265869022 0.35668249776449001 0 0.39271968863736001 0.40305723954585859 0 0.40189373127834788 0.39701001224913002 0 0.39801415507057653 0.38672989042081241 0 0.39271968863736001 0.40305723954585859 0 0.40189373127834788 0.39701001224913002 0 0.40981198229553939 0.40462797242136289 0 0.40189373127834788 0.39701001224913002 0 0.39801415507057653 0.38672989042081241 0 0.41066761517003908 0.39510114342900471 0 0.39854775654320063 0.37167698591509041 0 0.39801415507057653 0.38672989042081241 0 0.38747672977173048 0.37919240755817307 0 0.37316426570948041 0.38583691766786932 0 0.39801415507057653 0.38672989042081241 0 0.37316426570948041 0.38583691766786932 0 0.39801415507057653 0.38672989042081241 0 0.38747672977173048 0.37919240755817307 0 0.37316426570948041 0.38583691766786932 0 0.3801807417636644 0.37252583622892033 0 0.38747672977173048 0.37919240755817307 0 0.37316426570948041 0.38583691766786932 0 0.39271968863736001 0.40305723954585859 0 0.3753335618341983 0.40308257339433501 0 0.37316426570948041 0.38583691766786932 0 0.39271968863736001 0.40305723954585859 0 0.39801415507057653 0.38672989042081241 0 0.39271968863736001 0.40305723954585859 0 0.37994859105186052 0.42257609133380858 0 0.39543060900748189 0.41962980952528989 0 0.39271968863736001 0.40305723954585859 0 0.3753335618341983 0.40308257339433501 0 0.37994859105186052 0.42257609133380858 0 0.36930359675366592 0.44331647074245623 0 0.37994859105186052 0.42257609133380858 0 0.38530416484543473 0.43712297988043552 0 0.37994859105186052 0.42257609133380858 0 0.39545040771175011 0.4313002001606131 0 0.39543060900748189 0.41962980952528989 0 0.37994859105186052 0.42257609133380858 0 0.38530416484543473 0.43712297988043552 0 0.39545040771175011 0.4313002001606131 0 0.39545040771175011 0.4313002001606131 0 0.39543060900748189 0.41962980952528989 0 0.40919291933795759 0.4261877608054131 0 0.39545040771175011 0.4313002001606131 0 0.40565875072197999 0.4371642889812199 0 0.40919291933795759 0.4261877608054131 0 0.39271968863736001 0.40305723954585859 0 0.39543060900748189 0.41962980952528989 0 0.40446303320865112 0.41378899035835998 0 0.39271968863736001 0.40305723954585859 0 0.40446303320865112 0.41378899035835998 0 0.40981198229553939 0.40462797242136289 0 0.39543060900748189 0.41962980952528989 0 0.40446303320865112 0.41378899035835998 0 0.40919291933795759 0.4261877608054131 0 0.40446303320865112 0.41378899035835998 0 0.41990446415474619 0.41196159202923538 0 0.40981198229553939 0.40462797242136289 0 0.40446303320865112 0.41378899035835998 0 0.41990446415474619 0.41196159202923538 0 0.40919291933795759 0.4261877608054131 0 0.41990446415474619 0.41196159202923538 0 0.40919291933795759 0.4261877608054131 0 0.42678139410462851 0.43047337416899317 0 0.40919291933795759 0.4261877608054131 0 0.42678139410462851 0.43047337416899317 0 0.41372582558853721 0.43840324655333829 0 0.40565875072197999 0.4371642889812199 0 0.40919291933795759 0.4261877608054131 0 0.41372582558853721 0.43840324655333829 0 0.42678139410462851 0.43047337416899317 0 0.44097848113949339 0.42232159526397772 0 0.44258040570712598 0.43844850432127891 0 0.42678139410462851 0.43047337416899317 0 0.435152458313804 0.40940420351943091 0 0.41990446415474619 0.41196159202923538 0 0.42678139410462851 0.43047337416899317 0 0.435152458313804 0.40940420351943091 0 0.42678139410462851 0.43047337416899317 0 0.435152458313804 0.40940420351943091 0 0.44097848113949339 0.42232159526397772 0 0.41990446415474619 0.41196159202923538 0 0.435152458313804 0.40940420351943091 0 0.42975010970778771 0.40158516786352449 0 0.435152458313804 0.40940420351943091 0 0.42975010970778771 0.40158516786352449 0 0.44360715218083679 0.38836826005509367 0 0.42975010970778771 0.40158516786352449 0 0.43081994732287171 0.39284010075405079 0 0.44360715218083679 0.38836826005509367 0 0.42975010970778771 0.40158516786352449 0 0.43081994732287171 0.39284010075405079 0 0.42075416277405919 0.39951497887996118 0 0.43081994732287171 0.39284010075405079 0 0.42075416277405919 0.39951497887996118 0 0.42286404443167253 0.3876228631737566 0 0.41990446415474619 0.41196159202923538 0 0.42975010970778771 0.40158516786352449 0 0.42075416277405919 0.39951497887996118 0 0.41990446415474619 0.41196159202923538 0 0.42075416277405919 0.39951497887996118 0 0.40981198229553939 0.40462797242136289 0 0.42075416277405919 0.39951497887996118 0 0.41066761517003908 0.39510114342900471 0 0.42286404443167253 0.3876228631737566 0 0.40189373127834788 0.39701001224913002 0 0.41066761517003908 0.39510114342900471 0 0.40981198229553939 0.40462797242136289 0 0.42075416277405919 0.39951497887996118 0 0.41066761517003908 0.39510114342900471 0 0.40981198229553939 0.40462797242136289 0 0.39801415507057653 0.38672989042081241 0 0.42286404443167253 0.3876228631737566 0 0.39801415507057653 0.38672989042081241 0 0.41066761517003908 0.39510114342900471 0 0.42286404443167253 0.3876228631737566 0 0.39854775654320063 0.37167698591509041 0 0.42286404443167253 0.3876228631737566 0 0.41702867676469868 0.37022354078881159 0 0.39854775654320063 0.37167698591509041 0 0.42286404443167253 0.3876228631737566 0 0.39854775654320063 0.37167698591509041 0 0.39801415507057653 0.38672989042081241 0 0.42286404443167253 0.3876228631737566 0 0.43081994732287171 0.39284010075405079 0 0.42286404443167253 0.3876228631737566 0 0.44360715218083679 0.38836826005509367 0 0.42286404443167253 0.3876228631737566 0 0.44360715218083679 0.38836826005509367 0 0.43202728635656862 0.37343319421170462 0 0.41702867676469868 0.37022354078881159 0 0.42286404443167253 0.3876228631737566 0 0.43202728635656862 0.37343319421170462 0 0.42286404443167253 0.3876228631737566 0 0.44360715218083679 0.38836826005509367 0 0.43081994732287171 0.39284010075405079 0 0.42286404443167253 0.3876228631737566 0 0.4495579792964649 0.37314688040072252 0 0.44360715218083679 0.38836826005509367 0 0.46057222873200832 0.37906575395452807 0 0.4495579792964649 0.37314688040072252 0 0.43202728635656862 0.37343319421170462 0 0.44360715218083679 0.38836826005509367 0 0.4495579792964649 0.37314688040072252 0 0.44360715218083679 0.38836826005509367 0 0.435152458313804 0.40940420351943091 0 0.44360715218083679 0.38836826005509367 0 0.44858288739052832 0.40425622043845749 0 0.44360715218083679 0.38836826005509367 0 0.44858288739052832 0.40425622043845749 0 0.46003823429700808 0.39451626446463822 0 0.435152458313804 0.40940420351943091 0 0.44360715218083679 0.38836826005509367 0 0.46003823429700808 0.39451626446463822 0 0.47517201344753679 0.39741417386880101 0 0.45887620957733188 0.41793133909504032 0 0.44858288739052832 0.40425622043845749 0 0.46003823429700808 0.39451626446463822 0 0.45887620957733188 0.41793133909504032 0 0.47050206845884812 0.36558401091607318 0 0.46057222873200832 0.37906575395452807 0 0.47283704095319162 0.38149909239243718 0 0.44360715218083679 0.38836826005509367 0 0.46003823429700808 0.39451626446463822 0 0.46057222873200832 0.37906575395452807 0 0.46003823429700808 0.39451626446463822 0 0.46057222873200832 0.37906575395452807 0 0.47283704095319162 0.38149909239243718 0 0.47283704095319162 0.38149909239243718 0 0.47517201344753679 0.39741417386880101 0 0.48758600672376579 0.38178438639747231 0 0.47283704095319162 0.38149909239243718 0 0.47517201344753679 0.39741417386880101 0 0.47517201344753679 0.39741417386880101 0 0.48758600672376579 0.38178438639747231 0 0.47050206845884812 0.36558401091607318 0 0.47283704095319162 0.38149909239243718 0 0.48292898413899299 0.37845515956363512 0 0.47283704095319162 0.38149909239243718 0 0.48292898413899299 0.37845515956363512 0 0.48758600672376579 0.38178438639747231 0 0.46003823429700808 0.39451626446463822 0 0.47283704095319162 0.38149909239243718 0 0.47517201344753679 0.39741417386880101 0 0.47517201344753679 0.39741417386880101 0 0.48762831132951462 0.40504568384161821 0 0.48758600672376579 0.38178438639747231 0 0.47517201344753679 0.39741417386880101 0 0.47714463437485072 0.41085948119307808 0 0.47517201344753679 0.39741417386880101 0 0.48762831132951462 0.40504568384161821 0 0.47714463437485072 0.41085948119307808 0 0.5 0.39477073583484268 0 0.48762831132951462 0.40504568384161821 0 0.48758600672376579 0.38178438639747231 0 0.49999999999999623 0.36615459892614483 0 0.5 0.39477073583484268 0 0.48758600672376579 0.38178438639747231 0 0.5 0.42338687274354059 0 0.48345378561813268 0.42187049405942351 0 0.4805237158268213 0.44209792854251873 0 0.48762831132951462 0.40504568384161821 0 0.5 0.42338687274354059 0 0.48345378561813268 0.42187049405942351 0 0.5 0.39477073583484268 0 0.48762831132951462 0.40504568384161821 0 0.5 0.42338687274354059 0 0.48762831132951462 0.40504568384161821 0 0.48345378561813268 0.42187049405942351 0 0.47714463437485072 0.41085948119307808 0 0.47517201344753679 0.39741417386880101 0 0.47714463437485072 0.41085948119307808 0 0.45887620957733188 0.41793133909504032 0 0.47714463437485072 0.41085948119307808 0 0.47197226655947699 0.42796250397636187 0 0.45887620957733188 0.41793133909504032 0 0.48345378561813268 0.42187049405942351 0 0.47714463437485072 0.41085948119307808 0 0.47197226655947699 0.42796250397636187 0 0.48345378561813268 0.42187049405942351 0 0.47197226655947699 0.42796250397636187 0 0.4805237158268213 0.44209792854251873 0 0.47197226655947699 0.42796250397636187 0 0.45887620957733188 0.41793133909504032 0 0.45744955958744787 0.44686531803919838 0 0.47517201344753679 0.39741417386880101 0 0.45887620957733188 0.41793133909504032 0 0.44858288739052832 0.40425622043845749 0 0.45887620957733188 0.41793133909504032 0 0.44097848113949339 0.42232159526397772 0 0.435152458313804 0.40940420351943091 0 0.44858288739052832 0.40425622043845749 0 0.44097848113949339 0.42232159526397772 0 0.45887620957733188 0.41793133909504032 0 0.44097848113949339 0.42232159526397772 0 0.44258040570712598 0.43844850432127891 0 0.45887620957733188 0.41793133909504032 0 0.44258040570712598 0.43844850432127891 0 0.45744955958744787 0.44686531803919838 0 0.45887620957733188 0.41793133909504032 0 0.44258040570712598 0.43844850432127891 0 0.44258040570712598 0.43844850432127891 0 0.45744955958744787 0.44686531803919838 0 0.42628460183692019 0.4589656695475175 0 0.45744955958744787 0.44686531803919838 0 0.44581470458121247 0.47485968622698671 0 0.42628460183692019 0.4589656695475175 0 0.45744955958744787 0.44686531803919838 0 0.46901802637812079 0.46675324631702292 0 0.44581470458121247 0.47485968622698671 0 0.47197226655947699 0.42796250397636187 0 0.45744955958744787 0.44686531803919838 0 0.4805237158268213 0.44209792854251873 0 0.45744955958744787 0.44686531803919838 0 0.4805237158268213 0.44209792854251873 0 0.46901802637812079 0.46675324631702292 0 0.4805237158268213 0.44209792854251873 0 0.46901802637812079 0.46675324631702292 0 0.48639342135533381 0.46559198351611658 0 0.48639342135533381 0.46559198351611658 0 0.5 0.45200300965223872 0 0.50000000000000022 0.48061914656093668 0 0.4805237158268213 0.44209792854251873 0 0.48639342135533381 0.46559198351611658 0 0.5 0.45200300965223872 0 0.5 0.42338687274354059 0 0.4805237158268213 0.44209792854251873 0 0.5 0.45200300965223872 0 0.49510141749675768 0.49999999999999978 0 0.50000000000000022 0.48061914656093668 0 0.49510141749675768 0.49999999999999978 0 0.5 0.5 0 0.50000000000000022 0.48061914656093668 0 0.49510141749675768 0.49999999999999978 0 0.50000000000000022 0.48061914656093668 0 0.48242536457172691 0.48648658650786619 0 0.48639342135533381 0.46559198351611658 0 0.50000000000000022 0.48061914656093668 0 0.48242536457172691 0.48648658650786619 0 0.46901802637812079 0.46675324631702292 0 0.48639342135533381 0.46559198351611658 0 0.48242536457172691 0.48648658650786619 0 0.46901802637812079 0.46675324631702292 0 0.48242536457172691 0.48648658650786619 0 0.46221389443570948 0.48321050605080451 0 0.48242536457172691 0.48648658650786619 0 0.46974931164669581 0.5 0 0.46221389443570948 0.48321050605080451 0 0.49510141749675768 0.49999999999999978 0 0.48242536457172691 0.48648658650786619 0 0.46974931164669581 0.5 0 0.46974931164669581 0.5 0 0.46221389443570948 0.48321050605080451 0 0.44439720579663389 0.5 0 0.46901802637812079 0.46675324631702292 0 0.46221389443570948 0.48321050605080451 0 0.44581470458121247 0.47485968622698671 0 0.46221389443570948 0.48321050605080451 0 0.44581470458121247 0.47485968622698671 0 0.44439720579663389 0.5 0 0.44581470458121247 0.47485968622698671 0 0.44439720579663389 0.5 0 0.42891459484108341 0.48305968796575571 0 0.44439720579663389 0.5 0 0.41904509994657207 0.5 0 0.42891459484108341 0.48305968796575571 0 0.41904509994657207 0.5 0 0.40998879796671428 0.47948283477375608 0 0.42891459484108341 0.48305968796575571 0 0.41904509994657207 0.5 0 0.40998879796671428 0.47948283477375608 0 0.39369299409651037 0.49999999999999611 0 0.41003926568627741 0.47261171546811781 0 0.40998879796671428 0.47948283477375608 0 0.42628460183692019 0.4589656695475175 0 0.40998879796671428 0.47948283477375608 0 0.42628460183692019 0.4589656695475175 0 0.40998879796671428 0.47948283477375608 0 0.42891459484108341 0.48305968796575571 0 0.42628460183692019 0.4589656695475175 0 0.44581470458121247 0.47485968622698671 0 0.42891459484108341 0.48305968796575571 0 0.42628460183692019 0.4589656695475175 0 0.42678139410462851 0.43047337416899317 0 0.44258040570712598 0.43844850432127891 0 0.42891278283903289 0.44458785363271369 0 0.42678139410462851 0.43047337416899317 0 0.42891278283903289 0.44458785363271369 0 0.4184103298954529 0.45154254481855549 0 0.44258040570712598 0.43844850432127891 0 0.42628460183692019 0.4589656695475175 0 0.42678139410462851 0.43047337416899317 0 0.4184103298954529 0.45154254481855549 0 0.44258040570712598 0.43844850432127891 0 0.42628460183692019 0.4589656695475175 0 0.42891278283903289 0.44458785363271369 0 0.42628460183692019 0.4589656695475175 0 0.42891278283903289 0.44458785363271369 0 0.4184103298954529 0.45154254481855549 0 0.42678139410462851 0.43047337416899317 0 0.4184103298954529 0.45154254481855549 0 0.41372582558853721 0.43840324655333829 0 0.4184103298954529 0.45154254481855549 0 0.408585733882667 0.44664826399251001 0 0.40479763141772579 0.45745523203322841 0 0.4184103298954529 0.45154254481855549 0 0.408585733882667 0.44664826399251001 0 0.41372582558853721 0.43840324655333829 0 0.40565875072197999 0.4371642889812199 0 0.408585733882667 0.44664826399251001 0 0.41372582558853721 0.43840324655333829 0 0.41003926568627741 0.47261171546811781 0 0.4184103298954529 0.45154254481855549 0 0.40479763141772579 0.45745523203322841 0 0.41003926568627741 0.47261171546811781 0 0.42628460183692019 0.4589656695475175 0 0.4184103298954529 0.45154254481855549 0 0.41003926568627741 0.47261171546811781 0 0.4184103298954529 0.45154254481855549 0 0.41003926568627741 0.47261171546811781 0 0.40479763141772579 0.45745523203322841 0 0.39707772752838549 0.46797368292669839 0 0.40479763141772579 0.45745523203322841 0 0.3933108675383955 0.45527147038996552 0 0.39707772752838549 0.46797368292669839 0 0.3933108675383955 0.45527147038996552 0 0.39707772752838549 0.46797368292669839 0 0.38712882876624038 0.46232087861505761 0 0.39545040771175011 0.4313002001606131 0 0.40565875072197999 0.4371642889812199 0 0.39716741130578592 0.44512027043751162 0 0.40565875072197999 0.4371642889812199 0 0.408585733882667 0.44664826399251001 0 0.39716741130578592 0.44512027043751162 0 0.408585733882667 0.44664826399251001 0 0.40479763141772579 0.45745523203322841 0 0.39716741130578592 0.44512027043751162 0 0.3933108675383955 0.45527147038996552 0 0.39716741130578592 0.44512027043751162 0 0.38353556889095308 0.45027906574205429 0 0.40479763141772579 0.45745523203322841 0 0.3933108675383955 0.45527147038996552 0 0.39716741130578592 0.44512027043751162 0 0.38530416484543473 0.43712297988043552 0 0.39545040771175011 0.4313002001606131 0 0.39716741130578592 0.44512027043751162 0 0.37446310876981698 0.46179544865201161 0 0.36930359675366592 0.44331647074245623 0 0.38353556889095308 0.45027906574205429 0 0.36930359675366592 0.44331647074245623 0 0.38530416484543473 0.43712297988043552 0 0.38353556889095308 0.45027906574205429 0 0.38530416484543473 0.43712297988043552 0 0.39716741130578592 0.44512027043751162 0 0.38353556889095308 0.45027906574205429 0 0.37446310876981698 0.46179544865201161 0 0.38712882876624038 0.46232087861505761 0 0.38725687110365092 0.47628472536455801 0 0.3933108675383955 0.45527147038996552 0 0.38353556889095308 0.45027906574205429 0 0.38712882876624038 0.46232087861505761 0 0.37446310876981698 0.46179544865201161 0 0.38353556889095308 0.45027906574205429 0 0.38712882876624038 0.46232087861505761 0 0.37122403352689548 0.48327155723405818 0 0.37446310876981698 0.46179544865201161 0 0.38725687110365092 0.47628472536455801 0 0.39707772752838549 0.46797368292669839 0 0.38712882876624038 0.46232087861505761 0 0.38725687110365092 0.47628472536455801 0 0.37122403352689548 0.48327155723405818 0 0.38725687110365092 0.47628472536455801 0 0.39369299409651037 0.49999999999999611 0 0.36561871567760679 0.5 0 0.37122403352689548 0.48327155723405818 0 0.39369299409651037 0.49999999999999611 0 0.40998879796671428 0.47948283477375608 0 0.39369299409651037 0.49999999999999611 0 0.40998879796671428 0.47948283477375608 0 0.39369299409651037 0.49999999999999611 0 0.39815794911071201 0.48057437153101068 0 0.38725687110365092 0.47628472536455801 0 0.39369299409651037 0.49999999999999611 0 0.39815794911071201 0.48057437153101068 0 0.41003926568627741 0.47261171546811781 0 0.40998879796671428 0.47948283477375608 0 0.39815794911071201 0.48057437153101068 0 0.41003926568627741 0.47261171546811781 0 0.39707772752838549 0.46797368292669839 0 0.39815794911071201 0.48057437153101068 0 0.39707772752838549 0.46797368292669839 0 0.38725687110365092 0.47628472536455801 0 0.39815794911071201 0.48057437153101068 0 0.34361895886170157 0.091088154256767917 0 0.32886883765544722 0.067095972163839085 0 0.32382280671286279 0.093932047451942668 0 0.34361895886170157 0.091088154256767917 0 0.32886883765544722 0.067095972163839085 0 0.34949249712230462 0.065391925764556047 0 0.32886883765544722 0.067095972163839085 0 0.30959574977650522 0.057966396663958877 0 0.30230219705414912 0.071746527319131503 0 0.32886883765544722 0.067095972163839085 0 0.31282448825785342 0.082827052692920192 0 0.30230219705414912 0.071746527319131503 0 0.31282448825785342 0.082827052692920192 0 0.32382280671286279 0.093932047451942668 0 0.30674272259986107 0.097183250263304349 0 0.32886883765544722 0.067095972163839085 0 0.31282448825785342 0.082827052692920192 0 0.32382280671286279 0.093932047451942668 0 0.32382280671286279 0.093932047451942668 0 0.31649764268325109 0.1098146278671457 0 0.30674272259986107 0.097183250263304349 0 0.32382280671286279 0.093932047451942668 0 0.31649764268325109 0.1098146278671457 0 0.33196275168909822 0.1159268179707673 0 0.31649764268325109 0.1098146278671457 0 0.33196275168909822 0.1159268179707673 0 0.31396210421308041 0.13422422663755931 0 0.33196275168909822 0.1159268179707673 0 0.34873393740756869 0.10861544637620441 0 0.34300547457560498 0.1261953155474812 0 0.33196275168909822 0.1159268179707673 0 0.34300547457560498 0.1261953155474812 0 0.3316647045693828 0.12937438664084749 0 0.34361895886170157 0.091088154256767917 0 0.33196275168909822 0.1159268179707673 0 0.34873393740756869 0.10861544637620441 0 0.34361895886170157 0.091088154256767917 0 0.32382280671286279 0.093932047451942668 0 0.33196275168909822 0.1159268179707673 0 0.34361895886170157 0.091088154256767917 0 0.34873393740756869 0.10861544637620441 0 0.3672052178403214 0.1057772944198308 0 0.34873393740756869 0.10861544637620441 0 0.3562282042250135 0.1244219162018769 0 0.34300547457560498 0.1261953155474812 0 0.34873393740756869 0.10861544637620441 0 0.3562282042250135 0.1244219162018769 0 0.3672052178403214 0.1057772944198308 0 0.3562282042250135 0.1244219162018769 0 0.37136760853144618 0.12137785530437591 0 0.3672052178403214 0.1057772944198308 0 0.3672052178403214 0.1057772944198308 0 0.36549606767850967 0.07753637651995357 0 0.39147939873960508 0.092712021452525856 0 0.3672052178403214 0.1057772944198308 0 0.36549606767850967 0.07753637651995357 0 0.34361895886170157 0.091088154256767917 0 0.3672052178403214 0.1057772944198308 0 0.36549606767850967 0.07753637651995357 0 0.34361895886170157 0.091088154256767917 0 0.34949249712230462 0.065391925764556047 0 0.36549606767850967 0.07753637651995357 0 0.34949249712230462 0.065391925764556047 0 0.36549606767850967 0.07753637651995357 0 0.36378691751669823 0.04929545862007656 0 0.36549606767850967 0.07753637651995357 0 0.36378691751669823 0.04929545862007656 0 0.36378691751669823 0.04929545862007656 0 0.37916896144966111 0.035338684217319317 0 0.38120215829722798 0.056318902399087253 0 0.36549606767850967 0.07753637651995357 0 0.36378691751669823 0.04929545862007656 0 0.38120215829722798 0.056318902399087253 0 0.36378691751669823 0.04929545862007656 0 0.37061114034258608 0.03135097082081667 0 0.37916896144966111 0.035338684217319317 0 0.36378691751669823 0.04929545862007656 0 0.36207776735488728 0.021054540720199511 0 0.36378691751669823 0.04929545862007656 0 0.37061114034258608 0.03135097082081667 0 0.36207776735488728 0.021054540720199511 0 0.34547330250516739 0.044075256442019463 0 0.36207776735488728 0.021054540720199511 0 0.36378691751669823 0.04929545862007656 0 0.34547330250516739 0.044075256442019463 0 0.36207776735488728 0.021054540720199511 0 0.34949249712230462 0.065391925764556047 0 0.36378691751669823 0.04929545862007656 0 0.34547330250516739 0.044075256442019463 0 0.37412568492071102 0.0043511005411320889 0 0.36207776735488728 0.021054540720199511 0 0.37412568492071102 0.0043511005411320889 0 0.36136103913589501 0.0092117762625625113 0 0.36207776735488728 0.021054540720199511 0 0.37412568492071102 0.0043511005411320889 0 0.36207776735488728 0.021054540720199511 0 0.37741091504909807 0.01971519972567131 0 0.37412568492071102 0.0043511005411320889 0 0.36136103913589501 0.0092117762625625113 0 0.36485191508087789 -0.00056254974709944543 0 0.36136103913589501 0.0092117762625625113 0 0.36485191508087789 -0.00056254974709944543 0 0.35440879702384648 -0.00048039270676468113 0 0.36136103913589501 0.0092117762625625113 0 0.36207776735488728 0.021054540720199511 0 0.37061114034258608 0.03135097082081667 0 0.36207776735488728 0.021054540720199511 0 0.37741091504909807 0.01971519972567131 0 0.34547330250516739 0.044075256442019463 0 0.36207776735488728 0.021054540720199511 0 0.33883017348229222 0.02842346752549739 0 0.36207776735488728 0.021054540720199511 0 0.3467186018506504 0.01287849036533636 0 0.33883017348229222 0.02842346752549739 0 0.36136103913589501 0.0092117762625625113 0 0.36207776735488728 0.021054540720199511 0 0.3467186018506504 0.01287849036533636 0 0.3467186018506504 0.01287849036533636 0 0.35440879702384648 -0.00048039270676468113 0 0.34280495454637833 -0.00089195243633867017 0 0.36136103913589501 0.0092117762625625113 0 0.3467186018506504 0.01287849036533636 0 0.35440879702384648 -0.00048039270676468113 0 0.3467186018506504 0.01287849036533636 0 0.33213259873031198 0.0057252787566607144 0 0.34280495454637833 -0.00089195243633867017 0 0.3467186018506504 0.01287849036533636 0 0.33213259873031198 0.0057252787566607144 0 0.33206566559664641 0.018671869617535031 0 0.3467186018506504 0.01287849036533636 0 0.33206566559664641 0.018671869617535031 0 0.33883017348229222 0.02842346752549739 0 0.33206566559664641 0.018671869617535031 0 0.33883017348229222 0.02842346752549739 0 0.32374203095036252 0.02889796878460835 0 0.32374203095036252 0.02889796878460835 0 0.31815442228492202 0.01401489569737864 0 0.30838235410660769 0.02824363800946034 0 0.33206566559664641 0.018671869617535031 0 0.32374203095036252 0.02889796878460835 0 0.31815442228492202 0.01401489569737864 0 0.33213259873031198 0.0057252787566607144 0 0.33206566559664641 0.018671869617535031 0 0.31815442228492202 0.01401489569737864 0 0.31815442228492202 0.01401489569737864 0 0.30783172406616738 0.0037925172524494039 0 0.32069338199699532 -0.00142713013918547 0 0.33213259873031198 0.0057252787566607144 0 0.31815442228492202 0.01401489569737864 0 0.32069338199699532 -0.00142713013918547 0 0.32886883765544722 0.067095972163839085 0 0.34547330250516739 0.044075256442019463 0 0.32302678994030137 0.044192441954215053 0 0.32886883765544722 0.067095972163839085 0 0.34547330250516739 0.044075256442019463 0 0.32886883765544722 0.067095972163839085 0 0.34949249712230462 0.065391925764556047 0 0.34547330250516739 0.044075256442019463 0 0.34547330250516739 0.044075256442019463 0 0.33883017348229222 0.02842346752549739 0 0.32302678994030137 0.044192441954215053 0 0.33883017348229222 0.02842346752549739 0 0.32374203095036252 0.02889796878460835 0 0.32302678994030137 0.044192441954215053 0 0.32374203095036252 0.02889796878460835 0 0.32302678994030137 0.044192441954215053 0 0.30838235410660769 0.02824363800946034 0 0.32886883765544722 0.067095972163839085 0 0.32302678994030137 0.044192441954215053 0 0.30959574977650522 0.057966396663958877 0 0.30959574977650522 0.057966396663958877 0 0.30257361057158799 0.044061311658584991 0 0.29072380465454478 0.062763462821851079 0 0.32302678994030137 0.044192441954215053 0 0.30959574977650522 0.057966396663958877 0 0.30257361057158799 0.044061311658584991 0 0.32302678994030137 0.044192441954215053 0 0.30257361057158799 0.044061311658584991 0 0.30838235410660769 0.02824363800946034 0 0.30257361057158799 0.044061311658584991 0 0.29654422356260102 0.031855874836598679 0 0.30838235410660769 0.02824363800946034 0 0.28693294053151652 0.043417134512612032 0 0.29654422356260102 0.031855874836598679 0 0.28211497234319233 0.027663126044512942 0 0.30257361057158799 0.044061311658584991 0 0.28693294053151652 0.043417134512612032 0 0.29654422356260102 0.031855874836598679 0 0.28693294053151652 0.043417134512612032 0 0.27543725901668681 0.059962216550301387 0 0.29072380465454478 0.062763462821851079 0 0.30257361057158799 0.044061311658584991 0 0.28693294053151652 0.043417134512612032 0 0.29072380465454478 0.062763462821851079 0 0.31815442228492202 0.01401489569737864 0 0.30783172406616738 0.0037925172524494039 0 0.30104397984569348 0.01860299657288576 0 0.30783172406616738 0.0037925172524494039 0 0.30104397984569348 0.01860299657288576 0 0.29323618271067059 0.0060479275969145367 0 0.31815442228492202 0.01401489569737864 0 0.30104397984569348 0.01860299657288576 0 0.30838235410660769 0.02824363800946034 0 0.29654422356260102 0.031855874836598679 0 0.30104397984569348 0.01860299657288576 0 0.30838235410660769 0.02824363800946034 0 0.28211497234319233 0.027663126044512942 0 0.29323618271067059 0.0060479275969145367 0 0.27158170799109088 0.01346569036181695 0 0.28211497234319233 0.027663126044512942 0 0.29323618271067059 0.0060479275969145367 0 0.30104397984569348 0.01860299657288576 0 0.28211497234319233 0.027663126044512942 0 0.29323618271067059 0.0060479275969145367 0 0.29654422356260102 0.031855874836598679 0 0.30104397984569348 0.01860299657288576 0 0.28211497234319233 0.027663126044512942 0 0.27713155365912651 0.00074104223111566114 0 0.27158170799109088 0.01346569036181695 0 0.26426219591019201 -0.002359750825380944 0 0.29323618271067059 0.0060479275969145367 0 0.27713155365912651 0.00074104223111566114 0 0.27158170799109088 0.01346569036181695 0 0.28211497234319233 0.027663126044512942 0 0.27158170799109088 0.01346569036181695 0 0.26911834987289501 0.02415714922601115 0 0.28211497234319233 0.027663126044512942 0 0.26911834987289501 0.02415714922601115 0 0.27276831536202989 0.033460388041782141 0 0.26911834987289501 0.02415714922601115 0 0.26079215273048761 0.027896482712477778 0 0.27276831536202989 0.033460388041782141 0 0.27158170799109088 0.01346569036181695 0 0.26911834987289501 0.02415714922601115 0 0.25489883525781248 0.020703345573159691 0 0.24553547460543171 0.043766441971699953 0 0.26079215273048761 0.027896482712477778 0 0.25489883525781248 0.020703345573159691 0 0.26911834987289501 0.02415714922601115 0 0.26079215273048761 0.027896482712477778 0 0.25489883525781248 0.020703345573159691 0 0.24666420319168639 0.01542139876343003 0 0.26426219591019201 -0.002359750825380944 0 0.24311130928645741 -0.005463409046427151 0 0.25489883525781248 0.020703345573159691 0 0.26426219591019201 -0.002359750825380944 0 0.27158170799109088 0.01346569036181695 0 0.25489883525781248 0.020703345573159691 0 0.26426219591019201 -0.002359750825380944 0 0.24666420319168639 0.01542139876343003 0 0.26426219591019201 -0.002359750825380944 0 0.24666420319168639 0.01542139876343003 0 0.25489883525781248 0.020703345573159691 0 0.26426219591019201 -0.002359750825380944 0 0.27543725901668681 0.059962216550301387 0 0.26667166701610973 0.044588416333238748 0 0.25656045389062482 0.059112627339890603 0 0.28693294053151652 0.043417134512612032 0 0.27543725901668681 0.059962216550301387 0 0.26667166701610973 0.044588416333238748 0 0.28693294053151652 0.043417134512612032 0 0.27543725901668681 0.059962216550301387 0 0.28693294053151652 0.043417134512612032 0 0.26667166701610973 0.044588416333238748 0 0.27276831536202989 0.033460388041782141 0 0.28693294053151652 0.043417134512612032 0 0.28211497234319233 0.027663126044512942 0 0.27276831536202989 0.033460388041782141 0 0.26079215273048761 0.027896482712477778 0 0.26667166701610973 0.044588416333238748 0 0.27276831536202989 0.033460388041782141 0 0.24553547460543171 0.043766441971699953 0 0.26079215273048761 0.027896482712477778 0 0.24553547460543171 0.043766441971699953 0 0.25489883525781248 0.020703345573159691 0 0.24553547460543171 0.043766441971699953 0 0.26079215273048761 0.027896482712477778 0 0.26667166701610973 0.044588416333238748 0 0.24553547460543171 0.043766441971699953 0 0.26667166701610973 0.044588416333238748 0 0.25656045389062482 0.059112627339890603 0 0.2477663946351947 0.078357918266048876 0 0.2509897177165582 0.070498448047813717 0 0.26394157750185693 0.076507298587990713 0 0.27543725901668681 0.059962216550301387 0 0.25656045389062482 0.059112627339890603 0 0.26394157750185693 0.076507298587990713 0 0.25656045389062482 0.059112627339890603 0 0.2509897177165582 0.070498448047813717 0 0.26394157750185693 0.076507298587990713 0 0.25244589598702583 0.093052380625679054 0 0.27402009665386662 0.093690613915195356 0 0.26394157750185693 0.076507298587990713 0 0.25244589598702583 0.093052380625679054 0 0.26699388614920511 0.080673758461395628 0 0.26394157750185693 0.076507298587990713 0 0.25244589598702583 0.093052380625679054 0 0.2477663946351947 0.078357918266048876 0 0.26394157750185693 0.076507298587990713 0 0.25244589598702583 0.093052380625679054 0 0.25244589598702583 0.093052380625679054 0 0.26699388614920511 0.080673758461395628 0 0.27402009665386662 0.093690613915195356 0 0.26699388614920511 0.080673758461395628 0 0.27402009665386662 0.093690613915195356 0 0.27754652050913542 0.098224621748377983 0 0.26699388614920511 0.080673758461395628 0 0.27754652050913542 0.098224621748377983 0 0.26699388614920511 0.080673758461395628 0 0.27840240357192031 0.090992580046082169 0 0.27754652050913542 0.098224621748377983 0 0.27448758316834893 0.079370743651532932 0 0.27946083869133032 0.08512574774471883 0 0.2877026173516235 0.080423000810432188 0 0.26699388614920511 0.080673758461395628 0 0.27448758316834893 0.079370743651532932 0 0.27946083869133032 0.08512574774471883 0 0.26699388614920511 0.080673758461395628 0 0.27946083869133032 0.08512574774471883 0 0.27840240357192031 0.090992580046082169 0 0.27946083869133032 0.08512574774471883 0 0.27840240357192031 0.090992580046082169 0 0.28500093438269519 0.092923449129578631 0 0.27543725901668681 0.059962216550301387 0 0.26394157750185693 0.076507298587990713 0 0.27543725901668681 0.059962216550301387 0 0.27477769329259172 0.071770139812017825 0 0.29072380465454478 0.062763462821851079 0 0.27543725901668681 0.059962216550301387 0 0.26394157750185693 0.076507298587990713 0 0.27477769329259172 0.071770139812017825 0 0.26394157750185693 0.076507298587990713 0 0.26699388614920511 0.080673758461395628 0 0.27477769329259172 0.071770139812017825 0 0.26699388614920511 0.080673758461395628 0 0.27448758316834893 0.079370743651532932 0 0.27477769329259172 0.071770139812017825 0 0.27448758316834893 0.079370743651532932 0 0.27477769329259172 0.071770139812017825 0 0.2877026173516235 0.080423000810432188 0 0.29072380465454478 0.062763462821851079 0 0.2877026173516235 0.080423000810432188 0 0.30230219705414912 0.071746527319131503 0 0.27477769329259172 0.071770139812017825 0 0.29072380465454478 0.062763462821851079 0 0.2877026173516235 0.080423000810432188 0 0.2877026173516235 0.080423000810432188 0 0.28500093438269519 0.092923449129578631 0 0.29409229964354061 0.093384966592278643 0 0.27946083869133032 0.08512574774471883 0 0.2877026173516235 0.080423000810432188 0 0.28500093438269519 0.092923449129578631 0 0.27840240357192031 0.090992580046082169 0 0.28500093438269519 0.092923449129578631 0 0.28195796542923129 0.096003941137239659 0 0.2877026173516235 0.080423000810432188 0 0.29409229964354061 0.093384966592278643 0 0.30090931343286398 0.084908081040913824 0 0.2877026173516235 0.080423000810432188 0 0.30090931343286398 0.084908081040913824 0 0.30230219705414912 0.071746527319131503 0 0.29409229964354061 0.093384966592278643 0 0.30090931343286398 0.084908081040913824 0 0.30674272259986107 0.097183250263304349 0 0.31282448825785342 0.082827052692920192 0 0.30090931343286398 0.084908081040913824 0 0.30674272259986107 0.097183250263304349 0 0.31282448825785342 0.082827052692920192 0 0.30090931343286398 0.084908081040913824 0 0.30230219705414912 0.071746527319131503 0 0.30959574977650522 0.057966396663958877 0 0.29072380465454478 0.062763462821851079 0 0.30230219705414912 0.071746527319131503 0 0.30289357098572861 0.1122338061762158 0 0.29196109770817991 0.11853031336423681 0 0.31396210421308041 0.13422422663755931 0 0.31649764268325109 0.1098146278671457 0 0.30289357098572861 0.1122338061762158 0 0.31396210421308041 0.13422422663755931 0 0.31649764268325109 0.1098146278671457 0 0.30289357098572861 0.1122338061762158 0 0.30674272259986107 0.097183250263304349 0 0.29409229964354061 0.093384966592278643 0 0.30674272259986107 0.097183250263304349 0 0.29615893648292779 0.1031821700217137 0 0.30289357098572861 0.1122338061762158 0 0.30674272259986107 0.097183250263304349 0 0.29615893648292779 0.1031821700217137 0 0.28809915486906712 0.1157754850353595 0 0.27754652050913542 0.098224621748377983 0 0.29615893648292779 0.1031821700217137 0 0.2868820032531742 0.1018751136249199 0 0.29056235839298961 0.1111988636778647 0 0.30289357098572861 0.1122338061762158 0 0.29615893648292779 0.1031821700217137 0 0.29056235839298961 0.1111988636778647 0 0.2868820032531742 0.1018751136249199 0 0.28809915486906712 0.1157754850353595 0 0.27754652050913542 0.098224621748377983 0 0.29409229964354061 0.093384966592278643 0 0.29615893648292779 0.1031821700217137 0 0.2868820032531742 0.1018751136249199 0 0.28500093438269519 0.092923449129578631 0 0.28195796542923129 0.096003941137239659 0 0.2868820032531742 0.1018751136249199 0 0.28195796542923129 0.096003941137239659 0 0.2868820032531742 0.1018751136249199 0 0.27754652050913542 0.098224621748377983 0 0.28500093438269519 0.092923449129578631 0 0.29409229964354061 0.093384966592278643 0 0.2868820032531742 0.1018751136249199 0 0.28809915486906712 0.1157754850353595 0 0.27669509691515898 0.1076406619102107 0 0.2868820032531742 0.1018751136249199 0 0.28809915486906712 0.1157754850353595 0 0.29056235839298961 0.1111988636778647 0 0.28137790105769878 0.11669947007703869 0 0.28809915486906712 0.1157754850353595 0 0.27669509691515898 0.1076406619102107 0 0.30289357098572861 0.1122338061762158 0 0.29056235839298961 0.1111988636778647 0 0.29196109770817991 0.11853031336423681 0 0.28809915486906712 0.1157754850353595 0 0.29056235839298961 0.1111988636778647 0 0.29196109770817991 0.11853031336423681 0 0.29056235839298961 0.1111988636778647 0 0.29196109770817991 0.11853031336423681 0 0.28809915486906712 0.1157754850353595 0 0.29196109770817991 0.11853031336423681 0 0.28809915486906712 0.1157754850353595 0 0.29298623737555418 0.1239035518306328 0 0.29196109770817991 0.11853031336423681 0 0.29298623737555418 0.1239035518306328 0 0.29196109770817991 0.11853031336423681 0 0.29646833903449982 0.12969489151729729 0 0.28809915486906712 0.1157754850353595 0 0.29298623737555418 0.1239035518306328 0 0.29298623737555418 0.1239035518306328 0 0.29196109770817991 0.11853031336423681 0 0.28809915486906712 0.1157754850353595 0 0.29298623737555418 0.1239035518306328 0 0.28445144074759782 0.1224495902802 0 0.28137790105769878 0.11669947007703869 0 0.28809915486906712 0.1157754850353595 0 0.28445144074759782 0.1224495902802 0 0.28137790105769878 0.11669947007703869 0 0.28445144074759782 0.1224495902802 0 0.27626591169897052 0.1209321430823858 0 0.27626591169897052 0.1209321430823858 0 0.27002057018966907 0.11363421084942869 0 0.27669509691515898 0.1076406619102107 0 0.28137790105769878 0.11669947007703869 0 0.27626591169897052 0.1209321430823858 0 0.27669509691515898 0.1076406619102107 0 0.27002057018966907 0.11363421084942869 0 0.26759354674999308 0.1025869313407171 0 0.26100290195474102 0.1152153917037496 0 0.27002057018966907 0.11363421084942869 0 0.26767372264660572 0.12163298614487381 0 0.26100290195474102 0.1152153917037496 0 0.27626591169897052 0.1209321430823858 0 0.26767372264660572 0.12163298614487381 0 0.26990215010366497 0.13072478078345409 0 0.27626591169897052 0.1209321430823858 0 0.27002057018966907 0.11363421084942869 0 0.26767372264660572 0.12163298614487381 0 0.28809915486906712 0.1157754850353595 0 0.27754652050913542 0.098224621748377983 0 0.27669509691515898 0.1076406619102107 0 0.27840240357192031 0.090992580046082169 0 0.28195796542923129 0.096003941137239659 0 0.27754652050913542 0.098224621748377983 0 0.27754652050913542 0.098224621748377983 0 0.27669509691515898 0.1076406619102107 0 0.26759354674999308 0.1025869313407171 0 0.27002057018966907 0.11363421084942869 0 0.27669509691515898 0.1076406619102107 0 0.26759354674999308 0.1025869313407171 0 0.27402009665386662 0.093690613915195356 0 0.27754652050913542 0.098224621748377983 0 0.26759354674999308 0.1025869313407171 0 0.25244589598702583 0.093052380625679054 0 0.27402009665386662 0.093690613915195356 0 0.26759354674999308 0.1025869313407171 0 0.25244589598702583 0.093052380625679054 0 0.26759354674999308 0.1025869313407171 0 0.25513117456964352 0.1062350585458208 0 0.26759354674999308 0.1025869313407171 0 0.25513117456964352 0.1062350585458208 0 0.26100290195474102 0.1152153917037496 0 0.24304896194163839 0.1065768545320899 0 0.25244589598702583 0.093052380625679054 0 0.25513117456964352 0.1062350585458208 0 0.26767372264660572 0.12163298614487381 0 0.26100290195474102 0.1152153917037496 0 0.25943373732023012 0.12733252417493771 0 0.2485501070929089 0.1191882429421139 0 0.25513117456964352 0.1062350585458208 0 0.26100290195474102 0.1152153917037496 0 0.2485501070929089 0.1191882429421139 0 0.26100290195474102 0.1152153917037496 0 0.25943373732023012 0.12733252417493771 0 0.24689748716589169 0.13668034068660331 0 0.2485501070929089 0.1191882429421139 0 0.25943373732023012 0.12733252417493771 0 0.24689748716589169 0.13668034068660331 0 0.26200995305086672 0.14008888835075761 0 0.25943373732023012 0.12733252417493771 0 0.26200995305086672 0.14008888835075761 0 0.25943373732023012 0.12733252417493771 0 0.26990215010366497 0.13072478078345409 0 0.26200995305086672 0.14008888835075761 0 0.26990215010366497 0.13072478078345409 0 0.27801496966330269 0.14816267448439091 0 0.26767372264660572 0.12163298614487381 0 0.25943373732023012 0.12733252417493771 0 0.26990215010366497 0.13072478078345409 0 0.26990215010366497 0.13072478078345409 0 0.27801496966330269 0.14816267448439091 0 0.28298295275883112 0.13216087998166831 0 0.28445144074759782 0.1224495902802 0 0.27626591169897052 0.1209321430823858 0 0.28298295275883112 0.13216087998166831 0 0.27626591169897052 0.1209321430823858 0 0.26990215010366497 0.13072478078345409 0 0.28298295275883112 0.13216087998166831 0 0.26200995305086672 0.14008888835075761 0 0.27801496966330269 0.14816267448439091 0 0.2601429464355336 0.15325935293470719 0 0.24689748716589169 0.13668034068660331 0 0.26200995305086672 0.14008888835075761 0 0.2601429464355336 0.15325935293470719 0 0.24689748716589169 0.13668034068660331 0 0.2601429464355336 0.15325935293470719 0 0.2601429464355336 0.15325935293470719 0 0.25680141540481938 0.16796710591659411 0 0.27338840570517542 0.16983836518281109 0 0.2570848785433778 0.1721788521524327 0 0.27338840570517542 0.16983836518281109 0 0.25680141540481938 0.16796710591659411 0 0.2570848785433778 0.1721788521524327 0 0.27338840570517542 0.16983836518281109 0 0.23732753427187131 0.15397795512720039 0 0.2601429464355336 0.15325935293470719 0 0.25680141540481938 0.16796710591659411 0 0.24689640026790671 0.16831138779212901 0 0.25680141540481938 0.16796710591659411 0 0.2570848785433778 0.1721788521524327 0 0.2570848785433778 0.1721788521524327 0 0.26369281015497842 0.17823019687912131 0 0.27338840570517542 0.16983836518281109 0 0.25096185484086497 0.18748103319587661 0 0.25440344022390288 0.1802081938823456 0 0.26059471761324948 0.18634998854587631 0 0.24826796332043391 0.17979306739518369 0 0.25096185484086497 0.18748103319587661 0 0.25440344022390288 0.1802081938823456 0 0.24826796332043391 0.17979306739518369 0 0.25440344022390288 0.1802081938823456 0 0.2570848785433778 0.1721788521524327 0 0.25440344022390288 0.1802081938823456 0 0.2570848785433778 0.1721788521524327 0 0.26369281015497842 0.17823019687912131 0 0.25440344022390288 0.1802081938823456 0 0.26369281015497842 0.17823019687912131 0 0.26059471761324948 0.18634998854587631 0 0.27299260868918629 0.18257558463214049 0 0.27338840570517542 0.16983836518281109 0 0.29130974552872813 0.19227006093518831 0 0.26369281015497842 0.17823019687912131 0 0.26059471761324948 0.18634998854587631 0 0.27299260868918629 0.18257558463214049 0 0.26369281015497842 0.17823019687912131 0 0.27299260868918629 0.18257558463214049 0 0.27338840570517542 0.16983836518281109 0 0.2601429464355336 0.15325935293470719 0 0.27338840570517542 0.16983836518281109 0 0.27801496966330269 0.14816267448439091 0 0.2601429464355336 0.15325935293470719 0 0.27338840570517542 0.16983836518281109 0 0.27801496966330269 0.14816267448439091 0 0.27338840570517542 0.16983836518281109 0 0.30099388665163013 0.16587540257943609 0 0.27338840570517542 0.16983836518281109 0 0.30099388665163013 0.16587540257943609 0 0.27338840570517542 0.16983836518281109 0 0.30099388665163013 0.16587540257943609 0 0.29130974552872813 0.19227006093518831 0 0.27338840570517542 0.16983836518281109 0 0.29130974552872813 0.19227006093518831 0 0.30099388665163013 0.16587540257943609 0 0.29130974552872813 0.19227006093518831 0 0.30616761181993402 0.1929933260913973 0 0.30099388665163013 0.16587540257943609 0 0.30616761181993402 0.1929933260913973 0 0.31613382636025222 0.18162839877561079 0 0.30099388665163013 0.16587540257943609 0 0.30616761181993402 0.1929933260913973 0 0.30099388665163013 0.16587540257943609 0 0.31685332771610841 0.16359866731911291 0 0.30099388665163013 0.16587540257943609 0 0.31685332771610841 0.16359866731911291 0 0.31613382636025222 0.18162839877561079 0 0.30099388665163013 0.16587540257943609 0 0.30491978254583241 0.14375110957487219 0 0.31685332771610841 0.16359866731911291 0 0.30491978254583241 0.14375110957487219 0 0.31685332771610841 0.16359866731911291 0 0.30099388665163013 0.16587540257943609 0 0.29699006201359229 0.14488947720503451 0 0.30491978254583241 0.14375110957487219 0 0.31396210421308041 0.13422422663755931 0 0.31545911466106319 0.15092559070470751 0 0.30099388665163013 0.16587540257943609 0 0.29699006201359229 0.14488947720503451 0 0.30491978254583241 0.14375110957487219 0 0.30491978254583241 0.14375110957487219 0 0.31545911466106319 0.15092559070470751 0 0.31685332771610841 0.16359866731911291 0 0.29196109770817991 0.11853031336423681 0 0.29646833903449982 0.12969489151729729 0 0.31396210421308041 0.13422422663755931 0 0.29196109770817991 0.11853031336423681 0 0.31396210421308041 0.13422422663755931 0 0.29646833903449982 0.12969489151729729 0 0.31396210421308041 0.13422422663755931 0 0.30491978254583241 0.14375110957487219 0 0.29646833903449982 0.12969489151729729 0 0.31396210421308041 0.13422422663755931 0 0.30491978254583241 0.14375110957487219 0 0.29646833903449982 0.12969489151729729 0 0.29699006201359229 0.14488947720503451 0 0.30491978254583241 0.14375110957487219 0 0.29646833903449982 0.12969489151729729 0 0.29298623737555418 0.1239035518306328 0 0.29699006201359229 0.14488947720503451 0 0.28298295275883112 0.13216087998166831 0 0.29298623737555418 0.1239035518306328 0 0.29699006201359229 0.14488947720503451 0 0.29646833903449982 0.12969489151729729 0 0.29298623737555418 0.1239035518306328 0 0.29699006201359229 0.14488947720503451 0 0.29298623737555418 0.1239035518306328 0 0.29646833903449982 0.12969489151729729 0 0.29298623737555418 0.1239035518306328 0 0.28445144074759782 0.1224495902802 0 0.28298295275883112 0.13216087998166831 0 0.27801496966330269 0.14816267448439091 0 0.29699006201359229 0.14488947720503451 0 0.28298295275883112 0.13216087998166831 0 0.27801496966330269 0.14816267448439091 0 0.30099388665163013 0.16587540257943609 0 0.29699006201359229 0.14488947720503451 0 0.28350982114301537 0.25340827336100907 0 0.27624493267844091 0.23818714613855491 0 0.26031403403548131 0.2402604575509816 0 0.28350982114301537 0.25340827336100907 0 0.26031403403548131 0.2402604575509816 0 0.27624493267844091 0.23818714613855491 0 0.26031403403548131 0.2402604575509816 0 0.25556301788750557 0.2273286642810339 0 0.25441855054454432 0.25563729412123742 0 0.25010503738555478 0.24259371671335209 0 0.26031403403548131 0.2402604575509816 0 0.25010503738555478 0.24259371671335209 0 0.26031403403548131 0.2402604575509816 0 0.25556301788750557 0.2273286642810339 0 0.25556301788750557 0.2273286642810339 0 0.26815316520424037 0.21674503407463491 0 0.25140047973087548 0.2169793571628218 0 0.27624493267844091 0.23818714613855491 0 0.25556301788750557 0.2273286642810339 0 0.28345217743787099 0.22371995694219651 0 0.25556301788750557 0.2273286642810339 0 0.26815316520424037 0.21674503407463491 0 0.28345217743787099 0.22371995694219651 0 0.25556301788750557 0.2273286642810339 0 0.28345217743787099 0.22371995694219651 0 0.26815316520424037 0.21674503407463491 0 0.27923403192877089 0.20564186907518209 0 0.25957836326763301 0.20786486517659269 0 0.26815316520424037 0.21674503407463491 0 0.27923403192877089 0.20564186907518209 0 0.28345217743787099 0.22371995694219651 0 0.24157592692321239 0.20102918882948601 0 0.25140047973087548 0.2169793571628218 0 0.25957836326763301 0.20786486517659269 0 0.26815316520424037 0.21674503407463491 0 0.25140047973087548 0.2169793571628218 0 0.25957836326763301 0.20786486517659269 0 0.24157592692321239 0.20102918882948601 0 0.25957836326763301 0.20786486517659269 0 0.25692254755214899 0.19625362416250361 0 0.25957836326763301 0.20786486517659269 0 0.25692254755214899 0.19625362416250361 0 0.26849726052659212 0.19458761874194899 0 0.25096185484086497 0.18748103319587661 0 0.26059471761324948 0.18634998854587631 0 0.25692254755214899 0.19625362416250361 0 0.26059471761324948 0.18634998854587631 0 0.25692254755214899 0.19625362416250361 0 0.26849726052659212 0.19458761874194899 0 0.26059471761324948 0.18634998854587631 0 0.27299260868918629 0.18257558463214049 0 0.26849726052659212 0.19458761874194899 0 0.27299260868918629 0.18257558463214049 0 0.26849726052659212 0.19458761874194899 0 0.27800841166831941 0.193768783346115 0 0.27299260868918629 0.18257558463214049 0 0.27800841166831941 0.193768783346115 0 0.29130974552872813 0.19227006093518831 0 0.27923403192877089 0.20564186907518209 0 0.25957836326763301 0.20786486517659269 0 0.26849726052659212 0.19458761874194899 0 0.27923403192877089 0.20564186907518209 0 0.26849726052659212 0.19458761874194899 0 0.27800841166831941 0.193768783346115 0 0.27923403192877089 0.20564186907518209 0 0.27800841166831941 0.193768783346115 0 0.29130974552872813 0.19227006093518831 0 0.27923403192877089 0.20564186907518209 0 0.29130974552872813 0.19227006093518831 0 0.294416118584021 0.2070395946948283 0 0.29130974552872813 0.19227006093518831 0 0.30616761181993402 0.1929933260913973 0 0.294416118584021 0.2070395946948283 0 0.30616761181993402 0.1929933260913973 0 0.294416118584021 0.2070395946948283 0 0.31134133698823618 0.22011124960335879 0 0.30616761181993402 0.1929933260913973 0 0.31134133698823618 0.22011124960335879 0 0.27923403192877089 0.20564186907518209 0 0.294416118584021 0.2070395946948283 0 0.28345217743787099 0.22371995694219651 0 0.294416118584021 0.2070395946948283 0 0.28345217743787099 0.22371995694219651 0 0.31134133698823618 0.22011124960335879 0 0.28345217743787099 0.22371995694219651 0 0.30187452637369511 0.2321566267123156 0 0.29769131417516809 0.24543768908422581 0 0.28345217743787099 0.22371995694219651 0 0.31134133698823618 0.22011124960335879 0 0.28345217743787099 0.22371995694219651 0 0.30187452637369511 0.2321566267123156 0 0.31134133698823618 0.22011124960335879 0 0.30187452637369511 0.2321566267123156 0 0.31134133698823618 0.22011124960335879 0 0.31501327689350489 0.23935761121948129 0 0.30187452637369511 0.2321566267123156 0 0.29769131417516809 0.24543768908422581 0 0.31501327689350489 0.23935761121948129 0 0.29769131417516809 0.24543768908422581 0 0.31501327689350489 0.23935761121948129 0 0.30642368583217472 0.253973570375916 0 0.29769131417516809 0.24543768908422581 0 0.31501327689350489 0.23935761121948129 0 0.27624493267844091 0.23818714613855491 0 0.28345217743787099 0.22371995694219651 0 0.29769131417516809 0.24543768908422581 0 0.28350982114301537 0.25340827336100907 0 0.27624493267844091 0.23818714613855491 0 0.29769131417516809 0.24543768908422581 0 0.31501327689350489 0.23935761121948129 0 0.34302669091599919 0.22952479138932511 0 0.3322433811071151 0.24362456497306439 0 0.31501327689350489 0.23935761121948129 0 0.34302669091599919 0.22952479138932511 0 0.34225011193596688 0.24554605033966259 0 0.3322433811071151 0.24362456497306439 0 0.34302669091599919 0.22952479138932511 0 0.32851575443267339 0.25368014921509868 0 0.34225011193596688 0.24554605033966259 0 0.3322433811071151 0.24362456497306439 0 0.31779452277496761 0.25393542713122691 0 0.3322433811071151 0.24362456497306439 0 0.31501327689350489 0.23935761121948129 0 0.31779452277496761 0.25393542713122691 0 0.31501327689350489 0.23935761121948129 0 0.30642368583217472 0.253973570375916 0 0.31779452277496761 0.25393542713122691 0 0.31501327689350489 0.23935761121948129 0 0.31501327689350489 0.23935761121948129 0 0.32552222976179701 0.22658505509594221 0 0.34302669091599919 0.22952479138932511 0 0.31134133698823618 0.22011124960335879 0 0.31501327689350489 0.23935761121948129 0 0.31134133698823618 0.22011124960335879 0 0.31501327689350489 0.23935761121948129 0 0.32552222976179701 0.22658505509594221 0 0.31134133698823618 0.22011124960335879 0 0.32552222976179701 0.22658505509594221 0 0.33270761424944773 0.2173465681716035 0 0.34302669091599919 0.22952479138932511 0 0.33270761424944773 0.2173465681716035 0 0.35407389151065921 0.21458188673984771 0 0.32552222976179701 0.22658505509594221 0 0.34302669091599919 0.22952479138932511 0 0.33270761424944773 0.2173465681716035 0 0.33270761424944773 0.2173465681716035 0 0.35407389151065921 0.21458188673984771 0 0.33270761424944773 0.2173465681716035 0 0.34129312360522501 0.20225678361807439 0 0.35407389151065921 0.21458188673984771 0 0.33270761424944773 0.2173465681716035 0 0.32340433315755213 0.20021706265887751 0 0.34129312360522501 0.20225678361807439 0 0.31134133698823618 0.22011124960335879 0 0.33270761424944773 0.2173465681716035 0 0.31134133698823618 0.22011124960335879 0 0.33270761424944773 0.2173465681716035 0 0.32340433315755213 0.20021706265887751 0 0.30616761181993402 0.1929933260913973 0 0.31134133698823618 0.22011124960335879 0 0.32340433315755213 0.20021706265887751 0 0.30616761181993402 0.1929933260913973 0 0.32340433315755213 0.20021706265887751 0 0.31613382636025222 0.18162839877561079 0 0.32340433315755213 0.20021706265887751 0 0.33162783018138559 0.1881712303452559 0 0.31613382636025222 0.18162839877561079 0 0.32340433315755213 0.20021706265887751 0 0.33162783018138559 0.1881712303452559 0 0.34129312360522501 0.20225678361807439 0 0.33162783018138559 0.1881712303452559 0 0.34129312360522501 0.20225678361807439 0 0.3471889900873964 0.1913196059300096 0 0.34129312360522501 0.20225678361807439 0 0.3471889900873964 0.1913196059300096 0 0.35420219925029622 0.19985293616278449 0 0.3471889900873964 0.1913196059300096 0 0.35420219925029622 0.19985293616278449 0 0.36051456065791981 0.1890387808722877 0 0.36051456065791981 0.1890387808722877 0 0.36843849743940038 0.2012677426138611 0 0.37550762071605498 0.19038468057255989 0 0.36843849743940038 0.2012677426138611 0 0.37821721130733332 0.19796982392945101 0 0.37550762071605498 0.19038468057255989 0 0.35420219925029622 0.19985293616278449 0 0.36051456065791981 0.1890387808722877 0 0.36843849743940038 0.2012677426138611 0 0.36843849743940038 0.2012677426138611 0 0.35407389151065921 0.21458188673984771 0 0.37544016877187059 0.211817205308092 0 0.35407389151065921 0.21458188673984771 0 0.37544016877187059 0.211817205308092 0 0.35407389151065921 0.21458188673984771 0 0.3710401049384931 0.21969197155916789 0 0.37544016877187059 0.211817205308092 0 0.36843849743940038 0.2012677426138611 0 0.37544016877187059 0.211817205308092 0 0.37998761067079001 0.2066396146968501 0 0.35420219925029622 0.19985293616278449 0 0.36843849743940038 0.2012677426138611 0 0.35407389151065921 0.21458188673984771 0 0.34129312360522501 0.20225678361807439 0 0.35420219925029622 0.19985293616278449 0 0.35407389151065921 0.21458188673984771 0 0.34302669091599919 0.22952479138932511 0 0.3710401049384931 0.21969197155916789 0 0.34302669091599919 0.22952479138932511 0 0.3710401049384931 0.21969197155916789 0 0.35732720174502253 0.2396959493664664 0 0.34302669091599919 0.22952479138932511 0 0.35407389151065921 0.21458188673984771 0 0.3710401049384931 0.21969197155916789 0 0.3710401049384931 0.21969197155916789 0 0.35732720174502253 0.2396959493664664 0 0.3710401049384931 0.21969197155916789 0 0.36974993357080471 0.24341868245907089 0 0.35732720174502253 0.2396959493664664 0 0.3710401049384931 0.21969197155916789 0 0.36974993357080471 0.24341868245907089 0 0.38076024350424392 0.22022346863708511 0 0.35569285218755903 0.25327773526953179 0 0.36974993357080471 0.24341868245907089 0 0.35732720174502253 0.2396959493664664 0 0.34361429855155301 0.25969992717376572 0 0.35732720174502253 0.2396959493664664 0 0.34361429855155301 0.25969992717376572 0 0.34225011193596688 0.24554605033966259 0 0.35732720174502253 0.2396959493664664 0 0.34225011193596688 0.24554605033966259 0 0.34302669091599919 0.22952479138932511 0 0.35732720174502253 0.2396959493664664 0 0.33338243930738221 0.14807727716235949 0 0.33772848779974779 0.14115118640758201 0 0.31396210421308041 0.13422422663755931 0 0.33338243930738221 0.14807727716235949 0 0.35280277440168412 0.16193032768715929 0 0.33338243930738221 0.14807727716235949 0 0.33772848779974779 0.14115118640758201 0 0.34635214322380731 0.14980923435867649 0 0.33772848779974779 0.14115118640758201 0 0.34300547457560498 0.1261953155474812 0 0.3316647045693828 0.12937438664084749 0 0.33772848779974779 0.14115118640758201 0 0.3316647045693828 0.12937438664084749 0 0.31396210421308041 0.13422422663755931 0 0.33196275168909822 0.1159268179707673 0 0.3316647045693828 0.12937438664084749 0 0.31396210421308041 0.13422422663755931 0 0.33772848779974779 0.14115118640758201 0 0.31396210421308041 0.13422422663755931 0 0.33338243930738221 0.14807727716235949 0 0.32539581156127662 0.155636945704307 0 0.31545911466106319 0.15092559070470751 0 0.33338243930738221 0.14807727716235949 0 0.31396210421308041 0.13422422663755931 0 0.33338243930738221 0.14807727716235949 0 0.31396210421308041 0.13422422663755931 0 0.31545911466106319 0.15092559070470751 0 0.32539581156127662 0.155636945704307 0 0.31545911466106319 0.15092559070470751 0 0.31957477151240471 0.1588937594474667 0 0.31545911466106319 0.15092559070470751 0 0.31957477151240471 0.1588937594474667 0 0.31685332771610841 0.16359866731911291 0 0.31957477151240471 0.1588937594474667 0 0.31685332771610841 0.16359866731911291 0 0.32247924947515089 0.1608285130433435 0 0.32539581156127662 0.155636945704307 0 0.32655502194073788 0.16448712371995761 0 0.32247924947515089 0.1608285130433435 0 0.31685332771610841 0.16359866731911291 0 0.32655502194073788 0.16448712371995761 0 0.32247924947515089 0.1608285130433435 0 0.32539581156127662 0.155636945704307 0 0.31957477151240471 0.1588937594474667 0 0.32247924947515089 0.1608285130433435 0 0.33162783018138559 0.1881712303452559 0 0.31685332771610841 0.16359866731911291 0 0.32655502194073788 0.16448712371995761 0 0.33162783018138559 0.1881712303452559 0 0.31685332771610841 0.16359866731911291 0 0.31613382636025222 0.18162839877561079 0 0.33162783018138559 0.1881712303452559 0 0.31685332771610841 0.16359866731911291 0 0.33162783018138559 0.1881712303452559 0 0.3471889900873964 0.1913196059300096 0 0.34830723674215552 0.17727829865164521 0 0.33162783018138559 0.1881712303452559 0 0.32655502194073788 0.16448712371995761 0 0.33609915353536329 0.16574361579028021 0 0.33162783018138559 0.1881712303452559 0 0.33609915353536329 0.16574361579028021 0 0.34830723674215552 0.17727829865164521 0 0.33338243930738221 0.14807727716235949 0 0.32539581156127662 0.155636945704307 0 0.33609915353536329 0.16574361579028021 0 0.33338243930738221 0.14807727716235949 0 0.33609915353536329 0.16574361579028021 0 0.35280277440168412 0.16193032768715929 0 0.32539581156127662 0.155636945704307 0 0.32655502194073788 0.16448712371995761 0 0.33609915353536329 0.16574361579028021 0 0.33609915353536329 0.16574361579028021 0 0.35280277440168412 0.16193032768715929 0 0.34830723674215552 0.17727829865164521 0 0.35280277440168412 0.16193032768715929 0 0.34830723674215552 0.17727829865164521 0 0.37222310949598603 0.17578337821195911 0 0.3471889900873964 0.1913196059300096 0 0.36051456065791981 0.1890387808722877 0 0.34830723674215552 0.17727829865164521 0 0.36051456065791981 0.1890387808722877 0 0.34830723674215552 0.17727829865164521 0 0.37222310949598603 0.17578337821195911 0 0.36051456065791981 0.1890387808722877 0 0.37222310949598603 0.17578337821195911 0 0.37550762071605498 0.19038468057255989 0 0.35280277440168412 0.16193032768715929 0 0.37222310949598603 0.17578337821195911 0 0.35280277440168412 0.16193032768715929 0 0.37222310949598603 0.17578337821195911 0 0.36768039965118537 0.16161268965241229 0 0.35280277440168412 0.16193032768715929 0 0.36768039965118537 0.16161268965241229 0 0.36149487138641512 0.14807814617760531 0 0.36149487138641512 0.14807814617760531 0 0.38526125497308239 0.1550051059476287 0 0.36149487138641512 0.14807814617760531 0 0.36801772990287029 0.13573164014417749 0 0.38526125497308239 0.1550051059476287 0 0.36768039965118537 0.16161268965241229 0 0.36149487138641512 0.14807814617760531 0 0.38526125497308239 0.1550051059476287 0 0.33772848779974779 0.14115118640758201 0 0.36149487138641512 0.14807814617760531 0 0.33338243930738221 0.14807727716235949 0 0.35280277440168412 0.16193032768715929 0 0.34635214322380731 0.14980923435867649 0 0.35280277440168412 0.16193032768715929 0 0.36149487138641512 0.14807814617760531 0 0.34635214322380731 0.14980923435867649 0 0.33772848779974779 0.14115118640758201 0 0.36149487138641512 0.14807814617760531 0 0.34635214322380731 0.14980923435867649 0 0.33772848779974779 0.14115118640758201 0 0.36149487138641512 0.14807814617760531 0 0.35238397481876121 0.13570835584716701 0 0.3562282042250135 0.1244219162018769 0 0.35238397481876121 0.13570835584716701 0 0.36801772990287029 0.13573164014417749 0 0.3562282042250135 0.1244219162018769 0 0.34300547457560498 0.1261953155474812 0 0.35238397481876121 0.13570835584716701 0 0.33772848779974779 0.14115118640758201 0 0.34300547457560498 0.1261953155474812 0 0.35238397481876121 0.13570835584716701 0 0.36149487138641512 0.14807814617760531 0 0.35238397481876121 0.13570835584716701 0 0.36801772990287029 0.13573164014417749 0 0.3562282042250135 0.1244219162018769 0 0.37136760853144618 0.12137785530437591 0 0.36801772990287029 0.13573164014417749 0 0.37136760853144618 0.12137785530437591 0 0.36801772990287029 0.13573164014417749 0 0.38273142935887489 0.130070280736651 0 0.36801772990287029 0.13573164014417749 0 0.38273142935887489 0.130070280736651 0 0.38526125497308239 0.1550051059476287 0 0.38273142935887489 0.130070280736651 0 0.40855144916943159 0.120187835557726 0 0.38273142935887489 0.130070280736651 0 0.40149415297584989 0.1424153400345628 0 0.40855144916943159 0.120187835557726 0 0.40149415297584989 0.1424153400345628 0 0.38526125497308239 0.1550051059476287 0 0.40743938623163661 0.16659377601903799 0 0.38273142935887489 0.130070280736651 0 0.40149415297584989 0.1424153400345628 0 0.38526125497308239 0.1550051059476287 0 0.37222310949598603 0.17578337821195911 0 0.36768039965118537 0.16161268965241229 0 0.38779193799272949 0.17125499050404111 0 0.36768039965118537 0.16161268965241229 0 0.38526125497308239 0.1550051059476287 0 0.38779193799272949 0.17125499050404111 0 0.37222310949598603 0.17578337821195911 0 0.38779193799272949 0.17125499050404111 0 0.39164344459028799 0.18963642873675879 0 0.37222310949598603 0.17578337821195911 0 0.39164344459028799 0.18963642873675879 0 0.37222310949598603 0.17578337821195911 0 0.37550762071605498 0.19038468057255989 0 0.39164344459028799 0.18963642873675879 0 0.40603801895816238 0.1860803154579489 0 0.40743938623163661 0.16659377601903799 0 0.39164344459028799 0.18963642873675879 0 0.40743938623163661 0.16659377601903799 0 0.39164344459028799 0.18963642873675879 0 0.38779193799272949 0.17125499050404111 0 0.40743938623163661 0.16659377601903799 0 0.39164344459028799 0.18963642873675879 0 0.38526125497308239 0.1550051059476287 0 0.38779193799272949 0.17125499050404111 0 0.40743938623163661 0.16659377601903799 0 0.40743938623163661 0.16659377601903799 0 0.42118830261595019 0.1706280855537691 0 0.41951270505417909 0.15378246473873891 0 0.40603801895816238 0.1860803154579489 0 0.40743938623163661 0.16659377601903799 0 0.41488638459616001 0.18155432119510159 0 0.40603801895816238 0.1860803154579489 0 0.41488638459616001 0.18155432119510159 0 0.41388613001438829 0.19164380792279459 0 0.42118830261595019 0.1706280855537691 0 0.41488638459616001 0.18155432119510159 0 0.42395162147912419 0.18537572570669739 0 0.40743938623163661 0.16659377601903799 0 0.42118830261595019 0.1706280855537691 0 0.41488638459616001 0.18155432119510159 0 0.41488638459616001 0.18155432119510159 0 0.42395162147912419 0.18537572570669739 0 0.41388613001438829 0.19164380792279459 0 0.42395162147912419 0.18537572570669739 0 0.43609354115983168 0.17224857173352701 0 0.43539097016498862 0.1922407333120775 0 0.42118830261595019 0.1706280855537691 0 0.42395162147912419 0.18537572570669739 0 0.43609354115983168 0.17224857173352701 0 0.43609354115983168 0.17224857173352701 0 0.43040582145679351 0.15441983656717051 0 0.43773094645600691 0.15613183731627209 0 0.42118830261595019 0.1706280855537691 0 0.43609354115983168 0.17224857173352701 0 0.41951270505417909 0.15378246473873891 0 0.43609354115983168 0.17224857173352701 0 0.41951270505417909 0.15378246473873891 0 0.43609354115983168 0.17224857173352701 0 0.43040582145679351 0.15441983656717051 0 0.41951270505417909 0.15378246473873891 0 0.43040582145679351 0.15441983656717051 0 0.43545658674096749 0.14638518574599929 0 0.43773094645600691 0.15613183731627209 0 0.43040582145679351 0.15441983656717051 0 0.42323532787298218 0.14355112330131509 0 0.41951270505417909 0.15378246473873891 0 0.43040582145679351 0.15441983656717051 0 0.42323532787298218 0.14355112330131509 0 0.43545658674096749 0.14638518574599929 0 0.42323532787298218 0.14355112330131509 0 0.43545658674096749 0.14638518574599929 0 0.43885798777158203 0.1323601782504274 0 0.42323532787298218 0.14355112330131509 0 0.43897663710487478 0.1203888476831413 0 0.4369486270834988 0.120454896195849 0 0.42323532787298218 0.14355112330131509 0 0.43885798777158203 0.1323601782504274 0 0.43897663710487478 0.1203888476831413 0 0.42323532787298218 0.14355112330131509 0 0.43897663710487478 0.1203888476831413 0 0.42323532787298218 0.14355112330131509 0 0.4369486270834988 0.120454896195849 0 0.40855144916943159 0.120187835557726 0 0.40149415297584989 0.1424153400345628 0 0.42323532787298218 0.14355112330131509 0 0.40855144916943159 0.120187835557726 0 0.40743938623163661 0.16659377601903799 0 0.42323532787298218 0.14355112330131509 0 0.41951270505417909 0.15378246473873891 0 0.40743938623163661 0.16659377601903799 0 0.42323532787298218 0.14355112330131509 0 0.40149415297584989 0.1424153400345628 0 0.40743938623163661 0.16659377601903799 0 0.42323532787298218 0.14355112330131509 0 0.39032076234519641 0.2392124451987841 0 0.40406249975237918 0.23147131974123761 0 0.40754113612963189 0.246839457821182 0 0.39567832587374102 0.25400701171074253 0 0.39032076234519641 0.2392124451987841 0 0.40754113612963189 0.246839457821182 0 0.38274786304311942 0.25292179484764721 0 0.38146020636658812 0.2416568598164425 0 0.39032076234519641 0.2392124451987841 0 0.39567832587374102 0.25400701171074253 0 0.38274786304311942 0.25292179484764721 0 0.39032076234519641 0.2392124451987841 0 0.38274786304311942 0.25292179484764721 0 0.36974993357080471 0.24341868245907089 0 0.38146020636658812 0.2416568598164425 0 0.36974993357080471 0.24341868245907089 0 0.38146020636658812 0.2416568598164425 0 0.38302226650723198 0.23107451676026769 0 0.38146020636658812 0.2416568598164425 0 0.39032076234519641 0.2392124451987841 0 0.38302226650723198 0.23107451676026769 0 0.39032076234519641 0.2392124451987841 0 0.38302226650723198 0.23107451676026769 0 0.39236259892496339 0.2255269677199295 0 0.36974993357080471 0.24341868245907089 0 0.38076024350424392 0.22022346863708511 0 0.36974993357080471 0.24341868245907089 0 0.38302226650723198 0.23107451676026769 0 0.38076024350424392 0.22022346863708511 0 0.38302226650723198 0.23107451676026769 0 0.38076024350424392 0.22022346863708511 0 0.39236259892496339 0.2255269677199295 0 0.38076024350424392 0.22022346863708511 0 0.39236259892496339 0.2255269677199295 0 0.39185465904044048 0.21363987609932211 0 0.39236259892496339 0.2255269677199295 0 0.4027630420493773 0.21894434950505551 0 0.39185465904044048 0.21363987609932211 0 0.39032076234519641 0.2392124451987841 0 0.39236259892496339 0.2255269677199295 0 0.40406249975237918 0.23147131974123761 0 0.39236259892496339 0.2255269677199295 0 0.40406249975237918 0.23147131974123761 0 0.4027630420493773 0.21894434950505551 0 0.4027630420493773 0.21894434950505551 0 0.4005177151368905 0.2087753460612442 0 0.40861238855959958 0.21205651161504521 0 0.4005177151368905 0.2087753460612442 0 0.40132460234923251 0.196542260532244 0 0.40861238855959958 0.21205651161504521 0 0.4005177151368905 0.2087753460612442 0 0.39252394072008839 0.2038368710448388 0 0.39185465904044048 0.21363987609932211 0 0.4027630420493773 0.21894434950505551 0 0.4005177151368905 0.2087753460612442 0 0.39185465904044048 0.21363987609932211 0 0.38076024350424392 0.22022346863708511 0 0.39185465904044048 0.21363987609932211 0 0.37998761067079001 0.2066396146968501 0 0.3710401049384931 0.21969197155916789 0 0.37998761067079001 0.2066396146968501 0 0.3710401049384931 0.21969197155916789 0 0.38076024350424392 0.22022346863708511 0 0.37998761067079001 0.2066396146968501 0 0.3710401049384931 0.21969197155916789 0 0.37544016877187059 0.211817205308092 0 0.37998761067079001 0.2066396146968501 0 0.39252394072008839 0.2038368710448388 0 0.39185465904044048 0.21363987609932211 0 0.37998761067079001 0.2066396146968501 0 0.37998761067079001 0.2066396146968501 0 0.38893511640308881 0.1935872578345337 0 0.39252394072008839 0.2038368710448388 0 0.37998761067079001 0.2066396146968501 0 0.38893511640308881 0.1935872578345337 0 0.37550762071605498 0.19038468057255989 0 0.38893511640308881 0.1935872578345337 0 0.39164344459028799 0.18963642873675879 0 0.37998761067079001 0.2066396146968501 0 0.37821721130733332 0.19796982392945101 0 0.38893511640308881 0.1935872578345337 0 0.36843849743940038 0.2012677426138611 0 0.37998761067079001 0.2066396146968501 0 0.37821721130733332 0.19796982392945101 0 0.37550762071605498 0.19038468057255989 0 0.38893511640308881 0.1935872578345337 0 0.37821721130733332 0.19796982392945101 0 0.37550762071605498 0.19038468057255989 0 0.38893511640308881 0.1935872578345337 0 0.38893511640308881 0.1935872578345337 0 0.39164344459028799 0.18963642873675879 0 0.39164344459028799 0.18963642873675879 0 0.40132460234923251 0.196542260532244 0 0.38893511640308881 0.1935872578345337 0 0.40132460234923251 0.196542260532244 0 0.38893511640308881 0.1935872578345337 0 0.39164344459028799 0.18963642873675879 0 0.40132460234923251 0.196542260532244 0 0.39252394072008839 0.2038368710448388 0 0.38893511640308881 0.1935872578345337 0 0.40132460234923251 0.196542260532244 0 0.4005177151368905 0.2087753460612442 0 0.39252394072008839 0.2038368710448388 0 0.40132460234923251 0.196542260532244 0 0.40603801895816238 0.1860803154579489 0 0.39164344459028799 0.18963642873675879 0 0.40132460234923251 0.196542260532244 0 0.40132460234923251 0.196542260532244 0 0.42180385146214411 0.2014267437657514 0 0.41388613001438829 0.19164380792279459 0 0.42395162147912419 0.18537572570669739 0 0.42180385146214411 0.2014267437657514 0 0.41388613001438829 0.19164380792279459 0 0.40132460234923251 0.196542260532244 0 0.42180385146214411 0.2014267437657514 0 0.40603801895816238 0.1860803154579489 0 0.40132460234923251 0.196542260532244 0 0.41388613001438829 0.19164380792279459 0 0.42395162147912419 0.18537572570669739 0 0.42180385146214411 0.2014267437657514 0 0.43539097016498862 0.1922407333120775 0 0.42180385146214411 0.2014267437657514 0 0.43539097016498862 0.1922407333120775 0 0.4422831005750556 0.20631122699925911 0 0.42180385146214411 0.2014267437657514 0 0.42537676368069183 0.2136993180463089 0 0.4422831005750556 0.20631122699925911 0 0.42180385146214411 0.2014267437657514 0 0.4422831005750556 0.20631122699925911 0 0.40132460234923251 0.196542260532244 0 0.42537676368069183 0.2136993180463089 0 0.40132460234923251 0.196542260532244 0 0.42180385146214411 0.2014267437657514 0 0.42537676368069183 0.2136993180463089 0 0.40132460234923251 0.196542260532244 0 0.42537676368069183 0.2136993180463089 0 0.40861238855959958 0.21205651161504521 0 0.42537676368069183 0.2136993180463089 0 0.40861238855959958 0.21205651161504521 0 0.41458127236701747 0.22227905260385339 0 0.4027630420493773 0.21894434950505551 0 0.40861238855959958 0.21205651161504521 0 0.41458127236701747 0.22227905260385339 0 0.40406249975237918 0.23147131974123761 0 0.4027630420493773 0.21894434950505551 0 0.41458127236701747 0.22227905260385339 0 0.40406249975237918 0.23147131974123761 0 0.41809820887005272 0.232145108780864 0 0.41458127236701747 0.22227905260385339 0 0.41809820887005272 0.232145108780864 0 0.41458127236701747 0.22227905260385339 0 0.42821936429956597 0.22758083179446451 0 0.42537676368069183 0.2136993180463089 0 0.44942892501215143 0.23085637556037361 0 0.42537676368069183 0.2136993180463089 0 0.42821936429956597 0.22758083179446451 0 0.44942892501215143 0.23085637556037361 0 0.42821936429956597 0.22758083179446451 0 0.43361165156791631 0.23892430398092271 0 0.44942892501215143 0.23085637556037361 0 0.42537676368069183 0.2136993180463089 0 0.41458127236701747 0.22227905260385339 0 0.42821936429956597 0.22758083179446451 0 0.41809820887005272 0.232145108780864 0 0.42821936429956597 0.22758083179446451 0 0.43361165156791631 0.23892430398092271 0 0.41809820887005272 0.232145108780864 0 0.43361165156791631 0.23892430398092271 0 0.42199558299019008 0.24569146256226659 0 0.43248491923257842 0.25319244582003908 0 0.43361165156791631 0.23892430398092271 0 0.42199558299019008 0.24569146256226659 0 0.4182419991507712 0.25735599640832502 0 0.42199558299019008 0.24569146256226659 0 0.40754113612963189 0.246839457821182 0 0.41809820887005272 0.232145108780864 0 0.42199558299019008 0.24569146256226659 0 0.40754113612963189 0.246839457821182 0 0.40406249975237918 0.23147131974123761 0 0.41809820887005272 0.232145108780864 0 0.40754113612963189 0.246839457821182 0 0.44788526557016878 0.25020789551764 0 0.44942892501215143 0.23085637556037361 0 0.47348108634361091 0.24801343307443799 0 0.44942892501215143 0.23085637556037361 0 0.47348108634361091 0.24801343307443799 0 0.44788526557016878 0.25020789551764 0 0.43361165156791631 0.23892430398092271 0 0.44942892501215143 0.23085637556037361 0 0.43248491923257842 0.25319244582003908 0 0.44788526557016878 0.25020789551764 0 0.43361165156791631 0.23892430398092271 0 0.42537676368069183 0.2136993180463089 0 0.44942892501215143 0.23085637556037361 0 0.45050061044108258 0.2172316204491648 0 0.44942892501215143 0.23085637556037361 0 0.45937975197325243 0.22399743949242121 0 0.45050061044108258 0.2172316204491648 0 0.45937975197325243 0.22399743949242121 0 0.47171210239081401 0.22918768712806251 0 0.47348108634361091 0.24801343307443799 0 0.44942892501215143 0.23085637556037361 0 0.45937975197325243 0.22399743949242121 0 0.47348108634361091 0.24801343307443799 0 0.45937975197325243 0.22399743949242121 0 0.46978909337999192 0.22024170305884899 0 0.47171210239081401 0.22918768712806251 0 0.46276234968796698 0.2111957102327669 0 0.45536982848929691 0.2035994002141768 0 0.4422831005750556 0.20631122699925911 0 0.45937975197325243 0.22399743949242121 0 0.46276234968796698 0.2111957102327669 0 0.46978909337999192 0.22024170305884899 0 0.46276234968796698 0.2111957102327669 0 0.46925521337113668 0.2091807857231032 0 0.46978909337999192 0.22024170305884899 0 0.46276234968796698 0.2111957102327669 0 0.45536982848929691 0.2035994002141768 0 0.46925521337113668 0.2091807857231032 0 0.45937975197325243 0.22399743949242121 0 0.46276234968796698 0.2111957102327669 0 0.45050061044108258 0.2172316204491648 0 0.46276234968796698 0.2111957102327669 0 0.4422831005750556 0.20631122699925911 0 0.42537676368069183 0.2136993180463089 0 0.45050061044108258 0.2172316204491648 0 0.4422831005750556 0.20631122699925911 0 0.46276234968796698 0.2111957102327669 0 0.45050061044108258 0.2172316204491648 0 0.4422831005750556 0.20631122699925911 0 0.43539097016498862 0.1922407333120775 0 0.4422831005750556 0.20631122699925911 0 0.45267437726548421 0.1907146787283151 0 0.45536982848929691 0.2035994002141768 0 0.4422831005750556 0.20631122699925911 0 0.45267437726548421 0.1907146787283151 0 0.45536982848929691 0.2035994002141768 0 0.45267437726548421 0.1907146787283151 0 0.46925521337113668 0.2091807857231032 0 0.45267437726548421 0.1907146787283151 0 0.46609751495037438 0.1960393140295518 0 0.46925521337113668 0.2091807857231032 0 0.45267437726548421 0.1907146787283151 0 0.46925521337113668 0.2091807857231032 0 0.45267437726548421 0.1907146787283151 0 0.46609751495037438 0.1960393140295518 0 0.46475578522026711 0.18017675231680111 0 0.47770468394460958 0.20408503934998801 0 0.46475578522026711 0.18017675231680111 0 0.47770468394460958 0.20408503934998801 0 0.46475578522026711 0.18017675231680111 0 0.48107312616680947 0.18499577283407931 0 0.46609751495037438 0.1960393140295518 0 0.47770468394460958 0.20408503934998801 0 0.46475578522026711 0.18017675231680111 0 0.48913650349071819 0.19592130344743461 0 0.47770468394460958 0.20408503934998801 0 0.48107312616680947 0.18499577283407931 0 0.46609751495037438 0.1960393140295518 0 0.47770468394460958 0.20408503934998801 0 0.46925521337113668 0.2091807857231032 0 0.48913650349071819 0.19592130344743461 0 0.5 0.2033205940769931 0 0.5 0.1750142061529717 0 0.48913650349071819 0.19592130344743461 0 0.48690470734217223 0.21219090482314071 0 0.5 0.2033205940769931 0 0.48690470734217223 0.21219090482314071 0 0.5 0.2033205940769931 0 0.5 0.2316269820010145 0 0.48913650349071819 0.19592130344743461 0 0.48690470734217223 0.21219090482314071 0 0.47770468394460958 0.20408503934998801 0 0.48690470734217223 0.21219090482314071 0 0.47770468394460958 0.20408503934998801 0 0.46925521337113668 0.2091807857231032 0 0.48690470734217223 0.21219090482314071 0 0.46925521337113668 0.2091807857231032 0 0.48583604947678932 0.2276468927178914 0 0.46925521337113668 0.2091807857231032 0 0.48583604947678932 0.2276468927178914 0 0.46925521337113668 0.2091807857231032 0 0.46978909337999192 0.22024170305884899 0 0.48583604947678932 0.2276468927178914 0 0.46978909337999192 0.22024170305884899 0 0.47171210239081401 0.22918768712806251 0 0.48583604947678932 0.2276468927178914 0 0.48690470734217223 0.21219090482314071 0 0.48583604947678932 0.2276468927178914 0 0.5 0.2316269820010145 0 0.5 0.25993336992503602 0 0.5 0.2316269820010145 0 0.4880543619955422 0.24607784998085619 0 0.48583604947678932 0.2276468927178914 0 0.5 0.2316269820010145 0 0.4880543619955422 0.24607784998085619 0 0.47171210239081401 0.22918768712806251 0 0.48583604947678932 0.2276468927178914 0 0.47348108634361091 0.24801343307443799 0 0.48583604947678932 0.2276468927178914 0 0.4880543619955422 0.24607784998085619 0 0.47348108634361091 0.24801343307443799 0 0.46385712017945713 0.15161562527267919 0 0.46366981913808031 0.13749744641264591 0 0.4783313204046587 0.15348302543812331 0 0.44925340193949448 0.14289080996257511 0 0.45947553436466038 0.16527314934155779 0 0.44925340193949448 0.14289080996257511 0 0.45180688649592449 0.15626846528361421 0 0.45947553436466038 0.16527314934155779 0 0.46385712017945713 0.15161562527267919 0 0.44925340193949448 0.14289080996257511 0 0.45947553436466038 0.16527314934155779 0 0.46385712017945713 0.15161562527267919 0 0.46366981913808031 0.13749744641264591 0 0.44925340193949448 0.14289080996257511 0 0.46366981913808031 0.13749744641264591 0 0.47960189246587581 0.1190657587108479 0 0.45935914233515379 0.1197250274152253 0 0.46366981913808031 0.13749744641264591 0 0.45008600502629781 0.1282012100987287 0 0.45935914233515379 0.1197250274152253 0 0.46366981913808031 0.13749744641264591 0 0.45008600502629781 0.1282012100987287 0 0.44925340193949448 0.14289080996257511 0 0.43885798777158203 0.1323601782504274 0 0.44925340193949448 0.14289080996257511 0 0.43897663710487478 0.1203888476831413 0 0.45008600502629781 0.1282012100987287 0 0.44925340193949448 0.14289080996257511 0 0.43897663710487478 0.1203888476831413 0 0.44925340193949448 0.14289080996257511 0 0.43897663710487478 0.1203888476831413 0 0.43885798777158203 0.1323601782504274 0 0.44925340193949448 0.14289080996257511 0 0.45180688649592449 0.15626846528361421 0 0.43545658674096749 0.14638518574599929 0 0.43885798777158203 0.1323601782504274 0 0.45180688649592449 0.15626846528361421 0 0.43885798777158203 0.1323601782504274 0 0.45180688649592449 0.15626846528361421 0 0.43545658674096749 0.14638518574599929 0 0.43773094645600691 0.15613183731627209 0 0.45180688649592449 0.15626846528361421 0 0.43609354115983168 0.17224857173352701 0 0.43773094645600691 0.15613183731627209 0 0.44395160936203559 0.16423342539491759 0 0.43773094645600691 0.15613183731627209 0 0.44395160936203559 0.16423342539491759 0 0.45180688649592449 0.15626846528361421 0 0.44395160936203559 0.16423342539491759 0 0.45180688649592449 0.15626846528361421 0 0.45017506333637952 0.17228482724625729 0 0.43609354115983168 0.17224857173352701 0 0.44395160936203559 0.16423342539491759 0 0.45017506333637952 0.17228482724625729 0 0.43609354115983168 0.17224857173352701 0 0.45267437726548421 0.1907146787283151 0 0.43609354115983168 0.17224857173352701 0 0.43539097016498862 0.1922407333120775 0 0.45267437726548421 0.1907146787283151 0 0.43609354115983168 0.17224857173352701 0 0.45267437726548421 0.1907146787283151 0 0.45017506333637952 0.17228482724625729 0 0.45267437726548421 0.1907146787283151 0 0.45017506333637952 0.17228482724625729 0 0.46475578522026711 0.18017675231680111 0 0.45180688649592449 0.15626846528361421 0 0.46475578522026711 0.18017675231680111 0 0.45180688649592449 0.15626846528361421 0 0.45017506333637952 0.17228482724625729 0 0.46475578522026711 0.18017675231680111 0 0.45180688649592449 0.15626846528361421 0 0.46475578522026711 0.18017675231680111 0 0.45947553436466038 0.16527314934155779 0 0.45947553436466038 0.16527314934155779 0 0.4692572975374768 0.16000447506692461 0 0.47536521520113117 0.16964610021533791 0 0.46475578522026711 0.18017675231680111 0 0.45947553436466038 0.16527314934155779 0 0.47536521520113117 0.16964610021533791 0 0.46385712017945713 0.15161562527267919 0 0.45947553436466038 0.16527314934155779 0 0.4692572975374768 0.16000447506692461 0 0.4692572975374768 0.16000447506692461 0 0.47536521520113117 0.16964610021533791 0 0.4783313204046587 0.15348302543812331 0 0.46475578522026711 0.18017675231680111 0 0.47536521520113117 0.16964610021533791 0 0.48107312616680947 0.18499577283407931 0 0.48913650349071819 0.19592130344743461 0 0.48107312616680947 0.18499577283407931 0 0.5 0.1750142061529717 0 0.47536521520113117 0.16964610021533791 0 0.48107312616680947 0.18499577283407931 0 0.5 0.1750142061529717 0 0.47536521520113117 0.16964610021533791 0 0.5 0.1750142061529717 0 0.4783313204046587 0.15348302543812331 0 0.5 0.1750142061529717 0 0.5 0.1467078182289504 0 0.4783313204046587 0.15348302543812331 0 0.5 0.1467078182289504 0 0.4783313204046587 0.15348302543812331 0 0.48280586505346512 0.1357862729409659 0 0.46366981913808031 0.13749744641264591 0 0.4783313204046587 0.15348302543812331 0 0.48280586505346512 0.1357862729409659 0 0.46385712017945713 0.15161562527267919 0 0.4692572975374768 0.16000447506692461 0 0.4783313204046587 0.15348302543812331 0 0.46366981913808031 0.13749744641264591 0 0.48280586505346512 0.1357862729409659 0 0.47960189246587581 0.1190657587108479 0 0.46366981913808031 0.13749744641264591 0 0.47960189246587581 0.1190657587108479 0 0.5 0.1467078182289504 0 0.48280586505346512 0.1357862729409659 0 0.49999999999999928 0.118401430304929 0 0.49999999999999928 0.118401430304929 0 0.48980094623293652 0.1072665553039472 0 0.47960189246587581 0.1190657587108479 0 0.48280586505346512 0.1357862729409659 0 0.49999999999999928 0.118401430304929 0 0.47960189246587581 0.1190657587108479 0 0.49999999999999928 0.118401430304929 0 0.47960189246587581 0.1190657587108479 0 0.48980094623293652 0.1072665553039472 0 0.47960189246587581 0.1190657587108479 0 0.49999999999999928 0.118401430304929 0 0.49999999999999822 0.095467351897047595 0 0.48980094623293652 0.1072665553039472 0 0.49999999999999822 0.095467351897047595 0 0.48980094623293652 0.1072665553039472 0 0.49999999999999822 0.095467351897047595 0 0.4852915859832998 0.096060894430836416 0 0.48980094623293652 0.1072665553039472 0 0.4852915859832998 0.096060894430836416 0 0.48980094623293652 0.1072665553039472 0 0.47668423400522902 0.1062427761392251 0 0.47668423400522902 0.1062427761392251 0 0.47429499221740051 0.08980481155148401 0 0.46705507295815718 0.097688261595837336 0 0.4852915859832998 0.096060894430836416 0 0.47668423400522902 0.1062427761392251 0 0.47429499221740051 0.08980481155148401 0 0.47668423400522902 0.1062427761392251 0 0.46797499302744772 0.10481925541629809 0 0.46705507295815718 0.097688261595837336 0 0.47668423400522902 0.1062427761392251 0 0.46453558389340238 0.1112778444987957 0 0.46797499302744772 0.10481925541629809 0 0.47960189246587581 0.1190657587108479 0 0.45935914233515379 0.1197250274152253 0 0.47668423400522902 0.1062427761392251 0 0.47960189246587581 0.1190657587108479 0 0.46453558389340238 0.1112778444987957 0 0.48980094623293652 0.1072665553039472 0 0.47668423400522902 0.1062427761392251 0 0.47960189246587581 0.1190657587108479 0 0.5 0.067140365789127077 0 0.48567775746093611 0.081522977262479174 0 0.47866597650437598 0.064798259165582031 0 0.49999999999999822 0.095467351897047595 0 0.5 0.067140365789127077 0 0.48567775746093611 0.081522977262479174 0 0.49999999999999822 0.095467351897047595 0 0.4852915859832998 0.096060894430836416 0 0.48567775746093611 0.081522977262479174 0 0.48567775746093611 0.081522977262479174 0 0.47429499221740051 0.08980481155148401 0 0.46743876535387058 0.076713002712112816 0 0.4852915859832998 0.096060894430836416 0 0.48567775746093611 0.081522977262479174 0 0.47429499221740051 0.08980481155148401 0 0.48567775746093611 0.081522977262479174 0 0.47866597650437598 0.064798259165582031 0 0.46743876535387058 0.076713002712112816 0 0.47866597650437598 0.064798259165582031 0 0.46743876535387058 0.076713002712112816 0 0.46150941275584062 0.059317552991295368 0 0.46743876535387058 0.076713002712112816 0 0.45509014604755083 0.083274232772162046 0 0.45166470941654779 0.071157071373394429 0 0.46743876535387058 0.076713002712112816 0 0.45166470941654779 0.071157071373394429 0 0.46150941275584062 0.059317552991295368 0 0.47429499221740051 0.08980481155148401 0 0.46743876535387058 0.076713002712112816 0 0.46431354429771449 0.086613918523404457 0 0.46743876535387058 0.076713002712112816 0 0.45509014604755083 0.083274232772162046 0 0.46431354429771449 0.086613918523404457 0 0.46431354429771449 0.086613918523404457 0 0.46705507295815718 0.097688261595837336 0 0.45849964651001562 0.09409907081959018 0 0.47429499221740051 0.08980481155148401 0 0.46431354429771449 0.086613918523404457 0 0.46705507295815718 0.097688261595837336 0 0.45509014604755083 0.083274232772162046 0 0.4493313781410434 0.089695457283978347 0 0.45849964651001562 0.09409907081959018 0 0.45509014604755083 0.083274232772162046 0 0.46431354429771449 0.086613918523404457 0 0.45849964651001562 0.09409907081959018 0 0.4493313781410434 0.089695457283978347 0 0.44416937515081473 0.080465581687353432 0 0.4363781146764289 0.089021482020548909 0 0.44416937515081473 0.080465581687353432 0 0.4363781146764289 0.089021482020548909 0 0.43280914428297718 0.076206305582412689 0 0.45509014604755083 0.083274232772162046 0 0.4493313781410434 0.089695457283978347 0 0.44416937515081473 0.080465581687353432 0 0.45509014604755083 0.083274232772162046 0 0.44416937515081473 0.080465581687353432 0 0.45166470941654779 0.071157071373394429 0 0.45166470941654779 0.071157071373394429 0 0.44350909680963718 0.057134763567170239 0 0.46150941275584062 0.059317552991295368 0 0.44416937515081473 0.080465581687353432 0 0.4382714603815735 0.070037294510272685 0 0.43280914428297718 0.076206305582412689 0 0.44416937515081473 0.080465581687353432 0 0.45166470941654779 0.071157071373394429 0 0.4382714603815735 0.070037294510272685 0 0.45166470941654779 0.071157071373394429 0 0.4382714603815735 0.070037294510272685 0 0.44350909680963718 0.057134763567170239 0 0.47960189246587581 0.1190657587108479 0 0.45935914233515379 0.1197250274152253 0 0.46453558389340238 0.1112778444987957 0 0.45642895282333817 0.11284185682001049 0 0.46453558389340238 0.1112778444987957 0 0.45423390753686738 0.1085830134085904 0 0.45642895282333817 0.11284185682001049 0 0.45935914233515379 0.1197250274152253 0 0.46453558389340238 0.1112778444987957 0 0.45642895282333817 0.11284185682001049 0 0.45423390753686738 0.1085830134085904 0 0.45170523043769267 0.1133869852266232 0 0.45642895282333817 0.11284185682001049 0 0.45935914233515379 0.1197250274152253 0 0.45170523043769267 0.1133869852266232 0 0.46453558389340238 0.1112778444987957 0 0.46797499302744772 0.10481925541629809 0 0.4624618670243914 0.10223538900881229 0 0.46797499302744772 0.10481925541629809 0 0.4624618670243914 0.10223538900881229 0 0.46705507295815718 0.097688261595837336 0 0.4624618670243914 0.10223538900881229 0 0.46705507295815718 0.097688261595837336 0 0.45849964651001562 0.09409907081959018 0 0.4624618670243914 0.10223538900881229 0 0.45849964651001562 0.09409907081959018 0 0.45394111836089962 0.102815233957675 0 0.4493313781410434 0.089695457283978347 0 0.45849964651001562 0.09409907081959018 0 0.45394111836089962 0.102815233957675 0 0.46453558389340238 0.1112778444987957 0 0.4624618670243914 0.10223538900881229 0 0.45394111836089962 0.102815233957675 0 0.46453558389340238 0.1112778444987957 0 0.45394111836089962 0.102815233957675 0 0.45423390753686738 0.1085830134085904 0 0.46453558389340238 0.1112778444987957 0 0.45394111836089962 0.102815233957675 0 0.45394111836089962 0.102815233957675 0 0.4363781146764289 0.089021482020548909 0 0.45423390753686738 0.1085830134085904 0 0.44938775728867247 0.1054007323696874 0 0.45170523043769267 0.1133869852266232 0 0.4493313781410434 0.089695457283978347 0 0.45394111836089962 0.102815233957675 0 0.4363781146764289 0.089021482020548909 0 0.45394111836089962 0.102815233957675 0 0.44938775728867247 0.1054007323696874 0 0.43437146897998852 0.1103053903788009 0 0.45394111836089962 0.102815233957675 0 0.43437146897998852 0.1103053903788009 0 0.4363781146764289 0.089021482020548909 0 0.45394111836089962 0.102815233957675 0 0.45423390753686738 0.1085830134085904 0 0.44938775728867247 0.1054007323696874 0 0.45394111836089962 0.102815233957675 0 0.43437146897998852 0.1103053903788009 0 0.45935914233515379 0.1197250274152253 0 0.45170523043769267 0.1133869852266232 0 0.43897663710487478 0.1203888476831413 0 0.45935914233515379 0.1197250274152253 0 0.43897663710487478 0.1203888476831413 0 0.44938775728867247 0.1054007323696874 0 0.43897663710487478 0.1203888476831413 0 0.43437146897998852 0.1103053903788009 0 0.44938775728867247 0.1054007323696874 0 0.43897663710487478 0.1203888476831413 0 0.45008600502629781 0.1282012100987287 0 0.45935914233515379 0.1197250274152253 0 0.43897663710487478 0.1203888476831413 0 0.44938775728867247 0.1054007323696874 0 0.45170523043769267 0.1133869852266232 0 0.43897663710487478 0.1203888476831413 0 0.43897663710487478 0.1203888476831413 0 0.4369486270834988 0.120454896195849 0 0.4369486270834988 0.120454896195849 0 0.43437146897998852 0.1103053903788009 0 0.40855144916943159 0.120187835557726 0 0.43897663710487478 0.1203888476831413 0 0.43437146897998852 0.1103053903788009 0 0.43897663710487478 0.1203888476831413 0 0.4369486270834988 0.120454896195849 0 0.43437146897998852 0.1103053903788009 0 0.43437146897998852 0.1103053903788009 0 0.40855144916943159 0.120187835557726 0 0.41515438785708558 0.1033037992821022 0 0.43437146897998852 0.1103053903788009 0 0.40855144916943159 0.120187835557726 0 0.43437146897998852 0.1103053903788009 0 0.41515438785708558 0.1033037992821022 0 0.42365369010491061 0.086837785558861125 0 0.43437146897998852 0.1103053903788009 0 0.42365369010491061 0.086837785558861125 0 0.4363781146764289 0.089021482020548909 0 0.43437146897998852 0.1103053903788009 0 0.42365369010491061 0.086837785558861125 0 0.42365369010491061 0.086837785558861125 0 0.4363781146764289 0.089021482020548909 0 0.41885815606898219 0.075173271928707264 0 0.4363781146764289 0.089021482020548909 0 0.41885815606898219 0.075173271928707264 0 0.4363781146764289 0.089021482020548909 0 0.43280914428297718 0.076206305582412689 0 0.41885815606898219 0.075173271928707264 0 0.4382714603815735 0.070037294510272685 0 0.42636861513708663 0.066333897765181088 0 0.44350909680963718 0.057134763567170239 0 0.4382714603815735 0.070037294510272685 0 0.43280914428297718 0.076206305582412689 0 0.42636861513708663 0.066333897765181088 0 0.43280914428297718 0.076206305582412689 0 0.42636861513708663 0.066333897765181088 0 0.41885815606898219 0.075173271928707264 0 0.41885815606898219 0.075173271928707264 0 0.40133819746153548 0.061325061836865598 0 0.41685040144699159 0.059767456743349309 0 0.41885815606898219 0.075173271928707264 0 0.40598401568747539 0.082201908046744668 0 0.40133819746153548 0.061325061836865598 0 0.41885815606898219 0.075173271928707264 0 0.40133819746153548 0.061325061836865598 0 0.42636861513708663 0.066333897765181088 0 0.41885815606898219 0.075173271928707264 0 0.41685040144699159 0.059767456743349309 0 0.42365369010491061 0.086837785558861125 0 0.41885815606898219 0.075173271928707264 0 0.40598401568747539 0.082201908046744668 0 0.41515438785708558 0.1033037992821022 0 0.42365369010491061 0.086837785558861125 0 0.40598401568747539 0.082201908046744668 0 0.40598401568747539 0.082201908046744668 0 0.39147939873960508 0.092712021452525856 0 0.38542026389273321 0.073859508221405953 0 0.41515438785708558 0.1033037992821022 0 0.40598401568747539 0.082201908046744668 0 0.39147939873960508 0.092712021452525856 0 0.40598401568747539 0.082201908046744668 0 0.38542026389273321 0.073859508221405953 0 0.40133819746153548 0.061325061836865598 0 0.36549606767850967 0.07753637651995357 0 0.38542026389273321 0.073859508221405953 0 0.38120215829722798 0.056318902399087253 0 0.38542026389273321 0.073859508221405953 0 0.38120215829722798 0.056318902399087253 0 0.40133819746153548 0.061325061836865598 0 0.36549606767850967 0.07753637651995357 0 0.39147939873960508 0.092712021452525856 0 0.38542026389273321 0.073859508221405953 0 0.3672052178403214 0.1057772944198308 0 0.39147939873960508 0.092712021452525856 0 0.38918808793673232 0.1121928779004953 0 0.37136760853144618 0.12137785530437591 0 0.3672052178403214 0.1057772944198308 0 0.38918808793673232 0.1121928779004953 0 0.37136760853144618 0.12137785530437591 0 0.38273142935887489 0.130070280736651 0 0.38918808793673232 0.1121928779004953 0 0.38273142935887489 0.130070280736651 0 0.40855144916943159 0.120187835557726 0 0.38918808793673232 0.1121928779004953 0 0.40855144916943159 0.120187835557726 0 0.41515438785708558 0.1033037992821022 0 0.38918808793673232 0.1121928779004953 0 0.41515438785708558 0.1033037992821022 0 0.39147939873960508 0.092712021452525856 0 0.38918808793673232 0.1121928779004953 0 0.39885055245392559 0.02752749120114395 0 0.38833888461775568 0.023239261798380911 0 0.39200254178423077 0.040558324978902563 0 0.39885055245392559 0.02752749120114395 0 0.39195966781183039 0.01114124921769084 0 0.38833888461775568 0.023239261798380911 0 0.39885055245392559 0.02752749120114395 0 0.39195966781183039 0.01114124921769084 0 0.41040902823848169 0.019914676199454789 0 0.39195966781183039 0.01114124921769084 0 0.39875453789319659 -0.0063613703873574854 0 0.38775337327806803 -0.0008053400666175538 0 0.39195966781183039 0.01114124921769084 0 0.41040902823848169 0.019914676199454789 0 0.40701902590320221 0.0058690553273170534 0 0.39195966781183039 0.01114124921769084 0 0.40701902590320221 0.0058690553273170534 0 0.39875453789319659 -0.0063613703873574854 0 0.37412568492071102 0.0043511005411320889 0 0.39195966781183039 0.01114124921769084 0 0.37741091504909807 0.01971519972567131 0 0.37412568492071102 0.0043511005411320889 0 0.39195966781183039 0.01114124921769084 0 0.38775337327806803 -0.0008053400666175538 0 0.39195966781183039 0.01114124921769084 0 0.37741091504909807 0.01971519972567131 0 0.38833888461775568 0.023239261798380911 0 0.37061114034258608 0.03135097082081667 0 0.37741091504909807 0.01971519972567131 0 0.37916896144966111 0.035338684217319317 0 0.37741091504909807 0.01971519972567131 0 0.38833888461775568 0.023239261798380911 0 0.37916896144966111 0.035338684217319317 0 0.38833888461775568 0.023239261798380911 0 0.37916896144966111 0.035338684217319317 0 0.39200254178423077 0.040558324978902563 0 0.37916896144966111 0.035338684217319317 0 0.38120215829722798 0.056318902399087253 0 0.39200254178423077 0.040558324978902563 0 0.40133819746153548 0.061325061836865598 0 0.39200254178423077 0.040558324978902563 0 0.40880296271091432 0.04495413794626113 0 0.38120215829722798 0.056318902399087253 0 0.40133819746153548 0.061325061836865598 0 0.39200254178423077 0.040558324978902563 0 0.39885055245392559 0.02752749120114395 0 0.39200254178423077 0.040558324978902563 0 0.40880296271091432 0.04495413794626113 0 0.40880296271091432 0.04495413794626113 0 0.42080338640373399 0.031683147167159247 0 0.42893552360241072 0.05127774239429269 0 0.39885055245392559 0.02752749120114395 0 0.40880296271091432 0.04495413794626113 0 0.42080338640373399 0.031683147167159247 0 0.40880296271091432 0.04495413794626113 0 0.41685040144699159 0.059767456743349309 0 0.42893552360241072 0.05127774239429269 0 0.40133819746153548 0.061325061836865598 0 0.40880296271091432 0.04495413794626113 0 0.41685040144699159 0.059767456743349309 0 0.42636861513708663 0.066333897765181088 0 0.42893552360241072 0.05127774239429269 0 0.44350909680963718 0.057134763567170239 0 0.42636861513708663 0.066333897765181088 0 0.41685040144699159 0.059767456743349309 0 0.42893552360241072 0.05127774239429269 0 0.42893552360241072 0.05127774239429269 0 0.44350909680963718 0.057134763567170239 0 0.43907715870027569 0.041780267808646243 0 0.42080338640373399 0.031683147167159247 0 0.44177234452609943 0.02817683230561378 0 0.43907715870027569 0.041780267808646243 0 0.42080338640373399 0.031683147167159247 0 0.42893552360241072 0.05127774239429269 0 0.43907715870027569 0.041780267808646243 0 0.42080338640373399 0.031683147167159247 0 0.43424837286191748 0.015656527938261128 0 0.42057363675451259 0.010521378140308849 0 0.42080338640373399 0.031683147167159247 0 0.43424837286191748 0.015656527938261128 0 0.44177234452609943 0.02817683230561378 0 0.39885055245392559 0.02752749120114395 0 0.42080338640373399 0.031683147167159247 0 0.41040902823848169 0.019914676199454789 0 0.42080338640373399 0.031683147167159247 0 0.41040902823848169 0.019914676199454789 0 0.42057363675451259 0.010521378140308849 0 0.41040902823848169 0.019914676199454789 0 0.40701902590320221 0.0058690553273170534 0 0.42057363675451259 0.010521378140308849 0 0.42057363675451259 0.010521378140308849 0 0.41502170974868019 -0.0023034730313485799 0 0.42919212377447558 -0.0023867331313195939 0 0.40701902590320221 0.0058690553273170534 0 0.42057363675451259 0.010521378140308849 0 0.41502170974868019 -0.0023034730313485799 0 0.43424837286191748 0.015656527938261128 0 0.42057363675451259 0.010521378140308849 0 0.42919212377447558 -0.0023867331313195939 0 0.43424837286191748 0.015656527938261128 0 0.44454660696380771 0.003786342695909206 0 0.42919212377447558 -0.0023867331313195939 0 0.44454660696380771 0.003786342695909206 0 0.45232860713863848 0.01888377072794788 0 0.46094292829637101 0.0063287172841708546 0 0.43424837286191748 0.015656527938261128 0 0.44454660696380771 0.003786342695909206 0 0.45232860713863848 0.01888377072794788 0 0.43424837286191748 0.015656527938261128 0 0.45232860713863848 0.01888377072794788 0 0.44177234452609943 0.02817683230561378 0 0.45232860713863848 0.01888377072794788 0 0.44177234452609943 0.02817683230561378 0 0.45539851563449951 0.038445791955246653 0 0.45232860713863848 0.01888377072794788 0 0.45539851563449951 0.038445791955246653 0 0.47050169233669459 0.018066106468571871 0 0.45232860713863848 0.01888377072794788 0 0.46094292829637101 0.0063287172841708546 0 0.47050169233669459 0.018066106468571871 0 0.46094292829637101 0.0063287172841708546 0 0.47292530472960598 0.00054744320256952961 0 0.47050169233669459 0.018066106468571871 0 0.44177234452609943 0.02817683230561378 0 0.43907715870027569 0.041780267808646243 0 0.45539851563449951 0.038445791955246653 0 0.44350909680963718 0.057134763567170239 0 0.43907715870027569 0.041780267808646243 0 0.45539851563449951 0.038445791955246653 0 0.45539851563449951 0.038445791955246653 0 0.47536453233850789 0.043384421723934988 0 0.47050169233669459 0.018066106468571871 0 0.45539851563449951 0.038445791955246653 0 0.46150941275584062 0.059317552991295368 0 0.47536453233850789 0.043384421723934988 0 0.44350909680963718 0.057134763567170239 0 0.45539851563449951 0.038445791955246653 0 0.46150941275584062 0.059317552991295368 0 0.47866597650437598 0.064798259165582031 0 0.46150941275584062 0.059317552991295368 0 0.47536453233850789 0.043384421723934988 0 0.47866597650437598 0.064798259165582031 0 0.47536453233850789 0.043384421723934988 0 0.48850762721072089 0.05353410658996266 0 0.47536453233850789 0.043384421723934988 0 0.5 0.038813379681206572 0 0.48850762721072089 0.05353410658996266 0 0.47536453233850789 0.043384421723934988 0 0.5 0.038813379681206572 0 0.48701153120534307 0.023029273052286591 0 0.5 0.067140365789127077 0 0.47866597650437598 0.064798259165582031 0 0.48850762721072089 0.05353410658996266 0 0.5 0.067140365789127077 0 0.5 0.038813379681206572 0 0.48850762721072089 0.05353410658996266 0 0.47292530472960598 0.00054744320256952961 0 0.47050169233669459 0.018066106468571871 0 0.48746757962295623 0.0048757471253267591 0 0.47050169233669459 0.018066106468571871 0 0.48701153120534307 0.023029273052286591 0 0.48746757962295623 0.0048757471253267591 0 0.47536453233850789 0.043384421723934988 0 0.47050169233669459 0.018066106468571871 0 0.48701153120534307 0.023029273052286591 0 0.5 0.038813379681206572 0 0.48701153120534307 0.023029273052286591 0 0.5 0.010486393573286181 0 0.48701153120534307 0.023029273052286591 0 0.48746757962295623 0.0048757471253267591 0 0.5 0.010486393573286181 0 0.48746757962295623 0.0048757471253267591 0 0.5 0.010486393573286181 0 0.49605759899658308 -0.0059370390433930156 0 0.48746757962295623 0.0048757471253267591 0 0.49605759899658308 -0.0059370390433930156 0 0.48027096598188901 -0.01191828833617203 0 0.5 0.010486393573286181 0 0.49605759899658308 -0.0059370390433930156 0 0.5 -0.017840592534634329 0 0.47292530472960598 0.00054744320256952961 0 0.48027096598188901 -0.01191828833617203 0 0.46167860439125719 -0.010824370724108299 0 0.47292530472960598 0.00054744320256952961 0 0.48746757962295623 0.0048757471253267591 0 0.48027096598188901 -0.01191828833617203 0 0.48027096598188901 -0.01191828833617203 0 0.46954283884200781 -0.024778454105632251 0 0.46167860439125719 -0.010824370724108299 0 0.48027096598188901 -0.01191828833617203 0 0.46954283884200781 -0.024778454105632251 0 0.48519612925174332 -0.029385176525714849 0 0.48519612925174332 -0.029385176525714849 0 0.5 -0.017840592534634329 0 0.5 -0.04616757864255483 0 0.49605759899658308 -0.0059370390433930156 0 0.48519612925174332 -0.029385176525714849 0 0.49605759899658308 -0.0059370390433930156 0 0.48519612925174332 -0.029385176525714849 0 0.5 -0.017840592534634329 0 0.49605759899658308 -0.0059370390433930156 0 0.48027096598188901 -0.01191828833617203 0 0.48519612925174332 -0.029385176525714849 0 0.48519612925174332 -0.029385176525714849 0 0.5 -0.04616757864255483 0 0.48651711093130251 -0.047180659518320317 0 0.5 -0.04616757864255483 0 0.48653765496656098 -0.060336568896974391 0 0.5 -0.074494564750475334 0 0.5 -0.04616757864255483 0 0.48651711093130251 -0.047180659518320317 0 0.48653765496656098 -0.060336568896974391 0 0.48653765496656098 -0.060336568896974391 0 0.47433465950690529 -0.052833314008037369 0 0.48651711093130251 -0.047180659518320317 0 0.48653765496656098 -0.060336568896974391 0 0.47433465950690529 -0.052833314008037369 0 0.48519612925174332 -0.029385176525714849 0 0.48651711093130251 -0.047180659518320317 0 0.47433465950690529 -0.052833314008037369 0 0.48519612925174332 -0.029385176525714849 0 0.47433465950690529 -0.052833314008037369 0 0.46290162850488359 -0.040866976222037943 0 0.48519612925174332 -0.029385176525714849 0 0.47433465950690529 -0.052833314008037369 0 0.46954283884200781 -0.024778454105632251 0 0.48519612925174332 -0.029385176525714849 0 0.46290162850488359 -0.040866976222037943 0 0.46119859746764902 -0.044756344542360521 0 0.46290162850488359 -0.040866976222037943 0 0.45473607927667248 -0.028594043455467032 0 0.46954283884200781 -0.024778454105632251 0 0.46290162850488359 -0.040866976222037943 0 0.45473607927667248 -0.028594043455467032 0 0.47433465950690529 -0.052833314008037369 0 0.46119859746764902 -0.044756344542360521 0 0.46290162850488359 -0.040866976222037943 0 0.46119859746764902 -0.044756344542360521 0 0.46290162850488359 -0.040866976222037943 0 0.47433465950690529 -0.052833314008037369 0 0.46288636374172931 -0.056731897842554599 0 0.46435474898804202 -0.074378309243945034 0 0.46119859746764902 -0.044756344542360521 0 0.45294147966596082 -0.063613882480814288 0 0.46119859746764902 -0.044756344542360521 0 0.46288636374172931 -0.056731897842554599 0 0.45294147966596082 -0.063613882480814288 0 0.47433465950690529 -0.052833314008037369 0 0.46119859746764902 -0.044756344542360521 0 0.47433465950690529 -0.052833314008037369 0 0.46119859746764902 -0.044756344542360521 0 0.46288636374172931 -0.056731897842554599 0 0.46119859746764902 -0.044756344542360521 0 0.44140819716629592 -0.04878958047797808 0 0.45294147966596082 -0.063613882480814288 0 0.44140819716629592 -0.04878958047797808 0 0.45294147966596082 -0.063613882480814288 0 0.43332563153032327 -0.065089361023907902 0 0.46119859746764902 -0.044756344542360521 0 0.44038391094283158 -0.031958019824026053 0 0.46119859746764902 -0.044756344542360521 0 0.44140819716629592 -0.04878958047797808 0 0.44038391094283158 -0.031958019824026053 0 0.46119859746764902 -0.044756344542360521 0 0.44038391094283158 -0.031958019824026053 0 0.45473607927667248 -0.028594043455467032 0 0.44038391094283158 -0.031958019824026053 0 0.4435504262982029 -0.01390055666043153 0 0.45473607927667248 -0.028594043455467032 0 0.44454660696380771 0.003786342695909206 0 0.4435504262982029 -0.01390055666043153 0 0.42919212377447558 -0.0023867331313195939 0 0.44454660696380771 0.003786342695909206 0 0.4435504262982029 -0.01390055666043153 0 0.46167860439125719 -0.010824370724108299 0 0.46094292829637101 0.0063287172841708546 0 0.47292530472960598 0.00054744320256952961 0 0.46167860439125719 -0.010824370724108299 0 0.44454660696380771 0.003786342695909206 0 0.46094292829637101 0.0063287172841708546 0 0.46167860439125719 -0.010824370724108299 0 0.46954283884200781 -0.024778454105632251 0 0.46167860439125719 -0.010824370724108299 0 0.45473607927667248 -0.028594043455467032 0 0.4435504262982029 -0.01390055666043153 0 0.46167860439125719 -0.010824370724108299 0 0.45473607927667248 -0.028594043455467032 0 0.47167733895191821 -0.11387638027445179 0 0.48119395052623348 -0.12409287947154329 0 0.46927091164766771 -0.12876981279759611 0 0.47167733895191821 -0.11387638027445179 0 0.48119395052623348 -0.12409287947154329 0 0.4864159190111696 -0.11132723666022561 0 0.48119395052623348 -0.12409287947154329 0 0.4864159190111696 -0.11132723666022561 0 0.5 -0.13114853696631629 0 0.4864159190111696 -0.11132723666022561 0 0.5 -0.1028215508583958 0 0.5 -0.13114853696631629 0 0.4864159190111696 -0.11132723666022561 0 0.5 -0.1028215508583958 0 0.48630813842114767 -0.092273235945569687 0 0.4864159190111696 -0.11132723666022561 0 0.47754165752739519 -0.09965256111092935 0 0.48630813842114767 -0.092273235945569687 0 0.47167733895191821 -0.11387638027445179 0 0.4864159190111696 -0.11132723666022561 0 0.47754165752739519 -0.09965256111092935 0 0.47167733895191821 -0.11387638027445179 0 0.47754165752739519 -0.09965256111092935 0 0.46676304261335511 -0.10137627750423341 0 0.47754165752739519 -0.09965256111092935 0 0.47138437383297188 -0.087801298034674763 0 0.46676304261335511 -0.10137627750423341 0 0.47138437383297188 -0.087801298034674763 0 0.48250688015535032 -0.077542204258717232 0 0.46435474898804202 -0.074378309243945034 0 0.47138437383297188 -0.087801298034674763 0 0.48630813842114767 -0.092273235945569687 0 0.48250688015535032 -0.077542204258717232 0 0.47754165752739519 -0.09965256111092935 0 0.47138437383297188 -0.087801298034674763 0 0.48630813842114767 -0.092273235945569687 0 0.5 -0.1028215508583958 0 0.48630813842114767 -0.092273235945569687 0 0.5 -0.074494564750475334 0 0.48630813842114767 -0.092273235945569687 0 0.5 -0.074494564750475334 0 0.48250688015535032 -0.077542204258717232 0 0.48653765496656098 -0.060336568896974391 0 0.5 -0.074494564750475334 0 0.48250688015535032 -0.077542204258717232 0 0.47433465950690529 -0.052833314008037369 0 0.46435474898804202 -0.074378309243945034 0 0.48653765496656098 -0.060336568896974391 0 0.48250688015535032 -0.077542204258717232 0 0.46435474898804202 -0.074378309243945034 0 0.48653765496656098 -0.060336568896974391 0 0.47433465950690529 -0.052833314008037369 0 0.46435474898804202 -0.074378309243945034 0 0.46288636374172931 -0.056731897842554599 0 0.46435474898804202 -0.074378309243945034 0 0.45294147966596082 -0.063613882480814288 0 0.46435474898804202 -0.074378309243945034 0 0.45294147966596082 -0.063613882480814288 0 0.44468436186427412 -0.082471420419268707 0 0.45294147966596082 -0.063613882480814288 0 0.44468436186427412 -0.082471420419268707 0 0.45294147966596082 -0.063613882480814288 0 0.44468436186427412 -0.082471420419268707 0 0.43332563153032327 -0.065089361023907902 0 0.44468436186427412 -0.082471420419268707 0 0.43642724406258931 -0.1013289583577239 0 0.44468436186427412 -0.082471420419268707 0 0.45437483846917959 -0.095923304479853241 0 0.43642724406258931 -0.1013289583577239 0 0.47138437383297188 -0.087801298034674763 0 0.46435474898804202 -0.074378309243945034 0 0.45850567405270498 -0.094679133986299568 0 0.46435474898804202 -0.074378309243945034 0 0.45437483846917959 -0.095923304479853241 0 0.46435474898804202 -0.074378309243945034 0 0.44468436186427412 -0.082471420419268707 0 0.45437483846917959 -0.095923304479853241 0 0.46435474898804202 -0.074378309243945034 0 0.45850567405270498 -0.094679133986299568 0 0.45437483846917959 -0.095923304479853241 0 0.47138437383297188 -0.087801298034674763 0 0.46676304261335511 -0.10137627750423341 0 0.45850567405270498 -0.094679133986299568 0 0.46676304261335511 -0.10137627750423341 0 0.45863846070397501 -0.1025995928725367 0 0.45850567405270498 -0.094679133986299568 0 0.47167733895191821 -0.11387638027445179 0 0.46676304261335511 -0.10137627750423341 0 0.4597754004462018 -0.1108635691170036 0 0.46676304261335511 -0.10137627750423341 0 0.45863846070397501 -0.1025995928725367 0 0.4597754004462018 -0.1108635691170036 0 0.45863846070397501 -0.1025995928725367 0 0.45850567405270498 -0.094679133986299568 0 0.45437483846917959 -0.095923304479853241 0 0.45850567405270498 -0.094679133986299568 0 0.45437483846917959 -0.095923304479853241 0 0.45863846070397501 -0.1025995928725367 0 0.45437483846917959 -0.095923304479853241 0 0.44535660401639121 -0.1153921983095558 0 0.45437483846917959 -0.095923304479853241 0 0.44535660401639121 -0.1153921983095558 0 0.43642724406258931 -0.1013289583577239 0 0.45437483846917959 -0.095923304479853241 0 0.43642724406258931 -0.1013289583577239 0 0.45437483846917959 -0.095923304479853241 0 0.44535660401639121 -0.1153921983095558 0 0.44535660401639121 -0.1153921983095558 0 0.43579387810232112 -0.1198995719363402 0 0.43633836956360222 -0.13486109213925801 0 0.44535660401639121 -0.1153921983095558 0 0.43579387810232112 -0.1198995719363402 0 0.43642724406258931 -0.1013289583577239 0 0.44535660401639121 -0.1153921983095558 0 0.45736570140182758 -0.1215679641272253 0 0.44628230128707952 -0.12764411908660139 0 0.44535660401639121 -0.1153921983095558 0 0.45736570140182758 -0.1215679641272253 0 0.4597754004462018 -0.1108635691170036 0 0.45863846070397501 -0.1025995928725367 0 0.44535660401639121 -0.1153921983095558 0 0.4597754004462018 -0.1108635691170036 0 0.47167733895191821 -0.11387638027445179 0 0.45736570140182758 -0.1215679641272253 0 0.4597754004462018 -0.1108635691170036 0 0.47167733895191821 -0.11387638027445179 0 0.45736570140182758 -0.1215679641272253 0 0.46927091164766771 -0.12876981279759611 0 0.42054220145236382 -0.12270036502654021 0 0.40512144879147921 -0.11075798209056729 0 0.41173423350123989 -0.1350053997602299 0 0.40512144879147921 -0.11075798209056729 0 0.41173423350123989 -0.1350053997602299 0 0.42054220145236382 -0.12270036502654021 0 0.41141298447622948 -0.10886302817632609 0 0.40512144879147921 -0.11075798209056729 0 0.41141298447622948 -0.10886302817632609 0 0.40512144879147921 -0.11075798209056729 0 0.42054220145236382 -0.12270036502654021 0 0.41141298447622948 -0.10886302817632609 0 0.42627861905085612 -0.1245063049547135 0 0.43642724406258931 -0.1013289583577239 0 0.42054220145236382 -0.12270036502654021 0 0.43642724406258931 -0.1013289583577239 0 0.41141298447622948 -0.10886302817632609 0 0.42054220145236382 -0.12270036502654021 0 0.42627861905085612 -0.1245063049547135 0 0.43642724406258931 -0.1013289583577239 0 0.42627861905085612 -0.1245063049547135 0 0.43579387810232112 -0.1198995719363402 0 0.43642724406258931 -0.1013289583577239 0 0.42627861905085612 -0.1245063049547135 0 0.43579387810232112 -0.1198995719363402 0 0.43145601916892268 -0.12954037707870139 0 0.43642724406258931 -0.1013289583577239 0 0.41141298447622948 -0.10886302817632609 0 0.42031236658795562 -0.093117721337129838 0 0.43642724406258931 -0.1013289583577239 0 0.41141298447622948 -0.10886302817632609 0 0.41141298447622948 -0.10886302817632609 0 0.42031236658795562 -0.093117721337129838 0 0.39980717187580989 -0.091271865780708533 0 0.41776664034313871 -0.077282459532429071 0 0.40632994363830521 -0.068488028996441699 0 0.39980717187580989 -0.091271865780708533 0 0.42031236658795562 -0.093117721337129838 0 0.41776664034313871 -0.077282459532429071 0 0.39980717187580989 -0.091271865780708533 0 0.44468436186427412 -0.082471420419268707 0 0.43642724406258931 -0.1013289583577239 0 0.43033212408960919 -0.083286031254830306 0 0.42031236658795562 -0.093117721337129838 0 0.43033212408960919 -0.083286031254830306 0 0.41776664034313871 -0.077282459532429071 0 0.43642724406258931 -0.1013289583577239 0 0.42031236658795562 -0.093117721337129838 0 0.43033212408960919 -0.083286031254830306 0 0.43332563153032327 -0.065089361023907902 0 0.41692041630694793 -0.063871630999710494 0 0.41776664034313871 -0.077282459532429071 0 0.43033212408960919 -0.083286031254830306 0 0.43332563153032327 -0.065089361023907902 0 0.41776664034313871 -0.077282459532429071 0 0.44468436186427412 -0.082471420419268707 0 0.43033212408960919 -0.083286031254830306 0 0.43332563153032327 -0.065089361023907902 0 0.41692041630694793 -0.063871630999710494 0 0.40632994363830521 -0.068488028996441699 0 0.40446452167462738 -0.055552105667156883 0 0.41692041630694793 -0.063871630999710494 0 0.41776664034313871 -0.077282459532429071 0 0.40632994363830521 -0.068488028996441699 0 0.40632994363830521 -0.068488028996441699 0 0.39408228944218132 -0.0702801623500839 0 0.39980717187580989 -0.091271865780708533 0 0.39408228944218132 -0.0702801623500839 0 0.38756794344768808 -0.072720622340101182 0 0.39980717187580989 -0.091271865780708533 0 0.40632994363830521 -0.068488028996441699 0 0.39408228944218132 -0.0702801623500839 0 0.39830854044091679 -0.060902188983285387 0 0.38756794344768808 -0.072720622340101182 0 0.37532871501956561 -0.054169378899494448 0 0.38756794344768808 -0.072720622340101182 0 0.38660117891331658 -0.061297947619334318 0 0.37532871501956561 -0.054169378899494448 0 0.38756794344768808 -0.072720622340101182 0 0.37532871501956561 -0.054169378899494448 0 0.37236651337125187 -0.069058058894657853 0 0.39408228944218132 -0.0702801623500839 0 0.38756794344768808 -0.072720622340101182 0 0.38660117891331658 -0.061297947619334318 0 0.38756794344768808 -0.072720622340101182 0 0.3773649077660835 -0.081648997678125945 0 0.37236651337125187 -0.069058058894657853 0 0.3773649077660835 -0.081648997678125945 0 0.39980717187580989 -0.091271865780708533 0 0.37842937288882972 -0.094907128826883527 0 0.38756794344768808 -0.072720622340101182 0 0.3773649077660835 -0.081648997678125945 0 0.39980717187580989 -0.091271865780708533 0 0.38756794344768808 -0.072720622340101182 0 0.39980717187580989 -0.091271865780708533 0 0.39408228944218132 -0.0702801623500839 0 0.39980717187580989 -0.091271865780708533 0 0.41141298447622948 -0.10886302817632609 0 0.39980717187580989 -0.091271865780708533 0 0.40512144879147921 -0.11075798209056729 0 0.39980717187580989 -0.091271865780708533 0 0.39043593199019339 -0.1042953176450407 0 0.40512144879147921 -0.11075798209056729 0 0.39980717187580989 -0.091271865780708533 0 0.40512144879147921 -0.11075798209056729 0 0.41141298447622948 -0.10886302817632609 0 0.39980717187580989 -0.091271865780708533 0 0.39043593199019339 -0.1042953176450407 0 0.37842937288882972 -0.094907128826883527 0 0.3661274085625173 -0.1081782937899825 0 0.39980717187580989 -0.091271865780708533 0 0.39043593199019339 -0.1042953176450407 0 0.37842937288882972 -0.094907128826883527 0 0.39043593199019339 -0.1042953176450407 0 0.38176244380710711 -0.1177935041230158 0 0.3661274085625173 -0.1081782937899825 0 0.39043593199019339 -0.1042953176450407 0 0.38176244380710711 -0.1177935041230158 0 0.40512144879147921 -0.11075798209056729 0 0.38176244380710711 -0.1177935041230158 0 0.40512144879147921 -0.11075798209056729 0 0.38176244380710711 -0.1177935041230158 0 0.40512144879147921 -0.11075798209056729 0 0.39542128097473328 -0.12822417885975421 0 0.40512144879147921 -0.11075798209056729 0 0.39542128097473328 -0.12822417885975421 0 0.41173423350123989 -0.1350053997602299 0 0.41956922441801409 -0.019159695105691731 0 0.40763663668272848 -0.029253966602544468 0 0.42325102941431558 -0.035945914699606139 0 0.41956922441801409 -0.019159695105691731 0 0.40763663668272848 -0.029253966602544468 0 0.3974235472884991 -0.01952133804493188 0 0.41956922441801409 -0.019159695105691731 0 0.41502170974868019 -0.0023034730313485799 0 0.42919212377447558 -0.0023867331313195939 0 0.40701902590320221 0.0058690553273170534 0 0.41502170974868019 -0.0023034730313485799 0 0.39875453789319659 -0.0063613703873574854 0 0.41956922441801409 -0.019159695105691731 0 0.41502170974868019 -0.0023034730313485799 0 0.39875453789319659 -0.0063613703873574854 0 0.41956922441801409 -0.019159695105691731 0 0.39875453789319659 -0.0063613703873574854 0 0.4435504262982029 -0.01390055666043153 0 0.41956922441801409 -0.019159695105691731 0 0.42919212377447558 -0.0023867331313195939 0 0.44038391094283158 -0.031958019824026053 0 0.41956922441801409 -0.019159695105691731 0 0.42325102941431558 -0.035945914699606139 0 0.44038391094283158 -0.031958019824026053 0 0.4435504262982029 -0.01390055666043153 0 0.41956922441801409 -0.019159695105691731 0 0.44038391094283158 -0.031958019824026053 0 0.41956922441801409 -0.019159695105691731 0 0.44140819716629592 -0.04878958047797808 0 0.42325102941431558 -0.035945914699606139 0 0.41979664501851938 -0.052111338658927288 0 0.44140819716629592 -0.04878958047797808 0 0.44038391094283158 -0.031958019824026053 0 0.42325102941431558 -0.035945914699606139 0 0.43332563153032327 -0.065089361023907902 0 0.41692041630694793 -0.063871630999710494 0 0.41979664501851938 -0.052111338658927288 0 0.44140819716629592 -0.04878958047797808 0 0.43332563153032327 -0.065089361023907902 0 0.41979664501851938 -0.052111338658927288 0 0.41979664501851938 -0.052111338658927288 0 0.40676135528921592 -0.040785698117685787 0 0.40446452167462738 -0.055552105667156883 0 0.41692041630694793 -0.063871630999710494 0 0.41979664501851938 -0.052111338658927288 0 0.40446452167462738 -0.055552105667156883 0 0.40763663668272848 -0.029253966602544468 0 0.42325102941431558 -0.035945914699606139 0 0.40676135528921592 -0.040785698117685787 0 0.42325102941431558 -0.035945914699606139 0 0.41979664501851938 -0.052111338658927288 0 0.40676135528921592 -0.040785698117685787 0 0.40763663668272848 -0.029253966602544468 0 0.40676135528921592 -0.040785698117685787 0 0.39172483156644788 -0.035100524499642162 0 0.40676135528921592 -0.040785698117685787 0 0.39782702888471111 -0.045181696800985979 0 0.39172483156644788 -0.035100524499642162 0 0.39782702888471111 -0.045181696800985979 0 0.39172483156644788 -0.035100524499642162 0 0.38835740700855342 -0.049288458919459092 0 0.39408228944218132 -0.0702801623500839 0 0.38835740700855342 -0.049288458919459092 0 0.39408228944218132 -0.0702801623500839 0 0.39830854044091679 -0.060902188983285387 0 0.38835740700855342 -0.049288458919459092 0 0.40446452167462738 -0.055552105667156883 0 0.39830854044091679 -0.060902188983285387 0 0.38835740700855342 -0.049288458919459092 0 0.39782702888471111 -0.045181696800985979 0 0.40446452167462738 -0.055552105667156883 0 0.38835740700855342 -0.049288458919459092 0 0.40632994363830521 -0.068488028996441699 0 0.40446452167462738 -0.055552105667156883 0 0.39830854044091679 -0.060902188983285387 0 0.40676135528921592 -0.040785698117685787 0 0.39782702888471111 -0.045181696800985979 0 0.40446452167462738 -0.055552105667156883 0 0.39408228944218132 -0.0702801623500839 0 0.38660117891331658 -0.061297947619334318 0 0.38835740700855342 -0.049288458919459092 0 0.38660117891331658 -0.061297947619334318 0 0.38835740700855342 -0.049288458919459092 0 0.37532871501956561 -0.054169378899494448 0 0.38835740700855342 -0.049288458919459092 0 0.37532871501956561 -0.054169378899494448 0 0.378720016280293 -0.042921114927424731 0 0.39172483156644788 -0.035100524499642162 0 0.378720016280293 -0.042921114927424731 0 0.37440595423719542 -0.031580705047194048 0 0.39172483156644788 -0.035100524499642162 0 0.38835740700855342 -0.049288458919459092 0 0.378720016280293 -0.042921114927424731 0 0.38455005682641291 -0.023127633067942521 0 0.37364634227924121 -0.018143298440582649 0 0.37440595423719542 -0.031580705047194048 0 0.39172483156644788 -0.035100524499642162 0 0.38455005682641291 -0.023127633067942521 0 0.37440595423719542 -0.031580705047194048 0 0.38455005682641291 -0.023127633067942521 0 0.38617360248653432 -0.01235233963793566 0 0.37364634227924121 -0.018143298440582649 0 0.38455005682641291 -0.023127633067942521 0 0.3974235472884991 -0.01952133804493188 0 0.38617360248653432 -0.01235233963793566 0 0.39172483156644788 -0.035100524499642162 0 0.38455005682641291 -0.023127633067942521 0 0.3974235472884991 -0.01952133804493188 0 0.40763663668272848 -0.029253966602544468 0 0.39172483156644788 -0.035100524499642162 0 0.3974235472884991 -0.01952133804493188 0 0.41956922441801409 -0.019159695105691731 0 0.3974235472884991 -0.01952133804493188 0 0.39875453789319659 -0.0063613703873574854 0 0.3974235472884991 -0.01952133804493188 0 0.39875453789319659 -0.0063613703873574854 0 0.38617360248653432 -0.01235233963793566 0 0.39875453789319659 -0.0063613703873574854 0 0.38775337327806803 -0.0008053400666175538 0 0.38617360248653432 -0.01235233963793566 0 0.37412568492071102 0.0043511005411320889 0 0.38617360248653432 -0.01235233963793566 0 0.37231672019312911 -0.0073806293677801671 0 0.37412568492071102 0.0043511005411320889 0 0.38617360248653432 -0.01235233963793566 0 0.37412568492071102 0.0043511005411320889 0 0.38775337327806803 -0.0008053400666175538 0 0.38617360248653432 -0.01235233963793566 0 0.38617360248653432 -0.01235233963793566 0 0.37231672019312911 -0.0073806293677801671 0 0.37364634227924121 -0.018143298440582649 0 0.37412568492071102 0.0043511005411320889 0 0.37231672019312911 -0.0073806293677801671 0 0.36485191508087789 -0.00056254974709944543 0 0.37231672019312911 -0.0073806293677801671 0 0.36298045674235319 -0.010638547999091001 0 0.37364634227924121 -0.018143298440582649 0 0.36298045674235319 -0.010638547999091001 0 0.36485191508087789 -0.00056254974709944543 0 0.35440879702384648 -0.00048039270676468113 0 0.37231672019312911 -0.0073806293677801671 0 0.36298045674235319 -0.010638547999091001 0 0.36485191508087789 -0.00056254974709944543 0 0.37364634227924121 -0.018143298440582649 0 0.36206135781512622 -0.022668595868759332 0 0.37440595423719542 -0.031580705047194048 0 0.36298045674235319 -0.010638547999091001 0 0.37364634227924121 -0.018143298440582649 0 0.36206135781512622 -0.022668595868759332 0 0.36206135781512622 -0.022668595868759332 0 0.35976031892787369 -0.033445645965485223 0 0.37440595423719542 -0.031580705047194048 0 0.36298045674235319 -0.010638547999091001 0 0.36206135781512622 -0.022668595868759332 0 0.3472715541633713 -0.015465639178850309 0 0.36206135781512622 -0.022668595868759332 0 0.35242212984959942 -0.02741263740853252 0 0.35976031892787369 -0.033445645965485223 0 0.36206135781512622 -0.022668595868759332 0 0.35242212984959942 -0.02741263740853252 0 0.3472715541633713 -0.015465639178850309 0 0.35242212984959942 -0.02741263740853252 0 0.3472715541633713 -0.015465639178850309 0 0.34225955704586741 -0.0288834877708356 0 0.36298045674235319 -0.010638547999091001 0 0.35440879702384648 -0.00048039270676468113 0 0.3472715541633713 -0.015465639178850309 0 0.35440879702384648 -0.00048039270676468113 0 0.3472715541633713 -0.015465639178850309 0 0.34280495454637833 -0.00089195243633867017 0 0.33213259873031198 0.0057252787566607144 0 0.33235856610628012 -0.0088945005647616 0 0.32069338199699532 -0.00142713013918547 0 0.33213259873031198 0.0057252787566607144 0 0.34280495454637833 -0.00089195243633867017 0 0.33235856610628012 -0.0088945005647616 0 0.3472715541633713 -0.015465639178850309 0 0.34280495454637833 -0.00089195243633867017 0 0.33235856610628012 -0.0088945005647616 0 0.3472715541633713 -0.015465639178850309 0 0.33235856610628012 -0.0088945005647616 0 0.33147084600949828 -0.023122047974329641 0 0.34225955704586741 -0.0288834877708356 0 0.33147084600949828 -0.023122047974329641 0 0.33359811010202289 -0.040360272675314092 0 0.3472715541633713 -0.015465639178850309 0 0.34225955704586741 -0.0288834877708356 0 0.33147084600949828 -0.023122047974329641 0 0.33235856610628012 -0.0088945005647616 0 0.33147084600949828 -0.023122047974329641 0 0.31947529226358662 -0.016456783001185079 0 0.33147084600949828 -0.023122047974329641 0 0.31947529226358662 -0.016456783001185079 0 0.31547860344562728 -0.037182469298282013 0 0.31947529226358662 -0.016456783001185079 0 0.31547860344562728 -0.037182469298282013 0 0.30435739307814902 -0.01556727085068379 0 0.31947529226358662 -0.016456783001185079 0 0.32069338199699532 -0.00142713013918547 0 0.30435739307814902 -0.01556727085068379 0 0.33235856610628012 -0.0088945005647616 0 0.31947529226358662 -0.016456783001185079 0 0.32069338199699532 -0.00142713013918547 0 0.32659981381310549 -0.058797667745880251 0 0.31547860344562728 -0.037182469298282013 0 0.32659981381310549 -0.058797667745880251 0 0.31547860344562728 -0.037182469298282013 0 0.3069278376347982 -0.054013379474550899 0 0.32659981381310549 -0.058797667745880251 0 0.31547860344562728 -0.037182469298282013 0 0.33359811010202289 -0.040360272675314092 0 0.33147084600949828 -0.023122047974329641 0 0.31547860344562728 -0.037182469298282013 0 0.33359811010202289 -0.040360272675314092 0 0.34225955704586741 -0.0288834877708356 0 0.33359811010202289 -0.040360272675314092 0 0.34799540654183703 -0.039384454360178157 0 0.33359811010202289 -0.040360272675314092 0 0.33811414807846152 -0.053644857335152743 0 0.34799540654183703 -0.039384454360178157 0 0.32659981381310549 -0.058797667745880251 0 0.33811414807846152 -0.053644857335152743 0 0.34293740579946641 -0.06831245254873955 0 0.32659981381310549 -0.058797667745880251 0 0.33359811010202289 -0.040360272675314092 0 0.33811414807846152 -0.053644857335152743 0 0.35043947564845612 -0.050958289078885777 0 0.36378317356970258 -0.044466507271333902 0 0.36064762250437632 -0.060866656189315929 0 0.35043947564845612 -0.050958289078885777 0 0.36064762250437632 -0.060866656189315929 0 0.34293740579946641 -0.06831245254873955 0 0.33811414807846152 -0.053644857335152743 0 0.35043947564845612 -0.050958289078885777 0 0.34293740579946641 -0.06831245254873955 0 0.33811414807846152 -0.053644857335152743 0 0.35043947564845612 -0.050958289078885777 0 0.34799540654183703 -0.039384454360178157 0 0.35043947564845612 -0.050958289078885777 0 0.34799540654183703 -0.039384454360178157 0 0.36378317356970258 -0.044466507271333902 0 0.34799540654183703 -0.039384454360178157 0 0.35976031892787369 -0.033445645965485223 0 0.36378317356970258 -0.044466507271333902 0 0.35242212984959942 -0.02741263740853252 0 0.34225955704586741 -0.0288834877708356 0 0.34799540654183703 -0.039384454360178157 0 0.35242212984959942 -0.02741263740853252 0 0.34799540654183703 -0.039384454360178157 0 0.35976031892787369 -0.033445645965485223 0 0.35976031892787369 -0.033445645965485223 0 0.36378317356970258 -0.044466507271333902 0 0.37440595423719542 -0.031580705047194048 0 0.378720016280293 -0.042921114927424731 0 0.36378317356970258 -0.044466507271333902 0 0.37440595423719542 -0.031580705047194048 0 0.37532871501956561 -0.054169378899494448 0 0.36378317356970258 -0.044466507271333902 0 0.36064762250437632 -0.060866656189315929 0 0.37532871501956561 -0.054169378899494448 0 0.378720016280293 -0.042921114927424731 0 0.36378317356970258 -0.044466507271333902 0 0.37532871501956561 -0.054169378899494448 0 0.36064762250437632 -0.060866656189315929 0 0.37236651337125187 -0.069058058894657853 0 0.3773649077660835 -0.081648997678125945 0 0.37236651337125187 -0.069058058894657853 0 0.35903045161781549 -0.078235250442784107 0 0.36064762250437632 -0.060866656189315929 0 0.37236651337125187 -0.069058058894657853 0 0.35903045161781549 -0.078235250442784107 0 0.35903045161781549 -0.078235250442784107 0 0.34124490509342059 -0.1012238105951625 0 0.34293740579946641 -0.06831245254873955 0 0.3773649077660835 -0.081648997678125945 0 0.36443940918573331 -0.092838696266587709 0 0.35903045161781549 -0.078235250442784107 0 0.3773649077660835 -0.081648997678125945 0 0.37842937288882972 -0.094907128826883527 0 0.36443940918573331 -0.092838696266587709 0 0.36443940918573331 -0.092838696266587709 0 0.35903045161781549 -0.078235250442784107 0 0.34124490509342059 -0.1012238105951625 0 0.36064762250437632 -0.060866656189315929 0 0.35903045161781549 -0.078235250442784107 0 0.34293740579946641 -0.06831245254873955 0 0.38176244380710711 -0.1177935041230158 0 0.3661274085625173 -0.1081782937899825 0 0.3584034388227354 -0.1248290261554658 0 0.38176244380710711 -0.1177935041230158 0 0.3584034388227354 -0.1248290261554658 0 0.37842937288882972 -0.094907128826883527 0 0.36443940918573331 -0.092838696266587709 0 0.3661274085625173 -0.1081782937899825 0 0.36443940918573331 -0.092838696266587709 0 0.3661274085625173 -0.1081782937899825 0 0.34124490509342059 -0.1012238105951625 0 0.3584034388227354 -0.1248290261554658 0 0.3390235230428954 -0.1181737811818627 0 0.34124490509342059 -0.1012238105951625 0 0.3584034388227354 -0.1248290261554658 0 0.34124490509342059 -0.1012238105951625 0 0.3661274085625173 -0.1081782937899825 0 0.3584034388227354 -0.1248290261554658 0 0.34124490509342059 -0.1012238105951625 0 0.3584034388227354 -0.1248290261554658 0 0.3390235230428954 -0.1181737811818627 0 0.3390780878831704 -0.13064964789903061 0 0.3390235230428954 -0.1181737811818627 0 0.34124490509342059 -0.1012238105951625 0 0.32629414614325092 -0.1164467595299755 0 0.3390235230428954 -0.1181737811818627 0 0.32629414614325092 -0.1164467595299755 0 0.32797175721685567 -0.12870323563834779 0 0.34124490509342059 -0.1012238105951625 0 0.31636088248721722 -0.1056529433529851 0 0.31860616005357612 -0.091605255645908906 0 0.34124490509342059 -0.1012238105951625 0 0.31636088248721722 -0.1056529433529851 0 0.32629414614325092 -0.1164467595299755 0 0.31636088248721722 -0.1056529433529851 0 0.31860616005357612 -0.091605255645908906 0 0.30396075939563472 -0.093710937742837064 0 0.31636088248721722 -0.1056529433529851 0 0.31623945397289349 -0.1155462361429275 0 0.30690978776479277 -0.1167182027235818 0 0.31636088248721722 -0.1056529433529851 0 0.32629414614325092 -0.1164467595299755 0 0.31623945397289349 -0.1155462361429275 0 0.31623945397289349 -0.1155462361429275 0 0.31121921875145098 -0.1234645790202354 0 0.31894633486345109 -0.12508239065771809 0 0.32629414614325092 -0.1164467595299755 0 0.32797175721685567 -0.12870323563834779 0 0.31894633486345109 -0.12508239065771809 0 0.32629414614325092 -0.1164467595299755 0 0.31623945397289349 -0.1155462361429275 0 0.31894633486345109 -0.12508239065771809 0 0.34124490509342059 -0.1012238105951625 0 0.34293740579946641 -0.06831245254873955 0 0.32408637136410928 -0.077618595034856575 0 0.32659981381310549 -0.058797667745880251 0 0.34293740579946641 -0.06831245254873955 0 0.32408637136410928 -0.077618595034856575 0 0.34124490509342059 -0.1012238105951625 0 0.32408637136410928 -0.077618595034856575 0 0.31860616005357612 -0.091605255645908906 0 0.32408637136410928 -0.077618595034856575 0 0.30737788192749838 -0.07981999150370328 0 0.34124490509342059 -0.1012238105951625 0 0.31860616005357612 -0.091605255645908906 0 0.32408637136410928 -0.077618595034856575 0 0.32408637136410928 -0.077618595034856575 0 0.3069278376347982 -0.054013379474550899 0 0.32659981381310549 -0.058797667745880251 0 0.32408637136410928 -0.077618595034856575 0 0.3069278376347982 -0.054013379474550899 0 0.32408637136410928 -0.077618595034856575 0 0.30034554166289629 -0.068939686798087166 0 0.30737788192749838 -0.07981999150370328 0 0.32408637136410928 -0.077618595034856575 0 0.30034554166289629 -0.068939686798087166 0 0.3069278376347982 -0.054013379474550899 0 0.30034554166289629 -0.068939686798087166 0 0.30737788192749838 -0.07981999150370328 0 0.29184900026759802 -0.076806939402409846 0 0.31860616005357612 -0.091605255645908906 0 0.30737788192749838 -0.07981999150370328 0 0.30396075939563472 -0.093710937742837064 0 0.30396075939563472 -0.093710937742837064 0 0.29888232612573218 -0.084144105788719226 0 0.29141107686779633 -0.087392750171788672 0 0.30737788192749838 -0.07981999150370328 0 0.29888232612573218 -0.084144105788719226 0 0.29184900026759802 -0.076806939402409846 0 0.30737788192749838 -0.07981999150370328 0 0.30396075939563472 -0.093710937742837064 0 0.29888232612573218 -0.084144105788719226 0 0.29888232612573218 -0.084144105788719226 0 0.29141107686779633 -0.087392750171788672 0 0.29184900026759802 -0.076806939402409846 0 0.29141107686779633 -0.087392750171788672 0 0.28338620378523188 -0.073615699419970135 0 0.27846723598592699 -0.094859863865091917 0 0.29141107686779633 -0.087392750171788672 0 0.28338620378523188 -0.073615699419970135 0 0.29184900026759802 -0.076806939402409846 0 0.28338620378523188 -0.073615699419970135 0 0.2884459549981423 -0.05176351595303201 0 0.30034554166289629 -0.068939686798087166 0 0.28338620378523188 -0.073615699419970135 0 0.29184900026759802 -0.076806939402409846 0 0.30034554166289629 -0.068939686798087166 0 0.28338620378523188 -0.073615699419970135 0 0.2884459549981423 -0.05176351595303201 0 0.28338620378523188 -0.073615699419970135 0 0.29184900026759802 -0.076806939402409846 0 0.29813166874930042 -0.11825256238717941 0 0.30385630769775768 -0.12483859266061791 0 0.29608016981327001 -0.12674323955998179 0 0.29813166874930042 -0.11825256238717941 0 0.30385630769775768 -0.12483859266061791 0 0.30690978776479277 -0.1167182027235818 0 0.30385630769775768 -0.12483859266061791 0 0.31121921875145098 -0.1234645790202354 0 0.30690978776479277 -0.1167182027235818 0 0.31623945397289349 -0.1155462361429275 0 0.31121921875145098 -0.1234645790202354 0 0.30690978776479277 -0.1167182027235818 0 0.31636088248721722 -0.1056529433529851 0 0.30690978776479277 -0.1167182027235818 0 0.30135970003291612 -0.10724107713638301 0 0.29813166874930042 -0.11825256238717941 0 0.30690978776479277 -0.1167182027235818 0 0.30135970003291612 -0.10724107713638301 0 0.31636088248721722 -0.1056529433529851 0 0.30396075939563472 -0.093710937742837064 0 0.30135970003291612 -0.10724107713638301 0 0.30396075939563472 -0.093710937742837064 0 0.30135970003291612 -0.10724107713638301 0 0.28977464861742619 -0.10220072826102609 0 0.30396075939563472 -0.093710937742837064 0 0.29141107686779633 -0.087392750171788672 0 0.28977464861742619 -0.10220072826102609 0 0.29141107686779633 -0.087392750171788672 0 0.28977464861742619 -0.10220072826102609 0 0.27846723598592699 -0.094859863865091917 0 0.30135970003291612 -0.10724107713638301 0 0.28977464861742619 -0.10220072826102609 0 0.28990085123566361 -0.1138957123398424 0 0.28990085123566361 -0.1138957123398424 0 0.28209503651692741 -0.1191302229402873 0 0.27354826818661759 -0.1161040283102127 0 0.28977464861742619 -0.10220072826102609 0 0.28990085123566361 -0.1138957123398424 0 0.27354826818661759 -0.1161040283102127 0 0.29813166874930042 -0.11825256238717941 0 0.30135970003291612 -0.10724107713638301 0 0.28990085123566361 -0.1138957123398424 0 0.28990085123566361 -0.1138957123398424 0 0.28209503651692741 -0.1191302229402873 0 0.29047214473022798 -0.12117289405680411 0 0.28209503651692741 -0.1191302229402873 0 0.2871088405583439 -0.1232108497833892 0 0.28589172947458968 -0.12736370491429269 0 0.28209503651692741 -0.1191302229402873 0 0.2871088405583439 -0.1232108497833892 0 0.29047214473022798 -0.12117289405680411 0 0.29813166874930042 -0.11825256238717941 0 0.28990085123566361 -0.1138957123398424 0 0.29047214473022798 -0.12117289405680411 0 0.29047214473022798 -0.12117289405680411 0 0.29608016981327001 -0.12674323955998179 0 0.2899764515116306 -0.12517657722217279 0 0.29813166874930042 -0.11825256238717941 0 0.29047214473022798 -0.12117289405680411 0 0.29608016981327001 -0.12674323955998179 0 0.2871088405583439 -0.1232108497833892 0 0.29047214473022798 -0.12117289405680411 0 0.2899764515116306 -0.12517657722217279 0 0.27260607975951329 -0.12017317588350659 0 0.27354826818661759 -0.1161040283102127 0 0.25662204245081038 -0.107465994320195 0 0.27260607975951329 -0.12017317588350659 0 0.26132635943505761 -0.1184934598302292 0 0.2667019946038241 -0.1261911117869528 0 0.27260607975951329 -0.12017317588350659 0 0.27354826818661759 -0.1161040283102127 0 0.27260607975951329 -0.12017317588350659 0 0.27354826818661759 -0.1161040283102127 0 0.28589172947458968 -0.12736370491429269 0 0.28209503651692741 -0.1191302229402873 0 0.27354826818661759 -0.1161040283102127 0 0.28589172947458968 -0.12736370491429269 0 0.27354826818661759 -0.1161040283102127 0 0.28589172947458968 -0.12736370491429269 0 0.28977464861742619 -0.10220072826102609 0 0.27354826818661759 -0.1161040283102127 0 0.27846723598592699 -0.094859863865091917 0 0.27354826818661759 -0.1161040283102127 0 0.27846723598592699 -0.094859863865091917 0 0.25834843152813058 -0.10223877275372401 0 0.27354826818661759 -0.1161040283102127 0 0.27846723598592699 -0.094859863865091917 0 0.27846723598592699 -0.094859863865091917 0 0.25834843152813058 -0.10223877275372401 0 0.26075688810030268 -0.084334427714400792 0 0.27354826818661759 -0.1161040283102127 0 0.25834843152813058 -0.10223877275372401 0 0.25662204245081038 -0.107465994320195 0 0.25834843152813058 -0.10223877275372401 0 0.24063800514210851 -0.094758812756882166 0 0.27354826818661759 -0.1161040283102127 0 0.25662204245081038 -0.107465994320195 0 0.25834843152813058 -0.10223877275372401 0 0.25834843152813058 -0.10223877275372401 0 0.24314859486964441 -0.088373517197234339 0 0.27260607975951329 -0.12017317588350659 0 0.25662204245081038 -0.107465994320195 0 0.27260607975951329 -0.12017317588350659 0 0.25662204245081038 -0.107465994320195 0 0.26132635943505761 -0.1184934598302292 0 0.25662204245081038 -0.107465994320195 0 0.26132635943505761 -0.1184934598302292 0 0.24708412451599479 -0.1140119489509321 0 0.26132635943505761 -0.1184934598302292 0 0.25037543618636982 -0.12803796267140971 0 0.24708412451599479 -0.1140119489509321 0 0.28338620378523188 -0.073615699419970135 0 0.26839181284893687 -0.067961457353776566 0 0.27691632741168332 -0.057654505037432038 0 0.26839181284893687 -0.067961457353776566 0 0.27247821160953611 -0.07983361371406382 0 0.26075688810030268 -0.084334427714400792 0 0.28338620378523188 -0.073615699419970135 0 0.26839181284893687 -0.067961457353776566 0 0.27247821160953611 -0.07983361371406382 0 0.28338620378523188 -0.073615699419970135 0 0.26839181284893687 -0.067961457353776566 0 0.28338620378523188 -0.073615699419970135 0 0.27846723598592699 -0.094859863865091917 0 0.28338620378523188 -0.073615699419970135 0 0.27846723598592699 -0.094859863865091917 0 0.27247821160953611 -0.07983361371406382 0 0.27846723598592699 -0.094859863865091917 0 0.27247821160953611 -0.07983361371406382 0 0.26075688810030268 -0.084334427714400792 0 0.25834843152813058 -0.10223877275372401 0 0.26075688810030268 -0.084334427714400792 0 0.24314859486964441 -0.088373517197234339 0 0.26075688810030268 -0.084334427714400792 0 0.25339742191264197 -0.062307215287582728 0 0.24314859486964441 -0.088373517197234339 0 0.26839181284893687 -0.067961457353776566 0 0.26075688810030268 -0.084334427714400792 0 0.25339742191264197 -0.062307215287582728 0 0.26839181284893687 -0.067961457353776566 0 0.25339742191264197 -0.062307215287582728 0 0.25339742191264197 -0.062307215287582728 0 0.26248204170994649 -0.039201893929570478 0 0.25339742191264197 -0.062307215287582728 0 0.26248204170994649 -0.039201893929570478 0 0.24497482797645989 -0.044171703177150967 0 0.25339742191264197 -0.062307215287582728 0 0.26771473896047032 -0.053855908079712168 0 0.26248204170994649 -0.039201893929570478 0 0.26839181284893687 -0.067961457353776566 0 0.25339742191264197 -0.062307215287582728 0 0.26771473896047032 -0.053855908079712168 0 0.26839181284893687 -0.067961457353776566 0 0.26771473896047032 -0.053855908079712168 0 0.27691632741168332 -0.057654505037432038 0 0.26771473896047032 -0.053855908079712168 0 0.27691632741168332 -0.057654505037432038 0 0.27738609091914268 -0.042154468790199039 0 0.27691632741168332 -0.057654505037432038 0 0.27738609091914268 -0.042154468790199039 0 0.2884459549981423 -0.05176351595303201 0 0.26771473896047032 -0.053855908079712168 0 0.27738609091914268 -0.042154468790199039 0 0.26248204170994649 -0.039201893929570478 0 0.27738609091914268 -0.042154468790199039 0 0.26248204170994649 -0.039201893929570478 0 0.27733692379703989 -0.0291896943392146 0 0.26248204170994649 -0.039201893929570478 0 0.24497482797645989 -0.044171703177150967 0 0.2489274880079777 -0.029376254438568099 0 0.26248204170994649 -0.039201893929570478 0 0.26089507403984158 -0.02193576135406268 0 0.27156666150725473 -0.01609657257155957 0 0.26248204170994649 -0.039201893929570478 0 0.26089507403984158 -0.02193576135406268 0 0.2489274880079777 -0.029376254438568099 0 0.26089507403984158 -0.02193576135406268 0 0.25354681507058452 -0.01533907888604962 0 0.2489274880079777 -0.029376254438568099 0 0.26089507403984158 -0.02193576135406268 0 0.25354681507058452 -0.01533907888604962 0 0.26847244579186053 -0.01273010848731515 0 0.25354681507058452 -0.01533907888604962 0 0.26426219591019201 -0.002359750825380944 0 0.24311130928645741 -0.005463409046427151 0 0.25354681507058452 -0.01533907888604962 0 0.26426219591019201 -0.002359750825380944 0 0.26847244579186053 -0.01273010848731515 0 0.26426219591019201 -0.002359750825380944 0 0.26847244579186053 -0.01273010848731515 0 0.27713155365912651 0.00074104223111566114 0 0.26426219591019201 -0.002359750825380944 0 0.27489707436752581 -0.005782216797989426 0 0.26426219591019201 -0.002359750825380944 0 0.27566213416375968 -0.013878337668342259 0 0.27489707436752581 -0.005782216797989426 0 0.26426219591019201 -0.002359750825380944 0 0.27566213416375968 -0.013878337668342259 0 0.26426219591019201 -0.002359750825380944 0 0.26847244579186053 -0.01273010848731515 0 0.27566213416375968 -0.013878337668342259 0 0.26847244579186053 -0.01273010848731515 0 0.27566213416375968 -0.013878337668342259 0 0.27156666150725473 -0.01609657257155957 0 0.27566213416375968 -0.013878337668342259 0 0.27489707436752581 -0.005782216797989426 0 0.28253241373702531 -0.0076318209293499781 0 0.27566213416375968 -0.013878337668342259 0 0.28182773337711181 -0.019055961013801321 0 0.28253241373702531 -0.0076318209293499781 0 0.27713155365912651 0.00074104223111566114 0 0.27489707436752581 -0.005782216797989426 0 0.28253241373702531 -0.0076318209293499781 0 0.26248204170994649 -0.039201893929570478 0 0.27156666150725473 -0.01609657257155957 0 0.26248204170994649 -0.039201893929570478 0 0.27156666150725473 -0.01609657257155957 0 0.27733692379703989 -0.0291896943392146 0 0.26089507403984158 -0.02193576135406268 0 0.26847244579186053 -0.01273010848731515 0 0.27156666150725473 -0.01609657257155957 0 0.27156666150725473 -0.01609657257155957 0 0.27733692379703989 -0.0291896943392146 0 0.28182773337711181 -0.019055961013801321 0 0.27566213416375968 -0.013878337668342259 0 0.27156666150725473 -0.01609657257155957 0 0.28182773337711181 -0.019055961013801321 0 0.27733692379703989 -0.0291896943392146 0 0.29350570621105049 -0.029911332486093269 0 0.28182773337711181 -0.019055961013801321 0 0.29350570621105049 -0.029911332486093269 0 0.29136685141555502 -0.013299325303722969 0 0.30435739307814902 -0.01556727085068379 0 0.29350570621105049 -0.029911332486093269 0 0.28182773337711181 -0.019055961013801321 0 0.29136685141555502 -0.013299325303722969 0 0.29323618271067059 0.0060479275969145367 0 0.27713155365912651 0.00074104223111566114 0 0.28253241373702531 -0.0076318209293499781 0 0.29323618271067059 0.0060479275969145367 0 0.29136685141555502 -0.013299325303722969 0 0.30435739307814902 -0.01556727085068379 0 0.29323618271067059 0.0060479275969145367 0 0.28253241373702531 -0.0076318209293499781 0 0.29136685141555502 -0.013299325303722969 0 0.28182773337711181 -0.019055961013801321 0 0.28253241373702531 -0.0076318209293499781 0 0.29136685141555502 -0.013299325303722969 0 0.30783172406616738 0.0037925172524494039 0 0.29323618271067059 0.0060479275969145367 0 0.30435739307814902 -0.01556727085068379 0 0.30783172406616738 0.0037925172524494039 0 0.32069338199699532 -0.00142713013918547 0 0.30435739307814902 -0.01556727085068379 0 0.29323618271067059 0.0060479275969145367 0 0.30435739307814902 -0.01556727085068379 0 0.31547860344562728 -0.037182469298282013 0 0.30435739307814902 -0.01556727085068379 0 0.31547860344562728 -0.037182469298282013 0 0.29350570621105049 -0.029911332486093269 0 0.30435739307814902 -0.01556727085068379 0 0.31547860344562728 -0.037182469298282013 0 0.29350570621105049 -0.029911332486093269 0 0.30108952557240448 -0.043217674302989541 0 0.31547860344562728 -0.037182469298282013 0 0.30108952557240448 -0.043217674302989541 0 0.3069278376347982 -0.054013379474550899 0 0.30108952557240448 -0.043217674302989541 0 0.3069278376347982 -0.054013379474550899 0 0.2884459549981423 -0.05176351595303201 0 0.30034554166289629 -0.068939686798087166 0 0.3069278376347982 -0.054013379474550899 0 0.2884459549981423 -0.05176351595303201 0 0.28338620378523188 -0.073615699419970135 0 0.27691632741168332 -0.057654505037432038 0 0.2884459549981423 -0.05176351595303201 0 0.29350570621105049 -0.029911332486093269 0 0.2884459549981423 -0.05176351595303201 0 0.29350570621105049 -0.029911332486093269 0 0.30108952557240448 -0.043217674302989541 0 0.2884459549981423 -0.05176351595303201 0 0.27738609091914268 -0.042154468790199039 0 0.29350570621105049 -0.029911332486093269 0 0.2884459549981423 -0.05176351595303201 0 0.27738609091914268 -0.042154468790199039 0 0.27733692379703989 -0.0291896943392146 0 0.29350570621105049 -0.029911332486093269 0 0.28976477093230618 -0.20735492776785311 0 0.30087637118683591 -0.21849622575568009 0 0.28182266069576689 -0.22074398864360631 0 0.28976477093230618 -0.20735492776785311 0 0.28566265744389652 -0.19115575740164331 0 0.30274197358392207 -0.19377253734405331 0 0.28976477093230618 -0.20735492776785311 0 0.30274197358392207 -0.19377253734405331 0 0.31173061651572381 -0.20710405566344819 0 0.30274197358392207 -0.19377253734405331 0 0.31173061651572381 -0.20710405566344819 0 0.32299843735962303 -0.18817055637257049 0 0.31173061651572381 -0.20710405566344819 0 0.30087637118683591 -0.21849622575568009 0 0.31842953066615243 -0.2259134122472887 0 0.28976477093230618 -0.20735492776785311 0 0.31173061651572381 -0.20710405566344819 0 0.28976477093230618 -0.20735492776785311 0 0.31173061651572381 -0.20710405566344819 0 0.30087637118683591 -0.21849622575568009 0 0.30087637118683591 -0.21849622575568009 0 0.29480803106572878 -0.23764551999912459 0 0.31842953066615243 -0.2259134122472887 0 0.29480803106572878 -0.23764551999912459 0 0.31842953066615243 -0.2259134122472887 0 0.31775413561175558 -0.25357528519619238 0 0.28137194016209788 -0.2472511684138568 0 0.29480803106572878 -0.23764551999912459 0 0.26975606651410311 -0.23455113057212029 0 0.28137194016209788 -0.2472511684138568 0 0.29480803106572878 -0.23764551999912459 0 0.29200938186405961 -0.26078129464479338 0 0.29480803106572878 -0.23764551999912459 0 0.28182266069576689 -0.22074398864360631 0 0.26975606651410311 -0.23455113057212029 0 0.30087637118683591 -0.21849622575568009 0 0.29480803106572878 -0.23764551999912459 0 0.28182266069576689 -0.22074398864360631 0 0.28182266069576689 -0.22074398864360631 0 0.26975606651410311 -0.23455113057212029 0 0.26779892534888861 -0.2076057998722575 0 0.26975606651410311 -0.23455113057212029 0 0.26779892534888861 -0.2076057998722575 0 0.26975606651410311 -0.23455113057212029 0 0.26082319034914581 -0.24804312499437539 0 0.2717132076793175 -0.26149646127198323 0 0.26975606651410311 -0.23455113057212029 0 0.2717132076793175 -0.26149646127198323 0 0.28137194016209788 -0.2472511684138568 0 0.26975606651410311 -0.23455113057212029 0 0.2717132076793175 -0.26149646127198323 0 0.26975606651410311 -0.23455113057212029 0 0.26082319034914581 -0.24804312499437539 0 0.25206177602816038 -0.23646078922060901 0 0.26082319034914581 -0.24804312499437539 0 0.25206177602816038 -0.23646078922060901 0 0.25039127449398407 -0.24989370801593011 0 0.26975606651410311 -0.23455113057212029 0 0.25194222904351782 -0.2214602506750131 0 0.26779892534888861 -0.2076057998722575 0 0.26975606651410311 -0.23455113057212029 0 0.25206177602816038 -0.23646078922060901 0 0.25194222904351782 -0.2214602506750131 0 0.25046899035022402 -0.20780372520346391 0 0.26779892534888861 -0.2076057998722575 0 0.25194222904351782 -0.2214602506750131 0 0.26779892534888861 -0.2076057998722575 0 0.25194222904351782 -0.2214602506750131 0 0.25046899035022402 -0.20780372520346391 0 0.26779892534888861 -0.2076057998722575 0 0.25046899035022402 -0.20780372520346391 0 0.26779892534888861 -0.2076057998722575 0 0.25934777405738352 -0.1977072126463236 0 0.28976477093230618 -0.20735492776785311 0 0.28182266069576689 -0.22074398864360631 0 0.26779892534888861 -0.2076057998722575 0 0.28976477093230618 -0.20735492776785311 0 0.26779892534888861 -0.2076057998722575 0 0.28566265744389652 -0.19115575740164331 0 0.26779892534888861 -0.2076057998722575 0 0.26581343413576752 -0.18027015424275081 0 0.28566265744389652 -0.19115575740164331 0 0.26779892534888861 -0.2076057998722575 0 0.28976477093230618 -0.20735492776785311 0 0.28566265744389652 -0.19115575740164331 0 0.26779892534888861 -0.2076057998722575 0 0.26779892534888861 -0.2076057998722575 0 0.26581343413576752 -0.18027015424275081 0 0.26779892534888861 -0.2076057998722575 0 0.25934777405738352 -0.1977072126463236 0 0.26581343413576752 -0.18027015424275081 0 0.25934777405738352 -0.1977072126463236 0 0.26581343413576752 -0.18027015424275081 0 0.24533182821253949 -0.18561716214836391 0 0.25046899035022402 -0.20780372520346391 0 0.25934777405738352 -0.1977072126463236 0 0.24533182821253949 -0.18561716214836391 0 0.25168293139397369 -0.17096036420933389 0 0.26581343413576752 -0.18027015424275081 0 0.24533182821253949 -0.18561716214836391 0 0.25168293139397369 -0.17096036420933389 0 0.26385493905181429 -0.1533061831969682 0 0.24081778075798779 -0.160244767903367 0 0.25168293139397369 -0.17096036420933389 0 0.26581343413576752 -0.18027015424275081 0 0.26385493905181429 -0.1533061831969682 0 0.26581343413576752 -0.18027015424275081 0 0.26385493905181429 -0.1533061831969682 0 0.26385493905181429 -0.1533061831969682 0 0.24081778075798779 -0.160244767903367 0 0.26581343413576752 -0.18027015424275081 0 0.26385493905181429 -0.1533061831969682 0 0.28346299498683059 -0.16880404598953491 0 0.26385493905181429 -0.1533061831969682 0 0.28214116252792792 -0.14779853729156631 0 0.28346299498683059 -0.16880404598953491 0 0.28566265744389652 -0.19115575740164331 0 0.26581343413576752 -0.18027015424275081 0 0.28346299498683059 -0.16880404598953491 0 0.26132635943505761 -0.1184934598302292 0 0.25037543618636982 -0.12803796267140971 0 0.26259064924343273 -0.13589982151359889 0 0.26132635943505761 -0.1184934598302292 0 0.26259064924343273 -0.13589982151359889 0 0.2667019946038241 -0.1261911117869528 0 0.26132635943505761 -0.1184934598302292 0 0.26259064924343273 -0.13589982151359889 0 0.25037543618636982 -0.12803796267140971 0 0.26259064924343273 -0.13589982151359889 0 0.25236900696121861 -0.1424270533323797 0 0.26259064924343273 -0.13589982151359889 0 0.26385493905181429 -0.1533061831969682 0 0.25236900696121861 -0.1424270533323797 0 0.26385493905181429 -0.1533061831969682 0 0.25236900696121861 -0.1424270533323797 0 0.24081778075798779 -0.160244767903367 0 0.26259064924343273 -0.13589982151359889 0 0.26385493905181429 -0.1533061831969682 0 0.26259064924343273 -0.13589982151359889 0 0.26385493905181429 -0.1533061831969682 0 0.27286009875352002 -0.14053066439874781 0 0.26385493905181429 -0.1533061831969682 0 0.27286009875352002 -0.14053066439874781 0 0.28214116252792792 -0.14779853729156631 0 0.26385493905181429 -0.1533061831969682 0 0.28214116252792792 -0.14779853729156631 0 0.27286009875352002 -0.14053066439874781 0 0.27028488997729377 -0.1301979899204751 0 0.2865167328817762 -0.13123203363483699 0 0.27260607975951329 -0.12017317588350659 0 0.27028488997729377 -0.1301979899204751 0 0.2865167328817762 -0.13123203363483699 0 0.27286009875352002 -0.14053066439874781 0 0.2865167328817762 -0.13123203363483699 0 0.28214116252792792 -0.14779853729156631 0 0.26259064924343273 -0.13589982151359889 0 0.27286009875352002 -0.14053066439874781 0 0.27028488997729377 -0.1301979899204751 0 0.27260607975951329 -0.12017317588350659 0 0.2865167328817762 -0.13123203363483699 0 0.27260607975951329 -0.12017317588350659 0 0.27028488997729377 -0.1301979899204751 0 0.26259064924343273 -0.13589982151359889 0 0.27028488997729377 -0.1301979899204751 0 0.2667019946038241 -0.1261911117869528 0 0.27260607975951329 -0.12017317588350659 0 0.27028488997729377 -0.1301979899204751 0 0.2667019946038241 -0.1261911117869528 0 0.2865167328817762 -0.13123203363483699 0 0.28214116252792792 -0.14779853729156631 0 0.30042738600404151 -0.14229089138616419 0 0.28589172947458968 -0.12736370491429269 0 0.2865167328817762 -0.13123203363483699 0 0.29823519076256261 -0.13862338151837181 0 0.29188373162203651 -0.12807595081235701 0 0.28589172947458968 -0.12736370491429269 0 0.29586106351334668 -0.13315880417110509 0 0.29608016981327001 -0.12674323955998179 0 0.29188373162203651 -0.12807595081235701 0 0.29586106351334668 -0.13315880417110509 0 0.29188373162203651 -0.12807595081235701 0 0.2899764515116306 -0.12517657722217279 0 0.28589172947458968 -0.12736370491429269 0 0.29608016981327001 -0.12674323955998179 0 0.29188373162203651 -0.12807595081235701 0 0.2899764515116306 -0.12517657722217279 0 0.27260607975951329 -0.12017317588350659 0 0.28589172947458968 -0.12736370491429269 0 0.2865167328817762 -0.13123203363483699 0 0.2871088405583439 -0.1232108497833892 0 0.2899764515116306 -0.12517657722217279 0 0.28589172947458968 -0.12736370491429269 0 0.2865167328817762 -0.13123203363483699 0 0.30042738600404151 -0.14229089138616419 0 0.28589172947458968 -0.12736370491429269 0 0.29823519076256261 -0.13862338151837181 0 0.2865167328817762 -0.13123203363483699 0 0.30042738600404151 -0.14229089138616419 0 0.29823519076256261 -0.13862338151837181 0 0.28589172947458968 -0.12736370491429269 0 0.29586106351334668 -0.13315880417110509 0 0.29823519076256261 -0.13862338151837181 0 0.28214116252792792 -0.14779853729156631 0 0.30042738600404151 -0.14229089138616419 0 0.28214116252792792 -0.14779853729156631 0 0.30042738600404151 -0.14229089138616419 0 0.29820580861581808 -0.1585939771619761 0 0.30042738600404151 -0.14229089138616419 0 0.32144411389223021 -0.15899902162786389 0 0.30042738600404151 -0.14229089138616419 0 0.29820580861581808 -0.1585939771619761 0 0.32144411389223021 -0.15899902162786389 0 0.30042738600404151 -0.14229089138616419 0 0.31975273694360568 -0.13647026964259679 0 0.30042738600404151 -0.14229089138616419 0 0.31396307524942257 -0.13191305423683949 0 0.31975273694360568 -0.13647026964259679 0 0.30042738600404151 -0.14229089138616419 0 0.29823519076256261 -0.13862338151837181 0 0.30179444705712533 -0.13261746739779229 0 0.30042738600404151 -0.14229089138616419 0 0.30770460323424759 -0.13029300901450061 0 0.30179444705712533 -0.13261746739779229 0 0.29586106351334668 -0.13315880417110509 0 0.29823519076256261 -0.13862338151837181 0 0.30179444705712533 -0.13261746739779229 0 0.30042738600404151 -0.14229089138616419 0 0.30770460323424759 -0.13029300901450061 0 0.31396307524942257 -0.13191305423683949 0 0.31121921875145098 -0.1234645790202354 0 0.30770460323424759 -0.13029300901450061 0 0.31396307524942257 -0.13191305423683949 0 0.30385630769775768 -0.12483859266061791 0 0.31121921875145098 -0.1234645790202354 0 0.30770460323424759 -0.13029300901450061 0 0.30385630769775768 -0.12483859266061791 0 0.30770460323424759 -0.13029300901450061 0 0.30179444705712533 -0.13261746739779229 0 0.29608016981327001 -0.12674323955998179 0 0.29586106351334668 -0.13315880417110509 0 0.30179444705712533 -0.13261746739779229 0 0.30385630769775768 -0.12483859266061791 0 0.29608016981327001 -0.12674323955998179 0 0.30179444705712533 -0.13261746739779229 0 0.28566265744389652 -0.19115575740164331 0 0.30355338566806123 -0.17507738951475141 0 0.28566265744389652 -0.19115575740164331 0 0.28346299498683059 -0.16880404598953491 0 0.30355338566806123 -0.17507738951475141 0 0.28346299498683059 -0.16880404598953491 0 0.29820580861581808 -0.1585939771619761 0 0.30355338566806123 -0.17507738951475141 0 0.28214116252792792 -0.14779853729156631 0 0.28346299498683059 -0.16880404598953491 0 0.29820580861581808 -0.1585939771619761 0 0.29820580861581808 -0.1585939771619761 0 0.30355338566806123 -0.17507738951475141 0 0.32144411389223021 -0.15899902162786389 0 0.30355338566806123 -0.17507738951475141 0 0.32144411389223021 -0.15899902162786389 0 0.30274197358392207 -0.19377253734405331 0 0.30355338566806123 -0.17507738951475141 0 0.32299843735962303 -0.18817055637257049 0 0.28566265744389652 -0.19115575740164331 0 0.30274197358392207 -0.19377253734405331 0 0.30355338566806123 -0.17507738951475141 0 0.30355338566806123 -0.17507738951475141 0 0.32144411389223021 -0.15899902162786389 0 0.32299843735962303 -0.18817055637257049 0 0.34242439509617528 -0.17567817704767591 0 0.33668948156680001 -0.15579168653400841 0 0.34650230133852922 -0.15798345694140539 0 0.32144411389223021 -0.15899902162786389 0 0.34242439509617528 -0.17567817704767591 0 0.33668948156680001 -0.15579168653400841 0 0.32144411389223021 -0.15899902162786389 0 0.34242439509617528 -0.17567817704767591 0 0.34242439509617528 -0.17567817704767591 0 0.34223553309839749 -0.19544192394495821 0 0.32299843735962303 -0.18817055637257049 0 0.32144411389223021 -0.15899902162786389 0 0.34242439509617528 -0.17567817704767591 0 0.32299843735962303 -0.18817055637257049 0 0.32797175721685567 -0.12870323563834779 0 0.31894633486345109 -0.12508239065771809 0 0.32015847606833381 -0.13054223754387551 0 0.32797175721685567 -0.12870323563834779 0 0.32015847606833381 -0.13054223754387551 0 0.31975273694360568 -0.13647026964259679 0 0.31121921875145098 -0.1234645790202354 0 0.31894633486345109 -0.12508239065771809 0 0.31396307524942257 -0.13191305423683949 0 0.31894633486345109 -0.12508239065771809 0 0.31396307524942257 -0.13191305423683949 0 0.32015847606833381 -0.13054223754387551 0 0.31396307524942257 -0.13191305423683949 0 0.32015847606833381 -0.13054223754387551 0 0.31975273694360568 -0.13647026964259679 0 0.31975273694360568 -0.13647026964259679 0 0.32139393184400489 -0.1373849188924372 0 0.33148322150601828 -0.13729196756511619 0 0.32144411389223021 -0.15899902162786389 0 0.32139393184400489 -0.1373849188924372 0 0.34044946214360322 -0.14191894656465659 0 0.32144411389223021 -0.15899902162786389 0 0.31975273694360568 -0.13647026964259679 0 0.32139393184400489 -0.1373849188924372 0 0.30042738600404151 -0.14229089138616419 0 0.32144411389223021 -0.15899902162786389 0 0.31975273694360568 -0.13647026964259679 0 0.32144411389223021 -0.15899902162786389 0 0.34044946214360322 -0.14191894656465659 0 0.32144411389223021 -0.15899902162786389 0 0.33668948156680001 -0.15579168653400841 0 0.34044946214360322 -0.14191894656465659 0 0.33668948156680001 -0.15579168653400841 0 0.34044946214360322 -0.14191894656465659 0 0.34405848063192512 -0.15140714650779399 0 0.33668948156680001 -0.15579168653400841 0 0.34405848063192512 -0.15140714650779399 0 0.34650230133852922 -0.15798345694140539 0 0.34044946214360322 -0.14191894656465659 0 0.34244069381415249 -0.13956155368629419 0 0.34634518487294402 -0.14059717760950469 0 0.31975273694360568 -0.13647026964259679 0 0.33148322150601828 -0.13729196756511619 0 0.3390780878831704 -0.13064964789903061 0 0.31975273694360568 -0.13647026964259679 0 0.3390780878831704 -0.13064964789903061 0 0.32139393184400489 -0.1373849188924372 0 0.34044946214360322 -0.14191894656465659 0 0.32139393184400489 -0.1373849188924372 0 0.34044946214360322 -0.14191894656465659 0 0.33148322150601828 -0.13729196756511619 0 0.32797175721685567 -0.12870323563834779 0 0.31975273694360568 -0.13647026964259679 0 0.3390780878831704 -0.13064964789903061 0 0.33148322150601828 -0.13729196756511619 0 0.33693994680484318 -0.13771878834696269 0 0.3390780878831704 -0.13064964789903061 0 0.34044946214360322 -0.14191894656465659 0 0.33148322150601828 -0.13729196756511619 0 0.33963267954197202 -0.13903872621637839 0 0.33693994680484318 -0.13771878834696269 0 0.33963267954197202 -0.13903872621637839 0 0.34092260719508999 -0.13745634605734941 0 0.33148322150601828 -0.13729196756511619 0 0.33693994680484318 -0.13771878834696269 0 0.33963267954197202 -0.13903872621637839 0 0.34044946214360322 -0.14191894656465659 0 0.33963267954197202 -0.13903872621637839 0 0.34244069381415249 -0.13956155368629419 0 0.33963267954197202 -0.13903872621637839 0 0.34092260719508999 -0.13745634605734941 0 0.34244069381415249 -0.13956155368629419 0 0.34092260719508999 -0.13745634605734941 0 0.34244069381415249 -0.13956155368629419 0 0.34441849666590157 -0.13578091850759219 0 0.34092260719508999 -0.13745634605734941 0 0.3390780878831704 -0.13064964789903061 0 0.34441849666590157 -0.13578091850759219 0 0.33693994680484318 -0.13771878834696269 0 0.34092260719508999 -0.13745634605734941 0 0.3390780878831704 -0.13064964789903061 0 0.3390235230428954 -0.1181737811818627 0 0.32797175721685567 -0.12870323563834779 0 0.3390780878831704 -0.13064964789903061 0 0.3584034388227354 -0.1248290261554658 0 0.3390780878831704 -0.13064964789903061 0 0.35018866086007888 -0.13287080132335649 0 0.3584034388227354 -0.1248290261554658 0 0.3390780878831704 -0.13064964789903061 0 0.3584034388227354 -0.1248290261554658 0 0.35731815657327892 -0.13271179987334769 0 0.35018866086007888 -0.13287080132335649 0 0.3390780878831704 -0.13064964789903061 0 0.35018866086007888 -0.13287080132335649 0 0.34441849666590157 -0.13578091850759219 0 0.35018866086007888 -0.13287080132335649 0 0.34441849666590157 -0.13578091850759219 0 0.35235689736846432 -0.13853403287815619 0 0.34441849666590157 -0.13578091850759219 0 0.34634518487294402 -0.14059717760950469 0 0.35235689736846432 -0.13853403287815619 0 0.34244069381415249 -0.13956155368629419 0 0.34441849666590157 -0.13578091850759219 0 0.34634518487294402 -0.14059717760950469 0 0.35235689736846432 -0.13853403287815619 0 0.35346625272864729 -0.13540416358738791 0 0.35959309171672788 -0.139401648579869 0 0.35731815657327892 -0.13271179987334769 0 0.35018866086007888 -0.13287080132335649 0 0.35346625272864729 -0.13540416358738791 0 0.35018866086007888 -0.13287080132335649 0 0.35235689736846432 -0.13853403287815619 0 0.35346625272864729 -0.13540416358738791 0 0.35731815657327892 -0.13271179987334769 0 0.35346625272864729 -0.13540416358738791 0 0.35959309171672788 -0.139401648579869 0 0.34044946214360322 -0.14191894656465659 0 0.36187362789495398 -0.14701656173692679 0 0.34044946214360322 -0.14191894656465659 0 0.35106379794565512 -0.15108118242399701 0 0.36187362789495398 -0.14701656173692679 0 0.34044946214360322 -0.14191894656465659 0 0.34634518487294402 -0.14059717760950469 0 0.36187362789495398 -0.14701656173692679 0 0.34634518487294402 -0.14059717760950469 0 0.35235689736846432 -0.13853403287815619 0 0.36187362789495398 -0.14701656173692679 0 0.35235689736846432 -0.13853403287815619 0 0.36187362789495398 -0.14701656173692679 0 0.35959309171672788 -0.139401648579869 0 0.34044946214360322 -0.14191894656465659 0 0.35106379794565512 -0.15108118242399701 0 0.34405848063192512 -0.15140714650779399 0 0.35106379794565512 -0.15108118242399701 0 0.34405848063192512 -0.15140714650779399 0 0.34650230133852922 -0.15798345694140539 0 0.35106379794565512 -0.15108118242399701 0 0.36187362789495398 -0.14701656173692679 0 0.35937735865303799 -0.15937317323498421 0 0.35106379794565512 -0.15108118242399701 0 0.34650230133852922 -0.15798345694140539 0 0.35937735865303799 -0.15937317323498421 0 0.36187362789495398 -0.14701656173692679 0 0.38329779364630501 -0.15211417690919579 0 0.36187362789495398 -0.14701656173692679 0 0.35937735865303799 -0.15937317323498421 0 0.38329779364630501 -0.15211417690919579 0 0.37207282797871799 -0.14164940225790071 0 0.36187362789495398 -0.14701656173692679 0 0.38329779364630501 -0.15211417690919579 0 0.37207282797871799 -0.14164940225790071 0 0.36187362789495398 -0.14701656173692679 0 0.35959309171672788 -0.139401648579869 0 0.38176244380710711 -0.1177935041230158 0 0.3584034388227354 -0.1248290261554658 0 0.36438720196500929 -0.13306096607898199 0 0.37207282797871799 -0.14164940225790071 0 0.36438720196500929 -0.13306096607898199 0 0.38148677408013187 -0.1350005149809487 0 0.37207282797871799 -0.14164940225790071 0 0.35959309171672788 -0.139401648579869 0 0.36438720196500929 -0.13306096607898199 0 0.35731815657327892 -0.13271179987334769 0 0.35959309171672788 -0.139401648579869 0 0.36438720196500929 -0.13306096607898199 0 0.3584034388227354 -0.1248290261554658 0 0.36438720196500929 -0.13306096607898199 0 0.3584034388227354 -0.1248290261554658 0 0.35731815657327892 -0.13271179987334769 0 0.36438720196500929 -0.13306096607898199 0 0.34242439509617528 -0.17567817704767591 0 0.36957335646349693 -0.17351217078359579 0 0.36340467630012119 -0.19235733246748701 0 0.34242439509617528 -0.17567817704767591 0 0.36340467630012119 -0.19235733246748701 0 0.34242439509617528 -0.17567817704767591 0 0.34650230133852922 -0.15798345694140539 0 0.35937735865303799 -0.15937317323498421 0 0.34242439509617528 -0.17567817704767591 0 0.35937735865303799 -0.15937317323498421 0 0.36957335646349693 -0.17351217078359579 0 0.35937735865303799 -0.15937317323498421 0 0.36957335646349693 -0.17351217078359579 0 0.38329779364630501 -0.15211417690919579 0 0.36957335646349693 -0.17351217078359579 0 0.36340467630012119 -0.19235733246748701 0 0.38236584413271801 -0.188425838493088 0 0.36340467630012119 -0.19235733246748701 0 0.38438495750406698 -0.20903648788729809 0 0.36340467630012119 -0.19235733246748701 0 0.36477931646944911 -0.21826522868571011 0 0.38438495750406698 -0.20903648788729809 0 0.36340467630012119 -0.19235733246748701 0 0.36477931646944911 -0.21826522868571011 0 0.34865369463692653 -0.21415037027801431 0 0.36340467630012119 -0.19235733246748701 0 0.34865369463692653 -0.21415037027801431 0 0.34223553309839749 -0.19544192394495821 0 0.34242439509617528 -0.17567817704767591 0 0.36340467630012119 -0.19235733246748701 0 0.34223553309839749 -0.19544192394495821 0 0.34223553309839749 -0.19544192394495821 0 0.33369646209914139 -0.20685318355904331 0 0.32299843735962303 -0.18817055637257049 0 0.34865369463692653 -0.21415037027801431 0 0.33369646209914139 -0.20685318355904331 0 0.33606277552445019 -0.22265466850536131 0 0.34865369463692653 -0.21415037027801431 0 0.34223553309839749 -0.19544192394495821 0 0.33369646209914139 -0.20685318355904331 0 0.33369646209914139 -0.20685318355904331 0 0.31842953066615243 -0.2259134122472887 0 0.33606277552445019 -0.22265466850536131 0 0.31173061651572381 -0.20710405566344819 0 0.33369646209914139 -0.20685318355904331 0 0.31173061651572381 -0.20710405566344819 0 0.33369646209914139 -0.20685318355904331 0 0.31842953066615243 -0.2259134122472887 0 0.31173061651572381 -0.20710405566344819 0 0.33369646209914139 -0.20685318355904331 0 0.32299843735962303 -0.18817055637257049 0 0.31842953066615243 -0.2259134122472887 0 0.33249080529774772 -0.23564174820268249 0 0.31775413561175558 -0.25357528519619238 0 0.31842953066615243 -0.2259134122472887 0 0.33606277552445019 -0.22265466850536131 0 0.33249080529774772 -0.23564174820268249 0 0.33606277552445019 -0.22265466850536131 0 0.33249080529774772 -0.23564174820268249 0 0.34704338492228298 -0.23071462823977751 0 0.34349888935945311 -0.24636927574759651 0 0.31775413561175558 -0.25357528519619238 0 0.34349888935945311 -0.24636927574759651 0 0.33249080529774772 -0.23564174820268249 0 0.34704338492228298 -0.23071462823977751 0 0.34349888935945311 -0.24636927574759651 0 0.33249080529774772 -0.23564174820268249 0 0.31775413561175558 -0.25357528519619238 0 0.34349888935945311 -0.24636927574759651 0 0.34704338492228298 -0.23071462823977751 0 0.34349888935945311 -0.24636927574759651 0 0.36683949366394658 -0.23983619266578879 0 0.34349888935945311 -0.24636927574759651 0 0.36683949366394658 -0.23983619266578879 0 0.35810798723077902 -0.25360210596606603 0 0.34349888935945311 -0.24636927574759651 0 0.34704338492228298 -0.23071462823977751 0 0.36683949366394658 -0.23983619266578879 0 0.34865369463692653 -0.21415037027801431 0 0.33606277552445019 -0.22265466850536131 0 0.34704338492228298 -0.23071462823977751 0 0.36477931646944911 -0.21826522868571011 0 0.34865369463692653 -0.21415037027801431 0 0.34704338492228298 -0.23071462823977751 0 0.36477931646944911 -0.21826522868571011 0 0.34704338492228298 -0.23071462823977751 0 0.36683949366394658 -0.23983619266578879 0 0.36477931646944911 -0.21826522868571011 0 0.36683949366394658 -0.23983619266578879 0 0.37654596640147597 -0.22511025470569579 0 0.36683949366394658 -0.23983619266578879 0 0.38042246715736172 -0.2509321626324551 0 0.35810798723077902 -0.25360210596606603 0 0.36683949366394658 -0.23983619266578879 0 0.39018009796844161 -0.23330310958398609 0 0.38042246715736172 -0.2509321626324551 0 0.36683949366394658 -0.23983619266578879 0 0.39018009796844161 -0.23330310958398609 0 0.40132169558187869 -0.24584169050334639 0 0.39018009796844161 -0.23330310958398609 0 0.38042246715736172 -0.2509321626324551 0 0.40132169558187869 -0.24584169050334639 0 0.40536523870801278 -0.2257156433071093 0 0.39018009796844161 -0.23330310958398609 0 0.40536523870801278 -0.2257156433071093 0 0.39018009796844161 -0.23330310958398609 0 0.38438495750406698 -0.20903648788729809 0 0.36683949366394658 -0.23983619266578879 0 0.37654596640147597 -0.22511025470569579 0 0.39018009796844161 -0.23330310958398609 0 0.37654596640147597 -0.22511025470569579 0 0.39018009796844161 -0.23330310958398609 0 0.38438495750406698 -0.20903648788729809 0 0.36477931646944911 -0.21826522868571011 0 0.37654596640147597 -0.22511025470569579 0 0.38438495750406698 -0.20903648788729809 0 0.36340467630012119 -0.19235733246748701 0 0.38438495750406698 -0.20903648788729809 0 0.38236584413271801 -0.188425838493088 0 0.38438495750406698 -0.20903648788729809 0 0.38236584413271801 -0.188425838493088 0 0.39597402669350501 -0.19633358701328399 0 0.39597402669350501 -0.19633358701328399 0 0.40809633937434853 -0.2071025288269904 0 0.41010901096165842 -0.1865421399786695 0 0.38236584413271801 -0.188425838493088 0 0.39597402669350501 -0.19633358701328399 0 0.39601937898165918 -0.1831511099549821 0 0.39597402669350501 -0.19633358701328399 0 0.39601937898165918 -0.1831511099549821 0 0.41010901096165842 -0.1865421399786695 0 0.40536523870801278 -0.2257156433071093 0 0.38438495750406698 -0.20903648788729809 0 0.40809633937434853 -0.2071025288269904 0 0.40536523870801278 -0.2257156433071093 0 0.38438495750406698 -0.20903648788729809 0 0.38438495750406698 -0.20903648788729809 0 0.39597402669350501 -0.19633358701328399 0 0.40809633937434853 -0.2071025288269904 0 0.40809633937434853 -0.2071025288269904 0 0.42970320282245139 -0.2080371338848877 0 0.41838165943395428 -0.21941497607774521 0 0.40536523870801278 -0.2257156433071093 0 0.40809633937434853 -0.2071025288269904 0 0.41838165943395428 -0.21941497607774521 0 0.40809633937434853 -0.2071025288269904 0 0.42970320282245139 -0.2080371338848877 0 0.41010901096165842 -0.1865421399786695 0 0.42970320282245139 -0.2080371338848877 0 0.41010901096165842 -0.1865421399786695 0 0.42320366293434608 -0.18850392267972529 0 0.42970320282245139 -0.2080371338848877 0 0.41010901096165842 -0.1865421399786695 0 0.42320366293434608 -0.18850392267972529 0 0.42970320282245139 -0.2080371338848877 0 0.4427786058539942 -0.19493194431828831 0 0.42970320282245139 -0.2080371338848877 0 0.42994375826755771 -0.2290243628547701 0 0.44929739468324431 -0.22953212779110579 0 0.42970320282245139 -0.2080371338848877 0 0.42994375826755771 -0.2290243628547701 0 0.41838165943395428 -0.21941497607774521 0 0.4290680870215603 -0.24378797682374939 0 0.4463625531759885 -0.2455109887519985 0 0.43353233089863502 -0.25737658527321228 0 0.42994375826755771 -0.2290243628547701 0 0.4290680870215603 -0.24378797682374939 0 0.43866794828708772 -0.2369638640554059 0 0.42994375826755771 -0.2290243628547701 0 0.4290680870215603 -0.24378797682374939 0 0.41475828604616538 -0.23802627217685901 0 0.40132169558187869 -0.24584169050334639 0 0.40536523870801278 -0.2257156433071093 0 0.41475828604616538 -0.23802627217685901 0 0.40132169558187869 -0.24584169050334639 0 0.41475828604616538 -0.23802627217685901 0 0.41797970346046098 -0.25202085762872067 0 0.4290680870215603 -0.24378797682374939 0 0.41475828604616538 -0.23802627217685901 0 0.41797970346046098 -0.25202085762872067 0 0.40536523870801278 -0.2257156433071093 0 0.41475828604616538 -0.23802627217685901 0 0.41838165943395428 -0.21941497607774521 0 0.42994375826755771 -0.2290243628547701 0 0.41475828604616538 -0.23802627217685901 0 0.41838165943395428 -0.21941497607774521 0 0.39542128097473328 -0.12822417885975421 0 0.39700150469370848 -0.14256349334400931 0 0.41173423350123989 -0.1350053997602299 0 0.39542128097473328 -0.12822417885975421 0 0.38148677408013187 -0.1350005149809487 0 0.39700150469370848 -0.14256349334400931 0 0.38176244380710711 -0.1177935041230158 0 0.36438720196500929 -0.13306096607898199 0 0.38148677408013187 -0.1350005149809487 0 0.38176244380710711 -0.1177935041230158 0 0.39542128097473328 -0.12822417885975421 0 0.38148677408013187 -0.1350005149809487 0 0.38148677408013187 -0.1350005149809487 0 0.38329779364630501 -0.15211417690919579 0 0.39700150469370848 -0.14256349334400931 0 0.37207282797871799 -0.14164940225790071 0 0.38148677408013187 -0.1350005149809487 0 0.38329779364630501 -0.15211417690919579 0 0.38329779364630501 -0.15211417690919579 0 0.40472195939765587 -0.15721179208146491 0 0.38329779364630501 -0.15211417690919579 0 0.39700150469370848 -0.14256349334400931 0 0.40472195939765587 -0.15721179208146491 0 0.39700150469370848 -0.14256349334400931 0 0.40795117895090149 -0.14850837565389899 0 0.41173423350123989 -0.1350053997602299 0 0.39700150469370848 -0.14256349334400931 0 0.40472195939765587 -0.15721179208146491 0 0.40795117895090149 -0.14850837565389899 0 0.38329779364630501 -0.15211417690919579 0 0.40472195939765587 -0.15721179208146491 0 0.3949581877068935 -0.1637799664012527 0 0.40472195939765587 -0.15721179208146491 0 0.3949581877068935 -0.1637799664012527 0 0.40362878384974432 -0.17242127623435241 0 0.3949581877068935 -0.1637799664012527 0 0.38801922927067017 -0.17203270805551649 0 0.40362878384974432 -0.17242127623435241 0 0.36957335646349693 -0.17351217078359579 0 0.38329779364630501 -0.15211417690919579 0 0.38801922927067017 -0.17203270805551649 0 0.38329779364630501 -0.15211417690919579 0 0.3949581877068935 -0.1637799664012527 0 0.38801922927067017 -0.17203270805551649 0 0.36957335646349693 -0.17351217078359579 0 0.38236584413271801 -0.188425838493088 0 0.38801922927067017 -0.17203270805551649 0 0.38236584413271801 -0.188425838493088 0 0.38801922927067017 -0.17203270805551649 0 0.39601937898165918 -0.1831511099549821 0 0.38801922927067017 -0.17203270805551649 0 0.39601937898165918 -0.1831511099549821 0 0.40362878384974432 -0.17242127623435241 0 0.39601937898165918 -0.1831511099549821 0 0.40362878384974432 -0.17242127623435241 0 0.41010901096165842 -0.1865421399786695 0 0.40362878384974432 -0.17242127623435241 0 0.41010901096165842 -0.1865421399786695 0 0.4172489895347678 -0.17384053304011821 0 0.42320366293434608 -0.18850392267972529 0 0.41010901096165842 -0.1865421399786695 0 0.4172489895347678 -0.17384053304011821 0 0.42320366293434608 -0.18850392267972529 0 0.44602216098325331 -0.17699433428909081 0 0.42320366293434608 -0.18850392267972529 0 0.44602216098325331 -0.17699433428909081 0 0.4427786058539942 -0.19493194431828831 0 0.42320366293434608 -0.18850392267972529 0 0.42716238184066252 -0.16704637408237341 0 0.43733781267151012 -0.16961887774133011 0 0.42320366293434608 -0.18850392267972529 0 0.4172489895347678 -0.17384053304011821 0 0.42716238184066252 -0.16704637408237341 0 0.42320366293434608 -0.18850392267972529 0 0.43733781267151012 -0.16961887774133011 0 0.44602216098325331 -0.17699433428909081 0 0.42716238184066252 -0.16704637408237341 0 0.43733781267151012 -0.16961887774133011 0 0.43818976378004759 -0.15785138123070411 0 0.42716238184066252 -0.16704637408237341 0 0.42732013511081318 -0.15432998596896019 0 0.43818976378004759 -0.15785138123070411 0 0.42716238184066252 -0.16704637408237341 0 0.41834701821100162 -0.1592528174298922 0 0.42732013511081318 -0.15432998596896019 0 0.4172489895347678 -0.17384053304011821 0 0.41834701821100162 -0.1592528174298922 0 0.41098668774829239 -0.1656816046964569 0 0.4172489895347678 -0.17384053304011821 0 0.42716238184066252 -0.16704637408237341 0 0.41834701821100162 -0.1592528174298922 0 0.40472195939765587 -0.15721179208146491 0 0.40362878384974432 -0.17242127623435241 0 0.41098668774829239 -0.1656816046964569 0 0.40362878384974432 -0.17242127623435241 0 0.4172489895347678 -0.17384053304011821 0 0.41098668774829239 -0.1656816046964569 0 0.40472195939765587 -0.15721179208146491 0 0.41834701821100162 -0.1592528174298922 0 0.41098668774829239 -0.1656816046964569 0 0.41834701821100162 -0.1592528174298922 0 0.40795117895090149 -0.14850837565389899 0 0.41173423350123989 -0.1350053997602299 0 0.41834701821100162 -0.1592528174298922 0 0.41173423350123989 -0.1350053997602299 0 0.41834701821100162 -0.1592528174298922 0 0.42161391484635852 -0.1434913096213267 0 0.41173423350123989 -0.1350053997602299 0 0.40472195939765587 -0.15721179208146491 0 0.41834701821100162 -0.1592528174298922 0 0.40795117895090149 -0.14850837565389899 0 0.42732013511081318 -0.15432998596896019 0 0.43633836956360222 -0.13486109213925801 0 0.43821643454004838 -0.14670376583336631 0 0.42161391484635852 -0.1434913096213267 0 0.42732013511081318 -0.15432998596896019 0 0.42967141842850781 -0.13653770187674791 0 0.41834701821100162 -0.1592528174298922 0 0.42161391484635852 -0.1434913096213267 0 0.42732013511081318 -0.15432998596896019 0 0.42732013511081318 -0.15432998596896019 0 0.42967141842850781 -0.13653770187674791 0 0.43633836956360222 -0.13486109213925801 0 0.42732013511081318 -0.15432998596896019 0 0.43633836956360222 -0.13486109213925801 0 0.42732013511081318 -0.15432998596896019 0 0.43821643454004838 -0.14670376583336631 0 0.43818976378004759 -0.15785138123070411 0 0.42161391484635852 -0.1434913096213267 0 0.42967141842850781 -0.13653770187674791 0 0.42089044205711751 -0.1344336940712112 0 0.42967141842850781 -0.13653770187674791 0 0.43633836956360222 -0.13486109213925801 0 0.43145601916892268 -0.12954037707870139 0 0.43579387810232112 -0.1198995719363402 0 0.43633836956360222 -0.13486109213925801 0 0.43145601916892268 -0.12954037707870139 0 0.42054220145236382 -0.12270036502654021 0 0.42967141842850781 -0.13653770187674791 0 0.42089044205711751 -0.1344336940712112 0 0.42054220145236382 -0.12270036502654021 0 0.42627861905085612 -0.1245063049547135 0 0.42967141842850781 -0.13653770187674791 0 0.42627861905085612 -0.1245063049547135 0 0.42967141842850781 -0.13653770187674791 0 0.43145601916892268 -0.12954037707870139 0 0.42054220145236382 -0.12270036502654021 0 0.42967141842850781 -0.13653770187674791 0 0.42054220145236382 -0.12270036502654021 0 0.42089044205711751 -0.1344336940712112 0 0.41173423350123989 -0.1350053997602299 0 0.42161391484635852 -0.1434913096213267 0 0.42089044205711751 -0.1344336940712112 0 0.41173423350123989 -0.1350053997602299 0 0.45736570140182758 -0.1215679641272253 0 0.45662087032514542 -0.13511829200537201 0 0.46927091164766771 -0.12876981279759611 0 0.45662087032514542 -0.13511829200537201 0 0.46802084519818549 -0.14138029326978421 0 0.46927091164766771 -0.12876981279759611 0 0.45736570140182758 -0.1215679641272253 0 0.45662087032514542 -0.13511829200537201 0 0.44628230128707952 -0.12764411908660139 0 0.44535660401639121 -0.1153921983095558 0 0.43633836956360222 -0.13486109213925801 0 0.44535660401639121 -0.1153921983095558 0 0.43633836956360222 -0.13486109213925801 0 0.44628230128707952 -0.12764411908660139 0 0.43633836956360222 -0.13486109213925801 0 0.44628230128707952 -0.12764411908660139 0 0.44299786328800522 -0.1348879139042691 0 0.43633836956360222 -0.13486109213925801 0 0.44186753077834179 -0.13995857677197071 0 0.43821643454004838 -0.14670376583336631 0 0.43633836956360222 -0.13486109213925801 0 0.44299786328800522 -0.1348879139042691 0 0.44186753077834179 -0.13995857677197071 0 0.44299786328800522 -0.1348879139042691 0 0.44186753077834179 -0.13995857677197071 0 0.44731172776584838 -0.13892020327371571 0 0.45662087032514542 -0.13511829200537201 0 0.44731172776584838 -0.13892020327371571 0 0.45136386402748557 -0.14467828884563691 0 0.45662087032514542 -0.13511829200537201 0 0.44628230128707952 -0.12764411908660139 0 0.44731172776584838 -0.13892020327371571 0 0.44628230128707952 -0.12764411908660139 0 0.44299786328800522 -0.1348879139042691 0 0.44731172776584838 -0.13892020327371571 0 0.45136386402748557 -0.14467828884563691 0 0.4480743966241818 -0.15212049250964679 0 0.45865829098601479 -0.14699586828419331 0 0.45136386402748557 -0.14467828884563691 0 0.44539828049474339 -0.14470667835520279 0 0.4480743966241818 -0.15212049250964679 0 0.44731172776584838 -0.13892020327371571 0 0.45136386402748557 -0.14467828884563691 0 0.44539828049474339 -0.14470667835520279 0 0.44539828049474339 -0.14470667835520279 0 0.43821643454004838 -0.14670376583336631 0 0.4480743966241818 -0.15212049250964679 0 0.44186753077834179 -0.13995857677197071 0 0.44539828049474339 -0.14470667835520279 0 0.43821643454004838 -0.14670376583336631 0 0.44186753077834179 -0.13995857677197071 0 0.44731172776584838 -0.13892020327371571 0 0.44539828049474339 -0.14470667835520279 0 0.43821643454004838 -0.14670376583336631 0 0.4480743966241818 -0.15212049250964679 0 0.43818976378004759 -0.15785138123070411 0 0.4480743966241818 -0.15212049250964679 0 0.45865829098601479 -0.14699586828419331 0 0.45775861499998499 -0.15988863626524599 0 0.45662087032514542 -0.13511829200537201 0 0.45136386402748557 -0.14467828884563691 0 0.45865829098601479 -0.14699586828419331 0 0.45865829098601479 -0.14699586828419331 0 0.46802084519818549 -0.14138029326978421 0 0.46883398790946867 -0.15427933525052551 0 0.45662087032514542 -0.13511829200537201 0 0.45865829098601479 -0.14699586828419331 0 0.46802084519818549 -0.14138029326978421 0 0.45865829098601479 -0.14699586828419331 0 0.45775861499998499 -0.15988863626524599 0 0.46883398790946867 -0.15427933525052551 0 0.45775861499998499 -0.15988863626524599 0 0.44602216098325331 -0.17699433428909081 0 0.46884065903215838 -0.1654847458984523 0 0.44602216098325331 -0.17699433428909081 0 0.46884065903215838 -0.1654847458984523 0 0.45775861499998499 -0.15988863626524599 0 0.46884065903215838 -0.1654847458984523 0 0.46883398790946867 -0.15427933525052551 0 0.4480743966241818 -0.15212049250964679 0 0.45775861499998499 -0.15988863626524599 0 0.44574193157209341 -0.1630708896879057 0 0.45775861499998499 -0.15988863626524599 0 0.44574193157209341 -0.1630708896879057 0 0.44602216098325331 -0.17699433428909081 0 0.43733781267151012 -0.16961887774133011 0 0.44574193157209341 -0.1630708896879057 0 0.43818976378004759 -0.15785138123070411 0 0.4480743966241818 -0.15212049250964679 0 0.44574193157209341 -0.1630708896879057 0 0.43818976378004759 -0.15785138123070411 0 0.43733781267151012 -0.16961887774133011 0 0.44574193157209341 -0.1630708896879057 0 0.44602216098325331 -0.17699433428909081 0 0.44602216098325331 -0.17699433428909081 0 0.46884065903215838 -0.1654847458984523 0 0.46885763486945148 -0.19399887116474221 0 0.46884065903215838 -0.1654847458984523 0 0.46885763486945148 -0.19399887116474221 0 0.48305470035329612 -0.17874763212780109 0 0.46884065903215838 -0.1654847458984523 0 0.46885763486945148 -0.19399887116474221 0 0.48305470035329612 -0.17874763212780109 0 0.49078371747940969 -0.16776643360756979 0 0.5 -0.18780250918215721 0 0.49078371747940969 -0.16776643360756979 0 0.48237367878991377 -0.1586587275180954 0 0.49590669854766739 -0.15183270913773461 0 0.5 -0.15947552307423671 0 0.49078371747940969 -0.16776643360756979 0 0.5 -0.18780250918215721 0 0.48305470035329612 -0.17874763212780109 0 0.49078371747940969 -0.16776643360756979 0 0.48237367878991377 -0.1586587275180954 0 0.5 -0.15947552307423671 0 0.49078371747940969 -0.16776643360756979 0 0.49590669854766739 -0.15183270913773461 0 0.48305470035329612 -0.17874763212780109 0 0.48237367878991377 -0.1586587275180954 0 0.46884065903215838 -0.1654847458984523 0 0.48237367878991377 -0.1586587275180954 0 0.46884065903215838 -0.1654847458984523 0 0.46884065903215838 -0.1654847458984523 0 0.46883398790946867 -0.15427933525052551 0 0.48237367878991377 -0.1586587275180954 0 0.46884065903215838 -0.1654847458984523 0 0.46883398790946867 -0.15427933525052551 0 0.48237367878991377 -0.1586587275180954 0 0.46883398790946867 -0.15427933525052551 0 0.476781412249627 -0.14749246275887071 0 0.46802084519818549 -0.14138029326978421 0 0.46883398790946867 -0.15427933525052551 0 0.476781412249627 -0.14749246275887071 0 0.46802084519818549 -0.14138029326978421 0 0.476781412249627 -0.14749246275887071 0 0.48074676348269629 -0.13658306763720041 0 0.476781412249627 -0.14749246275887071 0 0.48703251362413652 -0.14519981237624771 0 0.48074676348269629 -0.13658306763720041 0 0.48237367878991377 -0.1586587275180954 0 0.476781412249627 -0.14749246275887071 0 0.48703251362413652 -0.14519981237624771 0 0.5 -0.15947552307423671 0 0.49590669854766739 -0.15183270913773461 0 0.5 -0.13114853696631629 0 0.49590669854766739 -0.15183270913773461 0 0.48703251362413652 -0.14519981237624771 0 0.5 -0.13114853696631629 0 0.48237367878991377 -0.1586587275180954 0 0.49590669854766739 -0.15183270913773461 0 0.48703251362413652 -0.14519981237624771 0 0.48237367878991377 -0.1586587275180954 0 0.49590669854766739 -0.15183270913773461 0 0.48703251362413652 -0.14519981237624771 0 0.5 -0.13114853696631629 0 0.48074676348269629 -0.13658306763720041 0 0.48119395052623348 -0.12409287947154329 0 0.5 -0.13114853696631629 0 0.48074676348269629 -0.13658306763720041 0 0.48119395052623348 -0.12409287947154329 0 0.48074676348269629 -0.13658306763720041 0 0.46927091164766771 -0.12876981279759611 0 0.46802084519818549 -0.14138029326978421 0 0.48074676348269629 -0.13658306763720041 0 0.46927091164766771 -0.12876981279759611 0 0.44929739468324431 -0.22953212779110579 0 0.46887461070674652 -0.22251299643103239 0 0.46889158654403867 -0.25102712169732239 0 0.44929739468324431 -0.22953212779110579 0 0.45137538777565861 -0.20955923697755521 0 0.46887461070674652 -0.22251299643103239 0 0.4463625531759885 -0.2455109887519985 0 0.44929739468324431 -0.22953212779110579 0 0.46889158654403867 -0.25102712169732239 0 0.44929739468324431 -0.22953212779110579 0 0.46889158654403867 -0.25102712169732239 0 0.4463625531759885 -0.2455109887519985 0 0.43866794828708772 -0.2369638640554059 0 0.44929739468324431 -0.22953212779110579 0 0.4290680870215603 -0.24378797682374939 0 0.4463625531759885 -0.2455109887519985 0 0.43866794828708772 -0.2369638640554059 0 0.42994375826755771 -0.2290243628547701 0 0.43866794828708772 -0.2369638640554059 0 0.44929739468324431 -0.22953212779110579 0 0.42970320282245139 -0.2080371338848877 0 0.44929739468324431 -0.22953212779110579 0 0.42970320282245139 -0.2080371338848877 0 0.45137538777565861 -0.20955923697755521 0 0.4427786058539942 -0.19493194431828831 0 0.42970320282245139 -0.2080371338848877 0 0.44929739468324431 -0.22953212779110579 0 0.45137538777565861 -0.20955923697755521 0 0.44602216098325331 -0.17699433428909081 0 0.4427786058539942 -0.19493194431828831 0 0.46885763486945148 -0.19399887116474221 0 0.45137538777565861 -0.20955923697755521 0 0.4427786058539942 -0.19493194431828831 0 0.46885763486945148 -0.19399887116474221 0 0.45137538777565861 -0.20955923697755521 0 0.46885763486945148 -0.19399887116474221 0 0.46887461070674652 -0.22251299643103239 0 0.48259649494500539 -0.2076608290295642 0 0.46885763486945148 -0.19399887116474221 0 0.46887461070674652 -0.22251299643103239 0 0.46885763486945148 -0.19399887116474221 0 0.46887461070674652 -0.22251299643103239 0 0.48305470035329612 -0.17874763212780109 0 0.48259649494500539 -0.2076608290295642 0 0.46885763486945148 -0.19399887116474221 0 0.48305470035329612 -0.17874763212780109 0 0.48259649494500539 -0.2076608290295642 0 0.5 -0.18780250918215721 0 0.48259649494500539 -0.2076608290295642 0 0.5 -0.18780250918215721 0 0.5 -0.21612949529007769 0 0.5 -0.21612949529007769 0 0.48212670425717569 -0.2367621745054814 0 0.5 -0.24445648139799819 0 0.48259649494500539 -0.2076608290295642 0 0.5 -0.21612949529007769 0 0.48212670425717569 -0.2367621745054814 0 0.48259649494500539 -0.2076608290295642 0 0.46887461070674652 -0.22251299643103239 0 0.48212670425717569 -0.2367621745054814 0 0.46887461070674652 -0.22251299643103239 0 0.46889158654403867 -0.25102712169732239 0 0.48212670425717569 -0.2367621745054814 0 0.48600015045998579 -0.25342522836543802 0 0.46889158654403867 -0.25102712169732239 0 0.46887461070674652 -0.22251299643103239 0 0.48212670425717569 -0.2367621745054814 0 0.46889158654403867 -0.25102712169732239 0 0.48212670425717569 -0.2367621745054814 0 0.5 -0.24445648139799819 0 0.48600015045998579 -0.25342522836543802 0 0.48600015045998579 -0.25342522836543802 0 0.49999999999999828 -0.27278346750591881 0 0.47898246149871893 -0.26209689672046599 0 0.5 -0.24445648139799819 0 0.48600015045998579 -0.25342522836543802 0 0.49999999999999828 -0.27278346750591881 0 0.49999999999999828 -0.27278346750591881 0 0.48949123074936102 -0.2736251053145865 0 0.47898246149871893 -0.26209689672046599 0 0.49999999999999828 -0.27278346750591881 0 0.47898246149871893 -0.26209689672046599 0 0.49999999999999828 -0.27278346750591881 0 0.48949123074936102 -0.2736251053145865 0 0.50000000000000255 -0.28515331390870752 0 0.48949123074936102 -0.2736251053145865 0 0.50000000000000255 -0.28515331390870752 0 0.47817319609703562 -0.27408009432260039 0 0.46889512337184508 -0.25696789205975329 0 0.46891312265238638 -0.28720108357138557 0 0.46889512337184508 -0.25696789205975329 0 0.46891312265238638 -0.28720108357138557 0 0.48949123074936102 -0.2736251053145865 0 0.47817319609703562 -0.27408009432260039 0 0.48458404221286561 -0.29050949394680992 0 0.48949123074936102 -0.2736251053145865 0 0.47817319609703562 -0.27408009432260039 0 0.47898246149871893 -0.26209689672046599 0 0.48949123074936102 -0.2736251053145865 0 0.47898246149871893 -0.26209689672046599 0 0.47817319609703562 -0.27408009432260039 0 0.47898246149871893 -0.26209689672046599 0 0.46889512337184508 -0.25696789205975329 0 0.48600015045998579 -0.25342522836543802 0 0.47898246149871893 -0.26209689672046599 0 0.46889158654403867 -0.25102712169732239 0 0.47898246149871893 -0.26209689672046599 0 0.46889512337184508 -0.25696789205975329 0 0.47898246149871893 -0.26209689672046599 0 0.46889158654403867 -0.25102712169732239 0 0.47898246149871893 -0.26209689672046599 0 0.46889512337184508 -0.25696789205975329 0 0.46889158654403867 -0.25102712169732239 0 0.46889512337184508 -0.25696789205975329 0 0.46889158654403867 -0.25102712169732239 0 0.4463625531759885 -0.2455109887519985 0 0.46889512337184508 -0.25696789205975329 0 0.45161664780153532 -0.26306376153444161 0 0.4463625531759885 -0.2455109887519985 0 0.46889512337184508 -0.25696789205975329 0 0.4463625531759885 -0.2455109887519985 0 0.46889512337184508 -0.25696789205975329 0 0.46889158654403867 -0.25102712169732239 0 0.45161664780153532 -0.26306376153444161 0 0.45054903866606799 -0.28291769669437927 0 0.46891312265238638 -0.28720108357138557 0 0.46889512337184508 -0.25696789205975329 0 0.45161664780153532 -0.26306376153444161 0 0.46891312265238638 -0.28720108357138557 0 0.45161664780153532 -0.26306376153444161 0 0.45054903866606799 -0.28291769669437927 0 0.43574655078816821 -0.27222047292404972 0 0.45054903866606799 -0.28291769669437927 0 0.43574655078816821 -0.27222047292404972 0 0.43580288739465589 -0.2868331236569972 0 0.4463625531759885 -0.2455109887519985 0 0.45161664780153532 -0.26306376153444161 0 0.43353233089863502 -0.25737658527321228 0 0.45161664780153532 -0.26306376153444161 0 0.43353233089863502 -0.25737658527321228 0 0.43574655078816821 -0.27222047292404972 0 0.44694185856936791 -0.2976933815288022 0 0.44290227213755268 -0.3107164352195313 0 0.45572183351271378 -0.30837482099367602 0 0.44694185856936791 -0.2976933815288022 0 0.44290227213755268 -0.3107164352195313 0 0.43523959890112912 -0.2995793313938494 0 0.44694185856936791 -0.2976933815288022 0 0.43580288739465589 -0.2868331236569972 0 0.43523959890112912 -0.2995793313938494 0 0.44694185856936791 -0.2976933815288022 0 0.45054903866606799 -0.28291769669437927 0 0.43580288739465589 -0.2868331236569972 0 0.44694185856936791 -0.2976933815288022 0 0.45054903866606799 -0.28291769669437927 0 0.45849963194599391 -0.29603424846312693 0 0.45054903866606799 -0.28291769669437927 0 0.45849963194599391 -0.29603424846312693 0 0.46891312265238638 -0.28720108357138557 0 0.45849963194599391 -0.29603424846312693 0 0.47037230632943339 -0.30398425952739189 0 0.46891312265238638 -0.28720108357138557 0 0.45849963194599391 -0.29603424846312693 0 0.45572183351271378 -0.30837482099367602 0 0.47037230632943339 -0.30398425952739189 0 0.44694185856936791 -0.2976933815288022 0 0.45849963194599391 -0.29603424846312693 0 0.45572183351271378 -0.30837482099367602 0 0.45572183351271378 -0.30837482099367602 0 0.47037230632943339 -0.30398425952739189 0 0.46247083573787101 -0.31880176827870582 0 0.47037230632943339 -0.30398425952739189 0 0.48458404221286561 -0.29050949394680992 0 0.4844417373945451 -0.30649176370915071 0 0.47037230632943339 -0.30398425952739189 0 0.4844417373945451 -0.30649176370915071 0 0.47489084000400478 -0.31891904892152739 0 0.47037230632943339 -0.30398425952739189 0 0.46891312265238638 -0.28720108357138557 0 0.48458404221286561 -0.29050949394680992 0 0.47817319609703562 -0.27408009432260039 0 0.46891312265238638 -0.28720108357138557 0 0.48458404221286561 -0.29050949394680992 0 0.48458404221286561 -0.29050949394680992 0 0.50000000000000255 -0.28515331390870752 0 0.5 -0.30459504986302299 0 0.48949123074936102 -0.2736251053145865 0 0.48458404221286561 -0.29050949394680992 0 0.50000000000000255 -0.28515331390870752 0 0.48458404221286561 -0.29050949394680992 0 0.4844417373945451 -0.30649176370915071 0 0.5 -0.30459504986302299 0 0.4844417373945451 -0.30649176370915071 0 0.5 -0.30459504986302299 0 0.48706588412395851 -0.31760511509500577 0 0.49999999999999739 -0.32403678581733852 0 0.48706588412395851 -0.31760511509500577 0 0.47181186861310942 -0.32698805959673649 0 0.5 -0.30459504986302299 0 0.49999999999999739 -0.32403678581733852 0 0.48706588412395851 -0.31760511509500577 0 0.49999999999999739 -0.32403678581733852 0 0.47181186861310942 -0.32698805959673649 0 0.49999999999999739 -0.32403678581733852 0 0.48715128205830499 -0.33740695661770259 0 0.5 -0.3507771274180671 0 0.49999999999999739 -0.32403678581733852 0 0.48715128205830499 -0.33740695661770259 0 0.47181186861310942 -0.32698805959673649 0 0.48715128205830499 -0.33740695661770259 0 0.47181186861310942 -0.32698805959673649 0 0.4616468228921462 -0.35362743100465521 0 0.47181186861310942 -0.32698805959673649 0 0.47489084000400478 -0.31891904892152739 0 0.47181186861310942 -0.32698805959673649 0 0.47489084000400478 -0.31891904892152739 0 0.46247083573787101 -0.31880176827870582 0 0.47037230632943339 -0.30398425952739189 0 0.47489084000400478 -0.31891904892152739 0 0.46247083573787101 -0.31880176827870582 0 0.4844417373945451 -0.30649176370915071 0 0.48706588412395851 -0.31760511509500577 0 0.47489084000400478 -0.31891904892152739 0 0.48706588412395851 -0.31760511509500577 0 0.47181186861310942 -0.32698805959673649 0 0.47489084000400478 -0.31891904892152739 0 0.5 -0.3507771274180671 0 0.4842506978655805 -0.3589958034093696 0 0.5 -0.37751746901879579 0 0.4842506978655805 -0.3589958034093696 0 0.5 -0.37751746901879579 0 0.47245538437745122 -0.37565003298762722 0 0.48715128205830499 -0.33740695661770259 0 0.5 -0.3507771274180671 0 0.4842506978655805 -0.3589958034093696 0 0.48715128205830499 -0.33740695661770259 0 0.4842506978655805 -0.3589958034093696 0 0.4616468228921462 -0.35362743100465521 0 0.4842506978655805 -0.3589958034093696 0 0.4616468228921462 -0.35362743100465521 0 0.47245538437745122 -0.37565003298762722 0 0.4616468228921462 -0.35362743100465521 0 0.45148177717118348 -0.38026680241257421 0 0.4616468228921462 -0.35362743100465521 0 0.47245538437745122 -0.37565003298762722 0 0.45148177717118348 -0.38026680241257421 0 0.4616468228921462 -0.35362743100465521 0 0.43906407518597468 -0.35372198420295647 0 0.44943794415958749 -0.32933059077326932 0 0.4616468228921462 -0.35362743100465521 0 0.43906407518597468 -0.35372198420295647 0 0.44280863015546479 -0.36717610823048819 0 0.4616468228921462 -0.35362743100465521 0 0.44280863015546479 -0.36717610823048819 0 0.45148177717118348 -0.38026680241257421 0 0.44280863015546479 -0.36717610823048819 0 0.43151829265123448 -0.37293348415709321 0 0.45148177717118348 -0.38026680241257421 0 0.43906407518597468 -0.35372198420295647 0 0.44280863015546479 -0.36717610823048819 0 0.43151829265123448 -0.37293348415709321 0 0.47181186861310942 -0.32698805959673649 0 0.46247083573787101 -0.31880176827870582 0 0.44943794415958749 -0.32933059077326932 0 0.45572183351271378 -0.30837482099367602 0 0.46247083573787101 -0.31880176827870582 0 0.44943794415958749 -0.32933059077326932 0 0.47181186861310942 -0.32698805959673649 0 0.4616468228921462 -0.35362743100465521 0 0.47181186861310942 -0.32698805959673649 0 0.44943794415958749 -0.32933059077326932 0 0.47181186861310942 -0.32698805959673649 0 0.4616468228921462 -0.35362743100465521 0 0.44943794415958749 -0.32933059077326932 0 0.44943794415958749 -0.32933059077326932 0 0.42706401970606528 -0.33167312194980081 0 0.43906407518597468 -0.35372198420295647 0 0.44943794415958749 -0.32933059077326932 0 0.43025940183778499 -0.34324531579301881 0 0.44290227213755268 -0.3107164352195313 0 0.45572183351271378 -0.30837482099367602 0 0.44943794415958749 -0.32933059077326932 0 0.44290227213755268 -0.3107164352195313 0 0.44943794415958749 -0.32933059077326932 0 0.4354483796004992 -0.32137936295326608 0 0.44290227213755268 -0.3107164352195313 0 0.43087826017586062 -0.31279404030695618 0 0.4354483796004992 -0.32137936295326608 0 0.43087826017586062 -0.31279404030695618 0 0.42695940182342967 -0.32238262651677302 0 0.4354483796004992 -0.32137936295326608 0 0.44943794415958749 -0.32933059077326932 0 0.4354483796004992 -0.32137936295326608 0 0.42706401970606528 -0.33167312194980081 0 0.43087826017586062 -0.31279404030695618 0 0.42695940182342967 -0.32238262651677302 0 0.41827676390396717 -0.31525786092548452 0 0.42695940182342967 -0.32238262651677302 0 0.42706401970606528 -0.33167312194980081 0 0.41985301004175968 -0.32815666903158691 0 0.42695940182342967 -0.32238262651677302 0 0.4354483796004992 -0.32137936295326608 0 0.42706401970606528 -0.33167312194980081 0 0.44943794415958749 -0.32933059077326932 0 0.43025940183778499 -0.34324531579301881 0 0.42706401970606528 -0.33167312194980081 0 0.43025940183778499 -0.34324531579301881 0 0.42706401970606528 -0.33167312194980081 0 0.41454008414827592 -0.33865226556897993 0 0.42706401970606528 -0.33167312194980081 0 0.41985301004175968 -0.32815666903158691 0 0.41454008414827592 -0.33865226556897993 0 0.41985301004175968 -0.32815666903158691 0 0.41454008414827592 -0.33865226556897993 0 0.39044459460368219 -0.33140357317753222 0 0.41985301004175968 -0.32815666903158691 0 0.41827676390396717 -0.31525786092548452 0 0.40514281817981962 -0.31562506615190711 0 0.42695940182342967 -0.32238262651677302 0 0.41985301004175968 -0.32815666903158691 0 0.41827676390396717 -0.31525786092548452 0 0.43906407518597468 -0.35372198420295647 0 0.43151829265123448 -0.37293348415709321 0 0.42366218695881253 -0.35862179261573629 0 0.43151829265123448 -0.37293348415709321 0 0.42366218695881253 -0.35862179261573629 0 0.4170336660752953 -0.37144998882358832 0 0.43906407518597468 -0.35372198420295647 0 0.43025940183778499 -0.34324531579301881 0 0.42366218695881253 -0.35862179261573629 0 0.43025940183778499 -0.34324531579301881 0 0.42366218695881253 -0.35862179261573629 0 0.41695843949203731 -0.34939474985740038 0 0.43025940183778499 -0.34324531579301881 0 0.41454008414827592 -0.33865226556897993 0 0.41695843949203731 -0.34939474985740038 0 0.41454008414827592 -0.33865226556897993 0 0.41695843949203731 -0.34939474985740038 0 0.40281320436120532 -0.34957357088815488 0 0.41695843949203731 -0.34939474985740038 0 0.4092751426138076 -0.36089686873501381 0 0.40281320436120532 -0.34957357088815488 0 0.42366218695881253 -0.35862179261573629 0 0.41695843949203731 -0.34939474985740038 0 0.4092751426138076 -0.36089686873501381 0 0.4092751426138076 -0.36089686873501381 0 0.4170336660752953 -0.37144998882358832 0 0.40321592596005817 -0.37796095501956323 0 0.42366218695881253 -0.35862179261573629 0 0.4092751426138076 -0.36089686873501381 0 0.4170336660752953 -0.37144998882358832 0 0.4092751426138076 -0.36089686873501381 0 0.39759063806939948 -0.36560229080059897 0 0.40321592596005817 -0.37796095501956323 0 0.39759063806939948 -0.36560229080059897 0 0.38522986717313429 -0.3724527578816379 0 0.40321592596005817 -0.37796095501956323 0 0.40281320436120532 -0.34957357088815488 0 0.38851248252336501 -0.35426668758887481 0 0.39044459460368219 -0.33140357317753222 0 0.4092751426138076 -0.36089686873501381 0 0.39759063806939948 -0.36560229080059897 0 0.40281320436120532 -0.34957357088815488 0 0.39759063806939948 -0.36560229080059897 0 0.40281320436120532 -0.34957357088815488 0 0.38851248252336501 -0.35426668758887481 0 0.38851248252336501 -0.35426668758887481 0 0.39044459460368219 -0.33140357317753222 0 0.36970547293014538 -0.35306700271307051 0 0.38851248252336501 -0.35426668758887481 0 0.38522986717313429 -0.3724527578816379 0 0.36970547293014538 -0.35306700271307051 0 0.39759063806939948 -0.36560229080059897 0 0.38851248252336501 -0.35426668758887481 0 0.38522986717313429 -0.3724527578816379 0 0.41985301004175968 -0.32815666903158691 0 0.40514281817981962 -0.31562506615190711 0 0.39044459460368219 -0.33140357317753222 0 0.40514281817981962 -0.31562506615190711 0 0.39044459460368219 -0.33140357317753222 0 0.39027170780884818 -0.31338453970657087 0 0.41985301004175968 -0.32815666903158691 0 0.39044459460368219 -0.33140357317753222 0 0.41454008414827592 -0.33865226556897993 0 0.40281320436120532 -0.34957357088815488 0 0.39044459460368219 -0.33140357317753222 0 0.39044459460368219 -0.33140357317753222 0 0.36103617916560471 -0.33465047732347741 0 0.39044459460368219 -0.33140357317753222 0 0.39027170780884818 -0.31338453970657087 0 0.37148926485584349 -0.31542902237567061 0 0.39027170780884818 -0.31338453970657087 0 0.38317160961891461 -0.30267347620165258 0 0.37148926485584349 -0.31542902237567061 0 0.38317160961891461 -0.30267347620165258 0 0.37199997248884548 -0.29419339268505029 0 0.37148926485584349 -0.31542902237567061 0 0.39027170780884818 -0.31338453970657087 0 0.38317160961891461 -0.30267347620165258 0 0.39866201539497831 -0.30264453409552278 0 0.40514281817981962 -0.31562506615190711 0 0.39027170780884818 -0.31338453970657087 0 0.39866201539497831 -0.30264453409552278 0 0.38317160961891461 -0.30267347620165258 0 0.39866201539497831 -0.30264453409552278 0 0.391191317532809 -0.29078302507132392 0 0.39866201539497831 -0.30264453409552278 0 0.41162933571218813 -0.30406515943790929 0 0.40643854764490561 -0.29212459271536723 0 0.40514281817981962 -0.31562506615190711 0 0.39866201539497831 -0.30264453409552278 0 0.41162933571218813 -0.30406515943790929 0 0.40026393516093678 -0.28403407688630411 0 0.391191317532809 -0.29078302507132392 0 0.3944158034366792 -0.27499606809427168 0 0.40026393516093678 -0.28403407688630411 0 0.409604128538399 -0.27929476450541613 0 0.40643854764490561 -0.29212459271536723 0 0.40026393516093678 -0.28403407688630411 0 0.391191317532809 -0.29078302507132392 0 0.40643854764490561 -0.29212459271536723 0 0.39866201539497831 -0.30264453409552278 0 0.391191317532809 -0.29078302507132392 0 0.40643854764490561 -0.29212459271536723 0 0.391191317532809 -0.29078302507132392 0 0.37739707299693331 -0.2793942577831206 0 0.3944158034366792 -0.27499606809427168 0 0.38317160961891461 -0.30267347620165258 0 0.391191317532809 -0.29078302507132392 0 0.37199997248884548 -0.29419339268505029 0 0.391191317532809 -0.29078302507132392 0 0.37739707299693331 -0.2793942577831206 0 0.37199997248884548 -0.29419339268505029 0 0.37739707299693331 -0.2793942577831206 0 0.38296106347013209 -0.26716732787771252 0 0.3670365317362248 -0.26724104531623011 0 0.37739707299693331 -0.2793942577831206 0 0.38296106347013209 -0.26716732787771252 0 0.3944158034366792 -0.27499606809427168 0 0.38296106347013209 -0.26716732787771252 0 0.3932113508824297 -0.25912047788175979 0 0.3944158034366792 -0.27499606809427168 0 0.38296106347013209 -0.26716732787771252 0 0.38042246715736172 -0.2509321626324551 0 0.3932113508824297 -0.25912047788175979 0 0.38296106347013209 -0.26716732787771252 0 0.38042246715736172 -0.2509321626324551 0 0.3670365317362248 -0.26724104531623011 0 0.40132169558187869 -0.24584169050334639 0 0.38042246715736172 -0.2509321626324551 0 0.3932113508824297 -0.25912047788175979 0 0.40132169558187869 -0.24584169050334639 0 0.3932113508824297 -0.25912047788175979 0 0.40622466660203038 -0.2631065064210647 0 0.40622466660203038 -0.2631065064210647 0 0.3944158034366792 -0.27499606809427168 0 0.409604128538399 -0.27929476450541613 0 0.3932113508824297 -0.25912047788175979 0 0.40622466660203038 -0.2631065064210647 0 0.3944158034366792 -0.27499606809427168 0 0.40026393516093678 -0.28403407688630411 0 0.3944158034366792 -0.27499606809427168 0 0.409604128538399 -0.27929476450541613 0 0.40622466660203038 -0.2631065064210647 0 0.409604128538399 -0.27929476450541613 0 0.42081531771233482 -0.26736517991287329 0 0.409604128538399 -0.27929476450541613 0 0.42081531771233482 -0.26736517991287329 0 0.42282878869492541 -0.27927006893271 0 0.40132169558187869 -0.24584169050334639 0 0.40622466660203038 -0.2631065064210647 0 0.41797970346046098 -0.25202085762872067 0 0.40622466660203038 -0.2631065064210647 0 0.42081531771233482 -0.26736517991287329 0 0.41797970346046098 -0.25202085762872067 0 0.4290680870215603 -0.24378797682374939 0 0.41797970346046098 -0.25202085762872067 0 0.43353233089863502 -0.25737658527321228 0 0.42081531771233482 -0.26736517991287329 0 0.41797970346046098 -0.25202085762872067 0 0.43353233089863502 -0.25737658527321228 0 0.42081531771233482 -0.26736517991287329 0 0.42282878869492541 -0.27927006893271 0 0.43574655078816821 -0.27222047292404972 0 0.42081531771233482 -0.26736517991287329 0 0.43353233089863502 -0.25737658527321228 0 0.43574655078816821 -0.27222047292404972 0 0.42282878869492541 -0.27927006893271 0 0.43574655078816821 -0.27222047292404972 0 0.43580288739465589 -0.2868331236569972 0 0.42282878869492541 -0.27927006893271 0 0.43580288739465589 -0.2868331236569972 0 0.42087923823857071 -0.29152536631222259 0 0.43580288739465589 -0.2868331236569972 0 0.43523959890112912 -0.2995793313938494 0 0.42087923823857071 -0.29152536631222259 0 0.43087826017586062 -0.31279404030695618 0 0.43523959890112912 -0.2995793313938494 0 0.42366271195060051 -0.30444353959562809 0 0.44290227213755268 -0.3107164352195313 0 0.43087826017586062 -0.31279404030695618 0 0.43523959890112912 -0.2995793313938494 0 0.43087826017586062 -0.31279404030695618 0 0.41827676390396717 -0.31525786092548452 0 0.42366271195060051 -0.30444353959562809 0 0.43523959890112912 -0.2995793313938494 0 0.42366271195060051 -0.30444353959562809 0 0.42087923823857071 -0.29152536631222259 0 0.42366271195060051 -0.30444353959562809 0 0.41162933571218813 -0.30406515943790929 0 0.42087923823857071 -0.29152536631222259 0 0.41827676390396717 -0.31525786092548452 0 0.42366271195060051 -0.30444353959562809 0 0.41162933571218813 -0.30406515943790929 0 0.41827676390396717 -0.31525786092548452 0 0.40514281817981962 -0.31562506615190711 0 0.41162933571218813 -0.30406515943790929 0 0.41162933571218813 -0.30406515943790929 0 0.40643854764490561 -0.29212459271536723 0 0.42087923823857071 -0.29152536631222259 0 0.409604128538399 -0.27929476450541613 0 0.40643854764490561 -0.29212459271536723 0 0.42087923823857071 -0.29152536631222259 0 0.409604128538399 -0.27929476450541613 0 0.42282878869492541 -0.27927006893271 0 0.42087923823857071 -0.29152536631222259 0 0.43841263565830269 -0.48513913676128978 0 0.44684923544145472 -0.50000000000000244 0 0.46456615696096992 -0.48591283127366303 0 0.43841263565830269 -0.48513913676128978 0 0.46456615696096992 -0.48591283127366303 0 0.44109461261063831 -0.46472026647219239 0 0.46456615696096992 -0.48591283127366303 0 0.46353624852812642 -0.46089415496105179 0 0.44109461261063831 -0.46472026647219239 0 0.44684923544145472 -0.50000000000000244 0 0.46456615696096992 -0.48591283127366303 0 0.5 -0.5 0 0.48228307848048402 -0.47182566254732222 0 0.49999999999999861 -0.45773849382098197 0 0.44684923544145472 -0.50000000000000244 0 0.46456615696096992 -0.48591283127366303 0 0.5 -0.5 0 0.46456615696096992 -0.48591283127366303 0 0.5 -0.5 0 0.48228307848048402 -0.47182566254732222 0 0.46456615696096992 -0.48591283127366303 0 0.48228307848048402 -0.47182566254732222 0 0.46353624852812642 -0.46089415496105179 0 0.46456615696096992 -0.48591283127366303 0 0.48228307848048402 -0.47182566254732222 0 0.48228307848048402 -0.47182566254732222 0 0.4816873957717831 -0.4528919446080783 0 0.46353624852812642 -0.46089415496105179 0 0.48228307848048402 -0.47182566254732222 0 0.49999999999999861 -0.45773849382098197 0 0.48228307848048402 -0.47182566254732222 0 0.49999999999999861 -0.45773849382098197 0 0.4816873957717831 -0.4528919446080783 0 0.4816873957717831 -0.4528919446080783 0 0.47872815218059273 -0.4334631301022519 0 0.5 -0.43099815222025328 0 0.49999999999999861 -0.45773849382098197 0 0.4816873957717831 -0.4528919446080783 0 0.5 -0.43099815222025328 0 0.4816873957717831 -0.4528919446080783 0 0.46460703976652462 -0.44263141047444998 0 0.46353624852812642 -0.46089415496105179 0 0.4816873957717831 -0.4528919446080783 0 0.46460703976652462 -0.44263141047444998 0 0.47872815218059273 -0.4334631301022519 0 0.46460703976652462 -0.44263141047444998 0 0.44300232321247579 -0.44717171129354588 0 0.45335681917987741 -0.43065673573897723 0 0.46460703976652462 -0.44263141047444998 0 0.46353624852812642 -0.46089415496105179 0 0.44300232321247579 -0.44717171129354588 0 0.46353624852812642 -0.46089415496105179 0 0.44109461261063831 -0.46472026647219239 0 0.44300232321247579 -0.44717171129354588 0 0.44300232321247579 -0.44717171129354588 0 0.45335681917987741 -0.43065673573897723 0 0.43619555136855231 -0.42826771547711567 0 0.45499778024230342 -0.41275047063931891 0 0.45335681917987741 -0.43065673573897723 0 0.43619555136855231 -0.42826771547711567 0 0.45499778024230342 -0.41275047063931891 0 0.43619555136855231 -0.42826771547711567 0 0.44131673145022088 -0.40690617382049321 0 0.45499778024230342 -0.41275047063931891 0 0.43619555136855231 -0.42826771547711567 0 0.45499778024230342 -0.41275047063931891 0 0.4681386014843934 -0.4225463080419336 0 0.47380000911605458 -0.39723322580152193 0 0.46460703976652462 -0.44263141047444998 0 0.4681386014843934 -0.4225463080419336 0 0.45335681917987741 -0.43065673573897723 0 0.45499778024230342 -0.41275047063931891 0 0.4681386014843934 -0.4225463080419336 0 0.45335681917987741 -0.43065673573897723 0 0.46460703976652462 -0.44263141047444998 0 0.4681386014843934 -0.4225463080419336 0 0.47872815218059273 -0.4334631301022519 0 0.4681386014843934 -0.4225463080419336 0 0.47872815218059273 -0.4334631301022519 0 0.48334180842100782 -0.41854287549508168 0 0.47872815218059273 -0.4334631301022519 0 0.5 -0.43099815222025328 0 0.48334180842100782 -0.41854287549508168 0 0.48334180842100782 -0.41854287549508168 0 0.47380000911605458 -0.39723322580152193 0 0.5 -0.40425781061952448 0 0.5 -0.43099815222025328 0 0.48334180842100782 -0.41854287549508168 0 0.5 -0.40425781061952448 0 0.4681386014843934 -0.4225463080419336 0 0.48334180842100782 -0.41854287549508168 0 0.47380000911605458 -0.39723322580152193 0 0.47380000911605458 -0.39723322580152193 0 0.5 -0.40425781061952448 0 0.5 -0.37751746901879579 0 0.47380000911605458 -0.39723322580152193 0 0.5 -0.37751746901879579 0 0.47245538437745122 -0.37565003298762722 0 0.47380000911605458 -0.39723322580152193 0 0.47245538437745122 -0.37565003298762722 0 0.45705683452596291 -0.39609548183266058 0 0.47245538437745122 -0.37565003298762722 0 0.45705683452596291 -0.39609548183266058 0 0.45148177717118348 -0.38026680241257421 0 0.45499778024230342 -0.41275047063931891 0 0.47380000911605458 -0.39723322580152193 0 0.45499778024230342 -0.41275047063931891 0 0.47380000911605458 -0.39723322580152193 0 0.45705683452596291 -0.39609548183266058 0 0.44131673145022088 -0.40690617382049321 0 0.45148177717118348 -0.38026680241257421 0 0.43248817173378767 -0.39042347850849712 0 0.44131673145022088 -0.40690617382049321 0 0.45499778024230342 -0.41275047063931891 0 0.45705683452596291 -0.39609548183266058 0 0.44131673145022088 -0.40690617382049321 0 0.45148177717118348 -0.38026680241257421 0 0.44131673145022088 -0.40690617382049321 0 0.45705683452596291 -0.39609548183266058 0 0.45148177717118348 -0.38026680241257421 0 0.43151829265123448 -0.37293348415709321 0 0.45148177717118348 -0.38026680241257421 0 0.43248817173378767 -0.39042347850849712 0 0.43151829265123448 -0.37293348415709321 0 0.43248817173378767 -0.39042347850849712 0 0.41749678219256348 -0.38683684359053511 0 0.43151829265123448 -0.37293348415709321 0 0.4170336660752953 -0.37144998882358832 0 0.41749678219256348 -0.38683684359053511 0 0.43248817173378767 -0.39042347850849712 0 0.42062727520373622 -0.40517408856178988 0 0.41749678219256348 -0.38683684359053511 0 0.44131673145022088 -0.40690617382049321 0 0.43248817173378767 -0.39042347850849712 0 0.42062727520373622 -0.40517408856178988 0 0.42062727520373622 -0.40517408856178988 0 0.41749678219256348 -0.38683684359053511 0 0.40349653014477638 -0.40080782936869952 0 0.41749678219256348 -0.38683684359053511 0 0.40321592596005817 -0.37796095501956323 0 0.40349653014477638 -0.40080782936869952 0 0.4170336660752953 -0.37144998882358832 0 0.41749678219256348 -0.38683684359053511 0 0.40321592596005817 -0.37796095501956323 0 0.38522986717313429 -0.3724527578816379 0 0.40321592596005817 -0.37796095501956323 0 0.38634166044920659 -0.39642651484631308 0 0.38522986717313429 -0.3724527578816379 0 0.38634166044920659 -0.39642651484631308 0 0.37336233695421739 -0.38512757842983403 0 0.38634166044920659 -0.39642651484631308 0 0.38258855209400489 -0.41623212125570552 0 0.35925924365434181 -0.39837752607005411 0 0.40321592596005817 -0.37796095501956323 0 0.38634166044920659 -0.39642651484631308 0 0.40349653014477638 -0.40080782936869952 0 0.38634166044920659 -0.39642651484631308 0 0.40349653014477638 -0.40080782936869952 0 0.38258855209400489 -0.41623212125570552 0 0.40349653014477638 -0.40080782936869952 0 0.38258855209400489 -0.41623212125570552 0 0.40686740706571811 -0.42126333153850842 0 0.38258855209400489 -0.41623212125570552 0 0.3921282874667778 -0.43822595914413681 0 0.36923644656562388 -0.43521317823629208 0 0.40686740706571811 -0.42126333153850842 0 0.41739332249480121 -0.44378496031491249 0 0.3921282874667778 -0.43822595914413681 0 0.38258855209400489 -0.41623212125570552 0 0.40686740706571811 -0.42126333153850842 0 0.3921282874667778 -0.43822595914413681 0 0.40686740706571811 -0.42126333153850842 0 0.42231268372025149 -0.42200214511499218 0 0.41739332249480121 -0.44378496031491249 0 0.42062727520373622 -0.40517408856178988 0 0.40686740706571811 -0.42126333153850842 0 0.42231268372025149 -0.42200214511499218 0 0.42062727520373622 -0.40517408856178988 0 0.40349653014477638 -0.40080782936869952 0 0.40686740706571811 -0.42126333153850842 0 0.44131673145022088 -0.40690617382049321 0 0.43619555136855231 -0.42826771547711567 0 0.42231268372025149 -0.42200214511499218 0 0.44131673145022088 -0.40690617382049321 0 0.42062727520373622 -0.40517408856178988 0 0.42231268372025149 -0.42200214511499218 0 0.43619555136855231 -0.42826771547711567 0 0.42231268372025149 -0.42200214511499218 0 0.41739332249480121 -0.44378496031491249 0 0.43619555136855231 -0.42826771547711567 0 0.41739332249480121 -0.44378496031491249 0 0.44300232321247579 -0.44717171129354588 0 0.42483266853881102 -0.45924673561612162 0 0.41739332249480121 -0.44378496031491249 0 0.44300232321247579 -0.44717171129354588 0 0.43619555136855231 -0.42826771547711567 0 0.41739332249480121 -0.44378496031491249 0 0.44109461261063831 -0.46472026647219239 0 0.42483266853881102 -0.45924673561612162 0 0.41817915520029542 -0.47506258606058988 0 0.44109461261063831 -0.46472026647219239 0 0.44300232321247579 -0.44717171129354588 0 0.42483266853881102 -0.45924673561612162 0 0.42483266853881102 -0.45924673561612162 0 0.41739332249480121 -0.44378496031491249 0 0.39859109362105011 -0.45930220515270931 0 0.42483266853881102 -0.45924673561612162 0 0.39859109362105011 -0.45930220515270931 0 0.41817915520029542 -0.47506258606058988 0 0.41739332249480121 -0.44378496031491249 0 0.39859109362105011 -0.45930220515270931 0 0.41739332249480121 -0.44378496031491249 0 0.3921282874667778 -0.43822595914413681 0 0.39859109362105011 -0.45930220515270931 0 0.3921282874667778 -0.43822595914413681 0 0.37635885623235538 -0.45702513233815539 0 0.39859109362105011 -0.45930220515270931 0 0.3921282874667778 -0.43822595914413681 0 0.37635885623235538 -0.45702513233815539 0 0.36923644656562388 -0.43521317823629208 0 0.37635885623235538 -0.45702513233815539 0 0.39859109362105011 -0.45930220515270931 0 0.38093842062591821 -0.47959035780411707 0 0.39859109362105011 -0.45930220515270931 0 0.40128841183294212 -0.4823934446527493 0 0.41817915520029542 -0.47506258606058988 0 0.39859109362105011 -0.45930220515270931 0 0.40128841183294212 -0.4823934446527493 0 0.38093842062591821 -0.47959035780411707 0 0.38093842062591821 -0.47959035780411707 0 0.39589880071485239 -0.5 0 0.37042358335155101 -0.5 0 0.40128841183294212 -0.4823934446527493 0 0.38093842062591821 -0.47959035780411707 0 0.39589880071485239 -0.5 0 0.40128841183294212 -0.4823934446527493 0 0.39589880071485239 -0.5 0 0.42137401807815361 -0.5 0 0.40128841183294212 -0.4823934446527493 0 0.42137401807815361 -0.5 0 0.41817915520029542 -0.47506258606058988 0 0.43841263565830269 -0.48513913676128978 0 0.44109461261063831 -0.46472026647219239 0 0.41817915520029542 -0.47506258606058988 0 0.43841263565830269 -0.48513913676128978 0 0.44684923544145472 -0.50000000000000244 0 0.42137401807815361 -0.5 0 0.43841263565830269 -0.48513913676128978 0 0.42137401807815361 -0.5 0 0.41817915520029542 -0.47506258606058988 0 0.32622458056751952 -0.49219413110158861 0 0.30900869410147058 -0.48501689905666789 0 0.31092988131424909 -0.50000000000000155 0 0.32622458056751952 -0.49219413110158861 0 0.30900869410147058 -0.48501689905666789 0 0.32622458056751952 -0.49219413110158861 0 0.3254099479737802 -0.49992254082125342 0 0.31092988131424909 -0.50000000000000155 0 0.32622458056751952 -0.49219413110158861 0 0.3254099479737802 -0.49992254082125342 0 0.32622458056751952 -0.49219413110158861 0 0.31538793135946758 -0.47512474493946127 0 0.32889269575763508 -0.46688175405337867 0 0.32622458056751952 -0.49219413110158861 0 0.32889269575763508 -0.46688175405337867 0 0.32622458056751952 -0.49219413110158861 0 0.31538793135946758 -0.47512474493946127 0 0.30900869410147058 -0.48501689905666789 0 0.32622458056751952 -0.49219413110158861 0 0.33783725083873528 -0.4817347642354981 0 0.32889269575763508 -0.46688175405337867 0 0.33783725083873528 -0.4817347642354981 0 0.34417086228937011 -0.46939264926890628 0 0.32889269575763508 -0.46688175405337867 0 0.32622458056751952 -0.49219413110158861 0 0.3254099479737802 -0.49992254082125342 0 0.34494836598824968 -0.49999999999999911 0 0.32622458056751952 -0.49219413110158861 0 0.33783725083873528 -0.4817347642354981 0 0.34494836598824968 -0.49999999999999911 0 0.32622458056751952 -0.49219413110158861 0 0.34494836598824968 -0.49999999999999911 0 0.34494836598824968 -0.49999999999999911 0 0.3627776254280195 -0.48637780103315681 0 0.34971121049364018 -0.48168065089020018 0 0.33783725083873528 -0.4817347642354981 0 0.34494836598824968 -0.49999999999999911 0 0.34971121049364018 -0.48168065089020018 0 0.34494836598824968 -0.49999999999999911 0 0.37042358335155101 -0.5 0 0.3627776254280195 -0.48637780103315681 0 0.38093842062591821 -0.47959035780411707 0 0.37042358335155101 -0.5 0 0.3627776254280195 -0.48637780103315681 0 0.38093842062591821 -0.47959035780411707 0 0.3627776254280195 -0.48637780103315681 0 0.35944902882110508 -0.47190354448443389 0 0.37635885623235538 -0.45702513233815539 0 0.38093842062591821 -0.47959035780411707 0 0.35944902882110508 -0.47190354448443389 0 0.35944902882110508 -0.47190354448443389 0 0.34417086228937011 -0.46939264926890628 0 0.3627776254280195 -0.48637780103315681 0 0.35944902882110508 -0.47190354448443389 0 0.34971121049364018 -0.48168065089020018 0 0.33783725083873528 -0.4817347642354981 0 0.34971121049364018 -0.48168065089020018 0 0.34417086228937011 -0.46939264926890628 0 0.35944902882110508 -0.47190354448443389 0 0.34971121049364018 -0.48168065089020018 0 0.34417086228937011 -0.46939264926890628 0 0.35944902882110508 -0.47190354448443389 0 0.34417086228937011 -0.46939264926890628 0 0.35625961159110242 -0.45341436510020899 0 0.34417086228937011 -0.46939264926890628 0 0.35625961159110242 -0.45341436510020899 0 0.34204267528187288 -0.45286834674449161 0 0.37635885623235538 -0.45702513233815539 0 0.35944902882110508 -0.47190354448443389 0 0.35625961159110242 -0.45341436510020899 0 0.37635885623235538 -0.45702513233815539 0 0.35625961159110242 -0.45341436510020899 0 0.36923644656562388 -0.43521317823629208 0 0.35625961159110242 -0.45341436510020899 0 0.34204267528187288 -0.45286834674449161 0 0.34923392573876938 -0.43398931185222428 0 0.35625961159110242 -0.45341436510020899 0 0.34923392573876938 -0.43398931185222428 0 0.36923644656562388 -0.43521317823629208 0 0.33165628103248768 -0.44066365344773928 0 0.34204267528187288 -0.45286834674449161 0 0.34923392573876938 -0.43398931185222428 0 0.33165628103248768 -0.44066365344773928 0 0.34204267528187288 -0.45286834674449161 0 0.32889269575763508 -0.46688175405337867 0 0.33165628103248768 -0.44066365344773928 0 0.32889269575763508 -0.46688175405337867 0 0.34417086228937011 -0.46939264926890628 0 0.34204267528187288 -0.45286834674449161 0 0.32889269575763508 -0.46688175405337867 0 0.34417086228937011 -0.46939264926890628 0 0.32889269575763508 -0.46688175405337867 0 0.32889269575763508 -0.46688175405337867 0 0.31551754395841403 -0.44873274557316289 0 0.29975856127064748 -0.462093695306934 0 0.32889269575763508 -0.46688175405337867 0 0.29975856127064748 -0.462093695306934 0 0.31538793135946758 -0.47512474493946127 0 0.32889269575763508 -0.46688175405337867 0 0.29975856127064748 -0.462093695306934 0 0.33165628103248768 -0.44066365344773928 0 0.32889269575763508 -0.46688175405337867 0 0.31551754395841403 -0.44873274557316289 0 0.33165628103248768 -0.44066365344773928 0 0.31551754395841403 -0.44873274557316289 0 0.31499124132335532 -0.42254248584164672 0 0.33165628103248768 -0.44066365344773928 0 0.31499124132335532 -0.42254248584164672 0 0.33441986630733922 -0.41444555284209977 0 0.31499124132335532 -0.42254248584164672 0 0.33441986630733922 -0.41444555284209977 0 0.31705577306289873 -0.39909441545144558 0 0.33165628103248768 -0.44066365344773928 0 0.33441986630733922 -0.41444555284209977 0 0.33165628103248768 -0.44066365344773928 0 0.33441986630733922 -0.41444555284209977 0 0.34923392573876938 -0.43398931185222428 0 0.33441986630733922 -0.41444555284209977 0 0.34923392573876938 -0.43398931185222428 0 0.36015018411318073 -0.41907621910936033 0 0.34923392573876938 -0.43398931185222428 0 0.36923644656562388 -0.43521317823629208 0 0.36015018411318073 -0.41907621910936033 0 0.38258855209400489 -0.41623212125570552 0 0.36923644656562388 -0.43521317823629208 0 0.36015018411318073 -0.41907621910936033 0 0.38258855209400489 -0.41623212125570552 0 0.36015018411318073 -0.41907621910936033 0 0.35925924365434181 -0.39837752607005411 0 0.33441986630733922 -0.41444555284209977 0 0.36015018411318073 -0.41907621910936033 0 0.35925924365434181 -0.39837752607005411 0 0.38634166044920659 -0.39642651484631308 0 0.35925924365434181 -0.39837752607005411 0 0.37336233695421739 -0.38512757842983403 0 0.35925924365434181 -0.39837752607005411 0 0.37336233695421739 -0.38512757842983403 0 0.36265532084701252 -0.37269019154064431 0 0.38522986717313429 -0.3724527578816379 0 0.37336233695421739 -0.38512757842983403 0 0.36265532084701252 -0.37269019154064431 0 0.35925924365434181 -0.39837752607005411 0 0.36265532084701252 -0.37269019154064431 0 0.34220561371288472 -0.37199520232022709 0 0.35925924365434181 -0.39837752607005411 0 0.33740500574829102 -0.39314077532295111 0 0.34220561371288472 -0.37199520232022709 0 0.33740500574829102 -0.39314077532295111 0 0.32155828617277532 -0.37923279847128338 0 0.34220561371288472 -0.37199520232022709 0 0.33441986630733922 -0.41444555284209977 0 0.35925924365434181 -0.39837752607005411 0 0.33740500574829102 -0.39314077532295111 0 0.33441986630733922 -0.41444555284209977 0 0.33740500574829102 -0.39314077532295111 0 0.31705577306289873 -0.39909441545144558 0 0.31705577306289873 -0.39909441545144558 0 0.32155828617277532 -0.37923279847128338 0 0.30195491510233319 -0.38572691749899052 0 0.33740500574829102 -0.39314077532295111 0 0.31705577306289873 -0.39909441545144558 0 0.32155828617277532 -0.37923279847128338 0 0.32155828617277532 -0.37923279847128338 0 0.30195491510233319 -0.38572691749899052 0 0.30380832212093029 -0.36787220397075843 0 0.30195491510233319 -0.38572691749899052 0 0.28953541472479288 -0.37536450083403361 0 0.30380832212093029 -0.36787220397075843 0 0.31705577306289873 -0.39909441545144558 0 0.30195491510233319 -0.38572691749899052 0 0.29459430275830251 -0.40257209323896548 0 0.29459430275830251 -0.40257209323896548 0 0.27109161641447832 -0.39556704776790858 0 0.29459430275830251 -0.40257209323896548 0 0.28673553876942021 -0.38714381263954828 0 0.27109161641447832 -0.39556704776790858 0 0.30195491510233319 -0.38572691749899052 0 0.29459430275830251 -0.40257209323896548 0 0.28673553876942021 -0.38714381263954828 0 0.30195491510233319 -0.38572691749899052 0 0.28673553876942021 -0.38714381263954828 0 0.28953541472479288 -0.37536450083403361 0 0.28673553876942021 -0.38714381263954828 0 0.28953541472479288 -0.37536450083403361 0 0.27650144484719419 -0.37648850385784338 0 0.27650144484719419 -0.37648850385784338 0 0.26072890620209388 -0.37735332967840601 0 0.27109161641447832 -0.39556704776790858 0 0.28673553876942021 -0.38714381263954828 0 0.27650144484719419 -0.37648850385784338 0 0.27109161641447832 -0.39556704776790858 0 0.26072890620209388 -0.37735332967840601 0 0.27109161641447832 -0.39556704776790858 0 0.247588930070654 -0.38856200229685162 0 0.27109161641447832 -0.39556704776790858 0 0.247588930070654 -0.38856200229685162 0 0.27109161641447832 -0.39556704776790858 0 0.25830845723407642 -0.40692736577303767 0 0.247588930070654 -0.38856200229685162 0 0.29459430275830251 -0.40257209323896548 0 0.27109161641447832 -0.39556704776790858 0 0.27644556399741382 -0.40958164536603281 0 0.27109161641447832 -0.39556704776790858 0 0.27644556399741382 -0.40958164536603281 0 0.25830845723407642 -0.40692736577303767 0 0.27644556399741382 -0.40958164536603281 0 0.25830845723407642 -0.40692736577303767 0 0.26408180360421041 -0.42038079669865358 0 0.27644556399741382 -0.40958164536603281 0 0.26408180360421041 -0.42038079669865358 0 0.2810027042760741 -0.42486815658811578 0 0.25830845723407642 -0.40692736577303767 0 0.26408180360421041 -0.42038079669865358 0 0.24906811247889871 -0.42018394575197571 0 0.26408180360421041 -0.42038079669865358 0 0.2551075473088158 -0.43171633652827451 0 0.26833939302840598 -0.43843249540782181 0 0.26408180360421041 -0.42038079669865358 0 0.2551075473088158 -0.43171633652827451 0 0.24906811247889871 -0.42018394575197571 0 0.2810027042760741 -0.42486815658811578 0 0.28477754330372401 -0.44530198736224402 0 0.26833939302840598 -0.43843249540782181 0 0.26408180360421041 -0.42038079669865358 0 0.2810027042760741 -0.42486815658811578 0 0.26833939302840598 -0.43843249540782181 0 0.31499124132335532 -0.42254248584164672 0 0.29459430275830251 -0.40257209323896548 0 0.29839785311940298 -0.43434655689330193 0 0.29459430275830251 -0.40257209323896548 0 0.2810027042760741 -0.42486815658811578 0 0.29839785311940298 -0.43434655689330193 0 0.2810027042760741 -0.42486815658811578 0 0.29839785311940298 -0.43434655689330193 0 0.28477754330372401 -0.44530198736224402 0 0.29459430275830251 -0.40257209323896548 0 0.27644556399741382 -0.40958164536603281 0 0.2810027042760741 -0.42486815658811578 0 0.31499124132335532 -0.42254248584164672 0 0.31705577306289873 -0.39909441545144558 0 0.29459430275830251 -0.40257209323896548 0 0.31551754395841403 -0.44873274557316289 0 0.31499124132335532 -0.42254248584164672 0 0.29839785311940298 -0.43434655689330193 0 0.31551754395841403 -0.44873274557316289 0 0.29839785311940298 -0.43434655689330193 0 0.29975856127064748 -0.462093695306934 0 0.29975856127064748 -0.462093695306934 0 0.28477754330372401 -0.44530198736224402 0 0.27062442678365978 -0.45730563656048923 0 0.29975856127064748 -0.462093695306934 0 0.27062442678365978 -0.45730563656048923 0 0.28284642519685088 -0.46929252365605961 0 0.29975856127064748 -0.462093695306934 0 0.27062442678365978 -0.45730563656048923 0 0.29839785311940298 -0.43434655689330193 0 0.29975856127064748 -0.462093695306934 0 0.28477754330372401 -0.44530198736224402 0 0.28477754330372401 -0.44530198736224402 0 0.26833939302840598 -0.43843249540782181 0 0.27062442678365978 -0.45730563656048923 0 0.26833939302840598 -0.43843249540782181 0 0.25491484266253889 -0.44547503661093141 0 0.27062442678365978 -0.45730563656048923 0 0.2551075473088158 -0.43171633652827451 0 0.26833939302840598 -0.43843249540782181 0 0.25491484266253889 -0.44547503661093141 0 0.25491484266253889 -0.44547503661093141 0 0.27062442678365978 -0.45730563656048923 0 0.24149029229667271 -0.45251757781404278 0 0.26833939302840598 -0.43843249540782181 0 0.25491484266253889 -0.44547503661093141 0 0.27062442678365978 -0.45730563656048923 0 0.24149029229667271 -0.45251757781404278 0 0.27062442678365978 -0.45730563656048923 0 0.2483499169893878 -0.46989664361760047 0 0.24149029229667271 -0.45251757781404278 0 0.27062442678365978 -0.45730563656048923 0 0.26920990509767467 -0.47993109574506798 0 0.28284642519685088 -0.46929252365605961 0 0.27062442678365978 -0.45730563656048923 0 0.26920990509767467 -0.47993109574506798 0 0.2483499169893878 -0.46989664361760047 0 0.26920990509767467 -0.47993109574506798 0 0.2483499169893878 -0.46989664361760047 0 0.26920990509767467 -0.47993109574506798 0 0.24523550702771779 -0.48555234717705442 0 0.2483499169893878 -0.46989664361760047 0 0.26920990509767467 -0.47993109574506798 0 0.2541762558513444 -0.5 0 0.24523550702771779 -0.48555234717705442 0 0.26920990509767467 -0.47993109574506798 0 0.2541762558513444 -0.5 0 0.28255306858279677 -0.5 0 0.26920990509767467 -0.47993109574506798 0 0.2900698932059616 -0.48996554787253538 0 0.26920990509767467 -0.47993109574506798 0 0.28255306858279677 -0.5 0 0.2900698932059616 -0.48996554787253538 0 0.28255306858279677 -0.5 0 0.2900698932059616 -0.48996554787253538 0 0.31092988131424909 -0.50000000000000155 0 0.29975856127064748 -0.462093695306934 0 0.29179280763542181 -0.47783966701174718 0 0.28284642519685088 -0.46929252365605961 0 0.26920990509767467 -0.47993109574506798 0 0.29179280763542181 -0.47783966701174718 0 0.28284642519685088 -0.46929252365605961 0 0.26920990509767467 -0.47993109574506798 0 0.2900698932059616 -0.48996554787253538 0 0.29179280763542181 -0.47783966701174718 0 0.29975856127064748 -0.462093695306934 0 0.29179280763542181 -0.47783966701174718 0 0.30418946683337927 -0.47450905829228568 0 0.31538793135946758 -0.47512474493946127 0 0.29975856127064748 -0.462093695306934 0 0.30418946683337927 -0.47450905829228568 0 0.29179280763542181 -0.47783966701174718 0 0.30900869410147058 -0.48501689905666789 0 0.2900698932059616 -0.48996554787253538 0 0.29179280763542181 -0.47783966701174718 0 0.30900869410147058 -0.48501689905666789 0 0.29179280763542181 -0.47783966701174718 0 0.30418946683337927 -0.47450905829228568 0 0.30900869410147058 -0.48501689905666789 0 0.31538793135946758 -0.47512474493946127 0 0.30418946683337927 -0.47450905829228568 0 0.30900869410147058 -0.48501689905666789 0 0.2900698932059616 -0.48996554787253538 0 0.31092988131424909 -0.50000000000000155 0 0.2900698932059616 -0.48996554787253538 0 0.30900869410147058 -0.48501689905666789 0 0.31092988131424909 -0.50000000000000155 0 0.33134580519080298 -0.30004468467996431 0 0.33742234727513343 -0.27320698021378148 0 0.33134580519080298 -0.30004468467996431 0 0.33742234727513343 -0.27320698021378148 0 0.35562271678303958 -0.28405689675645601 0 0.33134580519080298 -0.30004468467996431 0 0.35251460114368 -0.30296716809521301 0 0.34485735052455457 -0.32291774062742029 0 0.33134580519080298 -0.30004468467996431 0 0.31129127062538592 -0.31540084220286069 0 0.30558649223061318 -0.29834475858818132 0 0.33134580519080298 -0.30004468467996431 0 0.31348954990583178 -0.27822513492316098 0 0.30558649223061318 -0.29834475858818132 0 0.33134580519080298 -0.30004468467996431 0 0.31348954990583178 -0.27822513492316098 0 0.33742234727513343 -0.27320698021378148 0 0.31348954990583178 -0.27822513492316098 0 0.31775413561175558 -0.25357528519619238 0 0.33742234727513343 -0.27320698021378148 0 0.34349888935945311 -0.24636927574759651 0 0.31775413561175558 -0.25357528519619238 0 0.33742234727513343 -0.27320698021378148 0 0.34349888935945311 -0.24636927574759651 0 0.33742234727513343 -0.27320698021378148 0 0.33742234727513343 -0.27320698021378148 0 0.3670365317362248 -0.26724104531623011 0 0.35562271678303958 -0.28405689675645601 0 0.34349888935945311 -0.24636927574759651 0 0.33742234727513343 -0.27320698021378148 0 0.35810798723077902 -0.25360210596606603 0 0.33742234727513343 -0.27320698021378148 0 0.35810798723077902 -0.25360210596606603 0 0.3670365317362248 -0.26724104531623011 0 0.38042246715736172 -0.2509321626324551 0 0.35810798723077902 -0.25360210596606603 0 0.3670365317362248 -0.26724104531623011 0 0.37739707299693331 -0.2793942577831206 0 0.3670365317362248 -0.26724104531623011 0 0.35562271678303958 -0.28405689675645601 0 0.37199997248884548 -0.29419339268505029 0 0.35562271678303958 -0.28405689675645601 0 0.35251460114368 -0.30296716809521301 0 0.37739707299693331 -0.2793942577831206 0 0.37199997248884548 -0.29419339268505029 0 0.35562271678303958 -0.28405689675645601 0 0.33134580519080298 -0.30004468467996431 0 0.35562271678303958 -0.28405689675645601 0 0.35251460114368 -0.30296716809521301 0 0.37199997248884548 -0.29419339268505029 0 0.35251460114368 -0.30296716809521301 0 0.37148926485584349 -0.31542902237567061 0 0.39044459460368219 -0.33140357317753222 0 0.37148926485584349 -0.31542902237567061 0 0.36103617916560471 -0.33465047732347741 0 0.39044459460368219 -0.33140357317753222 0 0.36103617916560471 -0.33465047732347741 0 0.36970547293014538 -0.35306700271307051 0 0.36103617916560471 -0.33465047732347741 0 0.34485735052455457 -0.32291774062742029 0 0.33162776372752711 -0.33789738146942261 0 0.36103617916560471 -0.33465047732347741 0 0.33162776372752711 -0.33789738146942261 0 0.36103617916560471 -0.33465047732347741 0 0.34758969826835229 -0.3537304284961108 0 0.33162776372752711 -0.33789738146942261 0 0.35251460114368 -0.30296716809521301 0 0.37148926485584349 -0.31542902237567061 0 0.34485735052455457 -0.32291774062742029 0 0.37148926485584349 -0.31542902237567061 0 0.36103617916560471 -0.33465047732347741 0 0.34485735052455457 -0.32291774062742029 0 0.38522986717313429 -0.3724527578816379 0 0.36265532084701252 -0.37269019154064431 0 0.36970547293014538 -0.35306700271307051 0 0.36265532084701252 -0.37269019154064431 0 0.36970547293014538 -0.35306700271307051 0 0.34758969826835229 -0.3537304284961108 0 0.36103617916560471 -0.33465047732347741 0 0.36970547293014538 -0.35306700271307051 0 0.34758969826835229 -0.3537304284961108 0 0.36265532084701252 -0.37269019154064431 0 0.34758969826835229 -0.3537304284961108 0 0.34220561371288472 -0.37199520232022709 0 0.32155828617277532 -0.37923279847128338 0 0.34220561371288472 -0.37199520232022709 0 0.32267181615787699 -0.36174257208188332 0 0.34220561371288472 -0.37199520232022709 0 0.33343519075219741 -0.35289703250625482 0 0.32267181615787699 -0.36174257208188332 0 0.34758969826835229 -0.3537304284961108 0 0.34220561371288472 -0.37199520232022709 0 0.33343519075219741 -0.35289703250625482 0 0.34758969826835229 -0.3537304284961108 0 0.33343519075219741 -0.35289703250625482 0 0.33162776372752711 -0.33789738146942261 0 0.33343519075219741 -0.35289703250625482 0 0.32198799775242248 -0.34663461408253449 0 0.33162776372752711 -0.33789738146942261 0 0.32198799775242248 -0.34663461408253449 0 0.31233800273046419 -0.34168981845339202 0 0.30903159839039562 -0.35338600029003642 0 0.32198799775242248 -0.34663461408253449 0 0.32267181615787699 -0.36174257208188332 0 0.30903159839039562 -0.35338600029003642 0 0.33343519075219741 -0.35289703250625482 0 0.32198799775242248 -0.34663461408253449 0 0.32267181615787699 -0.36174257208188332 0 0.32155828617277532 -0.37923279847128338 0 0.32267181615787699 -0.36174257208188332 0 0.30380832212093029 -0.36787220397075843 0 0.33134580519080298 -0.30004468467996431 0 0.32526926310647247 -0.32688238914614692 0 0.33134580519080298 -0.30004468467996431 0 0.34485735052455457 -0.32291774062742029 0 0.32526926310647247 -0.32688238914614692 0 0.34485735052455457 -0.32291774062742029 0 0.33162776372752711 -0.33789738146942261 0 0.32526926310647247 -0.32688238914614692 0 0.33162776372752711 -0.33789738146942261 0 0.32113954230022113 -0.33649934204699328 0 0.32526926310647247 -0.32688238914614692 0 0.32198799775242248 -0.34663461408253449 0 0.33162776372752711 -0.33789738146942261 0 0.32113954230022113 -0.33649934204699328 0 0.32198799775242248 -0.34663461408253449 0 0.32113954230022113 -0.33649934204699328 0 0.31233800273046419 -0.34168981845339202 0 0.32113954230022113 -0.33649934204699328 0 0.3121996034144372 -0.33048639587011758 0 0.31233800273046419 -0.34168981845339202 0 0.32113954230022113 -0.33649934204699328 0 0.32526926310647247 -0.32688238914614692 0 0.3121996034144372 -0.33048639587011758 0 0.33134580519080298 -0.30004468467996431 0 0.32526926310647247 -0.32688238914614692 0 0.31129127062538592 -0.31540084220286069 0 0.32526926310647247 -0.32688238914614692 0 0.31129127062538592 -0.31540084220286069 0 0.3121996034144372 -0.33048639587011758 0 0.31129127062538592 -0.31540084220286069 0 0.30028039693234998 -0.32560709399759508 0 0.29175991194600392 -0.31027817210435021 0 0.31129127062538592 -0.31540084220286069 0 0.30028039693234998 -0.32560709399759508 0 0.3121996034144372 -0.33048639587011758 0 0.3121996034144372 -0.33048639587011758 0 0.31233800273046419 -0.34168981845339202 0 0.29847297889970742 -0.33925350413035099 0 0.30028039693234998 -0.32560709399759508 0 0.3121996034144372 -0.33048639587011758 0 0.29847297889970742 -0.33925350413035099 0 0.30028039693234998 -0.32560709399759508 0 0.29847297889970742 -0.33925350413035099 0 0.28691637395816788 -0.32419778276336519 0 0.29847297889970742 -0.33925350413035099 0 0.28270526012022212 -0.34883390959551119 0 0.28011318478740271 -0.33591475318327901 0 0.29847297889970742 -0.33925350413035099 0 0.28691637395816788 -0.32419778276336519 0 0.28011318478740271 -0.33591475318327901 0 0.28691637395816788 -0.32419778276336519 0 0.27713449976423532 -0.31542267608515889 0 0.29175991194600392 -0.31027817210435021 0 0.30028039693234998 -0.32560709399759508 0 0.28691637395816788 -0.32419778276336519 0 0.29175991194600392 -0.31027817210435021 0 0.32267181615787699 -0.36174257208188332 0 0.30380832212093029 -0.36787220397075843 0 0.30903159839039562 -0.35338600029003642 0 0.30380832212093029 -0.36787220397075843 0 0.30903159839039562 -0.35338600029003642 0 0.29487469440909703 -0.3517706658610148 0 0.31233800273046419 -0.34168981845339202 0 0.29847297889970742 -0.33925350413035099 0 0.30903159839039562 -0.35338600029003642 0 0.29847297889970742 -0.33925350413035099 0 0.30903159839039562 -0.35338600029003642 0 0.29487469440909703 -0.3517706658610148 0 0.29847297889970742 -0.33925350413035099 0 0.28270526012022212 -0.34883390959551119 0 0.29487469440909703 -0.3517706658610148 0 0.28270526012022212 -0.34883390959551119 0 0.29487469440909703 -0.3517706658610148 0 0.28515718029878179 -0.36204941281346043 0 0.30380832212093029 -0.36787220397075843 0 0.29487469440909703 -0.3517706658610148 0 0.28515718029878179 -0.36204941281346043 0 0.28953541472479288 -0.37536450083403361 0 0.30380832212093029 -0.36787220397075843 0 0.28515718029878179 -0.36204941281346043 0 0.28953541472479288 -0.37536450083403361 0 0.27650144484719419 -0.37648850385784338 0 0.28515718029878179 -0.36204941281346043 0 0.27650144484719419 -0.37648850385784338 0 0.26072890620209388 -0.37735332967840601 0 0.26731815966871891 -0.3583712390257956 0 0.27650144484719419 -0.37648850385784338 0 0.28515718029878179 -0.36204941281346043 0 0.26731815966871891 -0.3583712390257956 0 0.28270526012022212 -0.34883390959551119 0 0.26731815966871891 -0.3583712390257956 0 0.26225210920119202 -0.34075298106202129 0 0.28270526012022212 -0.34883390959551119 0 0.28515718029878179 -0.36204941281346043 0 0.26731815966871891 -0.3583712390257956 0 0.26731815966871891 -0.3583712390257956 0 0.26225210920119202 -0.34075298106202129 0 0.24280427136988719 -0.35541633036860681 0 0.26072890620209388 -0.37735332967840601 0 0.24280427136988719 -0.35541633036860681 0 0.26072890620209388 -0.37735332967840601 0 0.26731815966871891 -0.3583712390257956 0 0.24280427136988719 -0.35541633036860681 0 0.28691637395816788 -0.32419778276336519 0 0.27025219176556953 -0.32628182985967569 0 0.27713449976423532 -0.31542267608515889 0 0.27025219176556953 -0.32628182985967569 0 0.27713449976423532 -0.31542267608515889 0 0.26406234487108798 -0.31240687417538082 0 0.28691637395816788 -0.32419778276336519 0 0.27025219176556953 -0.32628182985967569 0 0.28011318478740271 -0.33591475318327901 0 0.27025219176556953 -0.32628182985967569 0 0.28011318478740271 -0.33591475318327901 0 0.26225210920119202 -0.34075298106202129 0 0.28270526012022212 -0.34883390959551119 0 0.28011318478740271 -0.33591475318327901 0 0.26225210920119202 -0.34075298106202129 0 0.27025219176556953 -0.32628182985967569 0 0.26225210920119202 -0.34075298106202129 0 0.24924088344910481 -0.32106395363119161 0 0.26225210920119202 -0.34075298106202129 0 0.24924088344910481 -0.32106395363119161 0 0.24479422513946611 -0.33767814903015692 0 0.27025219176556953 -0.32628182985967569 0 0.26406234487108798 -0.31240687417538082 0 0.24924088344910481 -0.32106395363119161 0 0.25410294836481923 -0.29844697569090439 0 0.26406234487108798 -0.31240687417538082 0 0.24924088344910481 -0.32106395363119161 0 0.25410294836481923 -0.29844697569090439 0 0.26406234487108798 -0.31240687417538082 0 0.27376420222457237 -0.30152783728571669 0 0.25410294836481923 -0.29844697569090439 0 0.2673551517156979 -0.28515755056202768 0 0.27376420222457237 -0.30152783728571669 0 0.25410294836481923 -0.29844697569090439 0 0.2673551517156979 -0.28515755056202768 0 0.24051987436866751 -0.2751933135419955 0 0.2673551517156979 -0.28515755056202768 0 0.28665509572862519 -0.2918631248515951 0 0.28213310933306213 -0.27634365895258239 0 0.2673551517156979 -0.28515755056202768 0 0.27376420222457237 -0.30152783728571669 0 0.28665509572862519 -0.2918631248515951 0 0.27713449976423532 -0.31542267608515889 0 0.27376420222457237 -0.30152783728571669 0 0.29175991194600392 -0.31027817210435021 0 0.27713449976423532 -0.31542267608515889 0 0.26406234487108798 -0.31240687417538082 0 0.27376420222457237 -0.30152783728571669 0 0.27376420222457237 -0.30152783728571669 0 0.29175991194600392 -0.31027817210435021 0 0.28665509572862519 -0.2918631248515951 0 0.29175991194600392 -0.31027817210435021 0 0.28665509572862519 -0.2918631248515951 0 0.30558649223061318 -0.29834475858818132 0 0.28665509572862519 -0.2918631248515951 0 0.30558649223061318 -0.29834475858818132 0 0.29597472581243839 -0.28111159439206262 0 0.28665509572862519 -0.2918631248515951 0 0.29597472581243839 -0.28111159439206262 0 0.28213310933306213 -0.27634365895258239 0 0.31348954990583178 -0.27822513492316098 0 0.30558649223061318 -0.29834475858818132 0 0.29597472581243839 -0.28111159439206262 0 0.31129127062538592 -0.31540084220286069 0 0.29175991194600392 -0.31027817210435021 0 0.30558649223061318 -0.29834475858818132 0 0.31775413561175558 -0.25357528519619238 0 0.29200938186405961 -0.26078129464479338 0 0.31348954990583178 -0.27822513492316098 0 0.31775413561175558 -0.25357528519619238 0 0.29200938186405961 -0.26078129464479338 0 0.29480803106572878 -0.23764551999912459 0 0.31775413561175558 -0.25357528519619238 0 0.29200938186405961 -0.26078129464479338 0 0.31348954990583178 -0.27822513492316098 0 0.29597472581243839 -0.28111159439206262 0 0.29200938186405961 -0.26078129464479338 0 0.29597472581243839 -0.28111159439206262 0 0.28213310933306213 -0.27634365895258239 0 0.29200938186405961 -0.26078129464479338 0 0.28137194016209788 -0.2472511684138568 0 0.29200938186405961 -0.26078129464479338 0 0.2717132076793175 -0.26149646127198323 0 0.29200938186405961 -0.26078129464479338 0 0.26626462811636348 -0.2679873040933945 0 0.29200938186405961 -0.26078129464479338 0 0.2717132076793175 -0.26149646127198323 0 0.26626462811636348 -0.2679873040933945 0 0.2717132076793175 -0.26149646127198323 0 0.26626462811636348 -0.2679873040933945 0 0.26019362703016369 -0.25781353589123412 0 0.28213310933306213 -0.27634365895258239 0 0.29200938186405961 -0.26078129464479338 0 0.26626462811636348 -0.2679873040933945 0 0.2673551517156979 -0.28515755056202768 0 0.28213310933306213 -0.27634365895258239 0 0.26626462811636348 -0.2679873040933945 0 0.2673551517156979 -0.28515755056202768 0 0.26626462811636348 -0.2679873040933945 0 0.24051987436866751 -0.2751933135419955 0 0.26626462811636348 -0.2679873040933945 0 0.24051987436866751 -0.2751933135419955 0 0.26626462811636348 -0.2679873040933945 0 0.25073732928497061 -0.26179367332510201 0 0.24051987436866751 -0.2751933135419955 0 0.26082319034914581 -0.24804312499437539 0 0.2717132076793175 -0.26149646127198323 0 0.26019362703016369 -0.25781353589123412 0 0.26626462811636348 -0.2679873040933945 0 0.26019362703016369 -0.25781353589123412 0 0.25073732928497061 -0.26179367332510201 0 0.25039127449398407 -0.24989370801593011 0 0.26019362703016369 -0.25781353589123412 0 0.25073732928497061 -0.26179367332510201 0 0.26082319034914581 -0.24804312499437539 0 0.25039127449398407 -0.24989370801593011 0 0.26019362703016369 -0.25781353589123412 0 0.25073732928497061 -0.26179367332510201 0 0.23631724241567431 -0.25808050508295588 0 0.24051987436866751 -0.2751933135419955 0 0.25039127449398407 -0.24989370801593011 0 0.25073732928497061 -0.26179367332510201 0 0.23631724241567431 -0.25808050508295588 0 0.23631724241567431 -0.25808050508295588 0 0.24051987436866751 -0.2751933135419955 0 0.22121437777098049 -0.26640271091817069 0 0.24051987436866751 -0.2751933135419955 0 0.21477512062097129 -0.28239932299059661 0 0.24051987436866751 -0.2751933135419955 0 0.22121437777098049 -0.26640271091817069 0 0.21477512062097129 -0.28239932299059661 0 0.23631724241567431 -0.25808050508295588 0 0.22121437777098049 -0.26640271091817069 0 0.2211213103932321 -0.2491589593280199 0 0.22121437777098049 -0.26640271091817069 0 0.2048141114297542 -0.25902610868195503 0 0.2211213103932321 -0.2491589593280199 0 0.22121437777098049 -0.26640271091817069 0 0.2048141114297542 -0.25902610868195503 0 0.19947326342044119 -0.27732257601717392 0 0.22121437777098049 -0.26640271091817069 0 0.19947326342044119 -0.27732257601717392 0 0.21477512062097129 -0.28239932299059661 0 0.19947326342044119 -0.27732257601717392 0 0.1859533258564201 -0.25627726493157033 0 0.1853556847974018 -0.28510808611220528 0 0.2048141114297542 -0.25902610868195503 0 0.19947326342044119 -0.27732257601717392 0 0.1859533258564201 -0.25627726493157033 0 0.2048141114297542 -0.25902610868195503 0 0.1859533258564201 -0.25627726493157033 0 0.2048330354356461 -0.23979339380446221 0 0.18903036687327651 -0.28960533243920211 0 0.20695500170547401 -0.31154233174900853 0 0.18490694631705601 -0.3067556932981188 0 0.18903036687327651 -0.28960533243920211 0 0.20695500170547401 -0.31154233174900853 0 0.18903036687327651 -0.28960533243920211 0 0.20965325890731451 -0.29650769563188523 0 0.20695500170547401 -0.31154233174900853 0 0.19947326342044119 -0.27732257601717392 0 0.18903036687327651 -0.28960533243920211 0 0.21477512062097129 -0.28239932299059661 0 0.18903036687327651 -0.28960533243920211 0 0.21477512062097129 -0.28239932299059661 0 0.19947326342044119 -0.27732257601717392 0 0.18903036687327651 -0.28960533243920211 0 0.1853556847974018 -0.28510808611220528 0 0.21477512062097129 -0.28239932299059661 0 0.20965325890731451 -0.29650769563188523 0 0.22785254642953751 -0.30248379534873832 0 0.18903036687327651 -0.28960533243920211 0 0.21477512062097129 -0.28239932299059661 0 0.20965325890731451 -0.29650769563188523 0 0.20965325890731451 -0.29650769563188523 0 0.20695500170547401 -0.31154233174900853 0 0.22785254642953751 -0.30248379534873832 0 0.24051987436866751 -0.2751933135419955 0 0.21477512062097129 -0.28239932299059661 0 0.22785254642953751 -0.30248379534873832 0 0.25410294836481923 -0.29844697569090439 0 0.24051987436866751 -0.2751933135419955 0 0.22785254642953751 -0.30248379534873832 0 0.25410294836481923 -0.29844697569090439 0 0.22785254642953751 -0.30248379534873832 0 0.24924088344910481 -0.32106395363119161 0 0.24924088344910481 -0.32106395363119161 0 0.24479422513946611 -0.33767814903015692 0 0.22487963653768059 -0.33347933105880773 0 0.24479422513946611 -0.33767814903015692 0 0.22487963653768059 -0.33347933105880773 0 0.24280427136988719 -0.35541633036860681 0 0.22785254642953751 -0.30248379534873832 0 0.24924088344910481 -0.32106395363119161 0 0.22487963653768059 -0.33347933105880773 0 0.20695500170547401 -0.31154233174900853 0 0.22785254642953751 -0.30248379534873832 0 0.22487963653768059 -0.33347933105880773 0 0.26072890620209388 -0.37735332967840601 0 0.24016443202273069 -0.37384004815211108 0 0.24280427136988719 -0.35541633036860681 0 0.24016443202273069 -0.37384004815211108 0 0.24280427136988719 -0.35541633036860681 0 0.22660007603868501 -0.36480995988193338 0 0.26225210920119202 -0.34075298106202129 0 0.24479422513946611 -0.33767814903015692 0 0.24280427136988719 -0.35541633036860681 0 0.22487963653768059 -0.33347933105880773 0 0.24280427136988719 -0.35541633036860681 0 0.22487963653768059 -0.33347933105880773 0 0.24280427136988719 -0.35541633036860681 0 0.21700266453967379 -0.34824675128154281 0 0.24280427136988719 -0.35541633036860681 0 0.22660007603868501 -0.36480995988193338 0 0.21700266453967379 -0.34824675128154281 0 0.22660007603868501 -0.36480995988193338 0 0.2109153031232967 -0.36198638936368571 0 0.22408624372682981 -0.38155695682579471 0 0.24016443202273069 -0.37384004815211108 0 0.22660007603868501 -0.36480995988193338 0 0.22408624372682981 -0.38155695682579471 0 0.2109153031232967 -0.36198638936368571 0 0.22408624372682981 -0.38155695682579471 0 0.2109153031232967 -0.36198638936368571 0 0.19959656517642779 -0.37056652653384381 0 0.21194856608894769 -0.37793928595521598 0 0.2109153031232967 -0.36198638936368571 0 0.22408624372682981 -0.38155695682579471 0 0.21194856608894769 -0.37793928595521598 0 0.2109153031232967 -0.36198638936368571 0 0.2014058600287591 -0.35805658027812748 0 0.19959656517642779 -0.37056652653384381 0 0.2109153031232967 -0.36198638936368571 0 0.19774436251976379 -0.34241582190157649 0 0.2109153031232967 -0.36198638936368571 0 0.2014058600287591 -0.35805658027812748 0 0.19774436251976379 -0.34241582190157649 0 0.22660007603868501 -0.36480995988193338 0 0.2109153031232967 -0.36198638936368571 0 0.21700266453967379 -0.34824675128154281 0 0.2109153031232967 -0.36198638936368571 0 0.21700266453967379 -0.34824675128154281 0 0.19774436251976379 -0.34241582190157649 0 0.19680924325647409 -0.34885092866263001 0 0.2014058600287591 -0.35805658027812748 0 0.19774436251976379 -0.34241582190157649 0 0.19680924325647409 -0.34885092866263001 0 0.18810435998225941 -0.34760919834392928 0 0.18425269294686331 -0.33831755076794612 0 0.18810435998225941 -0.34760919834392928 0 0.19219468245116619 -0.35253015180632302 0 0.18401081486589799 -0.34998599890203203 0 0.19680924325647409 -0.34885092866263001 0 0.18810435998225941 -0.34760919834392928 0 0.19219468245116619 -0.35253015180632302 0 0.19219468245116619 -0.35253015180632302 0 0.2014058600287591 -0.35805658027812748 0 0.19187284011706451 -0.3613477431669197 0 0.19219468245116619 -0.35253015180632302 0 0.19187284011706451 -0.3613477431669197 0 0.18401081486589799 -0.34998599890203203 0 0.19680924325647409 -0.34885092866263001 0 0.19219468245116619 -0.35253015180632302 0 0.2014058600287591 -0.35805658027812748 0 0.19187284011706451 -0.3613477431669197 0 0.19959656517642779 -0.37056652653384381 0 0.18347084657675811 -0.37603462617166361 0 0.2014058600287591 -0.35805658027812748 0 0.19187284011706451 -0.3613477431669197 0 0.19959656517642779 -0.37056652653384381 0 0.20695500170547401 -0.31154233174900853 0 0.2082738828703396 -0.33395157606503029 0 0.1983370169453651 -0.32511281496056332 0 0.20695500170547401 -0.31154233174900853 0 0.22487963653768059 -0.33347933105880773 0 0.2082738828703396 -0.33395157606503029 0 0.20695500170547401 -0.31154233174900853 0 0.22487963653768059 -0.33347933105880773 0 0.22487963653768059 -0.33347933105880773 0 0.21700266453967379 -0.34824675128154281 0 0.2082738828703396 -0.33395157606503029 0 0.21700266453967379 -0.34824675128154281 0 0.2082738828703396 -0.33395157606503029 0 0.19774436251976379 -0.34241582190157649 0 0.2082738828703396 -0.33395157606503029 0 0.19774436251976379 -0.34241582190157649 0 0.1983370169453651 -0.32511281496056332 0 0.19774436251976379 -0.34241582190157649 0 0.1845734219162298 -0.32284525443946799 0 0.18425269294686331 -0.33831755076794612 0 0.19774436251976379 -0.34241582190157649 0 0.1845734219162298 -0.32284525443946799 0 0.19774436251976379 -0.34241582190157649 0 0.1983370169453651 -0.32511281496056332 0 0.1845734219162298 -0.32284525443946799 0 0.19680924325647409 -0.34885092866263001 0 0.18425269294686331 -0.33831755076794612 0 0.19680924325647409 -0.34885092866263001 0 0.19774436251976379 -0.34241582190157649 0 0.18425269294686331 -0.33831755076794612 0 0.1983370169453651 -0.32511281496056332 0 0.1845734219162298 -0.32284525443946799 0 0.18490694631705601 -0.3067556932981188 0 0.20695500170547401 -0.31154233174900853 0 0.1983370169453651 -0.32511281496056332 0 0.18490694631705601 -0.3067556932981188 0 0.1845734219162298 -0.32284525443946799 0 0.17551447980917001 -0.30938466396394571 0 0.1845734219162298 -0.32284525443946799 0 0.16308005112817411 -0.32055634790522303 0 0.17551447980917001 -0.30938466396394571 0 0.1845734219162298 -0.32284525443946799 0 0.18490694631705601 -0.3067556932981188 0 0.17551447980917001 -0.30938466396394571 0 0.1845734219162298 -0.32284525443946799 0 0.18425269294686331 -0.33831755076794612 0 0.16308005112817411 -0.32055634790522303 0 0.1845734219162298 -0.32284525443946799 0 0.18490694631705601 -0.3067556932981188 0 0.18425269294686331 -0.33831755076794612 0 0.16308005112817411 -0.32055634790522303 0 0.1845734219162298 -0.32284525443946799 0 0.18425269294686331 -0.33831755076794612 0 0.16763801257919639 -0.34338274619914377 0 0.16308005112817411 -0.32055634790522303 0 0.14427599376702699 -0.34556527269895743 0 0.18425269294686331 -0.33831755076794612 0 0.16763801257919639 -0.34338274619914377 0 0.16308005112817411 -0.32055634790522303 0 0.18401081486589799 -0.34998599890203203 0 0.1639015022358826 -0.36166189940477078 0 0.18347084657675811 -0.37603462617166361 0 0.19187284011706451 -0.3613477431669197 0 0.18401081486589799 -0.34998599890203203 0 0.18347084657675811 -0.37603462617166361 0 0.18401081486589799 -0.34998599890203203 0 0.18347084657675811 -0.37603462617166361 0 0.18425269294686331 -0.33831755076794612 0 0.16763801257919639 -0.34338274619914377 0 0.18401081486589799 -0.34998599890203203 0 0.18401081486589799 -0.34998599890203203 0 0.1639015022358826 -0.36166189940477078 0 0.18810435998225941 -0.34760919834392928 0 0.18425269294686331 -0.33831755076794612 0 0.18401081486589799 -0.34998599890203203 0 0.18425269294686331 -0.33831755076794612 0 0.18401081486589799 -0.34998599890203203 0 0.18810435998225941 -0.34760919834392928 0 0.18401081486589799 -0.34998599890203203 0 0.16763801257919639 -0.34338274619914377 0 0.18401081486589799 -0.34998599890203203 0 0.1639015022358826 -0.36166189940477078 0 0.16763801257919639 -0.34338274619914377 0 0.1639015022358826 -0.36166189940477078 0 0.14427599376702699 -0.34556527269895743 0 0.1639015022358826 -0.36166189940477078 0 0.18347084657675811 -0.37603462617166361 0 0.16173454447914309 -0.38148246462979157 0 0.1639015022358826 -0.36166189940477078 0 0.14379218960586679 -0.37333779990750893 0 0.16173454447914309 -0.38148246462979157 0 0.1639015022358826 -0.36166189940477078 0 0.14379218960586679 -0.37333779990750893 0 0.14427599376702699 -0.34556527269895743 0 0.1639015022358826 -0.36166189940477078 0 0.14379218960586679 -0.37333779990750893 0 0.14427599376702699 -0.34556527269895743 0 0.11670984037207539 -0.33555382011822987 0 0.12019635867396369 -0.36028376026423847 0 0.14379218960586679 -0.37333779990750893 0 0.14427599376702699 -0.34556527269895743 0 0.12019635867396369 -0.36028376026423847 0 0.14379218960586679 -0.37333779990750893 0 0.12368287697585111 -0.38501370041024707 0 0.12019635867396369 -0.36028376026423847 0 0.16308005112817411 -0.32055634790522303 0 0.13527949779796189 -0.32376720443519319 0 0.1419074093094764 -0.30279514504251009 0 0.16308005112817411 -0.32055634790522303 0 0.14427599376702699 -0.34556527269895743 0 0.13527949779796189 -0.32376720443519319 0 0.14427599376702699 -0.34556527269895743 0 0.13527949779796189 -0.32376720443519319 0 0.11670984037207539 -0.33555382011822987 0 0.1419074093094764 -0.30279514504251009 0 0.1132233220702004 -0.31082387997221927 0 0.13527949779796189 -0.32376720443519319 0 0.1419074093094764 -0.30279514504251009 0 0.1132233220702004 -0.31082387997221927 0 0.1419074093094764 -0.30279514504251009 0 0.16645553770210031 -0.29592407348843008 0 0.16308005112817411 -0.32055634790522303 0 0.1419074093094764 -0.30279514504251009 0 0.161739369487231 -0.30716505760002999 0 0.16308005112817411 -0.32055634790522303 0 0.1419074093094764 -0.30279514504251009 0 0.1432549415986106 -0.28618876454712788 0 0.15687054744851961 -0.28168183339121972 0 0.16645553770210031 -0.29592407348843008 0 0.1419074093094764 -0.30279514504251009 0 0.1432549415986106 -0.28618876454712788 0 0.16645553770210031 -0.29592407348843008 0 0.1432549415986106 -0.28618876454712788 0 0.14596572792800699 -0.27732318457291871 0 0.15687054744851961 -0.28168183339121972 0 0.1419074093094764 -0.30279514504251009 0 0.1432549415986106 -0.28618876454712788 0 0.1188668799176622 -0.28346701773098282 0 0.1419074093094764 -0.30279514504251009 0 0.1188668799176622 -0.28346701773098282 0 0.13757577414847849 -0.27160489613457328 0 0.1188668799176622 -0.28346701773098282 0 0.13757577414847849 -0.27160489613457328 0 0.12333783748076731 -0.26381910548914522 0 0.1188668799176622 -0.28346701773098282 0 0.1432549415986106 -0.28618876454712788 0 0.13757577414847849 -0.27160489613457328 0 0.1188668799176622 -0.28346701773098282 0 0.1386522838832262 -0.25990533652016029 0 0.12333783748076731 -0.26381910548914522 0 0.13331006931279599 -0.24555192327291309 0 0.13757577414847849 -0.27160489613457328 0 0.1386522838832262 -0.25990533652016029 0 0.12333783748076731 -0.26381910548914522 0 0.15388576897399511 -0.25446663194545421 0 0.14728555719493 -0.26743959329401529 0 0.15709702533061129 -0.27087915694819592 0 0.1386522838832262 -0.25990533652016029 0 0.15388576897399511 -0.25446663194545421 0 0.13331006931279599 -0.24555192327291309 0 0.1386522838832262 -0.25990533652016029 0 0.15388576897399511 -0.25446663194545421 0 0.14728555719493 -0.26743959329401529 0 0.1432549415986106 -0.28618876454712788 0 0.13757577414847849 -0.27160489613457328 0 0.14596572792800699 -0.27732318457291871 0 0.13757577414847849 -0.27160489613457328 0 0.1386522838832262 -0.25990533652016029 0 0.14728555719493 -0.26743959329401529 0 0.13757577414847849 -0.27160489613457328 0 0.14596572792800699 -0.27732318457291871 0 0.14728555719493 -0.26743959329401529 0 0.14728555719493 -0.26743959329401529 0 0.15709702533061129 -0.27087915694819592 0 0.15687054744851961 -0.28168183339121972 0 0.14596572792800699 -0.27732318457291871 0 0.14728555719493 -0.26743959329401529 0 0.15687054744851961 -0.28168183339121972 0 0.14728555719493 -0.26743959329401529 0 0.15687054744851961 -0.28168183339121972 0 0.15709702533061129 -0.27087915694819592 0 0.16774294085704969 -0.27843211124580569 0 0.15687054744851961 -0.28168183339121972 0 0.15709702533061129 -0.27087915694819592 0 0.16774294085704969 -0.27843211124580569 0 0.1646048863562051 -0.2647584487373022 0 0.16774294085704969 -0.27843211124580569 0 0.1646048863562051 -0.2647584487373022 0 0.17359063427616181 -0.26571297316246728 0 0.15388576897399511 -0.25446663194545421 0 0.1646048863562051 -0.2647584487373022 0 0.17061020394528689 -0.25171616220673199 0 0.15388576897399511 -0.25446663194545421 0 0.15709702533061129 -0.27087915694819592 0 0.1646048863562051 -0.2647584487373022 0 0.1646048863562051 -0.2647584487373022 0 0.17061020394528689 -0.25171616220673199 0 0.17359063427616181 -0.26571297316246728 0 0.17061020394528689 -0.25171616220673199 0 0.1859533258564201 -0.25627726493157033 0 0.17359063427616181 -0.26571297316246728 0 0.1859533258564201 -0.25627726493157033 0 0.17904181436584701 -0.2773808786909262 0 0.17359063427616181 -0.26571297316246728 0 0.1859533258564201 -0.25627726493157033 0 0.1853556847974018 -0.28510808611220528 0 0.1859533258564201 -0.25627726493157033 0 0.17904181436584701 -0.2773808786909262 0 0.1853556847974018 -0.28510808611220528 0 0.16774294085704969 -0.27843211124580569 0 0.17904181436584701 -0.2773808786909262 0 0.17359063427616181 -0.26571297316246728 0 0.16774294085704969 -0.27843211124580569 0 0.17904181436584701 -0.2773808786909262 0 0.17522904049562471 -0.28687371506374271 0 0.17904181436584701 -0.2773808786909262 0 0.1853556847974018 -0.28510808611220528 0 0.17522904049562471 -0.28687371506374271 0 0.1852404707179123 -0.29066613215677028 0 0.16645553770210031 -0.29592407348843008 0 0.1852404707179123 -0.29066613215677028 0 0.16645553770210031 -0.29592407348843008 0 0.17904181436584701 -0.2773808786909262 0 0.1853556847974018 -0.28510808611220528 0 0.17522904049562471 -0.28687371506374271 0 0.1853556847974018 -0.28510808611220528 0 0.17522904049562471 -0.28687371506374271 0 0.1852404707179123 -0.29066613215677028 0 0.18903036687327651 -0.28960533243920211 0 0.1852404707179123 -0.29066613215677028 0 0.18490694631705601 -0.3067556932981188 0 0.18903036687327651 -0.28960533243920211 0 0.1853556847974018 -0.28510808611220528 0 0.1852404707179123 -0.29066613215677028 0 0.1853556847974018 -0.28510808611220528 0 0.1852404707179123 -0.29066613215677028 0 0.18903036687327651 -0.28960533243920211 0 0.1853556847974018 -0.28510808611220528 0 0.18903036687327651 -0.28960533243920211 0 0.1852404707179123 -0.29066613215677028 0 0.1852404707179123 -0.29066613215677028 0 0.17551447980917001 -0.30938466396394571 0 0.16645553770210031 -0.29592407348843008 0 0.1852404707179123 -0.29066613215677028 0 0.18490694631705601 -0.3067556932981188 0 0.17551447980917001 -0.30938466396394571 0 0.1852404707179123 -0.29066613215677028 0 0.18490694631705601 -0.3067556932981188 0 0.1419074093094764 -0.30279514504251009 0 0.161739369487231 -0.30716505760002999 0 0.16645553770210031 -0.29592407348843008 0 0.17551447980917001 -0.30938466396394571 0 0.161739369487231 -0.30716505760002999 0 0.16645553770210031 -0.29592407348843008 0 0.17551447980917001 -0.30938466396394571 0 0.16645553770210031 -0.29592407348843008 0 0.16308005112817411 -0.32055634790522303 0 0.17551447980917001 -0.30938466396394571 0 0.161739369487231 -0.30716505760002999 0 0.16774294085704969 -0.27843211124580569 0 0.17522904049562471 -0.28687371506374271 0 0.16645553770210031 -0.29592407348843008 0 0.16774294085704969 -0.27843211124580569 0 0.15687054744851961 -0.28168183339121972 0 0.16645553770210031 -0.29592407348843008 0 0.15687054744851961 -0.28168183339121972 0 0.16645553770210031 -0.29592407348843008 0 0.19742263038843999 -0.5 0 0.19865134310869681 -0.47499096102107302 0 0.2126546356706569 -0.48415887313332318 0 0.19742263038843999 -0.5 0 0.19865134310869681 -0.47499096102107302 0 0.17877155851943841 -0.4809285805175037 0 0.19865134310869681 -0.47499096102107302 0 0.18551131160143111 -0.45928894678925292 0 0.17877155851943841 -0.4809285805175037 0 0.19865134310869681 -0.47499096102107302 0 0.2126546356706569 -0.48415887313332318 0 0.2130706359948995 -0.46742657625560757 0 0.2126546356706569 -0.48415887313332318 0 0.22864201408028981 -0.47793399652260321 0 0.2130706359948995 -0.46742657625560757 0 0.19865134310869681 -0.47499096102107302 0 0.2130706359948995 -0.46742657625560757 0 0.19742263038843999 -0.5 0 0.2126546356706569 -0.48415887313332318 0 0.2257994431198922 -0.5 0 0.2126546356706569 -0.48415887313332318 0 0.2257994431198922 -0.5 0 0.22864201408028981 -0.47793399652260321 0 0.2257994431198922 -0.5 0 0.24523550702771779 -0.48555234717705442 0 0.22864201408028981 -0.47793399652260321 0 0.2541762558513444 -0.5 0 0.2257994431198922 -0.5 0 0.24523550702771779 -0.48555234717705442 0 0.2483499169893878 -0.46989664361760047 0 0.22864201408028981 -0.47793399652260321 0 0.2274899288810992 -0.45986219149013652 0 0.24523550702771779 -0.48555234717705442 0 0.2483499169893878 -0.46989664361760047 0 0.22864201408028981 -0.47793399652260321 0 0.22864201408028981 -0.47793399652260321 0 0.2274899288810992 -0.45986219149013652 0 0.2130706359948995 -0.46742657625560757 0 0.2274899288810992 -0.45986219149013652 0 0.2130706359948995 -0.46742657625560757 0 0.2274899288810992 -0.45986219149013652 0 0.24149029229667271 -0.45251757781404278 0 0.2314496060121897 -0.45086743798215068 0 0.2483499169893878 -0.46989664361760047 0 0.2274899288810992 -0.45986219149013652 0 0.24149029229667271 -0.45251757781404278 0 0.2483499169893878 -0.46989664361760047 0 0.2274899288810992 -0.45986219149013652 0 0.2274899288810992 -0.45986219149013652 0 0.24149029229667271 -0.45251757781404278 0 0.25491484266253889 -0.44547503661093141 0 0.24149029229667271 -0.45251757781404278 0 0.2397815562044239 -0.43532636780203821 0 0.24149029229667271 -0.45251757781404278 0 0.2314496060121897 -0.45086743798215068 0 0.2397815562044239 -0.43532636780203821 0 0.2551075473088158 -0.43171633652827451 0 0.25491484266253889 -0.44547503661093141 0 0.2397815562044239 -0.43532636780203821 0 0.25491484266253889 -0.44547503661093141 0 0.24149029229667271 -0.45251757781404278 0 0.24149029229667271 -0.45251757781404278 0 0.2314496060121897 -0.45086743798215068 0 0.2274899288810992 -0.45986219149013652 0 0.2314496060121897 -0.45086743798215068 0 0.20248014267802661 -0.44783152775867818 0 0.2206923712066888 -0.43777499566245542 0 0.2314496060121897 -0.45086743798215068 0 0.2397815562044239 -0.43532636780203821 0 0.2206923712066888 -0.43777499566245542 0 0.20248014267802661 -0.44783152775867818 0 0.20482416334148809 -0.42896223053324611 0 0.2206923712066888 -0.43777499566245542 0 0.2314496060121897 -0.45086743798215068 0 0.20248014267802661 -0.44783152775867818 0 0.2130706359948995 -0.46742657625560757 0 0.1999283583457635 -0.46238450295615291 0 0.20248014267802661 -0.44783152775867818 0 0.2274899288810992 -0.45986219149013652 0 0.2130706359948995 -0.46742657625560757 0 0.20248014267802661 -0.44783152775867818 0 0.2274899288810992 -0.45986219149013652 0 0.20248014267802661 -0.44783152775867818 0 0.19865134310869681 -0.47499096102107302 0 0.2130706359948995 -0.46742657625560757 0 0.1999283583457635 -0.46238450295615291 0 0.1999283583457635 -0.46238450295615291 0 0.20248014267802661 -0.44783152775867818 0 0.18551131160143111 -0.45928894678925292 0 0.19865134310869681 -0.47499096102107302 0 0.1999283583457635 -0.46238450295615291 0 0.18551131160143111 -0.45928894678925292 0 0.20248014267802661 -0.44783152775867818 0 0.17747035647495221 -0.4358008640272234 0 0.18551131160143111 -0.45928894678925292 0 0.20248014267802661 -0.44783152775867818 0 0.20482416334148809 -0.42896223053324611 0 0.17747035647495221 -0.4358008640272234 0 0.20248014267802661 -0.44783152775867818 0 0.17747035647495221 -0.4358008640272234 0 0.20482416334148809 -0.42896223053324611 0 0.1829336097517586 -0.41699160424010728 0 0.17747035647495221 -0.4358008640272234 0 0.2024187229094381 -0.41146382350652771 0 0.20482416334148809 -0.42896223053324611 0 0.1829336097517586 -0.41699160424010728 0 0.2024187229094381 -0.41146382350652771 0 0.18982739020597009 -0.40171904433710448 0 0.1829336097517586 -0.41699160424010728 0 0.2024187229094381 -0.41146382350652771 0 0.21370019214275601 -0.41652978291814879 0 0.20899616037558691 -0.39974206439640853 0 0.21370019214275601 -0.41652978291814879 0 0.22599498004542051 -0.40847927054181682 0 0.20899616037558691 -0.39974206439640853 0 0.2024187229094381 -0.41146382350652771 0 0.21370019214275601 -0.41652978291814879 0 0.20482416334148809 -0.42896223053324611 0 0.2206923712066888 -0.43777499566245542 0 0.20482416334148809 -0.42896223053324611 0 0.22433601335253259 -0.42520697676833641 0 0.21370019214275601 -0.41652978291814879 0 0.20482416334148809 -0.42896223053324611 0 0.22433601335253259 -0.42520697676833641 0 0.2206923712066888 -0.43777499566245542 0 0.22433601335253259 -0.42520697676833641 0 0.2397815562044239 -0.43532636780203821 0 0.22433601335253259 -0.42520697676833641 0 0.2397815562044239 -0.43532636780203821 0 0.2364617536912208 -0.42116779443511332 0 0.2397815562044239 -0.43532636780203821 0 0.24906811247889871 -0.42018394575197571 0 0.2364617536912208 -0.42116779443511332 0 0.2551075473088158 -0.43171633652827451 0 0.2397815562044239 -0.43532636780203821 0 0.24906811247889871 -0.42018394575197571 0 0.24222268827320201 -0.40850571638685279 0 0.2364617536912208 -0.42116779443511332 0 0.22599498004542051 -0.40847927054181682 0 0.25830845723407642 -0.40692736577303767 0 0.24222268827320201 -0.40850571638685279 0 0.24906811247889871 -0.42018394575197571 0 0.24222268827320201 -0.40850571638685279 0 0.24906811247889871 -0.42018394575197571 0 0.2364617536912208 -0.42116779443511332 0 0.22433601335253259 -0.42520697676833641 0 0.2364617536912208 -0.42116779443511332 0 0.22599498004542051 -0.40847927054181682 0 0.21370019214275601 -0.41652978291814879 0 0.22433601335253259 -0.42520697676833641 0 0.22599498004542051 -0.40847927054181682 0 0.22599498004542051 -0.40847927054181682 0 0.2214178167834753 -0.39243918007568829 0 0.2331544660000158 -0.39503133660632378 0 0.24222268827320201 -0.40850571638685279 0 0.22599498004542051 -0.40847927054181682 0 0.2331544660000158 -0.39503133660632378 0 0.22599498004542051 -0.40847927054181682 0 0.2214178167834753 -0.39243918007568829 0 0.20899616037558691 -0.39974206439640853 0 0.24222268827320201 -0.40850571638685279 0 0.2331544660000158 -0.39503133660632378 0 0.247588930070654 -0.38856200229685162 0 0.25830845723407642 -0.40692736577303767 0 0.24222268827320201 -0.40850571638685279 0 0.247588930070654 -0.38856200229685162 0 0.24222268827320201 -0.40850571638685279 0 0.2331544660000158 -0.39503133660632378 0 0.24016443202273069 -0.37384004815211108 0 0.247588930070654 -0.38856200229685162 0 0.22408624372682981 -0.38155695682579471 0 0.247588930070654 -0.38856200229685162 0 0.22408624372682981 -0.38155695682579471 0 0.2331544660000158 -0.39503133660632378 0 0.247588930070654 -0.38856200229685162 0 0.22408624372682981 -0.38155695682579471 0 0.26072890620209388 -0.37735332967840601 0 0.24016443202273069 -0.37384004815211108 0 0.247588930070654 -0.38856200229685162 0 0.2331544660000158 -0.39503133660632378 0 0.22408624372682981 -0.38155695682579471 0 0.2214178167834753 -0.39243918007568829 0 0.2331544660000158 -0.39503133660632378 0 0.22408624372682981 -0.38155695682579471 0 0.2214178167834753 -0.39243918007568829 0 0.22408624372682981 -0.38155695682579471 0 0.21194856608894769 -0.37793928595521598 0 0.21194856608894769 -0.37793928595521598 0 0.20899616037558691 -0.39974206439640853 0 0.19853878266731029 -0.38601008798987679 0 0.2214178167834753 -0.39243918007568829 0 0.21194856608894769 -0.37793928595521598 0 0.20899616037558691 -0.39974206439640853 0 0.22408624372682981 -0.38155695682579471 0 0.21194856608894769 -0.37793928595521598 0 0.19959656517642779 -0.37056652653384381 0 0.21194856608894769 -0.37793928595521598 0 0.19853878266731029 -0.38601008798987679 0 0.2024187229094381 -0.41146382350652771 0 0.20899616037558691 -0.39974206439640853 0 0.18982739020597009 -0.40171904433710448 0 0.20899616037558691 -0.39974206439640853 0 0.18982739020597009 -0.40171904433710448 0 0.19853878266731029 -0.38601008798987679 0 0.18982739020597009 -0.40171904433710448 0 0.19853878266731029 -0.38601008798987679 0 0.18347084657675811 -0.37603462617166361 0 0.19959656517642779 -0.37056652653384381 0 0.19853878266731029 -0.38601008798987679 0 0.18347084657675811 -0.37603462617166361 0 0.18347084657675811 -0.37603462617166361 0 0.17060045530682549 -0.40023346274077393 0 0.16173454447914309 -0.38148246462979157 0 0.18982739020597009 -0.40171904433710448 0 0.18347084657675811 -0.37603462617166361 0 0.17060045530682549 -0.40023346274077393 0 0.17060045530682549 -0.40023346274077393 0 0.16173454447914309 -0.38148246462979157 0 0.1469077286703824 -0.3961445349242404 0 0.14379218960586679 -0.37333779990750893 0 0.16173454447914309 -0.38148246462979157 0 0.1469077286703824 -0.3961445349242404 0 0.14379218960586679 -0.37333779990750893 0 0.1469077286703824 -0.3961445349242404 0 0.12368287697585111 -0.38501370041024707 0 0.14379218960586679 -0.37333779990750893 0 0.12368287697585111 -0.38501370041024707 0 0.1469077286703824 -0.3961445349242404 0 0.12745078406880339 -0.41173953656431339 0 0.12368287697585111 -0.38501370041024707 0 0.12745078406880339 -0.41173953656431339 0 0.12368287697585111 -0.38501370041024707 0 0.1469077286703824 -0.3961445349242404 0 0.12745078406880339 -0.41173953656431339 0 0.1524605702718777 -0.42377020029576851 0 0.12745078406880339 -0.41173953656431339 0 0.1524605702718777 -0.42377020029576851 0 0.12745078406880339 -0.41173953656431339 0 0.13036525188636139 -0.43241191182378952 0 0.1524605702718777 -0.42377020029576851 0 0.12745078406880339 -0.41173953656431339 0 0.13036525188636139 -0.43241191182378952 0 0.13036525188636139 -0.43241191182378952 0 0.1524605702718777 -0.42377020029576851 0 0.1557610004673835 -0.44715595876360381 0 0.1524605702718777 -0.42377020029576851 0 0.1829336097517586 -0.41699160424010728 0 0.17747035647495221 -0.4358008640272234 0 0.1524605702718777 -0.42377020029576851 0 0.17747035647495221 -0.4358008640272234 0 0.1524605702718777 -0.42377020029576851 0 0.17747035647495221 -0.4358008640272234 0 0.1557610004673835 -0.44715595876360381 0 0.17060045530682549 -0.40023346274077393 0 0.1524605702718777 -0.42377020029576851 0 0.1829336097517586 -0.41699160424010728 0 0.17060045530682549 -0.40023346274077393 0 0.1469077286703824 -0.3961445349242404 0 0.1524605702718777 -0.42377020029576851 0 0.18982739020597009 -0.40171904433710448 0 0.17060045530682549 -0.40023346274077393 0 0.1829336097517586 -0.41699160424010728 0 0.17747035647495221 -0.4358008640272234 0 0.18551131160143111 -0.45928894678925292 0 0.1557610004673835 -0.44715595876360381 0 0.18551131160143111 -0.45928894678925292 0 0.1650954848410443 -0.46695753813866892 0 0.1557610004673835 -0.44715595876360381 0 0.1650954848410443 -0.46695753813866892 0 0.1557610004673835 -0.44715595876360381 0 0.14863014332184521 -0.46361039004614452 0 0.13036525188636139 -0.43241191182378952 0 0.1557610004673835 -0.44715595876360381 0 0.13327971970391889 -0.45308428708326559 0 0.13036525188636139 -0.43241191182378952 0 0.13327971970391889 -0.45308428708326559 0 0.1177831927022262 -0.44990651191982228 0 0.13036525188636139 -0.43241191182378952 0 0.13327971970391889 -0.45308428708326559 0 0.13327971970391889 -0.45308428708326559 0 0.1363707373993967 -0.47719986636352429 0 0.1132362604826828 -0.46937042041499949 0 0.13327971970391889 -0.45308428708326559 0 0.14863014332184521 -0.46361039004614452 0 0.1363707373993967 -0.47719986636352429 0 0.1557610004673835 -0.44715595876360381 0 0.13327971970391889 -0.45308428708326559 0 0.14863014332184521 -0.46361039004614452 0 0.14863014332184521 -0.46361039004614452 0 0.1363707373993967 -0.47719986636352429 0 0.15647049356090559 -0.48206498083821719 0 0.1363707373993967 -0.47719986636352429 0 0.14066900492553561 -0.5 0 0.1122921921940834 -0.5 0 0.1363707373993967 -0.47719986636352429 0 0.14066900492553561 -0.5 0 0.15647049356090559 -0.48206498083821719 0 0.14066900492553561 -0.5 0 0.16904581765698781 -0.5 0 0.15647049356090559 -0.48206498083821719 0 0.16904581765698781 -0.5 0 0.15647049356090559 -0.48206498083821719 0 0.17877155851943841 -0.4809285805175037 0 0.1650954848410443 -0.46695753813866892 0 0.15647049356090559 -0.48206498083821719 0 0.17877155851943841 -0.4809285805175037 0 0.1650954848410443 -0.46695753813866892 0 0.14863014332184521 -0.46361039004614452 0 0.15647049356090559 -0.48206498083821719 0 0.18551131160143111 -0.45928894678925292 0 0.1650954848410443 -0.46695753813866892 0 0.17877155851943841 -0.4809285805175037 0 0.19742263038843999 -0.5 0 0.16904581765698781 -0.5 0 0.17877155851943841 -0.4809285805175037 0 0.072422486157921295 -0.48063314663010592 0 0.083915379462631168 -0.5 0 0.055538566731178962 -0.5 0 0.072422486157921295 -0.48063314663010592 0 0.068735348342430252 -0.46401812581671209 0 0.056080856556470618 -0.47418746996764899 0 0.072422486157921295 -0.48063314663010592 0 0.088468679434768202 -0.46470538994063543 0 0.068735348342430252 -0.46401812581671209 0 0.072422486157921295 -0.48063314663010592 0 0.09691768442332542 -0.48422203598449032 0 0.088468679434768202 -0.46470538994063543 0 0.072422486157921295 -0.48063314663010592 0 0.083915379462631168 -0.5 0 0.09691768442332542 -0.48422203598449032 0 0.083915379462631168 -0.5 0 0.1122921921940834 -0.5 0 0.09691768442332542 -0.48422203598449032 0 0.1122921921940834 -0.5 0 0.1132362604826828 -0.46937042041499949 0 0.09691768442332542 -0.48422203598449032 0 0.1363707373993967 -0.47719986636352429 0 0.1122921921940834 -0.5 0 0.1132362604826828 -0.46937042041499949 0 0.1132362604826828 -0.46937042041499949 0 0.09691768442332542 -0.48422203598449032 0 0.088468679434768202 -0.46470538994063543 0 0.1132362604826828 -0.46937042041499949 0 0.10349733946441241 -0.45387173280916621 0 0.088468679434768202 -0.46470538994063543 0 0.10349733946441241 -0.45387173280916621 0 0.09173077455676755 -0.44551916144357262 0 0.088468679434768202 -0.46470538994063543 0 0.1132362604826828 -0.46937042041499949 0 0.10349733946441241 -0.45387173280916621 0 0.1177831927022262 -0.44990651191982228 0 0.13327971970391889 -0.45308428708326559 0 0.1132362604826828 -0.46937042041499949 0 0.1177831927022262 -0.44990651191982228 0 0.13036525188636139 -0.43241191182378952 0 0.1177831927022262 -0.44990651191982228 0 0.1060959547558432 -0.43978623641848091 0 0.10349733946441241 -0.45387173280916621 0 0.1177831927022262 -0.44990651191982228 0 0.1060959547558432 -0.43978623641848091 0 0.10349733946441241 -0.45387173280916621 0 0.1060959547558432 -0.43978623641848091 0 0.09173077455676755 -0.44551916144357262 0 0.1060959547558432 -0.43978623641848091 0 0.09173077455676755 -0.44551916144357262 0 0.095448415678705795 -0.43049534407353562 0 0.09173077455676755 -0.44551916144357262 0 0.074304094090028083 -0.44882153338498187 0 0.081942768929505111 -0.43204007214991419 0 0.09173077455676755 -0.44551916144357262 0 0.088468679434768202 -0.46470538994063543 0 0.074304094090028083 -0.44882153338498187 0 0.068735348342430252 -0.46401812581671209 0 0.074304094090028083 -0.44882153338498187 0 0.056131133273125432 -0.45572085478548757 0 0.088468679434768202 -0.46470538994063543 0 0.068735348342430252 -0.46401812581671209 0 0.074304094090028083 -0.44882153338498187 0 0.074304094090028083 -0.44882153338498187 0 0.067791252754704115 -0.43076047887581981 0 0.060618215003787349 -0.44252157086127691 0 0.074304094090028083 -0.44882153338498187 0 0.060618215003787349 -0.44252157086127691 0 0.056131133273125432 -0.45572085478548757 0 0.074304094090028083 -0.44882153338498187 0 0.067791252754704115 -0.43076047887581981 0 0.081942768929505111 -0.43204007214991419 0 0.073021079905570829 -0.41714930683430751 0 0.081942768929505111 -0.43204007214991419 0 0.067791252754704115 -0.43076047887581981 0 0.073021079905570829 -0.41714930683430751 0 0.081942768929505111 -0.43204007214991419 0 0.067791252754704115 -0.43076047887581981 0 0.073021079905570829 -0.41714930683430751 0 0.057017302293320908 -0.4166197849373251 0 0.073021079905570829 -0.41714930683430751 0 0.064099390881637353 -0.40225854151870027 0 0.057017302293320908 -0.4166197849373251 0 0.073021079905570829 -0.41714930683430751 0 0.083766660487544858 -0.41025071856283318 0 0.064099390881637353 -0.40225854151870027 0 0.073021079905570829 -0.41714930683430751 0 0.064099390881637353 -0.40225854151870027 0 0.073021079905570829 -0.41714930683430751 0 0.084538195307102715 -0.42049613969171362 0 0.083766660487544858 -0.41025071856283318 0 0.083766660487544858 -0.41025071856283318 0 0.094648439165594705 -0.41715144388026049 0 0.09508187643691185 -0.4072068948484327 0 0.084538195307102715 -0.42049613969171362 0 0.083766660487544858 -0.41025071856283318 0 0.094648439165594705 -0.41715144388026049 0 0.084538195307102715 -0.42049613969171362 0 0.095448415678705795 -0.43049534407353562 0 0.094648439165594705 -0.41715144388026049 0 0.084538195307102715 -0.42049613969171362 0 0.081942768929505111 -0.43204007214991419 0 0.095448415678705795 -0.43049534407353562 0 0.073021079905570829 -0.41714930683430751 0 0.084538195307102715 -0.42049613969171362 0 0.081942768929505111 -0.43204007214991419 0 0.09173077455676755 -0.44551916144357262 0 0.081942768929505111 -0.43204007214991419 0 0.095448415678705795 -0.43049534407353562 0 0.095448415678705795 -0.43049534407353562 0 0.1111864737817959 -0.42224597723182999 0 0.094648439165594705 -0.41715144388026049 0 0.1060959547558432 -0.43978623641848091 0 0.095448415678705795 -0.43049534407353562 0 0.1111864737817959 -0.42224597723182999 0 0.12745078406880339 -0.41173953656431339 0 0.13036525188636139 -0.43241191182378952 0 0.1111864737817959 -0.42224597723182999 0 0.13036525188636139 -0.43241191182378952 0 0.1060959547558432 -0.43978623641848091 0 0.1111864737817959 -0.42224597723182999 0 0.12745078406880339 -0.41173953656431339 0 0.1111864737817959 -0.42224597723182999 0 0.1132544371503572 -0.4049105507183689 0 0.1111864737817959 -0.42224597723182999 0 0.1049973604849483 -0.41262078559747978 0 0.1132544371503572 -0.4049105507183689 0 0.12745078406880339 -0.41173953656431339 0 0.1132544371503572 -0.4049105507183689 0 0.1111864737817959 -0.42224597723182999 0 0.1049973604849483 -0.41262078559747978 0 0.094648439165594705 -0.41715144388026049 0 0.1049973604849483 -0.41262078559747978 0 0.1030979410760321 -0.40570494900917642 0 0.1132544371503572 -0.4049105507183689 0 0.1049973604849483 -0.41262078559747978 0 0.094648439165594705 -0.41715144388026049 0 0.09508187643691185 -0.4072068948484327 0 0.1049973604849483 -0.41262078559747978 0 0.09508187643691185 -0.4072068948484327 0 0.1030979410760321 -0.40570494900917642 0 0.09508187643691185 -0.4072068948484327 0 0.099058090231911061 -0.39808156487242408 0 0.1030979410760321 -0.40570494900917642 0 0.09508187643691185 -0.4072068948484327 0 0.099058090231911061 -0.39808156487242408 0 0.091914695406366334 -0.39777021706256183 0 0.096814084337649681 -0.39067587779447938 0 0.099058090231911061 -0.39808156487242408 0 0.10681827574106979 -0.39480565151561398 0 0.096814084337649681 -0.39067587779447938 0 0.099058090231911061 -0.39808156487242408 0 0.091914695406366334 -0.39777021706256183 0 0.096814084337649681 -0.39067587779447938 0 0.10681827574106979 -0.39480565151561398 0 0.1028232381679869 -0.38681338924419861 0 0.099058090231911061 -0.39808156487242408 0 0.10681827574106979 -0.39480565151561398 0 0.1132544371503572 -0.4049105507183689 0 0.099058090231911061 -0.39808156487242408 0 0.1132544371503572 -0.4049105507183689 0 0.099058090231911061 -0.39808156487242408 0 0.1030979410760321 -0.40570494900917642 0 0.1132544371503572 -0.4049105507183689 0 0.12745078406880339 -0.41173953656431339 0 0.1132544371503572 -0.4049105507183689 0 0.12368287697585111 -0.38501370041024707 0 0.10681827574106979 -0.39480565151561398 0 0.1132544371503572 -0.4049105507183689 0 0.12368287697585111 -0.38501370041024707 0 0.10681827574106979 -0.39480565151561398 0 0.12368287697585111 -0.38501370041024707 0 0.1102147613698282 -0.38123653097256432 0 0.12368287697585111 -0.38501370041024707 0 0.1102147613698282 -0.38123653097256432 0 0.12019635867396369 -0.36028376026423847 0 0.10681827574106979 -0.39480565151561398 0 0.12368287697585111 -0.38501370041024707 0 0.10681827574106979 -0.39480565151561398 0 0.1102147613698282 -0.38123653097256432 0 0.1028232381679869 -0.38681338924419861 0 0.1102147613698282 -0.38123653097256432 0 0.1028232381679869 -0.38681338924419861 0 0.096242330811393703 -0.38058206078384738 0 0.096814084337649681 -0.39067587779447938 0 0.096242330811393703 -0.38058206078384738 0 0.089081893774689919 -0.38651713342233418 0 0.096814084337649681 -0.39067587779447938 0 0.1028232381679869 -0.38681338924419861 0 0.096242330811393703 -0.38058206078384738 0 0.096242330811393703 -0.38058206078384738 0 0.083853473646309448 -0.3755348833327668 0 0.089081893774689919 -0.38651713342233418 0 0.083853473646309448 -0.3755348833327668 0 0.089081893774689919 -0.38651713342233418 0 0.077592906523296923 -0.38810694195364648 0 0.083766660487544858 -0.41025071856283318 0 0.091914695406366334 -0.39777021706256183 0 0.064099390881637353 -0.40225854151870027 0 0.089081893774689919 -0.38651713342233418 0 0.091914695406366334 -0.39777021706256183 0 0.077592906523296923 -0.38810694195364648 0 0.096814084337649681 -0.39067587779447938 0 0.089081893774689919 -0.38651713342233418 0 0.091914695406366334 -0.39777021706256183 0 0.083766660487544858 -0.41025071856283318 0 0.09508187643691185 -0.4072068948484327 0 0.091914695406366334 -0.39777021706256183 0 0.091914695406366334 -0.39777021706256183 0 0.064099390881637353 -0.40225854151870027 0 0.077592906523296923 -0.38810694195364648 0 0.091914695406366334 -0.39777021706256183 0 0.064099390881637353 -0.40225854151870027 0 0.064099390881637353 -0.40225854151870027 0 0.065677941987698718 -0.387349247244408 0 0.077592906523296923 -0.38810694195364648 0 0.070893113819720549 -0.37841769288884858 0 0.059722780704810997 -0.37895445758325669 0 0.065755205275322956 -0.37019101960397183 0 0.065677941987698718 -0.387349247244408 0 0.070893113819720549 -0.37841769288884858 0 0.059722780704810997 -0.37895445758325669 0 0.083853473646309448 -0.3755348833327668 0 0.070893113819720549 -0.37841769288884858 0 0.077592906523296923 -0.38810694195364648 0 0.065677941987698718 -0.387349247244408 0 0.070893113819720549 -0.37841769288884858 0 0.077592906523296923 -0.38810694195364648 0 0.059722780704810997 -0.37895445758325669 0 0.055218694060393023 -0.38743619433203957 0 0.039729182808249552 -0.36158339041897292 0 0.059722780704810997 -0.37895445758325669 0 0.055218694060393023 -0.38743619433203957 0 0.065677941987698718 -0.387349247244408 0 0.059722780704810997 -0.37895445758325669 0 0.055218694060393023 -0.38743619433203957 0 0.064099390881637353 -0.40225854151870027 0 0.055218694060393023 -0.38743619433203957 0 0.045777561143979559 -0.40521498286988278 0 0.064099390881637353 -0.40225854151870027 0 0.065677941987698718 -0.387349247244408 0 0.055218694060393023 -0.38743619433203957 0 0.064099390881637353 -0.40225854151870027 0 0.045777561143979559 -0.40521498286988278 0 0.055218694060393023 -0.38743619433203957 0 0.044174881026473073 -0.39437667952805588 0 0.045777561143979559 -0.40521498286988278 0 0.055218694060393023 -0.38743619433203957 0 0.045777561143979559 -0.40521498286988278 0 0.064099390881637353 -0.40225854151870027 0 0.055218694060393023 -0.38743619433203957 0 0.044174881026473073 -0.39437667952805588 0 0.034303750940639449 -0.3869604010248387 0 0.029862230517809549 -0.40778310746522589 0 0.044174881026473073 -0.39437667952805588 0 0.045777561143979559 -0.40521498286988278 0 0.029862230517809549 -0.40778310746522589 0 0.055218694060393023 -0.38743619433203957 0 0.034303750940639449 -0.3869604010248387 0 0.039729182808249552 -0.36158339041897292 0 0.055218694060393023 -0.38743619433203957 0 0.044174881026473073 -0.39437667952805588 0 0.034303750940639449 -0.3869604010248387 0 0.034303750940639449 -0.3869604010248387 0 0.016582465561187618 -0.37900705299089033 0 0.02529541385786294 -0.36926246655491041 0 0.034303750940639449 -0.3869604010248387 0 0.016582465561187618 -0.37900705299089033 0 0.020202277279582889 -0.39613647541880531 0 0.016582465561187618 -0.37900705299089033 0 0.0063160394866382131 -0.39658058355250198 0 0.020202277279582889 -0.39613647541880531 0 -0.00049818021965669299 -0.36793998380101861 0 0.016582465561187618 -0.37900705299089033 0 0.0063160394866382131 -0.39658058355250198 0 -0.00049818021965669299 -0.36793998380101861 0 0.0063160394866382131 -0.39658058355250198 0 0.0063160394866382131 -0.39658058355250198 0 0.020202277279582889 -0.39613647541880531 0 0.01394689989163965 -0.41035123206056962 0 0.020202277279582889 -0.39613647541880531 0 0.029862230517809549 -0.40778310746522589 0 0.01394689989163965 -0.41035123206056962 0 0.034303750940639449 -0.3869604010248387 0 0.020202277279582889 -0.39613647541880531 0 0.029862230517809549 -0.40778310746522589 0 0.029862230517809549 -0.40778310746522589 0 0.01394689989163965 -0.41035123206056962 0 0.029862230517809549 -0.40778310746522589 0 0.022450102405996521 -0.41822347644811408 0 0.01394689989163965 -0.41035123206056962 0 0.029862230517809549 -0.40778310746522589 0 0.022450102405996521 -0.41822347644811408 0 0.032861020021603828 -0.42953838296267582 0 0.022450102405996521 -0.41822347644811408 0 0.01394689989163965 -0.41035123206056962 0 0.013130259192933071 -0.42522118330398528 0 0.0063160394866382131 -0.39658058355250198 0 0.013130259192933071 -0.42522118330398528 0 -0.0069005692177502602 -0.41485602653172571 0 0.0063160394866382131 -0.39658058355250198 0 0.013130259192933071 -0.42522118330398528 0 0.0063160394866382131 -0.39658058355250198 0 0.01394689989163965 -0.41035123206056962 0 0.013130259192933071 -0.42522118330398528 0 -0.0069005692177502602 -0.41485602653172571 0 -0.0032746580085849359 -0.4322889095963432 0 0.013130259192933071 -0.42522118330398528 0 -0.0032746580085849359 -0.4322889095963432 0 0.013130259192933071 -0.42522118330398528 0 0.0084874319089191137 -0.44082685020097728 0 0.013130259192933071 -0.42522118330398528 0 0.032861020021603828 -0.42953838296267582 0 0.019944478899227631 -0.45386178305546848 0 0.022450102405996521 -0.41822347644811408 0 0.013130259192933071 -0.42522118330398528 0 0.032861020021603828 -0.42953838296267582 0 0.045407415337893699 -0.42500259301235688 0 0.032861020021603828 -0.42953838296267582 0 0.037433340194923732 -0.44062468901510521 0 0.045407415337893699 -0.42500259301235688 0 0.053947853035640557 -0.43301512527679659 0 0.037433340194923732 -0.44062468901510521 0 0.045777561143979559 -0.40521498286988278 0 0.029862230517809549 -0.40778310746522589 0 0.032861020021603828 -0.42953838296267582 0 0.045777561143979559 -0.40521498286988278 0 0.029862230517809549 -0.40778310746522589 0 0.045777561143979559 -0.40521498286988278 0 0.032861020021603828 -0.42953838296267582 0 0.045777561143979559 -0.40521498286988278 0 0.045407415337893699 -0.42500259301235688 0 0.032861020021603828 -0.42953838296267582 0 0.045777561143979559 -0.40521498286988278 0 0.045407415337893699 -0.42500259301235688 0 0.057017302293320908 -0.4166197849373251 0 0.064099390881637353 -0.40225854151870027 0 0.045777561143979559 -0.40521498286988278 0 0.057017302293320908 -0.4166197849373251 0 0.067791252754704115 -0.43076047887581981 0 0.057017302293320908 -0.4166197849373251 0 0.053947853035640557 -0.43301512527679659 0 0.045407415337893699 -0.42500259301235688 0 0.057017302293320908 -0.4166197849373251 0 0.053947853035640557 -0.43301512527679659 0 0.067791252754704115 -0.43076047887581981 0 0.053947853035640557 -0.43301512527679659 0 0.060618215003787349 -0.44252157086127691 0 0.053947853035640557 -0.43301512527679659 0 0.049893095464332349 -0.44526286896067419 0 0.037433340194923732 -0.44062468901510521 0 0.049893095464332349 -0.44526286896067419 0 0.056131133273125432 -0.45572085478548757 0 0.040121588779976063 -0.45288443190343741 0 0.053947853035640557 -0.43301512527679659 0 0.049893095464332349 -0.44526286896067419 0 0.060618215003787349 -0.44252157086127691 0 0.049893095464332349 -0.44526286896067419 0 0.060618215003787349 -0.44252157086127691 0 0.056131133273125432 -0.45572085478548757 0 0.056131133273125432 -0.45572085478548757 0 0.044391055941606222 -0.46463854574232688 0 0.056080856556470618 -0.47418746996764899 0 0.056131133273125432 -0.45572085478548757 0 0.044391055941606222 -0.46463854574232688 0 0.040121588779976063 -0.45288443190343741 0 0.068735348342430252 -0.46401812581671209 0 0.056131133273125432 -0.45572085478548757 0 0.056080856556470618 -0.47418746996764899 0 0.044391055941606222 -0.46463854574232688 0 0.034882999323715871 -0.45992451587972383 0 0.040121588779976063 -0.45288443190343741 0 0.031956858036418977 -0.46863115343132627 0 0.034882999323715871 -0.45992451587972383 0 0.027141237909342659 -0.46123060160210222 0 0.044391055941606222 -0.46463854574232688 0 0.031956858036418977 -0.46863115343132627 0 0.034882999323715871 -0.45992451587972383 0 0.034882999323715871 -0.45992451587972383 0 0.040121588779976063 -0.45288443190343741 0 0.029152420890266071 -0.45473626185268529 0 0.040121588779976063 -0.45288443190343741 0 0.037433340194923732 -0.44062468901510521 0 0.029152420890266071 -0.45473626185268529 0 0.049893095464332349 -0.44526286896067419 0 0.040121588779976063 -0.45288443190343741 0 0.037433340194923732 -0.44062468901510521 0 0.037433340194923732 -0.44062468901510521 0 0.019944478899227631 -0.45386178305546848 0 0.029152420890266071 -0.45473626185268529 0 0.013130259192933071 -0.42522118330398528 0 0.019944478899227631 -0.45386178305546848 0 0.032861020021603828 -0.42953838296267582 0 0.019944478899227631 -0.45386178305546848 0 0.032861020021603828 -0.42953838296267582 0 0.037433340194923732 -0.44062468901510521 0 0.019944478899227631 -0.45386178305546848 0 0.013130259192933071 -0.42522118330398528 0 0.0084874319089191137 -0.44082685020097728 0 0.019944478899227631 -0.45386178305546848 0 -0.0032746580085849359 -0.4322889095963432 0 0.0084874319089191137 -0.44082685020097728 0 0.001716639485354166 -0.44953294239826891 0 0.0084874319089191137 -0.44082685020097728 0 0.010813012497565109 -0.45099681236545802 0 0.019944478899227631 -0.45386178305546848 0 0.010813012497565109 -0.45099681236545802 0 0.001716639485354166 -0.44953294239826891 0 0.0099762476262518357 -0.45808933940653113 0 0.0084874319089191137 -0.44082685020097728 0 0.010813012497565109 -0.45099681236545802 0 0.001716639485354166 -0.44953294239826891 0 0.001716639485354166 -0.44953294239826891 0 0.0037264172664160612 -0.46476221296183129 0 0.0099762476262518357 -0.45808933940653113 0 0.010813012497565109 -0.45099681236545802 0 0.014481801490379311 -0.4554975510506406 0 0.019944478899227631 -0.45386178305546848 0 0.010813012497565109 -0.45099681236545802 0 0.0099762476262518357 -0.45808933940653113 0 0.014481801490379311 -0.4554975510506406 0 0.0099762476262518357 -0.45808933940653113 0 0.01390350412804028 -0.46349681710624918 0 0.017193466938472641 -0.45904226937510467 0 0.0099762476262518357 -0.45808933940653113 0 0.014481801490379311 -0.4554975510506406 0 0.017193466938472641 -0.45904226937510467 0 0.0037264172664160612 -0.46476221296183129 0 0.01390350412804028 -0.46349681710624918 0 0.017643740041020178 -0.47009056048251557 0 0.0037264172664160612 -0.46476221296183129 0 0.0099762476262518357 -0.45808933940653113 0 0.01390350412804028 -0.46349681710624918 0 0.01390350412804028 -0.46349681710624918 0 0.021324914800428689 -0.45966384313467989 0 0.017643740041020178 -0.47009056048251557 0 0.021324914800428689 -0.45966384313467989 0 0.027141237909342659 -0.46123060160210222 0 0.017643740041020178 -0.47009056048251557 0 0.017193466938472641 -0.45904226937510467 0 0.019944478899227631 -0.45386178305546848 0 0.014481801490379311 -0.4554975510506406 0 0.017193466938472641 -0.45904226937510467 0 0.019944478899227631 -0.45386178305546848 0 0.017193466938472641 -0.45904226937510467 0 0.021324914800428689 -0.45966384313467989 0 0.019944478899227631 -0.45386178305546848 0 0.01390350412804028 -0.46349681710624918 0 0.017193466938472641 -0.45904226937510467 0 0.021324914800428689 -0.45966384313467989 0 0.021324914800428689 -0.45966384313467989 0 0.019944478899227631 -0.45386178305546848 0 0.024390763124816261 -0.45737312241123401 0 0.021324914800428689 -0.45966384313467989 0 0.019944478899227631 -0.45386178305546848 0 0.019944478899227631 -0.45386178305546848 0 0.024390763124816261 -0.45737312241123401 0 0.029152420890266071 -0.45473626185268529 0 0.024390763124816261 -0.45737312241123401 0 0.029152420890266071 -0.45473626185268529 0 0.027141237909342659 -0.46123060160210222 0 0.021324914800428689 -0.45966384313467989 0 0.024390763124816261 -0.45737312241123401 0 0.027141237909342659 -0.46123060160210222 0 0.034882999323715871 -0.45992451587972383 0 0.029152420890266071 -0.45473626185268529 0 0.027141237909342659 -0.46123060160210222 0 0.031956858036418977 -0.46863115343132627 0 0.027141237909342659 -0.46123060160210222 0 0.017643740041020178 -0.47009056048251557 0 0.031956858036418977 -0.46863115343132627 0 0.02579433801394089 -0.47900756737673922 0 0.017643740041020178 -0.47009056048251557 0 0.02579433801394089 -0.47900756737673922 0 0.017643740041020178 -0.47009056048251557 0 0.01058759347603881 -0.48123183552702131 0 0.0037264172664160612 -0.46476221296183129 0 0.017643740041020178 -0.47009056048251557 0 0.01058759347603881 -0.48123183552702131 0 -0.0093166579641743019 -0.47586122067793529 0 0.0037264172664160612 -0.46476221296183129 0 0.01058759347603881 -0.48123183552702131 0 -0.0012150587317253359 -0.49999999999999689 0 -0.0093166579641743019 -0.47586122067793529 0 0.01058759347603881 -0.48123183552702131 0 -0.0012150587317253359 -0.49999999999999689 0 0.01058759347603881 -0.48123183552702131 0 0.027161753999726871 -0.5 0 0.02579433801394089 -0.47900756737673922 0 0.027161753999726871 -0.5 0 0.039694359420103027 -0.48057031261397959 0 0.02579433801394089 -0.47900756737673922 0 0.01058759347603881 -0.48123183552702131 0 0.027161753999726871 -0.5 0 0.027161753999726871 -0.5 0 0.039694359420103027 -0.48057031261397959 0 0.055538566731178962 -0.5 0 0.044391055941606222 -0.46463854574232688 0 0.031956858036418977 -0.46863115343132627 0 0.039694359420103027 -0.48057031261397959 0 0.044391055941606222 -0.46463854574232688 0 0.039694359420103027 -0.48057031261397959 0 0.056080856556470618 -0.47418746996764899 0 0.031956858036418977 -0.46863115343132627 0 0.02579433801394089 -0.47900756737673922 0 0.039694359420103027 -0.48057031261397959 0 0.072422486157921295 -0.48063314663010592 0 0.056080856556470618 -0.47418746996764899 0 0.055538566731178962 -0.5 0 0.039694359420103027 -0.48057031261397959 0 0.056080856556470618 -0.47418746996764899 0 0.055538566731178962 -0.5 0 0.088789839770954337 -0.30253695864136682 0 0.067433679880433459 -0.31607754326001469 0 0.056848029689193842 -0.29711200683874289 0 0.088789839770954337 -0.30253695864136682 0 0.071144434350033592 -0.28055630331440262 0 0.056848029689193842 -0.29711200683874289 0 0.088789839770954337 -0.30253695864136682 0 0.071144434350033592 -0.28055630331440262 0 0.092101597056431839 -0.27953326143221291 0 0.088789839770954337 -0.30253695864136682 0 0.090841388043437943 -0.31708862927436782 0 0.067433679880433459 -0.31607754326001469 0 0.088789839770954337 -0.30253695864136682 0 0.067433679880433459 -0.31607754326001469 0 0.071144434350033592 -0.28055630331440262 0 0.064031874058667074 -0.26136407352184809 0 0.080395875825239785 -0.26737024413027838 0 0.064031874058667074 -0.26136407352184809 0 0.081329954464350651 -0.25197822414875098 0 0.080395875825239785 -0.26737024413027838 0 0.064031874058667074 -0.26136407352184809 0 0.081329954464350651 -0.25197822414875098 0 0.062180769977122588 -0.24315331096981641 0 0.081329954464350651 -0.25197822414875098 0 0.094711051038751895 -0.26320329340646942 0 0.1045966638567058 -0.2496348303797036 0 0.081329954464350651 -0.25197822414875098 0 0.080395875825239785 -0.26737024413027838 0 0.094711051038751895 -0.26320329340646942 0 0.081329954464350651 -0.25197822414875098 0 0.094711051038751895 -0.26320329340646942 0 0.071144434350033592 -0.28055630331440262 0 0.092101597056431839 -0.27953326143221291 0 0.080395875825239785 -0.26737024413027838 0 0.092101597056431839 -0.27953326143221291 0 0.080395875825239785 -0.26737024413027838 0 0.094711051038751895 -0.26320329340646942 0 0.092101597056431839 -0.27953326143221291 0 0.1080921476131535 -0.27442836266418752 0 0.11014599966147461 -0.28899637402271761 0 0.092101597056431839 -0.27953326143221291 0 0.1080921476131535 -0.27442836266418752 0 0.094711051038751895 -0.26320329340646942 0 0.1080921476131535 -0.27442836266418752 0 0.094711051038751895 -0.26320329340646942 0 0.1080921476131535 -0.27442836266418752 0 0.1045966638567058 -0.2496348303797036 0 0.1080921476131535 -0.27442836266418752 0 0.094711051038751895 -0.26320329340646942 0 0.1045966638567058 -0.2496348303797036 0 0.12333783748076731 -0.26381910548914522 0 0.1045966638567058 -0.2496348303797036 0 0.13331006931279599 -0.24555192327291309 0 0.1080921476131535 -0.27442836266418752 0 0.12333783748076731 -0.26381910548914522 0 0.1045966638567058 -0.2496348303797036 0 0.1080921476131535 -0.27442836266418752 0 0.12333783748076731 -0.26381910548914522 0 0.1188668799176622 -0.28346701773098282 0 0.1080921476131535 -0.27442836266418752 0 0.1188668799176622 -0.28346701773098282 0 0.1188668799176622 -0.28346701773098282 0 0.11014599966147461 -0.28899637402271761 0 0.1132233220702004 -0.31082387997221927 0 0.1188668799176622 -0.28346701773098282 0 0.11014599966147461 -0.28899637402271761 0 0.1080921476131535 -0.27442836266418752 0 0.1188668799176622 -0.28346701773098282 0 0.11014599966147461 -0.28899637402271761 0 0.1080921476131535 -0.27442836266418752 0 0.11014599966147461 -0.28899637402271761 0 0.088789839770954337 -0.30253695864136682 0 0.11014599966147461 -0.28899637402271761 0 0.088789839770954337 -0.30253695864136682 0 0.092101597056431839 -0.27953326143221291 0 0.11014599966147461 -0.28899637402271761 0 0.088789839770954337 -0.30253695864136682 0 0.1132233220702004 -0.31082387997221927 0 0.090841388043437943 -0.31708862927436782 0 0.088789839770954337 -0.30253695864136682 0 0.11014599966147461 -0.28899637402271761 0 0.1132233220702004 -0.31082387997221927 0 0.1419074093094764 -0.30279514504251009 0 0.1188668799176622 -0.28346701773098282 0 0.1132233220702004 -0.31082387997221927 0 0.11014599966147461 -0.28899637402271761 0 0.1132233220702004 -0.31082387997221927 0 0.13527949779796189 -0.32376720443519319 0 0.1132233220702004 -0.31082387997221927 0 0.11670984037207539 -0.33555382011822987 0 0.1132233220702004 -0.31082387997221927 0 0.11670984037207539 -0.33555382011822987 0 0.11670984037207539 -0.33555382011822987 0 0.090841388043437943 -0.31708862927436782 0 0.089686219878007706 -0.33829157840515378 0 0.1132233220702004 -0.31082387997221927 0 0.11670984037207539 -0.33555382011822987 0 0.090841388043437943 -0.31708862927436782 0 0.1132233220702004 -0.31082387997221927 0 0.090841388043437943 -0.31708862927436782 0 0.1102147613698282 -0.38123653097256432 0 0.12019635867396369 -0.36028376026423847 0 0.098558492197155165 -0.36079838518024948 0 0.12368287697585111 -0.38501370041024707 0 0.12019635867396369 -0.36028376026423847 0 0.11670984037207539 -0.33555382011822987 0 0.12019635867396369 -0.36028376026423847 0 0.098558492197155165 -0.36079838518024948 0 0.11670984037207539 -0.33555382011822987 0 0.12019635867396369 -0.36028376026423847 0 0.11670984037207539 -0.33555382011822987 0 0.098558492197155165 -0.36079838518024948 0 0.089686219878007706 -0.33829157840515378 0 0.1102147613698282 -0.38123653097256432 0 0.096242330811393703 -0.38058206078384738 0 0.098558492197155165 -0.36079838518024948 0 0.096242330811393703 -0.38058206078384738 0 0.083853473646309448 -0.3755348833327668 0 0.098558492197155165 -0.36079838518024948 0 0.083853473646309448 -0.3755348833327668 0 0.098558492197155165 -0.36079838518024948 0 0.081858210411885235 -0.36331830169918822 0 0.083853473646309448 -0.3755348833327668 0 0.081858210411885235 -0.36331830169918822 0 0.074090960770846481 -0.36926871545909151 0 0.098558492197155165 -0.36079838518024948 0 0.082754809125639706 -0.35216622605556541 0 0.089686219878007706 -0.33829157840515378 0 0.082754809125639706 -0.35216622605556541 0 0.089686219878007706 -0.33829157840515378 0 0.070520119831829833 -0.34296211383255709 0 0.098558492197155165 -0.36079838518024948 0 0.081858210411885235 -0.36331830169918822 0 0.082754809125639706 -0.35216622605556541 0 0.081858210411885235 -0.36331830169918822 0 0.082754809125639706 -0.35216622605556541 0 0.070033316319475417 -0.35882329846826788 0 0.082754809125639706 -0.35216622605556541 0 0.070033316319475417 -0.35882329846826788 0 0.070520119831829833 -0.34296211383255709 0 0.070033316319475417 -0.35882329846826788 0 0.070520119831829833 -0.34296211383255709 0 0.056603055565072537 -0.34972028452138038 0 0.081858210411885235 -0.36331830169918822 0 0.070033316319475417 -0.35882329846826788 0 0.074090960770846481 -0.36926871545909151 0 0.070033316319475417 -0.35882329846826788 0 0.065755205275322956 -0.37019101960397183 0 0.074090960770846481 -0.36926871545909151 0 0.070033316319475417 -0.35882329846826788 0 0.065755205275322956 -0.37019101960397183 0 0.057953622182161497 -0.36367777024591219 0 0.070893113819720549 -0.37841769288884858 0 0.065755205275322956 -0.37019101960397183 0 0.074090960770846481 -0.36926871545909151 0 0.083853473646309448 -0.3755348833327668 0 0.070893113819720549 -0.37841769288884858 0 0.074090960770846481 -0.36926871545909151 0 0.090841388043437943 -0.31708862927436782 0 0.089686219878007706 -0.33829157840515378 0 0.068459454016674914 -0.32335337857651458 0 0.090841388043437943 -0.31708862927436782 0 0.068459454016674914 -0.32335337857651458 0 0.089686219878007706 -0.33829157840515378 0 0.070520119831829833 -0.34296211383255709 0 0.068459454016674914 -0.32335337857651458 0 0.070520119831829833 -0.34296211383255709 0 0.068459454016674914 -0.32335337857651458 0 0.057870095432613927 -0.336981781137553 0 0.090841388043437943 -0.31708862927436782 0 0.067433679880433459 -0.31607754326001469 0 0.068459454016674914 -0.32335337857651458 0 0.067433679880433459 -0.31607754326001469 0 0.046077519989912177 -0.3296181278786619 0 0.047742216749143397 -0.31231664877682852 0 0.068459454016674914 -0.32335337857651458 0 0.046077519989912177 -0.3296181278786619 0 0.067433679880433459 -0.31607754326001469 0 0.046077519989912177 -0.3296181278786619 0 0.067433679880433459 -0.31607754326001469 0 0.068459454016674914 -0.32335337857651458 0 0.046077519989912177 -0.3296181278786619 0 0.068459454016674914 -0.32335337857651458 0 0.057870095432613927 -0.336981781137553 0 0.046077519989912177 -0.3296181278786619 0 0.070520119831829833 -0.34296211383255709 0 0.057870095432613927 -0.336981781137553 0 0.056603055565072537 -0.34972028452138038 0 0.057870095432613927 -0.336981781137553 0 0.047988360900348859 -0.34231788337078778 0 0.046077519989912177 -0.3296181278786619 0 0.057870095432613927 -0.336981781137553 0 0.047988360900348859 -0.34231788337078778 0 0.056603055565072537 -0.34972028452138038 0 0.046077519989912177 -0.3296181278786619 0 0.03259383107485618 -0.32216086160685459 0 0.024239671556122361 -0.33573058650589632 0 0.047988360900348859 -0.34231788337078778 0 0.046077519989912177 -0.3296181278786619 0 0.039661950705896301 -0.33368583289737141 0 0.046077519989912177 -0.3296181278786619 0 0.024239671556122361 -0.33573058650589632 0 0.039661950705896301 -0.33368583289737141 0 0.039729182808249552 -0.36158339041897292 0 0.024239671556122361 -0.33573058650589632 0 0.046077519989912177 -0.3296181278786619 0 0.039661950705896301 -0.33368583289737141 0 0.024239671556122361 -0.33573058650589632 0 0.046077519989912177 -0.3296181278786619 0 0.039661950705896301 -0.33368583289737141 0 0.046077519989912177 -0.3296181278786619 0 0.03259383107485618 -0.32216086160685459 0 0.047742216749143397 -0.31231664877682852 0 0.055218694060393023 -0.38743619433203957 0 0.039729182808249552 -0.36158339041897292 0 0.059722780704810997 -0.37895445758325669 0 0.057953622182161497 -0.36367777024591219 0 0.039729182808249552 -0.36158339041897292 0 0.059722780704810997 -0.37895445758325669 0 0.065755205275322956 -0.37019101960397183 0 0.057953622182161497 -0.36367777024591219 0 0.047988360900348859 -0.34231788337078778 0 0.056603055565072537 -0.34972028452138038 0 0.039729182808249552 -0.36158339041897292 0 0.057953622182161497 -0.36367777024591219 0 0.056603055565072537 -0.34972028452138038 0 0.039729182808249552 -0.36158339041897292 0 0.070033316319475417 -0.35882329846826788 0 0.057953622182161497 -0.36367777024591219 0 0.056603055565072537 -0.34972028452138038 0 0.047988360900348859 -0.34231788337078778 0 0.039661950705896301 -0.33368583289737141 0 0.039729182808249552 -0.36158339041897292 0 0.039729182808249552 -0.36158339041897292 0 0.024239671556122361 -0.33573058650589632 0 0.034303750940639449 -0.3869604010248387 0 0.039729182808249552 -0.36158339041897292 0 0.02529541385786294 -0.36926246655491041 0 0.039729182808249552 -0.36158339041897292 0 0.02529541385786294 -0.36926246655491041 0 0.01555115045683025 -0.35491149912017411 0 0.016582465561187618 -0.37900705299089033 0 0.02529541385786294 -0.36926246655491041 0 0.01244318134584467 -0.3666810622011728 0 0.02529541385786294 -0.36926246655491041 0 0.01555115045683025 -0.35491149912017411 0 0.01244318134584467 -0.3666810622011728 0 0.039729182808249552 -0.36158339041897292 0 0.01555115045683025 -0.35491149912017411 0 0.024239671556122361 -0.33573058650589632 0 -0.0032626783328855158 -0.34342855072419909 0 0.01555115045683025 -0.35491149912017411 0 0.024239671556122361 -0.33573058650589632 0 -0.0032626783328855158 -0.34342855072419909 0 -0.0042055800094244816 -0.35594650712409043 0 0.01555115045683025 -0.35491149912017411 0 -0.0042055800094244816 -0.35594650712409043 0 0.01555115045683025 -0.35491149912017411 0 0.01244318134584467 -0.3666810622011728 0 -0.00049818021965669299 -0.36793998380101861 0 0.016582465561187618 -0.37900705299089033 0 0.01244318134584467 -0.3666810622011728 0 -0.0042055800094244816 -0.35594650712409043 0 -0.00049818021965669299 -0.36793998380101861 0 0.01244318134584467 -0.3666810622011728 0 0.03259383107485618 -0.32216086160685459 0 0.017893646034437459 -0.32513873820492922 0 0.0201729828973666 -0.30912561033607 0 0.03259383107485618 -0.32216086160685459 0 0.017893646034437459 -0.32513873820492922 0 0.024239671556122361 -0.33573058650589632 0 0.017893646034437459 -0.32513873820492922 0 0.024239671556122361 -0.33573058650589632 0 -0.0032626783328855158 -0.34342855072419909 0 0.024239671556122361 -0.33573058650589632 0 0.002036169775394434 -0.33074387099242142 0 0.017893646034437459 -0.32513873820492922 0 0.024239671556122361 -0.33573058650589632 0 0.002036169775394434 -0.33074387099242142 0 -0.0032626783328855158 -0.34342855072419909 0 0.024239671556122361 -0.33573058650589632 0 0.017893646034437459 -0.32513873820492922 0 0.0036753886295589318 -0.31760360145895911 0 0.0201729828973666 -0.30912561033607 0 0.017893646034437459 -0.32513873820492922 0 0.002036169775394434 -0.33074387099242142 0 0.0036753886295589318 -0.31760360145895911 0 0.003323148759076668 -0.3022104613585353 0 0.012301823433282221 -0.28445531933498941 0 0.0201729828973666 -0.30912561033607 0 -0.0067545365319594307 -0.30879114732062579 0 0.0036753886295589318 -0.31760360145895911 0 0.003323148759076668 -0.3022104613585353 0 0.0036753886295589318 -0.31760360145895911 0 0.003323148759076668 -0.3022104613585353 0 0.0201729828973666 -0.30912561033607 0 -0.0111586100417972 -0.29085337535245642 0 0.003323148759076668 -0.3022104613585353 0 0.012301823433282221 -0.28445531933498941 0 0.012301823433282221 -0.28445531933498941 0 0.03575802311132157 -0.29661470429986919 0 0.029741476827077559 -0.274804287757409 0 0.012301823433282221 -0.28445531933498941 0 0.0201729828973666 -0.30912561033607 0 0.03575802311132157 -0.29661470429986919 0 0.03259383107485618 -0.32216086160685459 0 0.0201729828973666 -0.30912561033607 0 0.03575802311132157 -0.29661470429986919 0 0.03575802311132157 -0.29661470429986919 0 0.056848029689193842 -0.29711200683874289 0 0.047742216749143397 -0.31231664877682852 0 0.03259383107485618 -0.32216086160685459 0 0.03575802311132157 -0.29661470429986919 0 0.047742216749143397 -0.31231664877682852 0 0.03575802311132157 -0.29661470429986919 0 0.049764809595150457 -0.27573502196882932 0 0.029741476827077559 -0.274804287757409 0 0.071144434350033592 -0.28055630331440262 0 0.056848029689193842 -0.29711200683874289 0 0.049764809595150457 -0.27573502196882932 0 0.03575802311132157 -0.29661470429986919 0 0.056848029689193842 -0.29711200683874289 0 0.049764809595150457 -0.27573502196882932 0 0.067433679880433459 -0.31607754326001469 0 0.056848029689193842 -0.29711200683874289 0 0.047742216749143397 -0.31231664877682852 0 0.064031874058667074 -0.26136407352184809 0 0.049764809595150457 -0.27573502196882932 0 0.039830911129718843 -0.25040190672810919 0 0.064031874058667074 -0.26136407352184809 0 0.039830911129718843 -0.25040190672810919 0 0.062180769977122588 -0.24315331096981641 0 0.071144434350033592 -0.28055630331440262 0 0.064031874058667074 -0.26136407352184809 0 0.049764809595150457 -0.27573502196882932 0 0.049764809595150457 -0.27573502196882932 0 0.039830911129718843 -0.25040190672810919 0 0.029741476827077559 -0.274804287757409 0 0.039830911129718843 -0.25040190672810919 0 0.029741476827077559 -0.274804287757409 0 0.039830911129718843 -0.25040190672810919 0 0.018291290007705342 -0.25675576675020068 0 0.029741476827077559 -0.274804287757409 0 0.012301823433282221 -0.28445531933498941 0 0.018291290007705342 -0.25675576675020068 0 0.029741476827077559 -0.274804287757409 0 -0.0034336848310450759 -0.26363667258707679 0 0.012301823433282221 -0.28445531933498941 0 0.018291290007705342 -0.25675576675020068 0 -0.0034336848310450759 -0.26363667258707679 0 0.018291290007705342 -0.25675576675020068 0 0.0042912403797070262 -0.2364199698216973 0 -0.0034336848310450759 -0.26363667258707679 0 0.0042912403797070262 -0.2364199698216973 0 0.0042912403797070262 -0.2364199698216973 0 0.01201616559045914 -0.20920326705631781 0 0.0042912403797070262 -0.2364199698216973 0 0.02701597310749149 -0.23081644427192291 0 0.01201616559045914 -0.20920326705631781 0 -0.0070180959367191348 -0.21976330680666231 0 0.0042912403797070262 -0.2364199698216973 0 0.01201616559045914 -0.20920326705631781 0 0.018291290007705342 -0.25675576675020068 0 0.0042912403797070262 -0.2364199698216973 0 0.02701597310749149 -0.23081644427192291 0 0.039830911129718843 -0.25040190672810919 0 0.018291290007705342 -0.25675576675020068 0 0.02701597310749149 -0.23081644427192291 0 -0.0080045448269695854 -0.1952016936299778 0 0.0048857991779218428 -0.18923532338487031 0 0.01201616559045914 -0.20920326705631781 0 0.0048857991779218428 -0.18923532338487031 0 0.01201616559045914 -0.20920326705631781 0 0.019741090801213289 -0.18198656429093879 0 0.01201616559045914 -0.20920326705631781 0 0.039875435268107898 -0.19179185448022429 0 0.037767539826684182 -0.21188164723535691 0 0.02701597310749149 -0.23081644427192291 0 0.01201616559045914 -0.20920326705631781 0 0.037767539826684182 -0.21188164723535691 0 0.01201616559045914 -0.20920326705631781 0 0.039875435268107898 -0.19179185448022429 0 0.019741090801213289 -0.18198656429093879 0 0.01201616559045914 -0.20920326705631781 0 0.019741090801213289 -0.18198656429093879 0 0.039875435268107898 -0.19179185448022429 0 0.037767539826684182 -0.21188164723535691 0 0.060009779735002301 -0.20159714466951009 0 0.060009779735002301 -0.20159714466951009 0 0.049920345432360097 -0.22599952569880949 0 0.066532980788161084 -0.2227213204907583 0 0.060009779735002301 -0.20159714466951009 0 0.049920345432360097 -0.22599952569880949 0 0.037767539826684182 -0.21188164723535691 0 0.060009779735002301 -0.20159714466951009 0 0.049920345432360097 -0.22599952569880949 0 0.039875435268107898 -0.19179185448022429 0 0.060009779735002301 -0.20159714466951009 0 0.039875435268107898 -0.19179185448022429 0 0.060009779735002301 -0.20159714466951009 0 0.054096084517258822 -0.19073830860092339 0 0.060009779735002301 -0.20159714466951009 0 0.054096084517258822 -0.19073830860092339 0 0.065022012213757086 -0.18947452182612501 0 0.039875435268107898 -0.19179185448022429 0 0.054096084517258822 -0.19073830860092339 0 0.051477110852167982 -0.18008971342783411 0 0.039830911129718843 -0.25040190672810919 0 0.02701597310749149 -0.23081644427192291 0 0.049920345432360097 -0.22599952569880949 0 0.039830911129718843 -0.25040190672810919 0 0.049920345432360097 -0.22599952569880949 0 0.02701597310749149 -0.23081644427192291 0 0.037767539826684182 -0.21188164723535691 0 0.049920345432360097 -0.22599952569880949 0 0.049920345432360097 -0.22599952569880949 0 0.062180769977122588 -0.24315331096981641 0 0.066532980788161084 -0.2227213204907583 0 0.039830911129718843 -0.25040190672810919 0 0.049920345432360097 -0.22599952569880949 0 0.062180769977122588 -0.24315331096981641 0 0.062180769977122588 -0.24315331096981641 0 0.075259433769633927 -0.238574145068015 0 0.066532980788161084 -0.2227213204907583 0 0.081329954464350651 -0.25197822414875098 0 0.062180769977122588 -0.24315331096981641 0 0.075259433769633927 -0.238574145068015 0 0.081329954464350651 -0.25197822414875098 0 0.089609924057941548 -0.23795884222035399 0 0.1045966638567058 -0.2496348303797036 0 0.081329954464350651 -0.25197822414875098 0 0.075259433769633927 -0.238574145068015 0 0.089609924057941548 -0.23795884222035399 0 0.075259433769633927 -0.238574145068015 0 0.089609924057941548 -0.23795884222035399 0 0.078146131339848851 -0.2271355022877086 0 0.089609924057941548 -0.23795884222035399 0 0.078146131339848851 -0.2271355022877086 0 0.1011011801002575 -0.22484129809521991 0 0.078146131339848851 -0.2271355022877086 0 0.084116926144081797 -0.21189397272593211 0 0.1011011801002575 -0.22484129809521991 0 0.075259433769633927 -0.238574145068015 0 0.078146131339848851 -0.2271355022877086 0 0.066532980788161084 -0.2227213204907583 0 0.078146131339848851 -0.2271355022877086 0 0.066532980788161084 -0.2227213204907583 0 0.073590951554393588 -0.2155518059391503 0 0.060009779735002301 -0.20159714466951009 0 0.066532980788161084 -0.2227213204907583 0 0.066936493662777791 -0.20497040771423841 0 0.066532980788161084 -0.2227213204907583 0 0.066936493662777791 -0.20497040771423841 0 0.073590951554393588 -0.2155518059391503 0 0.060009779735002301 -0.20159714466951009 0 0.066936493662777791 -0.20497040771423841 0 0.066936493662777791 -0.20497040771423841 0 0.07546046873955034 -0.20773925846990851 0 0.073043682802128071 -0.20067433463038209 0 0.066936493662777791 -0.20497040771423841 0 0.07546046873955034 -0.20773925846990851 0 0.073590951554393588 -0.2155518059391503 0 0.07546046873955034 -0.20773925846990851 0 0.073590951554393588 -0.2155518059391503 0 0.084116926144081797 -0.21189397272593211 0 0.060009779735002301 -0.20159714466951009 0 0.065022012213757086 -0.18947452182612501 0 0.060009779735002301 -0.20159714466951009 0 0.065022012213757086 -0.18947452182612501 0 0.067072782306177414 -0.19748769998983531 0 0.060009779735002301 -0.20159714466951009 0 0.066936493662777791 -0.20497040771423841 0 0.067072782306177414 -0.19748769998983531 0 0.066936493662777791 -0.20497040771423841 0 0.067072782306177414 -0.19748769998983531 0 0.073043682802128071 -0.20067433463038209 0 0.07546046873955034 -0.20773925846990851 0 0.073043682802128071 -0.20067433463038209 0 0.079150879516378572 -0.1953230088919381 0 0.067072782306177414 -0.19748769998983531 0 0.073043682802128071 -0.20067433463038209 0 0.079150879516378572 -0.1953230088919381 0 0.065022012213757086 -0.18947452182612501 0 0.067072782306177414 -0.19748769998983531 0 0.079150879516378572 -0.1953230088919381 0 0.065022012213757086 -0.18947452182612501 0 0.079150879516378572 -0.1953230088919381 0 0.075555543830724672 -0.1805417146965351 0 0.079150879516378572 -0.1953230088919381 0 0.097605696343809223 -0.20004776581073619 0 0.094110212587360964 -0.17525423352625261 0 0.079150879516378572 -0.1953230088919381 0 0.084116926144081797 -0.21189397272593211 0 0.097605696343809223 -0.20004776581073619 0 0.07546046873955034 -0.20773925846990851 0 0.079150879516378572 -0.1953230088919381 0 0.084116926144081797 -0.21189397272593211 0 0.078146131339848851 -0.2271355022877086 0 0.073590951554393588 -0.2155518059391503 0 0.084116926144081797 -0.21189397272593211 0 0.084116926144081797 -0.21189397272593211 0 0.097605696343809223 -0.20004776581073619 0 0.1011011801002575 -0.22484129809521991 0 0.097605696343809223 -0.20004776581073619 0 0.1011011801002575 -0.22484129809521991 0 0.097605696343809223 -0.20004776581073619 0 0.1191679701520582 -0.2067671847966038 0 0.1011011801002575 -0.22484129809521991 0 0.097605696343809223 -0.20004776581073619 0 0.094110212587360964 -0.17525423352625261 0 0.097605696343809223 -0.20004776581073619 0 0.1191679701520582 -0.2067671847966038 0 0.1168971249087969 -0.18373711639804749 0 0.1191679701520582 -0.2067671847966038 0 0.1196187432297524 -0.2298069900397863 0 0.1011011801002575 -0.22484129809521991 0 0.1196187432297524 -0.2298069900397863 0 0.1045966638567058 -0.2496348303797036 0 0.13331006931279599 -0.24555192327291309 0 0.1196187432297524 -0.2298069900397863 0 0.1045966638567058 -0.2496348303797036 0 0.1011011801002575 -0.22484129809521991 0 0.1045966638567058 -0.2496348303797036 0 0.1011011801002575 -0.22484129809521991 0 0.089609924057941548 -0.23795884222035399 0 0.1045966638567058 -0.2496348303797036 0 0.1011011801002575 -0.22484129809521991 0 0.1055679170719519 -0.15385852333077099 0 0.096572436889020119 -0.14363383776449301 0 0.10486553507353689 -0.13686872952101531 0 0.1055679170719519 -0.15385852333077099 0 0.096572436889020119 -0.14363383776449301 0 0.090614728830911095 -0.15046070124176919 0 0.1055679170719519 -0.15385852333077099 0 0.090614728830911095 -0.15046070124176919 0 0.096572436889020119 -0.14363383776449301 0 0.091553725486215792 -0.1417759439385694 0 0.093714247721943589 -0.13583102605878891 0 0.10080009245030901 -0.1298734077954653 0 0.10486553507353689 -0.13686872952101531 0 0.093714247721943589 -0.13583102605878891 0 0.096572436889020119 -0.14363383776449301 0 0.10486553507353689 -0.13686872952101531 0 0.093714247721943589 -0.13583102605878891 0 0.10080009245030901 -0.1298734077954653 0 0.094421312804951196 -0.12541642332780709 0 0.093714247721943589 -0.13583102605878891 0 0.10080009245030901 -0.1298734077954653 0 0.094421312804951196 -0.12541642332780709 0 0.1056304838003819 -0.1210571950211298 0 0.10080009245030901 -0.1298734077954653 0 0.1087534806977343 -0.12807553902437399 0 0.10486553507353689 -0.13686872952101531 0 0.10080009245030901 -0.1298734077954653 0 0.1087534806977343 -0.12807553902437399 0 0.1056304838003819 -0.1210571950211298 0 0.1087534806977343 -0.12807553902437399 0 0.10486553507353689 -0.13686872952101531 0 0.1219098819976112 -0.13443045914973539 0 0.1087534806977343 -0.12807553902437399 0 0.1219098819976112 -0.13443045914973539 0 0.1138334321071932 -0.1204352133812531 0 0.1055679170719519 -0.15385852333077099 0 0.1219098819976112 -0.13443045914973539 0 0.1205109646769383 -0.15730097248847569 0 0.1055679170719519 -0.15385852333077099 0 0.10486553507353689 -0.13686872952101531 0 0.1219098819976112 -0.13443045914973539 0 0.1219098819976112 -0.13443045914973539 0 0.1205109646769383 -0.15730097248847569 0 0.1055679170719519 -0.15385852333077099 0 0.1205109646769383 -0.15730097248847569 0 0.1205109646769383 -0.15730097248847569 0 0.1108008023126307 -0.16896743201684741 0 0.13089851006819389 -0.17298498934406939 0 0.1055679170719519 -0.15385852333077099 0 0.1205109646769383 -0.15730097248847569 0 0.1108008023126307 -0.16896743201684741 0 0.1108008023126307 -0.16896743201684741 0 0.1168971249087969 -0.18373711639804749 0 0.13089851006819389 -0.17298498934406939 0 0.1108008023126307 -0.16896743201684741 0 0.1168971249087969 -0.18373711639804749 0 0.094110212587360964 -0.17525423352625261 0 0.097605696343809223 -0.20004776581073619 0 0.1168971249087969 -0.18373711639804749 0 0.094110212587360964 -0.17525423352625261 0 0.1055679170719519 -0.15385852333077099 0 0.1108008023126307 -0.16896743201684741 0 0.094110212587360964 -0.17525423352625261 0 0.1055679170719519 -0.15385852333077099 0 0.094110212587360964 -0.17525423352625261 0 0.090614728830911095 -0.15046070124176919 0 0.094110212587360964 -0.17525423352625261 0 0.082979495534892755 -0.16034121473858451 0 0.075129706851597922 -0.16670084564277149 0 0.094110212587360964 -0.17525423352625261 0 0.082979495534892755 -0.16034121473858451 0 0.090614728830911095 -0.15046070124176919 0 0.094110212587360964 -0.17525423352625261 0 0.090614728830911095 -0.15046070124176919 0 0.079150879516378572 -0.1953230088919381 0 0.094110212587360964 -0.17525423352625261 0 0.075555543830724672 -0.1805417146965351 0 0.094110212587360964 -0.17525423352625261 0 0.075555543830724672 -0.1805417146965351 0 0.075129706851597922 -0.16670084564277149 0 0.075555543830724672 -0.1805417146965351 0 0.063610913579423431 -0.1742110027105872 0 0.075129706851597922 -0.16670084564277149 0 0.065022012213757086 -0.18947452182612501 0 0.075555543830724672 -0.1805417146965351 0 0.063610913579423431 -0.1742110027105872 0 0.075129706851597922 -0.16670084564277149 0 0.062582329575432166 -0.15910794108548121 0 0.074118529160238422 -0.15514343922550591 0 0.082979495534892755 -0.16034121473858451 0 0.075129706851597922 -0.16670084564277149 0 0.074118529160238422 -0.15514343922550591 0 0.063610913579423431 -0.1742110027105872 0 0.075129706851597922 -0.16670084564277149 0 0.062582329575432166 -0.15910794108548121 0 0.062582329575432166 -0.15910794108548121 0 0.063752658972250104 -0.14435681671555589 0 0.074118529160238422 -0.15514343922550591 0 0.063752658972250104 -0.14435681671555589 0 0.078916510899546016 -0.1478025080425393 0 0.063752658972250104 -0.14435681671555589 0 0.078916510899546016 -0.1478025080425393 0 0.072272710585069455 -0.13882129189594261 0 0.063752658972250104 -0.14435681671555589 0 0.074118529160238422 -0.15514343922550591 0 0.078916510899546016 -0.1478025080425393 0 0.074118529160238422 -0.15514343922550591 0 0.078916510899546016 -0.1478025080425393 0 0.090614728830911095 -0.15046070124176919 0 0.082979495534892755 -0.16034121473858451 0 0.074118529160238422 -0.15514343922550591 0 0.090614728830911095 -0.15046070124176919 0 0.078916510899546016 -0.1478025080425393 0 0.090614728830911095 -0.15046070124176919 0 0.078916510899546016 -0.1478025080425393 0 0.089923376919884057 -0.14555692908307791 0 0.090614728830911095 -0.15046070124176919 0 0.078916510899546016 -0.1478025080425393 0 0.091553725486215792 -0.1417759439385694 0 0.093714247721943589 -0.13583102605878891 0 0.078916510899546016 -0.1478025080425393 0 0.091553725486215792 -0.1417759439385694 0 0.089923376919884057 -0.14555692908307791 0 0.096572436889020119 -0.14363383776449301 0 0.091553725486215792 -0.1417759439385694 0 0.089923376919884057 -0.14555692908307791 0 0.089923376919884057 -0.14555692908307791 0 0.090614728830911095 -0.15046070124176919 0 0.096572436889020119 -0.14363383776449301 0 0.089923376919884057 -0.14555692908307791 0 0.090614728830911095 -0.15046070124176919 0 0.078916510899546016 -0.1478025080425393 0 0.094571258093345587 -0.1220626970675366 0 0.094421312804951196 -0.12541642332780709 0 0.078916510899546016 -0.1478025080425393 0 0.094571258093345587 -0.1220626970675366 0 0.078916510899546016 -0.1478025080425393 0 0.084762831610968592 -0.12970892355593791 0 0.078083609131964132 -0.1321694490036989 0 0.094421312804951196 -0.12541642332780709 0 0.078916510899546016 -0.1478025080425393 0 0.093714247721943589 -0.13583102605878891 0 0.078916510899546016 -0.1478025080425393 0 0.084762831610968592 -0.12970892355593791 0 0.094571258093345587 -0.1220626970675366 0 0.084762831610968592 -0.12970892355593791 0 0.088435229779562016 -0.12328711383244879 0 0.094571258093345587 -0.1220626970675366 0 0.078083609131964132 -0.1321694490036989 0 0.08376271878941724 -0.12342014438353199 0 0.076191105736204384 -0.1239030112011979 0 0.084762831610968592 -0.12970892355593791 0 0.078083609131964132 -0.1321694490036989 0 0.08376271878941724 -0.12342014438353199 0 0.084762831610968592 -0.12970892355593791 0 0.088435229779562016 -0.12328711383244879 0 0.08376271878941724 -0.12342014438353199 0 0.078916510899546016 -0.1478025080425393 0 0.078083609131964132 -0.1321694490036989 0 0.072272710585069455 -0.13882129189594261 0 0.078083609131964132 -0.1321694490036989 0 0.068293231975509641 -0.1311536883720423 0 0.076191105736204384 -0.1239030112011979 0 0.078083609131964132 -0.1321694490036989 0 0.072272710585069455 -0.13882129189594261 0 0.068293231975509641 -0.1311536883720423 0 0.063752658972250104 -0.14435681671555589 0 0.072272710585069455 -0.13882129189594261 0 0.068293231975509641 -0.1311536883720423 0 0.068293231975509641 -0.1311536883720423 0 0.05452700149918796 -0.1262733565431208 0 0.068711941935774859 -0.1187640251292222 0 0.063752658972250104 -0.14435681671555589 0 0.068293231975509641 -0.1311536883720423 0 0.05452700149918796 -0.1262733565431208 0 0.063752658972250104 -0.14435681671555589 0 0.036890589113589278 -0.13825293218934209 0 0.045298606055941361 -0.13021876508257671 0 0.063752658972250104 -0.14435681671555589 0 0.05452700149918796 -0.1262733565431208 0 0.045298606055941361 -0.13021876508257671 0 0.063752658972250104 -0.14435681671555589 0 0.050004516331860503 -0.14914581214054529 0 0.036890589113589278 -0.13825293218934209 0 0.063752658972250104 -0.14435681671555589 0 0.036890589113589278 -0.13825293218934209 0 0.062582329575432166 -0.15910794108548121 0 0.063752658972250104 -0.14435681671555589 0 0.050004516331860503 -0.14914581214054529 0 0.050004516331860503 -0.14914581214054529 0 0.041157017255027482 -0.1474383918362841 0 0.036890589113589278 -0.13825293218934209 0 0.036431705119240633 -0.14388038727377059 0 0.034060086873127948 -0.13153742085513689 0 0.02690058883717094 -0.15676199257303791 0 0.050004516331860503 -0.14914581214054529 0 0.041157017255027482 -0.1474383918362841 0 0.039493939805607482 -0.15611298387583661 0 0.041157017255027482 -0.1474383918362841 0 0.039493939805607482 -0.15611298387583661 0 0.036431705119240633 -0.14388038727377059 0 0.039493939805607482 -0.15611298387583661 0 0.036431705119240633 -0.14388038727377059 0 0.02690058883717094 -0.15676199257303791 0 0.041157017255027482 -0.1474383918362841 0 0.036431705119240633 -0.14388038727377059 0 0.036890589113589278 -0.13825293218934209 0 0.036431705119240633 -0.14388038727377059 0 0.034060086873127948 -0.13153742085513689 0 0.036431705119240633 -0.14388038727377059 0 0.036890589113589278 -0.13825293218934209 0 0.034060086873127948 -0.13153742085513689 0 0.036890589113589278 -0.13825293218934209 0 0.034060086873127948 -0.13153742085513689 0 0.045298606055941361 -0.13021876508257671 0 0.065022012213757086 -0.18947452182612501 0 0.063610913579423431 -0.1742110027105872 0 0.051477110852167982 -0.18008971342783411 0 0.054096084517258822 -0.19073830860092339 0 0.065022012213757086 -0.18947452182612501 0 0.051477110852167982 -0.18008971342783411 0 0.063610913579423431 -0.1742110027105872 0 0.051477110852167982 -0.18008971342783411 0 0.050089191580607803 -0.16516337346077339 0 0.062582329575432166 -0.15910794108548121 0 0.050004516331860503 -0.14914581214054529 0 0.050089191580607803 -0.16516337346077339 0 0.063610913579423431 -0.1742110027105872 0 0.062582329575432166 -0.15910794108548121 0 0.050089191580607803 -0.16516337346077339 0 0.039493939805607482 -0.15611298387583661 0 0.036437556966565837 -0.1725160980542724 0 0.02690058883717094 -0.15676199257303791 0 0.039493939805607482 -0.15611298387583661 0 0.050089191580607803 -0.16516337346077339 0 0.036437556966565837 -0.1725160980542724 0 0.050004516331860503 -0.14914581214054529 0 0.039493939805607482 -0.15611298387583661 0 0.050089191580607803 -0.16516337346077339 0 0.039875435268107898 -0.19179185448022429 0 0.036437556966565837 -0.1725160980542724 0 0.019741090801213289 -0.18198656429093879 0 0.039875435268107898 -0.19179185448022429 0 0.051477110852167982 -0.18008971342783411 0 0.036437556966565837 -0.1725160980542724 0 0.051477110852167982 -0.18008971342783411 0 0.050089191580607803 -0.16516337346077339 0 0.036437556966565837 -0.1725160980542724 0 0.039875435268107898 -0.19179185448022429 0 0.019741090801213289 -0.18198656429093879 0 0.019741090801213289 -0.18198656429093879 0 0.02690058883717094 -0.15676199257303791 0 0.036437556966565837 -0.1725160980542724 0 0.019741090801213289 -0.18198656429093879 0 0.02690058883717094 -0.15676199257303791 0 0.019741090801213289 -0.18198656429093879 0 0.02690058883717094 -0.15676199257303791 0 0.01198569403923965 -0.16624553699534331 0 -0.00062364201311971884 -0.1561696486636899 0 -0.0051888141902375687 -0.1698458684150719 0 0.01198569403923965 -0.16624553699534331 0 -0.00062364201311971884 -0.1561696486636899 0 0.02690058883717094 -0.15676199257303791 0 0.01198569403923965 -0.16624553699534331 0 -0.0051888141902375687 -0.1698458684150719 0 0.019741090801213289 -0.18198656429093879 0 -0.0051888141902375687 -0.1698458684150719 0 -0.0046529789385846149 -0.1779333961074297 0 0.019741090801213289 -0.18198656429093879 0 -0.0046529789385846149 -0.1779333961074297 0 0.0048857991779218428 -0.18923532338487031 0 0.019741090801213289 -0.18198656429093879 0 -0.0051888141902375687 -0.1698458684150719 0 0.019741090801213289 -0.18198656429093879 0 0.01198569403923965 -0.16624553699534331 0 0.034060086873127948 -0.13153742085513689 0 0.0017828297527261699 -0.139357474086204 0 0.0091259489502686364 -0.1158979362851186 0 0.034060086873127948 -0.13153742085513689 0 0.02690058883717094 -0.15676199257303791 0 0.0017828297527261699 -0.139357474086204 0 0.034060086873127948 -0.13153742085513689 0 0.02690058883717094 -0.15676199257303791 0 -0.00062364201311971884 -0.1561696486636899 0 0.02690058883717094 -0.15676199257303791 0 0.0017828297527261699 -0.139357474086204 0 -0.010652485253781679 -0.12097888809487579 0 0.0017828297527261699 -0.139357474086204 0 0.0091259489502686364 -0.1158979362851186 0 0.034060086873127948 -0.13153742085513689 0 0.0091259489502686364 -0.1158979362851186 0 0.028890958247512089 -0.1046349540926082 0 -0.0076230775566098891 -0.1028627430724557 0 0.0091259489502686364 -0.1158979362851186 0 0.00765204248890697 -0.092104689521178201 0 0.0091259489502686364 -0.1158979362851186 0 0.028890958247512089 -0.1046349540926082 0 0.00765204248890697 -0.092104689521178201 0 0.00765204248890697 -0.092104689521178201 0 0.0041624543485472504 -0.06799419051346825 0 0.023721829621899709 -0.07773248733007887 0 0.0041624543485472504 -0.06799419051346825 0 0.023721829621899709 -0.07773248733007887 0 0.0041624543485472504 -0.06799419051346825 0 0.02088197164271469 -0.06295259105960116 0 0.023721829621899709 -0.07773248733007887 0 0.023721829621899709 -0.07773248733007887 0 0.030671527175063131 -0.081192629416036693 0 0.033474381547934327 -0.065394406399896396 0 0.02088197164271469 -0.06295259105960116 0 0.023721829621899709 -0.07773248733007887 0 0.02088197164271469 -0.06295259105960116 0 0.023721829621899709 -0.07773248733007887 0 0.033474381547934327 -0.065394406399896396 0 0.028890958247512089 -0.1046349540926082 0 0.023721829621899709 -0.07773248733007887 0 0.028890958247512089 -0.1046349540926082 0 0.023721829621899709 -0.07773248733007887 0 0.030671527175063131 -0.081192629416036693 0 0.028890958247512089 -0.1046349540926082 0 0.00765204248890697 -0.092104689521178201 0 0.023721829621899709 -0.07773248733007887 0 0.023721829621899709 -0.07773248733007887 0 0.030671527175063131 -0.081192629416036693 0 0.030671527175063131 -0.081192629416036693 0 0.036756650722728691 -0.093443610999364088 0 0.047334114882790032 -0.084769942208823418 0 0.030671527175063131 -0.081192629416036693 0 0.041362788123351812 -0.073185795227605724 0 0.047334114882790032 -0.084769942208823418 0 0.028890958247512089 -0.1046349540926082 0 0.030671527175063131 -0.081192629416036693 0 0.036756650722728691 -0.093443610999364088 0 0.030671527175063131 -0.081192629416036693 0 0.041362788123351812 -0.073185795227605724 0 0.033474381547934327 -0.065394406399896396 0 0.041362788123351812 -0.073185795227605724 0 0.033474381547934327 -0.065394406399896396 0 0.053971128887619728 -0.061386202885666361 0 0.047334114882790032 -0.084769942208823418 0 0.053971128887619728 -0.061386202885666361 0 0.065948404324746385 -0.080529786000612821 0 0.041362788123351812 -0.073185795227605724 0 0.047334114882790032 -0.084769942208823418 0 0.053971128887619728 -0.061386202885666361 0 0.047334114882790032 -0.084769942208823418 0 0.053971128887619728 -0.061386202885666361 0 0.047334114882790032 -0.084769942208823418 0 0.059291578869333401 -0.098262262636637426 0 0.065948404324746385 -0.080529786000612821 0 0.047334114882790032 -0.084769942208823418 0 0.059291578869333401 -0.098262262636637426 0 0.040697100877960288 -0.1081536815319806 0 0.059291578869333401 -0.098262262636637426 0 0.05805344006003893 -0.11233405848524899 0 0.040697100877960288 -0.1081536815319806 0 0.05452700149918796 -0.1262733565431208 0 0.05805344006003893 -0.11233405848524899 0 0.040697100877960288 -0.1081536815319806 0 0.05452700149918796 -0.1262733565431208 0 0.05805344006003893 -0.11233405848524899 0 0.068711941935774859 -0.1187640251292222 0 0.05452700149918796 -0.1262733565431208 0 0.045298606055941361 -0.13021876508257671 0 0.040697100877960288 -0.1081536815319806 0 0.034060086873127948 -0.13153742085513689 0 0.045298606055941361 -0.13021876508257671 0 0.040697100877960288 -0.1081536815319806 0 0.034060086873127948 -0.13153742085513689 0 0.028890958247512089 -0.1046349540926082 0 0.040697100877960288 -0.1081536815319806 0 0.034060086873127948 -0.13153742085513689 0 0.028890958247512089 -0.1046349540926082 0 0.034060086873127948 -0.13153742085513689 0 0.040697100877960288 -0.1081536815319806 0 0.047334114882790032 -0.084769942208823418 0 0.040697100877960288 -0.1081536815319806 0 0.036756650722728691 -0.093443610999364088 0 0.047334114882790032 -0.084769942208823418 0 0.040697100877960288 -0.1081536815319806 0 0.028890958247512089 -0.1046349540926082 0 0.036756650722728691 -0.093443610999364088 0 0.040697100877960288 -0.1081536815319806 0 0.021600236337897379 -0.0042573374784961784 0 0.02247033242853224 -0.02227485878848838 0 0.035803585341465043 -0.01528522052746858 0 0.021600236337897379 -0.0042573374784961784 0 0.0073598710512064588 -0.017051605744856251 0 0.02247033242853224 -0.02227485878848838 0 -0.0025007363194086028 -0.0051543784696279817 0 0.021600236337897379 -0.0042573374784961784 0 0.0073598710512064588 -0.017051605744856251 0 0.0073598710512064588 -0.017051605744856251 0 0.02247033242853224 -0.02227485878848838 0 0.0017971729759412511 -0.035939689944323977 0 0.02247033242853224 -0.02227485878848838 0 0.031202657934193918 -0.036971076753415939 0 0.03738973453309323 -0.026756738718448029 0 0.031202657934193918 -0.036971076753415939 0 0.0027852568614936749 -0.038647009421175223 0 0.023094519002947241 -0.0512472226640458 0 0.02247033242853224 -0.02227485878848838 0 0.031202657934193918 -0.036971076753415939 0 0.0017971729759412511 -0.035939689944323977 0 0.031202657934193918 -0.036971076753415939 0 0.0017971729759412511 -0.035939689944323977 0 0.031202657934193918 -0.036971076753415939 0 0.0027852568614936749 -0.038647009421175223 0 0.0017971729759412511 -0.035939689944323977 0 0.0041624543485472504 -0.06799419051346825 0 0.02088197164271469 -0.06295259105960116 0 0.0081310905596524187 -0.053877868703239302 0 0.0027852568614936749 -0.038647009421175223 0 0.0081310905596524187 -0.053877868703239302 0 0.023094519002947241 -0.0512472226640458 0 0.02088197164271469 -0.06295259105960116 0 0.0081310905596524187 -0.053877868703239302 0 0.023094519002947241 -0.0512472226640458 0 0.02088197164271469 -0.06295259105960116 0 0.033474381547934327 -0.065394406399896396 0 0.023094519002947241 -0.0512472226640458 0 0.033474381547934327 -0.065394406399896396 0 0.023094519002947241 -0.0512472226640458 0 0.042091755471694407 -0.04964038364694677 0 0.033474381547934327 -0.065394406399896396 0 0.042091755471694407 -0.04964038364694677 0 0.053971128887619728 -0.061386202885666361 0 0.053971128887619728 -0.061386202885666361 0 0.060608142892446579 -0.038002463562508602 0 0.042091755471694407 -0.04964038364694677 0 0.053971128887619728 -0.061386202885666361 0 0.060608142892446579 -0.038002463562508602 0 0.053971128887619728 -0.061386202885666361 0 0.060608142892446579 -0.038002463562508602 0 0.069083937920664681 -0.049882581961912628 0 0.0618731457121941 -0.033545565300953109 0 0.060608142892446579 -0.038002463562508602 0 0.03738973453309323 -0.026756738718448029 0 0.0618731457121941 -0.033545565300953109 0 0.060608142892446579 -0.038002463562508602 0 0.031202657934193918 -0.036971076753415939 0 0.042091755471694407 -0.04964038364694677 0 0.060608142892446579 -0.038002463562508602 0 0.031202657934193918 -0.036971076753415939 0 0.060608142892446579 -0.038002463562508602 0 0.03738973453309323 -0.026756738718448029 0 0.031202657934193918 -0.036971076753415939 0 0.060608142892446579 -0.038002463562508602 0 0.031202657934193918 -0.036971076753415939 0 0.023094519002947241 -0.0512472226640458 0 0.042091755471694407 -0.04964038364694677 0 0.03738973453309323 -0.026756738718448029 0 0.052508170585205273 -0.019776432032636231 0 0.035803585341465043 -0.01528522052746858 0 0.02247033242853224 -0.02227485878848838 0 0.03738973453309323 -0.026756738718448029 0 0.035803585341465043 -0.01528522052746858 0 0.0618731457121941 -0.033545565300953109 0 0.052508170585205273 -0.019776432032636231 0 0.067710228959486876 -0.01298016752375167 0 0.0618731457121941 -0.033545565300953109 0 0.03738973453309323 -0.026756738718448029 0 0.0618731457121941 -0.033545565300953109 0 0.03738973453309323 -0.026756738718448029 0 0.052508170585205273 -0.019776432032636231 0 0.056734102163932411 0.0083852866623192659 0 0.045049452822597078 -0.003360735619274113 0 0.067710228959486876 -0.01298016752375167 0 0.052508170585205273 -0.019776432032636231 0 0.045049452822597078 -0.003360735619274113 0 0.067710228959486876 -0.01298016752375167 0 0.052508170585205273 -0.019776432032636231 0 0.045049452822597078 -0.003360735619274113 0 0.035803585341465043 -0.01528522052746858 0 0.021600236337897379 -0.0042573374784961784 0 0.045049452822597078 -0.003360735619274113 0 0.035803585341465043 -0.01528522052746858 0 0.073547312206776419 0.0075852302534506694 0 0.091180058974594053 0.00073809788061110189 0 0.080329573924895967 -0.009459000413569181 0 0.091180058974594053 0.00073809788061110189 0 0.080329573924895967 -0.009459000413569181 0 0.0923588474521779 -0.01685226847260007 0 0.073547312206776419 0.0075852302534506694 0 0.080329573924895967 -0.009459000413569181 0 0.067710228959486876 -0.01298016752375167 0 0.073547312206776419 0.0075852302534506694 0 0.067710228959486876 -0.01298016752375167 0 0.080329573924895967 -0.009459000413569181 0 0.067710228959486876 -0.01298016752375167 0 0.076851422031444613 -0.02578589420555592 0 0.0618731457121941 -0.033545565300953109 0 0.067710228959486876 -0.01298016752375167 0 0.0618731457121941 -0.033545565300953109 0 0.067710228959486876 -0.01298016752375167 0 0.076851422031444613 -0.02578589420555592 0 0.076851422031444613 -0.02578589420555592 0 0.0923588474521779 -0.01685226847260007 0 0.096907285178992025 -0.031842014886754637 0 0.080329573924895967 -0.009459000413569181 0 0.076851422031444613 -0.02578589420555592 0 0.0923588474521779 -0.01685226847260007 0 0.083574266203247011 -0.039562910783659422 0 0.091277489942145032 -0.053922224592993062 0 0.10527538669429989 -0.045580256266365783 0 0.076851422031444613 -0.02578589420555592 0 0.083574266203247011 -0.039562910783659422 0 0.096907285178992025 -0.031842014886754637 0 0.083574266203247011 -0.039562910783659422 0 0.075750112799541691 -0.038533562711119698 0 0.078833164209240511 -0.048900916058176147 0 0.0618731457121941 -0.033545565300953109 0 0.083574266203247011 -0.039562910783659422 0 0.0618731457121941 -0.033545565300953109 0 0.076851422031444613 -0.02578589420555592 0 0.083574266203247011 -0.039562910783659422 0 0.0618731457121941 -0.033545565300953109 0 0.083574266203247011 -0.039562910783659422 0 0.075750112799541691 -0.038533562711119698 0 0.060608142892446579 -0.038002463562508602 0 0.075750112799541691 -0.038533562711119698 0 0.0618731457121941 -0.033545565300953109 0 0.060608142892446579 -0.038002463562508602 0 0.075750112799541691 -0.038533562711119698 0 0.060608142892446579 -0.038002463562508602 0 0.075750112799541691 -0.038533562711119698 0 0.069083937920664681 -0.049882581961912628 0 0.075750112799541691 -0.038533562711119698 0 0.069083937920664681 -0.049882581961912628 0 0.078833164209240511 -0.048900916058176147 0 0.053971128887619728 -0.061386202885666361 0 0.069083937920664681 -0.049882581961912628 0 0.076724805718121583 -0.062586202579169303 0 0.069083937920664681 -0.049882581961912628 0 0.078833164209240511 -0.048900916058176147 0 0.076724805718121583 -0.062586202579169303 0 0.078833164209240511 -0.048900916058176147 0 0.091277489942145032 -0.053922224592993062 0 0.076724805718121583 -0.062586202579169303 0 0.083574266203247011 -0.039562910783659422 0 0.078833164209240511 -0.048900916058176147 0 0.091277489942145032 -0.053922224592993062 0 0.091277489942145032 -0.053922224592993062 0 0.1097907778716227 -0.062353268490630949 0 0.10527538669429989 -0.045580256266365783 0 0.1097907778716227 -0.062353268490630949 0 0.10527538669429989 -0.045580256266365783 0 0.12697650718535219 -0.051597601749074858 0 0.10527538669429989 -0.045580256266365783 0 0.12697650718535219 -0.051597601749074858 0 0.1097907778716227 -0.062353268490630949 0 0.12579108975892769 -0.070977664217662467 0 0.12697650718535219 -0.051597601749074858 0 0.11816123796508179 -0.040867758974969123 0 0.1280163696491968 -0.03459717720762439 0 0.12697650718535219 -0.051597601749074858 0 0.11816123796508179 -0.040867758974969123 0 0.1123766883314776 -0.031696000676814197 0 0.10527538669429989 -0.045580256266365783 0 0.11816123796508179 -0.040867758974969123 0 0.10527538669429989 -0.045580256266365783 0 0.12697650718535219 -0.051597601749074858 0 0.11816123796508179 -0.040867758974969123 0 0.1123766883314776 -0.031696000676814197 0 0.1280163696491968 -0.03459717720762439 0 0.1123766883314776 -0.031696000676814197 0 0.10527538669429989 -0.045580256266365783 0 0.096907285178992025 -0.031842014886754637 0 0.083574266203247011 -0.039562910783659422 0 0.10527538669429989 -0.045580256266365783 0 0.083574266203247011 -0.039562910783659422 0 0.10527538669429989 -0.045580256266365783 0 0.096907285178992025 -0.031842014886754637 0 0.0923588474521779 -0.01685226847260007 0 0.096907285178992025 -0.031842014886754637 0 0.1078391623285713 -0.016824597008347469 0 0.1123766883314776 -0.031696000676814197 0 0.096907285178992025 -0.031842014886754637 0 0.1078391623285713 -0.016824597008347469 0 0.1123766883314776 -0.031696000676814197 0 0.1218808979227336 -0.019799817689552631 0 0.1280163696491968 -0.03459717720762439 0 0.1123766883314776 -0.031696000676814197 0 0.1218808979227336 -0.019799817689552631 0 0.1123766883314776 -0.031696000676814197 0 0.1078391623285713 -0.016824597008347469 0 0.1218808979227336 -0.019799817689552631 0 0.1078391623285713 -0.016824597008347469 0 0.1218808979227336 -0.019799817689552631 0 0.11975731359904471 -0.0086746694603672507 0 0.1078391623285713 -0.016824597008347469 0 0.11975731359904471 -0.0086746694603672507 0 0.1103786555474302 -0.003433802723639526 0 0.1218808979227336 -0.019799817689552631 0 0.11975731359904471 -0.0086746694603672507 0 0.13138510751398111 -0.0079036347022841107 0 0.1195703238469088 0.00072067968360169793 0 0.12773595140078731 0.0024735933284422431 0 0.1274897344346434 -0.0048068443219815016 0 0.1195703238469088 0.00072067968360169793 0 0.11975731359904471 -0.0086746694603672507 0 0.1274897344346434 -0.0048068443219815016 0 0.1195703238469088 0.00072067968360169793 0 0.11975731359904471 -0.0086746694603672507 0 0.1103786555474302 -0.003433802723639526 0 0.1030268317563607 0.0039065205059949162 0 0.1103786555474302 -0.003433802723639526 0 0.1009567112118268 -0.0064932099635962087 0 0.091180058974594053 0.00073809788061110189 0 0.0923588474521779 -0.01685226847260007 0 0.1009567112118268 -0.0064932099635962087 0 0.1078391623285713 -0.016824597008347469 0 0.1103786555474302 -0.003433802723639526 0 0.1009567112118268 -0.0064932099635962087 0 0.0923588474521779 -0.01685226847260007 0 0.1078391623285713 -0.016824597008347469 0 0.1009567112118268 -0.0064932099635962087 0 0.091180058974594053 0.00073809788061110189 0 0.1030268317563607 0.0039065205059949162 0 0.1009567112118268 -0.0064932099635962087 0 0.083627897789509478 -0.10396227244914941 0 0.082104026848356076 -0.11400774911749439 0 0.071808961468169397 -0.105991341934197 0 0.083627897789509478 -0.10396227244914941 0 0.08895537126265704 -0.094279656976584844 0 0.075160308134994427 -0.094210228208963187 0 0.083627897789509478 -0.10396227244914941 0 0.08895537126265704 -0.094279656976584844 0 0.094973183425628729 -0.1033804881203534 0 0.088817388191063246 -0.1113407889464597 0 0.094973183425628729 -0.1033804881203534 0 0.095486801833275181 -0.110383416234588 0 0.083627897789509478 -0.10396227244914941 0 0.088817388191063246 -0.1113407889464597 0 0.094973183425628729 -0.1033804881203534 0 0.088817388191063246 -0.1113407889464597 0 0.088891005530201087 -0.11861292639599059 0 0.095486801833275181 -0.110383416234588 0 0.088891005530201087 -0.11861292639599059 0 0.094571258093345587 -0.1220626970675366 0 0.095486801833275181 -0.110383416234588 0 0.088817388191063246 -0.1113407889464597 0 0.088891005530201087 -0.11861292639599059 0 0.082104026848356076 -0.11400774911749439 0 0.088891005530201087 -0.11861292639599059 0 0.088435229779562016 -0.12328711383244879 0 0.094571258093345587 -0.1220626970675366 0 0.088891005530201087 -0.11861292639599059 0 0.088435229779562016 -0.12328711383244879 0 0.08376271878941724 -0.12342014438353199 0 0.08376271878941724 -0.12342014438353199 0 0.082104026848356076 -0.11400774911749439 0 0.076191105736204384 -0.1239030112011979 0 0.088891005530201087 -0.11861292639599059 0 0.08376271878941724 -0.12342014438353199 0 0.082104026848356076 -0.11400774911749439 0 0.083627897789509478 -0.10396227244914941 0 0.088817388191063246 -0.1113407889464597 0 0.082104026848356076 -0.11400774911749439 0 0.082104026848356076 -0.11400774911749439 0 0.068711941935774859 -0.1187640251292222 0 0.071808961468169397 -0.105991341934197 0 0.082104026848356076 -0.11400774911749439 0 0.076191105736204384 -0.1239030112011979 0 0.068711941935774859 -0.1187640251292222 0 0.068293231975509641 -0.1311536883720423 0 0.076191105736204384 -0.1239030112011979 0 0.068711941935774859 -0.1187640251292222 0 0.05805344006003893 -0.11233405848524899 0 0.068711941935774859 -0.1187640251292222 0 0.071808961468169397 -0.105991341934197 0 0.059291578869333401 -0.098262262636637426 0 0.071808961468169397 -0.105991341934197 0 0.075160308134994427 -0.094210228208963187 0 0.059291578869333401 -0.098262262636637426 0 0.05805344006003893 -0.11233405848524899 0 0.071808961468169397 -0.105991341934197 0 0.083627897789509478 -0.10396227244914941 0 0.071808961468169397 -0.105991341934197 0 0.075160308134994427 -0.094210228208963187 0 0.059291578869333401 -0.098262262636637426 0 0.075160308134994427 -0.094210228208963187 0 0.065948404324746385 -0.080529786000612821 0 0.075160308134994427 -0.094210228208963187 0 0.065948404324746385 -0.080529786000612821 0 0.083208489455619233 -0.081963877484417302 0 0.053971128887619728 -0.061386202885666361 0 0.065948404324746385 -0.080529786000612821 0 0.076724805718121583 -0.062586202579169303 0 0.065948404324746385 -0.080529786000612821 0 0.076724805718121583 -0.062586202579169303 0 0.083208489455619233 -0.081963877484417302 0 0.091277489942145032 -0.053922224592993062 0 0.076724805718121583 -0.062586202579169303 0 0.097973064566791557 -0.072516054435691438 0 0.076724805718121583 -0.062586202579169303 0 0.083208489455619233 -0.081963877484417302 0 0.097973064566791557 -0.072516054435691438 0 0.08895537126265704 -0.094279656976584844 0 0.075160308134994427 -0.094210228208963187 0 0.083208489455619233 -0.081963877484417302 0 0.083208489455619233 -0.081963877484417302 0 0.095408999677799866 -0.085626230190183131 0 0.097973064566791557 -0.072516054435691438 0 0.08895537126265704 -0.094279656976584844 0 0.083208489455619233 -0.081963877484417302 0 0.095408999677799866 -0.085626230190183131 0 0.10410685586315779 -0.086397333804597132 0 0.11145112908222141 -0.079525809681998266 0 0.1101811739261372 -0.096520180642599859 0 0.08895537126265704 -0.094279656976584844 0 0.09872511683107614 -0.093240777946863682 0 0.095408999677799866 -0.085626230190183131 0 0.09872511683107614 -0.093240777946863682 0 0.095408999677799866 -0.085626230190183131 0 0.10410685586315779 -0.086397333804597132 0 0.095408999677799866 -0.085626230190183131 0 0.10410685586315779 -0.086397333804597132 0 0.097973064566791557 -0.072516054435691438 0 0.10410685586315779 -0.086397333804597132 0 0.097973064566791557 -0.072516054435691438 0 0.11145112908222141 -0.079525809681998266 0 0.09872511683107614 -0.093240777946863682 0 0.10410685586315779 -0.086397333804597132 0 0.1101811739261372 -0.096520180642599859 0 0.1097907778716227 -0.062353268490630949 0 0.097973064566791557 -0.072516054435691438 0 0.11145112908222141 -0.079525809681998266 0 0.091277489942145032 -0.053922224592993062 0 0.1097907778716227 -0.062353268490630949 0 0.097973064566791557 -0.072516054435691438 0 0.1097907778716227 -0.062353268490630949 0 0.11145112908222141 -0.079525809681998266 0 0.12579108975892769 -0.070977664217662467 0 0.11145112908222141 -0.079525809681998266 0 0.1101811739261372 -0.096520180642599859 0 0.12579108975892769 -0.070977664217662467 0 0.12103738666483881 -0.082916943794284936 0 0.1101811739261372 -0.096520180642599859 0 0.12579108975892769 -0.070977664217662467 0 0.1101811739261372 -0.096520180642599859 0 0.12579108975892769 -0.070977664217662467 0 0.12103738666483881 -0.082916943794284936 0 0.12495229426826721 -0.084690900285388365 0 0.12579108975892769 -0.070977664217662467 0 0.12103738666483881 -0.082916943794284936 0 0.12495229426826721 -0.084690900285388365 0 0.12470771663895749 -0.088689432472254803 0 0.12103738666483881 -0.082916943794284936 0 0.12495229426826721 -0.084690900285388365 0 0.12103738666483881 -0.082916943794284936 0 0.12470771663895749 -0.088689432472254803 0 0.1101811739261372 -0.096520180642599859 0 0.12495229426826721 -0.084690900285388365 0 0.12470771663895749 -0.088689432472254803 0 0.12470771663895749 -0.088689432472254803 0 0.1095645147219546 -0.10705292790003119 0 0.12470771663895749 -0.088689432472254803 0 0.1095645147219546 -0.10705292790003119 0 0.1233087993182841 -0.1115599458109951 0 0.12470771663895749 -0.088689432472254803 0 0.1095645147219546 -0.10705292790003119 0 0.1101811739261372 -0.096520180642599859 0 0.12470771663895749 -0.088689432472254803 0 0.1233087993182841 -0.1115599458109951 0 0.1095645147219546 -0.10705292790003119 0 0.1101811739261372 -0.096520180642599859 0 0.094571258093345587 -0.1220626970675366 0 0.1101811739261372 -0.096520180642599859 0 0.094571258093345587 -0.1220626970675366 0 0.1101811739261372 -0.096520180642599859 0 0.094973183425628729 -0.1033804881203534 0 0.095486801833275181 -0.110383416234588 0 0.09872511683107614 -0.093240777946863682 0 0.1101811739261372 -0.096520180642599859 0 0.094973183425628729 -0.1033804881203534 0 0.08895537126265704 -0.094279656976584844 0 0.09872511683107614 -0.093240777946863682 0 0.094973183425628729 -0.1033804881203534 0 0.094421312804951196 -0.12541642332780709 0 0.1095645147219546 -0.10705292790003119 0 0.094571258093345587 -0.1220626970675366 0 0.094421312804951196 -0.12541642332780709 0 0.1095645147219546 -0.10705292790003119 0 0.1101811739261372 -0.096520180642599859 0 0.094571258093345587 -0.1220626970675366 0 0.095486801833275181 -0.110383416234588 0 0.094421312804951196 -0.12541642332780709 0 0.1095645147219546 -0.10705292790003119 0 0.1056304838003819 -0.1210571950211298 0 0.1219098819976112 -0.13443045914973539 0 0.1233087993182841 -0.1115599458109951 0 0.1219098819976112 -0.13443045914973539 0 0.1138334321071932 -0.1204352133812531 0 0.1233087993182841 -0.1115599458109951 0 0.1087534806977343 -0.12807553902437399 0 0.1056304838003819 -0.1210571950211298 0 0.1138334321071932 -0.1204352133812531 0 0.1095645147219546 -0.10705292790003119 0 0.1138334321071932 -0.1204352133812531 0 0.1233087993182841 -0.1115599458109951 0 0.1095645147219546 -0.10705292790003119 0 0.1056304838003819 -0.1210571950211298 0 0.1138334321071932 -0.1204352133812531 0 0.1219098819976112 -0.13443045914973539 0 0.1233087993182841 -0.1115599458109951 0 0.1427888153649888 -0.1204522793201382 0 0.1233087993182841 -0.1115599458109951 0 0.1427888153649888 -0.1204522793201382 0 0.13253318828024749 -0.100006471771656 0 0.1427888153649888 -0.1204522793201382 0 0.16219731042411181 -0.1015676812630394 0 0.14468597350103971 -0.093632794172643918 0 0.16219731042411181 -0.1015676812630394 0 0.1427888153649888 -0.1204522793201382 0 0.14468597350103971 -0.093632794172643918 0 0.16219731042411181 -0.1015676812630394 0 0.12470771663895749 -0.088689432472254803 0 0.1233087993182841 -0.1115599458109951 0 0.13253318828024749 -0.100006471771656 0 0.1427888153649888 -0.1204522793201382 0 0.13253318828024749 -0.100006471771656 0 0.14468597350103971 -0.093632794172643918 0 0.1271746365779676 -0.08569790708224842 0 0.13859972611863669 -0.071843203123873003 0 0.14468597350103971 -0.093632794172643918 0 0.13253318828024749 -0.100006471771656 0 0.1271746365779676 -0.08569790708224842 0 0.14468597350103971 -0.093632794172643918 0 0.12470771663895749 -0.088689432472254803 0 0.13253318828024749 -0.100006471771656 0 0.1271746365779676 -0.08569790708224842 0 0.1271746365779676 -0.08569790708224842 0 0.14468597350103971 -0.093632794172643918 0 0.12495229426826721 -0.084690900285388365 0 0.12470771663895749 -0.088689432472254803 0 0.1271746365779676 -0.08569790708224842 0 0.12470771663895749 -0.088689432472254803 0 0.1271746365779676 -0.08569790708224842 0 0.12495229426826721 -0.084690900285388365 0 0.1271746365779676 -0.08569790708224842 0 0.12579108975892769 -0.070977664217662467 0 0.12495229426826721 -0.084690900285388365 0 0.1271746365779676 -0.08569790708224842 0 0.1271746365779676 -0.08569790708224842 0 0.13859972611863669 -0.071843203123873003 0 0.12579108975892769 -0.070977664217662467 0 0.13859972611863669 -0.071843203123873003 0 0.13609048825056039 -0.054124751110544753 0 0.12579108975892769 -0.070977664217662467 0 0.13609048825056039 -0.054124751110544753 0 0.1271746365779676 -0.08569790708224842 0 0.12579108975892769 -0.070977664217662467 0 0.13859972611863669 -0.071843203123873003 0 0.12495229426826721 -0.084690900285388365 0 0.12579108975892769 -0.070977664217662467 0 0.13859972611863669 -0.071843203123873003 0 0.15002481565930481 -0.05798849916549656 0 0.13859972611863669 -0.071843203123873003 0 0.15261894660089639 -0.073105312386855512 0 0.15002481565930481 -0.05798849916549656 0 0.15261894660089639 -0.073105312386855512 0 0.14468597350103971 -0.093632794172643918 0 0.16193876609583749 -0.082454382908863089 0 0.13859972611863669 -0.071843203123873003 0 0.15261894660089639 -0.073105312386855512 0 0.14468597350103971 -0.093632794172643918 0 0.14468597350103971 -0.093632794172643918 0 0.16193876609583749 -0.082454382908863089 0 0.16219731042411181 -0.1015676812630394 0 0.16193876609583749 -0.082454382908863089 0 0.1817585770801517 -0.082534435400248615 0 0.16219731042411181 -0.1015676812630394 0 0.15261894660089639 -0.073105312386855512 0 0.16193876609583749 -0.082454382908863089 0 0.16902059411631351 -0.063255700079655364 0 0.15261894660089639 -0.073105312386855512 0 0.16902059411631351 -0.063255700079655364 0 0.15002481565930481 -0.05798849916549656 0 0.16193876609583749 -0.082454382908863089 0 0.16902059411631351 -0.063255700079655364 0 0.1817585770801517 -0.082534435400248615 0 0.16902059411631351 -0.063255700079655364 0 0.18413859241245881 -0.064846345234451513 0 0.1817585770801517 -0.082534435400248615 0 0.1817585770801517 -0.082534435400248615 0 0.16219731042411181 -0.1015676812630394 0 0.1817585770801517 -0.082534435400248615 0 0.16219731042411181 -0.1015676812630394 0 0.18920832928981859 -0.099252541621767082 0 0.16219731042411181 -0.1015676812630394 0 0.18890943094126811 -0.1136717062829347 0 0.16219731042411181 -0.1015676812630394 0 0.18890943094126811 -0.1136717062829347 0 0.18920832928981859 -0.099252541621767082 0 0.16783428167475231 -0.1243497272034684 0 0.16219731042411181 -0.1015676812630394 0 0.18890943094126811 -0.1136717062829347 0 0.1427888153649888 -0.1204522793201382 0 0.16783428167475231 -0.1243497272034684 0 0.16219731042411181 -0.1015676812630394 0 0.13138510751398111 -0.0079036347022841107 0 0.15851599956922291 -0.01172037389334888 0 0.15641862808551901 -0.001228882756050856 0 0.13138510751398111 -0.0079036347022841107 0 0.15677245626684569 -0.020282832075577951 0 0.15851599956922291 -0.01172037389334888 0 0.12773595140078731 0.0024735933284422431 0 0.1274897344346434 -0.0048068443219815016 0 0.13138510751398111 -0.0079036347022841107 0 0.11975731359904471 -0.0086746694603672507 0 0.1274897344346434 -0.0048068443219815016 0 0.13138510751398111 -0.0079036347022841107 0 0.1274897344346434 -0.0048068443219815016 0 0.13138510751398111 -0.0079036347022841107 0 0.1218808979227336 -0.019799817689552631 0 0.13138510751398111 -0.0079036347022841107 0 0.1218808979227336 -0.019799817689552631 0 0.13138510751398111 -0.0079036347022841107 0 0.13593437277846701 -0.025533024883740311 0 0.13138510751398111 -0.0079036347022841107 0 0.13593437277846701 -0.025533024883740311 0 0.15356282978742761 -0.025534746175977441 0 0.1218808979227336 -0.019799817689552631 0 0.13593437277846701 -0.025533024883740311 0 0.1280163696491968 -0.03459717720762439 0 0.13138510751398111 -0.0079036347022841107 0 0.15356282978742761 -0.025534746175977441 0 0.15677245626684569 -0.020282832075577951 0 0.13138510751398111 -0.0079036347022841107 0 0.15356282978742761 -0.025534746175977441 0 0.13593437277846701 -0.025533024883740311 0 0.15356282978742761 -0.025534746175977441 0 0.14482665901899641 -0.039829748643262518 0 0.15356282978742761 -0.025534746175977441 0 0.15677245626684569 -0.020282832075577951 0 0.14482665901899641 -0.039829748643262518 0 0.15002481565930481 -0.05798849916549656 0 0.16759086569816459 -0.036686922303430507 0 0.15356282978742761 -0.025534746175977441 0 0.14482665901899641 -0.039829748643262518 0 0.16759086569816459 -0.036686922303430507 0 0.15356282978742761 -0.025534746175977441 0 0.14482665901899641 -0.039829748643262518 0 0.14482665901899641 -0.039829748643262518 0 0.1280163696491968 -0.03459717720762439 0 0.1340890814640685 -0.043902427379735362 0 0.1280163696491968 -0.03459717720762439 0 0.12697650718535219 -0.051597601749074858 0 0.13593437277846701 -0.025533024883740311 0 0.14482665901899641 -0.039829748643262518 0 0.1280163696491968 -0.03459717720762439 0 0.1280163696491968 -0.03459717720762439 0 0.1340890814640685 -0.043902427379735362 0 0.12697650718535219 -0.051597601749074858 0 0.14482665901899641 -0.039829748643262518 0 0.1340890814640685 -0.043902427379735362 0 0.13609048825056039 -0.054124751110544753 0 0.12579108975892769 -0.070977664217662467 0 0.12697650718535219 -0.051597601749074858 0 0.12579108975892769 -0.070977664217662467 0 0.13609048825056039 -0.054124751110544753 0 0.12697650718535219 -0.051597601749074858 0 0.14482665901899641 -0.039829748643262518 0 0.13609048825056039 -0.054124751110544753 0 0.13609048825056039 -0.054124751110544753 0 0.12697650718535219 -0.051597601749074858 0 0.1340890814640685 -0.043902427379735362 0 0.13609048825056039 -0.054124751110544753 0 0.12697650718535219 -0.051597601749074858 0 0.13859972611863669 -0.071843203123873003 0 0.13609048825056039 -0.054124751110544753 0 0.15002481565930481 -0.05798849916549656 0 0.14482665901899641 -0.039829748643262518 0 0.13609048825056039 -0.054124751110544753 0 0.15002481565930481 -0.05798849916549656 0 0.13609048825056039 -0.054124751110544753 0 0.15002481565930481 -0.05798849916549656 0 0.16902059411631351 -0.063255700079655364 0 0.15002481565930481 -0.05798849916549656 0 0.16759086569816459 -0.036686922303430507 0 0.15002481565930481 -0.05798849916549656 0 0.16759086569816459 -0.036686922303430507 0 0.16902059411631351 -0.063255700079655364 0 0.15002481565930481 -0.05798849916549656 0 0.16902059411631351 -0.063255700079655364 0 0.18413859241245881 -0.064846345234451513 0 0.18445535471717819 -0.050094055920444178 0 0.16902059411631351 -0.063255700079655364 0 0.18445535471717819 -0.050094055920444178 0 0.16759086569816459 -0.036686922303430507 0 0.18445535471717819 -0.050094055920444178 0 0.18001573013850719 -0.034635677958684219 0 0.16759086569816459 -0.036686922303430507 0 0.18445535471717819 -0.050094055920444178 0 0.16759086569816459 -0.036686922303430507 0 0.18001573013850719 -0.034635677958684219 0 0.16759086569816459 -0.036686922303430507 0 0.17679160730227719 -0.02552958732862599 0 0.15356282978742761 -0.025534746175977441 0 0.16759086569816459 -0.036686922303430507 0 0.1650658682019891 -0.024508027320603611 0 0.15356282978742761 -0.025534746175977441 0 0.16759086569816459 -0.036686922303430507 0 0.15356282978742761 -0.025534746175977441 0 0.15677245626684569 -0.020282832075577951 0 0.1650658682019891 -0.024508027320603611 0 0.15677245626684569 -0.020282832075577951 0 0.16401663914988029 -0.017674108895113231 0 0.15851599956922291 -0.01172037389334888 0 0.15677245626684569 -0.020282832075577951 0 0.16401663914988029 -0.017674108895113231 0 0.1650658682019891 -0.024508027320603611 0 0.16401663914988029 -0.017674108895113231 0 0.1706926977545464 -0.019143653141918519 0 0.1650658682019891 -0.024508027320603611 0 0.16401663914988029 -0.017674108895113231 0 0.1706926977545464 -0.019143653141918519 0 0.16854771076989741 -0.010936776052807601 0 0.1706926977545464 -0.019143653141918519 0 0.1650658682019891 -0.024508027320603611 0 0.17679160730227719 -0.02552958732862599 0 0.16759086569816459 -0.036686922303430507 0 0.1650658682019891 -0.024508027320603611 0 0.17679160730227719 -0.02552958732862599 0 0.16759086569816459 -0.036686922303430507 0 0.17679160730227719 -0.02552958732862599 0 0.18001573013850719 -0.034635677958684219 0 0.18650305040339149 -0.024482771885054311 0 0.19545473218267831 -0.031603170207816438 0 0.18001573013850719 -0.034635677958684219 0 0.17679160730227719 -0.02552958732862599 0 0.18650305040339149 -0.024482771885054311 0 0.18650305040339149 -0.024482771885054311 0 0.17880686676668031 -0.016992574296536962 0 0.18840079165615031 -0.0125432840100117 0 0.17679160730227719 -0.02552958732862599 0 0.18650305040339149 -0.024482771885054311 0 0.17880686676668031 -0.016992574296536962 0 0.1706926977545464 -0.019143653141918519 0 0.17880686676668031 -0.016992574296536962 0 0.16854771076989741 -0.010936776052807601 0 0.1706926977545464 -0.019143653141918519 0 0.17679160730227719 -0.02552958732862599 0 0.17880686676668031 -0.016992574296536962 0 0.1925679174992857 0.0043077106914305597 0 0.17354728991198329 0.0029068343059747781 0 0.17790215490921679 -0.0080032837763468114 0 0.17880686676668031 -0.016992574296536962 0 0.17790215490921679 -0.0080032837763468114 0 0.16854771076989741 -0.010936776052807601 0 0.1925679174992857 0.0043077106914305597 0 0.17790215490921679 -0.0080032837763468114 0 0.18840079165615031 -0.0125432840100117 0 0.17880686676668031 -0.016992574296536962 0 0.17790215490921679 -0.0080032837763468114 0 0.18840079165615031 -0.0125432840100117 0 0.17354728991198329 0.0029068343059747781 0 0.17790215490921679 -0.0080032837763468114 0 0.16854771076989741 -0.010936776052807601 0 0.17354728991198329 0.0029068343059747781 0 0.16854771076989741 -0.010936776052807601 0 0.15641862808551901 -0.001228882756050856 0 0.16854771076989741 -0.010936776052807601 0 0.15851599956922291 -0.01172037389334888 0 0.15641862808551901 -0.001228882756050856 0 0.16401663914988029 -0.017674108895113231 0 0.16854771076989741 -0.010936776052807601 0 0.15851599956922291 -0.01172037389334888 0 0.21191963030083841 -0.0024113053172400609 0 0.21115945071121001 -0.017355155054193321 0 0.2260444051132546 -0.011670711684598489 0 0.21191963030083841 -0.0024113053172400609 0 0.2003484995026541 -0.010107136284757699 0 0.21115945071121001 -0.017355155054193321 0 0.1925679174992857 0.0043077106914305597 0 0.21191963030083841 -0.0024113053172400609 0 0.2003484995026541 -0.010107136284757699 0 0.1925679174992857 0.0043077106914305597 0 0.18840079165615031 -0.0125432840100117 0 0.2003484995026541 -0.010107136284757699 0 0.18840079165615031 -0.0125432840100117 0 0.2003484995026541 -0.010107136284757699 0 0.19812384321867901 -0.022281465634562781 0 0.18650305040339149 -0.024482771885054311 0 0.18840079165615031 -0.0125432840100117 0 0.19812384321867901 -0.022281465634562781 0 0.18650305040339149 -0.024482771885054311 0 0.19812384321867901 -0.022281465634562781 0 0.19545473218267831 -0.031603170207816438 0 0.19812384321867901 -0.022281465634562781 0 0.2082475857100306 -0.030761784569846538 0 0.19545473218267831 -0.031603170207816438 0 0.19812384321867901 -0.022281465634562781 0 0.2082475857100306 -0.030761784569846538 0 0.21115945071121001 -0.017355155054193321 0 0.2003484995026541 -0.010107136284757699 0 0.19812384321867901 -0.022281465634562781 0 0.21115945071121001 -0.017355155054193321 0 0.2082475857100306 -0.030761784569846538 0 0.21115945071121001 -0.017355155054193321 0 0.22227274042180339 -0.026898526834154349 0 0.20447629406321891 -0.04385952373498378 0 0.22893685798793051 -0.053083369511283257 0 0.21949923646371369 -0.03823851063461739 0 0.2082475857100306 -0.030761784569846538 0 0.21949923646371369 -0.03823851063461739 0 0.22227274042180339 -0.026898526834154349 0 0.2082475857100306 -0.030761784569846538 0 0.20447629406321891 -0.04385952373498378 0 0.21949923646371369 -0.03823851063461739 0 0.18001573013850719 -0.034635677958684219 0 0.20447629406321891 -0.04385952373498378 0 0.19545473218267831 -0.031603170207816438 0 0.18445535471717819 -0.050094055920444178 0 0.18001573013850719 -0.034635677958684219 0 0.20447629406321891 -0.04385952373498378 0 0.2082475857100306 -0.030761784569846538 0 0.20447629406321891 -0.04385952373498378 0 0.19545473218267831 -0.031603170207816438 0 0.18001573013850719 -0.034635677958684219 0 0.20447629406321891 -0.04385952373498378 0 0.18445535471717819 -0.050094055920444178 0 0.20447629406321891 -0.04385952373498378 0 0.20008395378504751 -0.053107015249941061 0 0.18445535471717819 -0.050094055920444178 0 0.20008395378504751 -0.053107015249941061 0 0.20131984373619169 -0.063501189537457925 0 0.18413859241245881 -0.064846345234451513 0 0.18445535471717819 -0.050094055920444178 0 0.20131984373619169 -0.063501189537457925 0 0.18445535471717819 -0.050094055920444178 0 0.20131984373619169 -0.063501189537457925 0 0.20447629406321891 -0.04385952373498378 0 0.2100843226236013 -0.054973291806878342 0 0.22893685798793051 -0.053083369511283257 0 0.2100843226236013 -0.054973291806878342 0 0.20131984373619169 -0.063501189537457925 0 0.21101587891316739 -0.064698451862501491 0 0.20008395378504751 -0.053107015249941061 0 0.2100843226236013 -0.054973291806878342 0 0.20131984373619169 -0.063501189537457925 0 0.20447629406321891 -0.04385952373498378 0 0.22893685798793051 -0.053083369511283257 0 0.2100843226236013 -0.054973291806878342 0 0.20131984373619169 -0.063501189537457925 0 0.20447629406321891 -0.04385952373498378 0 0.20008395378504751 -0.053107015249941061 0 0.2100843226236013 -0.054973291806878342 0 0.2100843226236013 -0.054973291806878342 0 0.21101587891316739 -0.064698451862501491 0 0.2211988154346243 -0.063088055212677199 0 0.2100843226236013 -0.054973291806878342 0 0.22893685798793051 -0.053083369511283257 0 0.2211988154346243 -0.063088055212677199 0 0.22893685798793051 -0.053083369511283257 0 0.2211988154346243 -0.063088055212677199 0 0.23387369170523739 -0.064614933423750812 0 0.25339742191264197 -0.062307215287582728 0 0.22893685798793051 -0.053083369511283257 0 0.25339742191264197 -0.062307215287582728 0 0.22893685798793051 -0.053083369511283257 0 0.24497482797645989 -0.044171703177150967 0 0.25339742191264197 -0.062307215287582728 0 0.22893685798793051 -0.053083369511283257 0 0.23387369170523739 -0.064614933423750812 0 0.22893685798793051 -0.053083369511283257 0 0.24497482797645989 -0.044171703177150967 0 0.2335627041355848 -0.03658934852281899 0 0.24497482797645989 -0.044171703177150967 0 0.2335627041355848 -0.03658934852281899 0 0.2489274880079777 -0.029376254438568099 0 0.22893685798793051 -0.053083369511283257 0 0.2335627041355848 -0.03658934852281899 0 0.21949923646371369 -0.03823851063461739 0 0.2335627041355848 -0.03658934852281899 0 0.21949923646371369 -0.03823851063461739 0 0.22227274042180339 -0.026898526834154349 0 0.2335627041355848 -0.03658934852281899 0 0.22227274042180339 -0.026898526834154349 0 0.23810346511544911 -0.019019740761755919 0 0.22227274042180339 -0.026898526834154349 0 0.23810346511544911 -0.019019740761755919 0 0.2260444051132546 -0.011670711684598489 0 0.21115945071121001 -0.017355155054193321 0 0.22227274042180339 -0.026898526834154349 0 0.2260444051132546 -0.011670711684598489 0 0.2335627041355848 -0.03658934852281899 0 0.2489274880079777 -0.029376254438568099 0 0.23810346511544911 -0.019019740761755919 0 0.25354681507058452 -0.01533907888604962 0 0.2489274880079777 -0.029376254438568099 0 0.23810346511544911 -0.019019740761755919 0 0.23810346511544911 -0.019019740761755919 0 0.24311130928645741 -0.005463409046427151 0 0.2260444051132546 -0.011670711684598489 0 0.25354681507058452 -0.01533907888604962 0 0.23810346511544911 -0.019019740761755919 0 0.24311130928645741 -0.005463409046427151 0 0.2301876845731515 0.0022250632122473471 0 0.24311130928645741 -0.005463409046427151 0 0.2260444051132546 -0.011670711684598489 0 0.2301876845731515 0.0022250632122473471 0 0.21191963030083841 -0.0024113053172400609 0 0.2260444051132546 -0.011670711684598489 0 0.2124962068942601 -0.098638948596197956 0 0.2013236011061075 -0.10629442974050241 0 0.20100822340309141 -0.087061569463550911 0 0.2124962068942601 -0.098638948596197956 0 0.2013236011061075 -0.10629442974050241 0 0.21891673041353979 -0.1127510418373332 0 0.20770664586739959 -0.122189261436376 0 0.2013236011061075 -0.10629442974050241 0 0.21891673041353979 -0.1127510418373332 0 0.20770664586739959 -0.122189261436376 0 0.21891673041353979 -0.1127510418373332 0 0.22650386079353119 -0.13070681658981709 0 0.20770664586739959 -0.122189261436376 0 0.18890943094126811 -0.1136717062829347 0 0.20770664586739959 -0.122189261436376 0 0.18890943094126811 -0.1136717062829347 0 0.2013236011061075 -0.10629442974050241 0 0.18890943094126811 -0.1136717062829347 0 0.18920832928981859 -0.099252541621767082 0 0.18890943094126811 -0.1136717062829347 0 0.2013236011061075 -0.10629442974050241 0 0.18920832928981859 -0.099252541621767082 0 0.2013236011061075 -0.10629442974050241 0 0.18920832928981859 -0.099252541621767082 0 0.20100822340309141 -0.087061569463550911 0 0.1817585770801517 -0.082534435400248615 0 0.18920832928981859 -0.099252541621767082 0 0.20100822340309141 -0.087061569463550911 0 0.18413859241245881 -0.064846345234451513 0 0.1817585770801517 -0.082534435400248615 0 0.20131984373619169 -0.063501189537457925 0 0.1817585770801517 -0.082534435400248615 0 0.20131984373619169 -0.063501189537457925 0 0.1817585770801517 -0.082534435400248615 0 0.20100822340309141 -0.087061569463550911 0 0.20131984373619169 -0.063501189537457925 0 0.20100822340309141 -0.087061569463550911 0 0.20131984373619169 -0.063501189537457925 0 0.2209789244391501 -0.079130001147170087 0 0.20131984373619169 -0.063501189537457925 0 0.2209789244391501 -0.079130001147170087 0 0.20131984373619169 -0.063501189537457925 0 0.21101587891316739 -0.064698451862501491 0 0.2209789244391501 -0.079130001147170087 0 0.21101587891316739 -0.064698451862501491 0 0.2209789244391501 -0.079130001147170087 0 0.21971063439408689 -0.069831715426349403 0 0.21101587891316739 -0.064698451862501491 0 0.21971063439408689 -0.069831715426349403 0 0.2211988154346243 -0.063088055212677199 0 0.2124962068942601 -0.098638948596197956 0 0.20100822340309141 -0.087061569463550911 0 0.2209789244391501 -0.079130001147170087 0 0.2209789244391501 -0.079130001147170087 0 0.2256489187894061 -0.072410353483048862 0 0.24314859486964441 -0.088373517197234339 0 0.2124962068942601 -0.098638948596197956 0 0.2209789244391501 -0.079130001147170087 0 0.22617837600692489 -0.099628394622828326 0 0.2209789244391501 -0.079130001147170087 0 0.24063800514210851 -0.094758812756882166 0 0.22617837600692489 -0.099628394622828326 0 0.2209789244391501 -0.079130001147170087 0 0.24063800514210851 -0.094758812756882166 0 0.21971063439408689 -0.069831715426349403 0 0.2211988154346243 -0.063088055212677199 0 0.2256489187894061 -0.072410353483048862 0 0.2209789244391501 -0.079130001147170087 0 0.21971063439408689 -0.069831715426349403 0 0.2256489187894061 -0.072410353483048862 0 0.2256489187894061 -0.072410353483048862 0 0.23387369170523739 -0.064614933423750812 0 0.24018644440158449 -0.072185673624162006 0 0.2211988154346243 -0.063088055212677199 0 0.2256489187894061 -0.072410353483048862 0 0.23387369170523739 -0.064614933423750812 0 0.25339742191264197 -0.062307215287582728 0 0.24314859486964441 -0.088373517197234339 0 0.25339742191264197 -0.062307215287582728 0 0.24018644440158449 -0.072185673624162006 0 0.24314859486964441 -0.088373517197234339 0 0.2256489187894061 -0.072410353483048862 0 0.24018644440158449 -0.072185673624162006 0 0.24314859486964441 -0.088373517197234339 0 0.25339742191264197 -0.062307215287582728 0 0.23387369170523739 -0.064614933423750812 0 0.24018644440158449 -0.072185673624162006 0 0.2256489187894061 -0.072410353483048862 0 0.24314859486964441 -0.088373517197234339 0 0.2209789244391501 -0.079130001147170087 0 0.24314859486964441 -0.088373517197234339 0 0.24063800514210851 -0.094758812756882166 0 0.24314859486964441 -0.088373517197234339 0 0.24063800514210851 -0.094758812756882166 0 0.25662204245081038 -0.107465994320195 0 0.24063800514210851 -0.094758812756882166 0 0.24063800514210851 -0.094758812756882166 0 0.23357093296781989 -0.1127328146733497 0 0.24708412451599479 -0.1140119489509321 0 0.25662204245081038 -0.107465994320195 0 0.24063800514210851 -0.094758812756882166 0 0.24708412451599479 -0.1140119489509321 0 0.24063800514210851 -0.094758812756882166 0 0.23357093296781989 -0.1127328146733497 0 0.25834843152813058 -0.10223877275372401 0 0.24314859486964441 -0.088373517197234339 0 0.24063800514210851 -0.094758812756882166 0 0.24063800514210851 -0.094758812756882166 0 0.22617837600692489 -0.099628394622828326 0 0.23357093296781989 -0.1127328146733497 0 0.2124962068942601 -0.098638948596197956 0 0.22617837600692489 -0.099628394622828326 0 0.21891673041353979 -0.1127510418373332 0 0.22617837600692489 -0.099628394622828326 0 0.21891673041353979 -0.1127510418373332 0 0.23357093296781989 -0.1127328146733497 0 0.21891673041353979 -0.1127510418373332 0 0.23357093296781989 -0.1127328146733497 0 0.22650386079353119 -0.13070681658981709 0 0.23357093296781989 -0.1127328146733497 0 0.2393835886159289 -0.12137238572137719 0 0.22650386079353119 -0.13070681658981709 0 0.23357093296781989 -0.1127328146733497 0 0.22650386079353119 -0.13070681658981709 0 0.23357093296781989 -0.1127328146733497 0 0.2393835886159289 -0.12137238572137719 0 0.24708412451599479 -0.1140119489509321 0 0.25037543618636982 -0.12803796267140971 0 0.2393835886159289 -0.12137238572137719 0 0.24708412451599479 -0.1140119489509321 0 0.25037543618636982 -0.12803796267140971 0 0.25236900696121861 -0.1424270533323797 0 0.22650386079353119 -0.13070681658981709 0 0.25236900696121861 -0.1424270533323797 0 0.2346341162615227 -0.1458906255419648 0 0.22650386079353119 -0.13070681658981709 0 0.25037543618636982 -0.12803796267140971 0 0.2393835886159289 -0.12137238572137719 0 0.22650386079353119 -0.13070681658981709 0 0.25236900696121861 -0.1424270533323797 0 0.22650386079353119 -0.13070681658981709 0 0.25236900696121861 -0.1424270533323797 0 0.2346341162615227 -0.1458906255419648 0 0.24081778075798779 -0.160244767903367 0 0.2346341162615227 -0.1458906255419648 0 0.2188458165333533 -0.1501838643422955 0 0.24081778075798779 -0.160244767903367 0 0.2346341162615227 -0.1458906255419648 0 0.2188458165333533 -0.1501838643422955 0 0.22650386079353119 -0.13070681658981709 0 0.2188458165333533 -0.1501838643422955 0 0.22650386079353119 -0.13070681658981709 0 0.2188458165333533 -0.1501838643422955 0 0.22650386079353119 -0.13070681658981709 0 0.20874234856023199 -0.14077181041446629 0 0.20770664586739959 -0.122189261436376 0 0.22650386079353119 -0.13070681658981709 0 0.20770664586739959 -0.122189261436376 0 0.22650386079353119 -0.13070681658981709 0 0.20874234856023199 -0.14077181041446629 0 0.2188458165333533 -0.1501838643422955 0 0.20874234856023199 -0.14077181041446629 0 0.20235591934470831 -0.1576837182901033 0 0.20874234856023199 -0.14077181041446629 0 0.18829950026216741 -0.14309539141373939 0 0.20235591934470831 -0.1576837182901033 0 0.20770664586739959 -0.122189261436376 0 0.18890943094126811 -0.1136717062829347 0 0.18829950026216741 -0.14309539141373939 0 0.20770664586739959 -0.122189261436376 0 0.20874234856023199 -0.14077181041446629 0 0.18829950026216741 -0.14309539141373939 0 0.18890943094126811 -0.1136717062829347 0 0.18829950026216741 -0.14309539141373939 0 0.18761181733603319 -0.17626992514629169 0 0.1947434641703335 -0.1741219373161606 0 0.2040665973658756 -0.19162386872065171 0 0.1947434641703335 -0.1741219373161606 0 0.18768956958306021 -0.1725190765445441 0 0.18761181733603319 -0.17626992514629169 0 0.1947434641703335 -0.1741219373161606 0 0.18761181733603319 -0.17626992514629169 0 0.1947434641703335 -0.1741219373161606 0 0.18768956958306021 -0.1725190765445441 0 0.18761181733603319 -0.17626992514629169 0 0.18768956958306021 -0.1725190765445441 0 0.18829950026216741 -0.14309539141373939 0 0.18768956958306021 -0.1725190765445441 0 0.20235591934470831 -0.1576837182901033 0 0.1947434641703335 -0.1741219373161606 0 0.18768956958306021 -0.1725190765445441 0 0.20235591934470831 -0.1576837182901033 0 0.18829950026216741 -0.14309539141373939 0 0.18768956958306021 -0.1725190765445441 0 0.1947434641703335 -0.1741219373161606 0 0.20235591934470831 -0.1576837182901033 0 0.2177806224641608 -0.16718335260976441 0 0.2188458165333533 -0.1501838643422955 0 0.20235591934470831 -0.1576837182901033 0 0.2177806224641608 -0.16718335260976441 0 0.1947434641703335 -0.1741219373161606 0 0.2177806224641608 -0.16718335260976441 0 0.1947434641703335 -0.1741219373161606 0 0.22003764619143659 -0.1798695497322616 0 0.2040665973658756 -0.19162386872065171 0 0.22003764619143659 -0.1798695497322616 0 0.2040665973658756 -0.19162386872065171 0 0.2175362324178203 -0.19003862658420201 0 0.1947434641703335 -0.1741219373161606 0 0.2177806224641608 -0.16718335260976441 0 0.22003764619143659 -0.1798695497322616 0 0.1947434641703335 -0.1741219373161606 0 0.22003764619143659 -0.1798695497322616 0 0.2177806224641608 -0.16718335260976441 0 0.22003764619143659 -0.1798695497322616 0 0.23529757240957441 -0.17283307775637149 0 0.22003764619143659 -0.1798695497322616 0 0.24533182821253949 -0.18561716214836391 0 0.22003764619143659 -0.1798695497322616 0 0.24533182821253949 -0.18561716214836391 0 0.23529757240957441 -0.17283307775637149 0 0.22003764619143659 -0.1798695497322616 0 0.24533182821253949 -0.18561716214836391 0 0.22801285945577771 -0.1904416831902315 0 0.22003764619143659 -0.1798695497322616 0 0.22801285945577771 -0.1904416831902315 0 0.2175362324178203 -0.19003862658420201 0 0.2177806224641608 -0.16718335260976441 0 0.24081778075798779 -0.160244767903367 0 0.2188458165333533 -0.1501838643422955 0 0.2177806224641608 -0.16718335260976441 0 0.24081778075798779 -0.160244767903367 0 0.2177806224641608 -0.16718335260976441 0 0.24081778075798779 -0.160244767903367 0 0.23529757240957441 -0.17283307775637149 0 0.25168293139397369 -0.17096036420933389 0 0.24081778075798779 -0.160244767903367 0 0.23529757240957441 -0.17283307775637149 0 0.25168293139397369 -0.17096036420933389 0 0.24533182821253949 -0.18561716214836391 0 0.23529757240957441 -0.17283307775637149 0 0.24533182821253949 -0.18561716214836391 0 0.23617848666533961 -0.1977076908006721 0 0.22801285945577771 -0.1904416831902315 0 0.25046899035022402 -0.20780372520346391 0 0.24533182821253949 -0.18561716214836391 0 0.23617848666533961 -0.1977076908006721 0 0.25194222904351782 -0.2214602506750131 0 0.23707842856578981 -0.21026371461973031 0 0.23154519396389039 -0.22374015083872731 0 0.25194222904351782 -0.2214602506750131 0 0.25046899035022402 -0.20780372520346391 0 0.23707842856578981 -0.21026371461973031 0 0.25046899035022402 -0.20780372520346391 0 0.23617848666533961 -0.1977076908006721 0 0.23707842856578981 -0.21026371461973031 0 0.23707842856578981 -0.21026371461973031 0 0.21181469774061221 -0.2188550791853312 0 0.23707842856578981 -0.21026371461973031 0 0.23154519396389039 -0.22374015083872731 0 0.21181469774061221 -0.2188550791853312 0 0.23707842856578981 -0.21026371461973031 0 0.22201963799371049 -0.1992415775279093 0 0.21181469774061221 -0.2188550791853312 0 0.22201963799371049 -0.1992415775279093 0 0.22801285945577771 -0.1904416831902315 0 0.2175362324178203 -0.19003862658420201 0 0.23617848666533961 -0.1977076908006721 0 0.22201963799371049 -0.1992415775279093 0 0.22801285945577771 -0.1904416831902315 0 0.23617848666533961 -0.1977076908006721 0 0.23707842856578981 -0.21026371461973031 0 0.22201963799371049 -0.1992415775279093 0 0.25039127449398407 -0.24989370801593011 0 0.23631724241567431 -0.25808050508295588 0 0.236531769718375 -0.23530960500151649 0 0.25206177602816038 -0.23646078922060901 0 0.25039127449398407 -0.24989370801593011 0 0.236531769718375 -0.23530960500151649 0 0.25194222904351782 -0.2214602506750131 0 0.236531769718375 -0.23530960500151649 0 0.23154519396389039 -0.22374015083872731 0 0.25206177602816038 -0.23646078922060901 0 0.25194222904351782 -0.2214602506750131 0 0.236531769718375 -0.23530960500151649 0 0.25194222904351782 -0.2214602506750131 0 0.236531769718375 -0.23530960500151649 0 0.236531769718375 -0.23530960500151649 0 0.2203588447511575 -0.23281210471204519 0 0.23154519396389039 -0.22374015083872731 0 0.2203588447511575 -0.23281210471204519 0 0.23154519396389039 -0.22374015083872731 0 0.21181469774061221 -0.2188550791853312 0 0.23631724241567431 -0.25808050508295588 0 0.236531769718375 -0.23530960500151649 0 0.2211213103932321 -0.2491589593280199 0 0.236531769718375 -0.23530960500151649 0 0.2203588447511575 -0.23281210471204519 0 0.2211213103932321 -0.2491589593280199 0 0.236531769718375 -0.23530960500151649 0 0.2211213103932321 -0.2491589593280199 0 0.2203588447511575 -0.23281210471204519 0 0.2211213103932321 -0.2491589593280199 0 0.2048330354356461 -0.23979339380446221 0 0.2048141114297542 -0.25902610868195503 0 0.2211213103932321 -0.2491589593280199 0 0.2048330354356461 -0.23979339380446221 0 0.2203588447511575 -0.23281210471204519 0 0.2048330354356461 -0.23979339380446221 0 0.21181469774061221 -0.2188550791853312 0 0.21181469774061221 -0.2188550791853312 0 0.1865509669154356 -0.22744644375093531 0 0.2048330354356461 -0.23979339380446221 0 0.21181469774061221 -0.2188550791853312 0 0.1865509669154356 -0.22744644375093531 0 0.1859533258564201 -0.25627726493157033 0 0.2048330354356461 -0.23979339380446221 0 0.1865509669154356 -0.22744644375093531 0 0.22201963799371049 -0.1992415775279093 0 0.2040665973658756 -0.19162386872065171 0 0.2175362324178203 -0.19003862658420201 0 0.22201963799371049 -0.1992415775279093 0 0.21181469774061221 -0.2188550791853312 0 0.2040665973658756 -0.19162386872065171 0 0.21181469774061221 -0.2188550791853312 0 0.18708139212573571 -0.20185818444861359 0 0.1865509669154356 -0.22744644375093531 0 0.21181469774061221 -0.2188550791853312 0 0.2040665973658756 -0.19162386872065171 0 0.18708139212573571 -0.20185818444861359 0 0.18761181733603319 -0.17626992514629169 0 0.2040665973658756 -0.19162386872065171 0 0.18708139212573571 -0.20185818444861359 0 0.18761181733603319 -0.17626992514629169 0 0.18708139212573571 -0.20185818444861359 0 0.17760025859894421 -0.1893353851862897 0 0.18761181733603319 -0.17626992514629169 0 0.18708139212573571 -0.20185818444861359 0 0.18708139212573571 -0.20185818444861359 0 0.17760025859894421 -0.1893353851862897 0 0.16753016562657019 -0.19645859833292259 0 0.18708139212573571 -0.20185818444861359 0 0.16295124312048251 -0.21152896389147391 0 0.16753016562657019 -0.19645859833292259 0 0.18708139212573571 -0.20185818444861359 0 0.1865509669154356 -0.22744644375093531 0 0.18708139212573571 -0.20185818444861359 0 0.16295124312048251 -0.21152896389147391 0 0.1865509669154356 -0.22744644375093531 0 0.16295124312048251 -0.21152896389147391 0 0.16753016562657019 -0.19645859833292259 0 0.14313390930117359 -0.1896662706732446 0 0.16753016562657019 -0.19645859833292259 0 0.14313390930117359 -0.1896662706732446 0 0.16537286331860329 -0.1829680979097679 0 0.17760025859894421 -0.1893353851862897 0 0.16753016562657019 -0.19645859833292259 0 0.16537286331860329 -0.1829680979097679 0 0.17061020394528689 -0.25171616220673199 0 0.1865509669154356 -0.22744644375093531 0 0.15993051811411521 -0.2364991835119227 0 0.17061020394528689 -0.25171616220673199 0 0.1859533258564201 -0.25627726493157033 0 0.1865509669154356 -0.22744644375093531 0 0.1859533258564201 -0.25627726493157033 0 0.1865509669154356 -0.22744644375093531 0 0.1865509669154356 -0.22744644375093531 0 0.15993051811411521 -0.2364991835119227 0 0.16295124312048251 -0.21152896389147391 0 0.1865509669154356 -0.22744644375093531 0 0.15993051811411521 -0.2364991835119227 0 0.15388576897399511 -0.25446663194545421 0 0.17061020394528689 -0.25171616220673199 0 0.15993051811411521 -0.2364991835119227 0 0.15993051811411521 -0.2364991835119227 0 0.13331006931279599 -0.24555192327291309 0 0.15388576897399511 -0.25446663194545421 0 0.15993051811411521 -0.2364991835119227 0 0.13331006931279599 -0.24555192327291309 0 0.15993051811411521 -0.2364991835119227 0 0.1395070520304551 -0.21960501280540359 0 0.13331006931279599 -0.24555192327291309 0 0.16295124312048251 -0.21152896389147391 0 0.15993051811411521 -0.2364991835119227 0 0.1395070520304551 -0.21960501280540359 0 0.1196187432297524 -0.2298069900397863 0 0.1395070520304551 -0.21960501280540359 0 0.13331006931279599 -0.24555192327291309 0 0.16295124312048251 -0.21152896389147391 0 0.1395070520304551 -0.21960501280540359 0 0.14313390930117359 -0.1896662706732446 0 0.1191679701520582 -0.2067671847966038 0 0.1395070520304551 -0.21960501280540359 0 0.14313390930117359 -0.1896662706732446 0 0.1191679701520582 -0.2067671847966038 0 0.1196187432297524 -0.2298069900397863 0 0.1395070520304551 -0.21960501280540359 0 0.1191679701520582 -0.2067671847966038 0 0.1168971249087969 -0.18373711639804749 0 0.14313390930117359 -0.1896662706732446 0 0.1168971249087969 -0.18373711639804749 0 0.14313390930117359 -0.1896662706732446 0 0.13089851006819389 -0.17298498934406939 0 0.14313390930117359 -0.1896662706732446 0 0.16537286331860329 -0.1829680979097679 0 0.14313390930117359 -0.1896662706732446 0 0.13089851006819389 -0.17298498934406939 0 0.15112752517055419 -0.17593884909514121 0 0.14313390930117359 -0.1896662706732446 0 0.15112752517055419 -0.17593884909514121 0 0.16537286331860329 -0.1829680979097679 0 0.14291059340301529 -0.16234392246136331 0 0.15697635138122551 -0.14296157773748991 0 0.1653000814930376 -0.16743149950295419 0 0.15112752517055419 -0.17593884909514121 0 0.14291059340301529 -0.16234392246136331 0 0.1653000814930376 -0.16743149950295419 0 0.13089851006819389 -0.17298498934406939 0 0.15112752517055419 -0.17593884909514121 0 0.14291059340301529 -0.16234392246136331 0 0.14291059340301529 -0.16234392246136331 0 0.1653000814930376 -0.16743149950295419 0 0.1205109646769383 -0.15730097248847569 0 0.13089851006819389 -0.17298498934406939 0 0.14291059340301529 -0.16234392246136331 0 0.1205109646769383 -0.15730097248847569 0 0.14291059340301529 -0.16234392246136331 0 0.1219098819976112 -0.13443045914973539 0 0.1205109646769383 -0.15730097248847569 0 0.13780448543318979 -0.14331332402281341 0 0.1205109646769383 -0.15730097248847569 0 0.14291059340301529 -0.16234392246136331 0 0.13780448543318979 -0.14331332402281341 0 0.1219098819976112 -0.13443045914973539 0 0.1427888153649888 -0.1204522793201382 0 0.13780448543318979 -0.14331332402281341 0 0.1427888153649888 -0.1204522793201382 0 0.16783428167475231 -0.1243497272034684 0 0.15697635138122551 -0.14296157773748991 0 0.1427888153649888 -0.1204522793201382 0 0.13780448543318979 -0.14331332402281341 0 0.15697635138122551 -0.14296157773748991 0 0.14291059340301529 -0.16234392246136331 0 0.13780448543318979 -0.14331332402281341 0 0.15697635138122551 -0.14296157773748991 0 0.16783428167475231 -0.1243497272034684 0 0.18829950026216741 -0.14309539141373939 0 0.15697635138122551 -0.14296157773748991 0 0.18829950026216741 -0.14309539141373939 0 0.15697635138122551 -0.14296157773748991 0 0.1653000814930376 -0.16743149950295419 0 0.16783428167475231 -0.1243497272034684 0 0.18890943094126811 -0.1136717062829347 0 0.18829950026216741 -0.14309539141373939 0 0.18829950026216741 -0.14309539141373939 0 0.18768956958306021 -0.1725190765445441 0 0.1653000814930376 -0.16743149950295419 0 0.18768956958306021 -0.1725190765445441 0 0.1653000814930376 -0.16743149950295419 0 0.18761181733603319 -0.17626992514629169 0 0.17760025859894421 -0.1893353851862897 0 0.16537286331860329 -0.1829680979097679 0 0.18761181733603319 -0.17626992514629169 0 0.16537286331860329 -0.1829680979097679 0 0.18761181733603319 -0.17626992514629169 0 0.16537286331860329 -0.1829680979097679 0 0.1653000814930376 -0.16743149950295419 0 0.18761181733603319 -0.17626992514629169 0 0.18768956958306021 -0.1725190765445441 0 0.1653000814930376 -0.16743149950295419 0 0.15112752517055419 -0.17593884909514121 0 0.16537286331860329 -0.1829680979097679 0 0.1653000814930376 -0.16743149950295419 0 
</DataArray>
</Points>
<Cells>
<DataArray type="UInt32" Name="connectivity" format="ascii">
0 1 2 3 4 5 6 7 8 9 10 11 12 13 14 15 16 17 18 19 20 21 22 23 24 25 26 27 28 29 30 31 32 33 34 35 36 37 38 39 40 41 42 43 44 45 46 47 48 49 50 51 52 53 54 55 56 57 58 59 60 61 62 63 64 65 66 67 68 69 70 71 72 73 74 75 76 77 78 79 80 81 82 83 84 85 86 87 88 89 90 91 92 93 94 95 96 97 98 99 100 101 102 103 104 105 106 107 108 109 110 111 112 113 114 115 116 117 118 119 120 121 122 123 124 125 126 127 128 129 130 131 132 133 134 135 136 137 138 139 140 141 142 143 144 145 146 147 148 149 150 151 152 153 154 155 156 157 158 159 160 161 162 163 164 165 166 167 168 169 170 171 172 173 174 175 176 177 178 179 180 181 182 183 184 185 186 187 188 189 190 191 192 193 194 195 196 197 198 199 200 201 202 203 204 205 206 207 208 209 210 211 212 213 214 215 216 217 218 219 220 221 222 223 224 225 226 227 228 229 230 231 232 233 234 235 236 237 238 239 240 241 242 243 244 245 246 247 248 249 250 251 252 253 254 255 256 257 258 259 260 261 262 263 264 265 266 267 268 269 270 271 272 273 274 275 276 277 278 279 280 281 282 283 284 285 286 287 288 289 290 291 292 293 294 295 296 297 298 299 300 301 302 303 304 305 306 307 308 309 310 311 312 313 314 315 316 317 318 319 320 321 322 323 324 325 326 327 328 329 330 331 332 333 334 335 336 337 338 339 340 341 342 343 344 345 346 347 348 349 350 351 352 353 354 355 356 357 358 359 360 361 362 363 364 365 366 367 368 369 370 371 372 373 374 375 376 377 378 379 380 381 382 383 384 385 386 387 388 389 390 391 392 393 394 395 396 397 398 399 400 401 402 403 404 405 406 407 408 409 410 411 412 413 414 415 416 417 418 419 420 421 422 423 424 425 426 427 428 429 430 431 432 433 434 435 436 437 438 439 440 441 442 443 444 445 446 447 448 449 450 451 452 453 454 455 456 457 458 459 460 461 462 463 464 465 466 467 468 469 470 471 472 473 474 475 476 477 478 479 480 481 482 483 484 485 486 487 488 489 490 491 492 493 494 495 496 497 498 499 500 501 502 503 504 505 506 507 508 509 510 511 512 513 514 515 516 517 518 519 520 521 522 523 524 525 526 527 528 529 530 531 532 533 534 535 536 537 538 539 540 541 542 543 544 545 546 547 548 549 550 551 552 553 554 555 556 557 558 559 560 561 562 563 564 565 566 567 568 569 570 571 572 573 574 575 576 577 578 579 580 581 582 583 584 585 586 587 588 589 590 591 592 593 594 595 596 597 598 599 600 601 602 603 604 605 606 607 608 609 610 611 612 613 614 615 616 617 618 619 620 621 622 623 624 625 626 627 628 629 630 631 632 633 634 635 636 637 638 639 640 641 642 643 644 645 646 647 648 649 650 651 652 653 654 655 656 657 658 659 660 661 662 663 664 665 666 667 668 669 670 671 672 673 674 675 676 677 678 679 680 681 682 683 684 685 686 687 688 689 690 691 692 693 694 695 696 697 698 699 700 701 702 703 704 705 706 707 708 709 710 711 712 713 714 715 716 717 718 719 720 721 722 723 724 725 726 727 728 729 730 731 732 733 734 735 736 737 738 739 740 741 742 743 744 745 746 747 748 749 750 751 752 753 754 755 756 757 758 759 760 761 762 763 764 765 766 767 768 769 770 771 772 773 774 775 776 777 778 779 780 781 782 783 784 785 786 787 788 789 790 791 792 793 794 795 796 797 798 799 800 801 802 803 804 805 806 807 808 809 810 811 812 813 814 815 816 817 818 819 820 821 822 823 824 825 826 827 828 829 830 831 832 833 834 835 836 837 838 839 840 841 842 843 844 845 846 847 848 849 850 851 852 853 854 855 856 857 858 859 860 861 862 863 864 865 866 867 868 869 870 871 872 873 874 875 876 877 878 879 880 881 882 883 884 885 886 887 888 889 890 891 892 893 894 895 896 897 898 899 900 901 902 903 904 905 906 907 908 909 910 911 912 913 914 915 916 917 918 919 920 921 922 923 924 925 926 927 928 929 930 931 932 933 934 935 936 937 938 939 940 941 942 943 944 945 946 947 948 949 950 951 952 953 954 955 956 957 958 959 960 961 962 963 964 965 966 967 968 969 970 971 972 973 974 975 976 977 978 979 980 981 982 983 984 985 986 987 988 989 990 991 992 993 994 995 996 997 998 999 1000 1001 1002 1003 1004 1005 1006 1007 1008 1009 1010 1011 1012 1013 1014 1015 1016 1017 1018 1019 1020 1021 1022 1023 1024 1025 1026 1027 1028 1029 1030 1031 1032 1033 1034 1035 1036 1037 1038 1039 1040 1041 1042 1043 1044 1045 1046 1047 1048 1049 1050 1051 1052 1053 1054 1055 1056 1057 1058 1059 1060 1061 1062 1063 1064 1065 1066 1067 1068 1069 1070 1071 1072 1073 1074 1075 1076 1077 1078 1079 1080 1081 1082 1083 1084 1085 1086 1087 1088 1089 1090 1091 1092 1093 1094 1095 1096 1097 1098 1099 1100 1101 1102 1103 1104 1105 1106 1107 1108 1109 1110 1111 1112 1113 1114 1115 1116 1117 1118 1119 1120 1121 1122 1123 1124 1125 1126 1127 1128 1129 1130 1131 1132 1133 1134 1135 1136 1137 1138 1139 1140 1141 1142 1143 1144 1145 1146 1147 1148 1149 1150 1151 1152 1153 1154 1155 1156 1157 1158 1159 1160 1161 1162 1163 1164 1165 1166 1167 1168 1169 1170 1171 1172 1173 1174 1175 1176 1177 1178 1179 1180 1181 1182 1183 1184 1185 1186 1187 1188 1189 1190 1191 1192 1193 1194 1195 1196 1197 1198 1199 1200 1201 1202 1203 1204 1205 1206 1207 1208 1209 1210 1211 1212 1213 1214 1215 1216 1217 1218 1219 1220 1221 1222 1223 1224 1225 1226 1227 1228 1229 1230 1231 1232 1233 1234 1235 1236 1237 1238 1239 1240 1241 1242 1243 1244 1245 1246 1247 1248 1249 1250 1251 1252 1253 1254 1255 1256 1257 1258 1259 1260 1261 1262 1263 1264 1265 1266 1267 1268 1269 1270 1271 1272 1273 1274 1275 1276 1277 1278 1279 1280 1281 1282 1283 1284 1285 1286 1287 1288 1289 1290 1291 1292 1293 1294 1295 1296 1297 1298 1299 1300 1301 1302 1303 1304 1305 1306 1307 1308 1309 1310 1311 1312 1313 1314 1315 1316 1317 1318 1319 1320 1321 1322 1323 1324 1325 1326 1327 1328 1329 1330 1331 1332 1333 1334 1335 1336 1337 1338 1339 1340 1341 1342 1343 1344 1345 1346 1347 1348 1349 1350 1351 1352 1353 1354 1355 1356 1357 1358 1359 1360 1361 1362 1363 1364 1365 1366 1367 1368 1369 1370 1371 1372 1373 1374 1375 1376 1377 1378 1379 1380 1381 1382 1383 1384 1385 1386 1387 1388 1389 1390 1391 1392 1393 1394 1395 1396 1397 1398 1399 1400 1401 1402 1403 1404 1405 1406 1407 1408 1409 1410 1411 1412 1413 1414 1415 1416 1417 1418 1419 1420 1421 1422 1423 1424 1425 1426 1427 1428 1429 1430 1431 1432 1433 1434 1435 1436 1437 1438 1439 1440 1441 1442 1443 1444 1445 1446 1447 1448 1449 1450 1451 1452 1453 1454 1455 1456 1457 1458 1459 1460 1461 1462 1463 1464 1465 1466 1467 1468 1469 1470 1471 1472 1473 1474 1475 1476 1477 1478 1479 1480 1481 1482 1483 1484 1485 1486 1487 1488 1489 1490 1491 1492 1493 1494 1495 1496 1497 1498 1499 1500 1501 1502 1503 1504 1505 1506 1507 1508 1509 1510 1511 1512 1513 1514 1515 1516 1517 1518 1519 1520 1521 1522 1523 1524 1525 1526 1527 1528 1529 1530 1531 1532 1533 1534 1535 1536 1537 1538 1539 1540 1541 1542 1543 1544 1545 1546 1547 1548 1549 1550 1551 1552 1553 1554 1555 1556 1557 1558 1559 1560 1561 1562 1563 1564 1565 1566 1567 1568 1569 1570 1571 1572 1573 1574 1575 1576 1577 1578 1579 1580 1581 1582 1583 1584 1585 1586 1587 1588 1589 1590 1591 1592 1593 1594 1595 1596 1597 1598 1599 1600 1601 1602 1603 1604 1605 1606 1607 1608 1609 1610 1611 1612 1613 1614 1615 1616 1617 1618 1619 1620 1621 1622 1623 1624 1625 1626 1627 1628 1629 1630 1631 1632 1633 1634 1635 1636 1637 1638 1639 1640 1641 1642 1643 1644 1645 1646 1647 1648 1649 1650 1651 1652 1653 1654 1655 1656 1657 1658 1659 1660 1661 1662 1663 1664 1665 1666 1667 1668 1669 1670 1671 1672 1673 1674 1675 1676 1677 1678 1679 1680 1681 1682 1683 1684 1685 1686 1687 1688 1689 1690 1691 1692 1693 1694 1695 1696 1697 1698 1699 1700 1701 1702 1703 1704 1705 1706 1707 1708 1709 1710 1711 1712 1713 1714 1715 1716 1717 1718 1719 1720 1721 1722 1723 1724 1725 1726 1727 1728 1729 1730 1731 1732 1733 1734 1735 1736 1737 1738 1739 1740 1741 1742 1743 1744 1745 1746 1747 1748 1749 1750 1751 1752 1753 1754 1755 1756 1757 1758 1759 1760 1761 1762 1763 1764 1765 1766 1767 1768 1769 1770 1771 1772 1773 1774 1775 1776 1777 1778 1779 1780 1781 1782 1783 1784 1785 1786 1787 1788 1789 1790 1791 1792 1793 1794 1795 1796 1797 1798 1799 1800 1801 1802 1803 1804 1805 1806 1807 1808 1809 1810 1811 1812 1813 1814 1815 1816 1817 1818 1819 1820 1821 1822 1823 1824 1825 1826 1827 1828 1829 1830 1831 1832 1833 1834 1835 1836 1837 1838 1839 1840 1841 1842 1843 1844 1845 1846 1847 1848 1849 1850 1851 1852 1853 1854 1855 1856 1857 1858 1859 1860 1861 1862 1863 1864 1865 1866 1867 1868 1869 1870 1871 1872 1873 1874 1875 1876 1877 1878 1879 1880 1881 1882 1883 1884 1885 1886 1887 1888 1889 1890 1891 1892 1893 1894 1895 1896 1897 1898 1899 1900 1901 1902 1903 1904 1905 1906 1907 1908 1909 1910 1911 1912 1913 1914 1915 1916 1917 1918 1919 1920 1921 1922 1923 1924 1925 1926 1927 1928 1929 1930 1931 1932 1933 1934 1935 1936 1937 1938 1939 1940 1941 1942 1943 1944 1945 1946 1947 1948 1949 1950 1951 1952 1953 1954 1955 1956 1957 1958 1959 1960 1961 1962 1963 1964 1965 1966 1967 1968 1969 1970 1971 1972 1973 1974 1975 1976 1977 1978 1979 1980 1981 1982 1983 1984 1985 1986 1987 1988 1989 1990 1991 1992 1993 1994 1995 1996 1997 1998 1999 2000 2001 2002 2003 2004 2005 2006 2007 2008 2009 2010 2011 2012 2013 2014 2015 2016 2017 2018 2019 2020 2021 2022 2023 2024 2025 2026 2027 2028 2029 2030 2031 2032 2033 2034 2035 2036 2037 2038 2039 2040 2041 2042 2043 2044 2045 2046 2047 2048 2049 2050 2051 2052 2053 2054 2055 2056 2057 2058 2059 2060 2061 2062 2063 2064 2065 2066 2067 2068 2069 2070 2071 2072 2073 2074 2075 2076 2077 2078 2079 2080 2081 2082 2083 2084 2085 2086 2087 2088 2089 2090 2091 2092 2093 2094 2095 2096 2097 2098 2099 2100 2101 2102 2103 2104 2105 2106 2107 2108 2109 2110 2111 2112 2113 2114 2115 2116 2117 2118 2119 2120 2121 2122 2123 2124 2125 2126 2127 2128 2129 2130 2131 2132 2133 2134 2135 2136 2137 2138 2139 2140 2141 2142 2143 2144 2145 2146 2147 2148 2149 2150 2151 2152 2153 2154 2155 2156 2157 2158 2159 2160 2161 2162 2163 2164 2165 2166 2167 2168 2169 2170 2171 2172 2173 2174 2175 2176 2177 2178 2179 2180 2181 2182 2183 2184 2185 2186 2187 2188 2189 2190 2191 2192 2193 2194 2195 2196 2197 2198 2199 2200 2201 2202 2203 2204 2205 2206 2207 2208 2209 2210 2211 2212 2213 2214 2215 2216 2217 2218 2219 2220 2221 2222 2223 2224 2225 2226 2227 2228 2229 2230 2231 2232 2233 2234 2235 2236 2237 2238 2239 2240 2241 2242 2243 2244 2245 2246 2247 2248 2249 2250 2251 2252 2253 2254 2255 2256 2257 2258 2259 2260 2261 2262 2263 2264 2265 2266 2267 2268 2269 2270 2271 2272 2273 2274 2275 2276 2277 2278 2279 2280 2281 2282 2283 2284 2285 2286 2287 2288 2289 2290 2291 2292 2293 2294 2295 2296 2297 2298 2299 2300 2301 2302 2303 2304 2305 2306 2307 2308 2309 2310 2311 2312 2313 2314 2315 2316 2317 2318 2319 2320 2321 2322 2323 2324 2325 2326 2327 2328 2329 2330 2331 2332 2333 2334 2335 2336 2337 2338 2339 2340 2341 2342 2343 2344 2345 2346 2347 2348 2349 2350 2351 2352 2353 2354 2355 2356 2357 2358 2359 2360 2361 2362 2363 2364 2365 2366 2367 2368 2369 2370 2371 2372 2373 2374 2375 2376 2377 2378 2379 2380 2381 2382 2383 2384 2385 2386 2387 2388 2389 2390 2391 2392 2393 2394 2395 2396 2397 2398 2399 2400 2401 2402 2403 2404 2405 2406 2407 2408 2409 2410 2411 2412 2413 2414 2415 2416 2417 2418 2419 2420 2421 2422 2423 2424 2425 2426 2427 2428 2429 2430 2431 2432 2433 2434 2435 2436 2437 2438 2439 2440 2441 2442 2443 2444 2445 2446 2447 2448 2449 2450 2451 2452 2453 2454 2455 2456 2457 2458 2459 2460 2461 2462 2463 2464 2465 2466 2467 2468 2469 2470 2471 2472 2473 2474 2475 2476 2477 2478 2479 2480 2481 2482 2483 2484 2485 2486 2487 2488 2489 2490 2491 2492 2493 2494 2495 2496 2497 2498 2499 2500 2501 2502 2503 2504 2505 2506 2507 2508 2509 2510 2511 2512 2513 2514 2515 2516 2517 2518 2519 2520 2521 2522 2523 2524 2525 2526 2527 2528 2529 2530 2531 2532 2533 2534 2535 2536 2537 2538 2539 2540 2541 2542 2543 2544 2545 2546 2547 2548 2549 2550 2551 2552 2553 2554 2555 2556 2557 2558 2559 2560 2561 2562 2563 2564 2565 2566 2567 2568 2569 2570 2571 2572 2573 2574 2575 2576 2577 2578 2579 2580 2581 2582 2583 2584 2585 2586 2587 2588 2589 2590 2591 2592 2593 2594 2595 2596 2597 2598 2599 2600 2601 2602 2603 2604 2605 2606 2607 2608 2609 2610 2611 2612 2613 2614 2615 2616 2617 2618 2619 2620 2621 2622 2623 2624 2625 2626 2627 2628 2629 2630 2631 2632 2633 2634 2635 2636 2637 2638 2639 2640 2641 2642 2643 2644 2645 2646 2647 2648 2649 2650 2651 2652 2653 2654 2655 2656 2657 2658 2659 2660 2661 2662 2663 2664 2665 2666 2667 2668 2669 2670 2671 2672 2673 2674 2675 2676 2677 2678 2679 2680 2681 2682 2683 2684 2685 2686 2687 2688 2689 2690 2691 2692 2693 2694 2695 2696 2697 2698 2699 2700 2701 2702 2703 2704 2705 2706 2707 2708 2709 2710 2711 2712 2713 2714 2715 2716 2717 2718 2719 2720 2721 2722 2723 2724 2725 2726 2727 2728 2729 2730 2731 2732 2733 2734 2735 2736 2737 2738 2739 2740 2741 2742 2743 2744 2745 2746 2747 2748 2749 2750 2751 2752 2753 2754 2755 2756 2757 2758 2759 2760 2761 2762 2763 2764 2765 2766 2767 2768 2769 2770 2771 2772 2773 2774 2775 2776 2777 2778 2779 2780 2781 2782 2783 2784 2785 2786 2787 2788 2789 2790 2791 2792 2793 2794 2795 2796 2797 2798 2799 2800 2801 2802 2803 2804 2805 2806 2807 2808 2809 2810 2811 2812 2813 2814 2815 2816 2817 2818 2819 2820 2821 2822 2823 2824 2825 2826 2827 2828 2829 2830 2831 2832 2833 2834 2835 2836 2837 2838 2839 2840 2841 2842 2843 2844 2845 2846 2847 2848 2849 2850 2851 2852 2853 2854 2855 2856 2857 2858 2859 2860 2861 2862 2863 2864 2865 2866 2867 2868 2869 2870 2871 2872 2873 2874 2875 2876 2877 2878 2879 2880 2881 2882 2883 2884 2885 2886 2887 2888 2889 2890 2891 2892 2893 2894 2895 2896 2897 2898 2899 2900 2901 2902 2903 2904 2905 2906 2907 2908 2909 2910 2911 2912 2913 2914 2915 2916 2917 2918 2919 2920 2921 2922 2923 2924 2925 2926 2927 2928 2929 2930 2931 2932 2933 2934 2935 2936 2937 2938 2939 2940 2941 2942 2943 2944 2945 2946 2947 2948 2949 2950 2951 2952 2953 2954 2955 2956 2957 2958 2959 2960 2961 2962 2963 2964 2965 2966 2967 2968 2969 2970 2971 2972 2973 2974 2975 2976 2977 2978 2979 2980 2981 2982 2983 2984 2985 2986 2987 2988 2989 2990 2991 2992 2993 2994 2995 2996 2997 2998 2999 3000 3001 3002 3003 3004 3005 3006 3007 3008 3009 3010 3011 3012 3013 3014 3015 3016 3017 3018 3019 3020 3021 3022 3023 3024 3025 3026 3027 3028 3029 3030 3031 3032 3033 3034 3035 3036 3037 3038 3039 3040 3041 3042 3043 3044 3045 3046 3047 3048 3049 3050 3051 3052 3053 3054 3055 3056 3057 3058 3059 3060 3061 3062 3063 3064 3065 3066 3067 3068 3069 3070 3071 3072 3073 3074 3075 3076 3077 3078 3079 3080 3081 3082 3083 3084 3085 3086 3087 3088 3089 3090 3091 3092 3093 3094 3095 3096 3097 3098 3099 3100 3101 3102 3103 3104 3105 3106 3107 3108 3109 3110 3111 3112 3113 3114 3115 3116 3117 3118 3119 3120 3121 3122 3123 3124 3125 3126 3127 3128 3129 3130 3131 3132 3133 3134 3135 3136 3137 3138 3139 3140 3141 3142 3143 3144 3145 3146 3147 3148 3149 3150 3151 3152 3153 3154 3155 3156 3157 3158 3159 3160 3161 3162 3163 3164 3165 3166 3167 3168 3169 3170 3171 3172 3173 3174 3175 3176 3177 3178 3179 3180 3181 3182 3183 3184 3185 3186 3187 3188 3189 3190 3191 3192 3193 3194 3195 3196 3197 3198 3199 3200 3201 3202 3203 3204 3205 3206 3207 3208 3209 3210 3211 3212 3213 3214 3215 3216 3217 3218 3219 3220 3221 3222 3223 3224 3225 3226 3227 3228 3229 3230 3231 3232 3233 3234 3235 3236 3237 3238 3239 3240 3241 3242 3243 3244 3245 3246 3247 3248 3249 3250 3251 3252 3253 3254 3255 3256 3257 3258 3259 3260 3261 3262 3263 3264 3265 3266 3267 3268 3269 3270 3271 3272 3273 3274 3275 3276 3277 3278 3279 3280 3281 3282 3283 3284 3285 3286 3287 3288 3289 3290 3291 3292 3293 3294 3295 3296 3297 3298 3299 3300 3301 3302 3303 3304 3305 3306 3307 3308 3309 3310 3311 3312 3313 3314 3315 3316 3317 3318 3319 3320 3321 3322 3323 3324 3325 3326 3327 3328 3329 3330 3331 3332 3333 3334 3335 3336 3337 3338 3339 3340 3341 3342 3343 3344 3345 3346 3347 3348 3349 3350 3351 3352 3353 3354 3355 3356 3357 3358 3359 3360 3361 3362 3363 3364 3365 3366 3367 3368 3369 3370 3371 3372 3373 3374 3375 3376 3377 3378 3379 3380 3381 3382 3383 3384 3385 3386 3387 3388 3389 3390 3391 3392 3393 3394 3395 3396 3397 3398 3399 3400 3401 3402 3403 3404 3405 3406 3407 3408 3409 3410 3411 3412 3413 3414 3415 3416 3417 3418 3419 3420 3421 3422 3423 3424 3425 3426 3427 3428 3429 3430 3431 3432 3433 3434 3435 3436 3437 3438 3439 3440 3441 3442 3443 3444 3445 3446 3447 3448 3449 3450 3451 3452 3453 3454 3455 3456 3457 3458 3459 3460 3461 3462 3463 3464 3465 3466 3467 3468 3469 3470 3471 3472 3473 3474 3475 3476 3477 3478 3479 3480 3481 3482 3483 3484 3485 3486 3487 3488 3489 3490 3491 3492 3493 3494 3495 3496 3497 3498 3499 3500 3501 3502 3503 3504 3505 3506 3507 3508 3509 3510 3511 3512 3513 3514 3515 3516 3517 3518 3519 3520 3521 3522 3523 3524 3525 3526 3527 3528 3529 3530 3531 3532 3533 3534 3535 3536 3537 3538 3539 3540 3541 3542 3543 3544 3545 3546 3547 3548 3549 3550 3551 3552 3553 3554 3555 3556 3557 3558 3559 3560 3561 3562 3563 3564 3565 3566 3567 3568 3569 3570 3571 3572 3573 3574 3575 3576 3577 3578 3579 3580 3581 3582 3583 3584 3585 3586 3587 3588 3589 3590 3591 3592 3593 3594 3595 3596 3597 3598 3599 3600 3601 3602 3603 3604 3605 3606 3607 3608 3609 3610 3611 3612 3613 3614 3615 3616 3617 3618 3619 3620 3621 3622 3623 3624 3625 3626 3627 3628 3629 3630 3631 3632 3633 3634 3635 3636 3637 3638 3639 3640 3641 3642 3643 3644 3645 3646 3647 3648 3649 3650 3651 3652 3653 3654 3655 3656 3657 3658 3659 3660 3661 3662 3663 3664 3665 3666 3667 3668 3669 3670 3671 3672 3673 3674 3675 3676 3677 3678 3679 3680 3681 3682 3683 3684 3685 3686 3687 3688 3689 3690 3691 3692 3693 3694 3695 3696 3697 3698 3699 3700 3701 3702 3703 3704 3705 3706 3707 3708 3709 3710 3711 3712 3713 3714 3715 3716 3717 3718 3719 3720 3721 3722 3723 3724 3725 3726 3727 3728 3729 3730 3731 3732 3733 3734 3735 3736 3737 3738 3739 3740 3741 3742 3743 3744 3745 3746 3747 3748 3749 3750 3751 3752 3753 3754 3755 3756 3757 3758 3759 3760 3761 3762 3763 3764 3765 3766 3767 3768 3769 3770 3771 3772 3773 3774 3775 3776 3777 3778 3779 3780 3781 3782 3783 3784 3785 3786 3787 3788 3789 3790 3791 3792 3793 3794 3795 3796 3797 3798 3799 3800 3801 3802 3803 3804 3805 3806 3807 3808 3809 3810 3811 3812 3813 3814 3815 3816 3817 3818 3819 3820 3821 3822 3823 3824 3825 3826 3827 3828 3829 3830 3831 3832 3833 3834 3835 3836 3837 3838 3839 3840 3841 3842 3843 3844 3845 3846 3847 3848 3849 3850 3851 3852 3853 3854 3855 3856 3857 3858 3859 3860 3861 3862 3863 3864 3865 3866 3867 3868 3869 3870 3871 3872 3873 3874 3875 3876 3877 3878 3879 3880 3881 3882 3883 3884 3885 3886 3887 3888 3889 3890 3891 3892 3893 3894 3895 3896 3897 3898 3899 3900 3901 3902 3903 3904 3905 3906 3907 3908 3909 3910 3911 3912 3913 3914 3915 3916 3917 3918 3919 3920 3921 3922 3923 3924 3925 3926 3927 3928 3929 3930 3931 3932 3933 3934 3935 3936 3937 3938 3939 3940 3941 3942 3943 3944 3945 3946 3947 3948 3949 3950 3951 3952 3953 3954 3955 3956 3957 3958 3959 3960 3961 3962 3963 3964 3965 3966 3967 3968 3969 3970 3971 3972 3973 3974 3975 3976 3977 3978 3979 3980 3981 3982 3983 3984 3985 3986 3987 3988 3989 3990 3991 3992 3993 3994 3995 3996 3997 3998 3999 4000 4001 4002 4003 4004 4005 4006 4007 4008 4009 4010 4011 4012 4013 4014 4015 4016 4017 4018 4019 4020 4021 4022 4023 4024 4025 4026 4027 4028 4029 4030 4031 4032 4033 4034 4035 4036 4037 4038 4039 4040 4041 4042 4043 4044 4045 4046 4047 4048 4049 4050 4051 4052 4053 4054 4055 4056 4057 4058 4059 4060 4061 4062 4063 4064 4065 4066 4067 4068 4069 4070 4071 4072 4073 4074 4075 4076 4077 4078 4079 4080 4081 4082 4083 4084 4085 4086 4087 4088 4089 4090 4091 4092 4093 4094 4095 4096 4097 4098 4099 4100 4101 4102 4103 4104 4105 4106 4107 4108 4109 4110 4111 4112 4113 4114 4115 4116 4117 4118 4119 4120 4121 4122 4123 4124 4125 4126 4127 4128 4129 4130 4131 4132 4133 4134 4135 4136 4137 4138 4139 4140 4141 4142 4143 4144 4145 4146 4147 4148 4149 4150 4151 4152 4153 4154 4155 4156 4157 4158 4159 4160 4161 4162 4163 4164 4165 4166 4167 4168 4169 4170 4171 4172 4173 4174 4175 4176 4177 4178 4179 4180 4181 4182 4183 4184 4185 4186 4187 4188 4189 4190 4191 4192 4193 4194 4195 4196 4197 4198 4199 4200 4201 4202 4203 4204 4205 4206 4207 4208 4209 4210 4211 4212 4213 4214 4215 4216 4217 4218 4219 4220 4221 4222 4223 4224 4225 4226 4227 4228 4229 4230 4231 4232 4233 4234 4235 4236 4237 4238 4239 4240 4241 4242 4243 4244 4245 4246 4247 4248 4249 4250 4251 4252 4253 4254 4255 4256 4257 4258 4259 4260 4261 4262 4263 4264 4265 4266 4267 4268 4269 4270 4271 4272 4273 4274 4275 4276 4277 4278 4279 4280 4281 4282 4283 4284 4285 4286 4287 4288 4289 4290 4291 4292 4293 4294 4295 4296 4297 4298 4299 4300 4301 4302 4303 4304 4305 4306 4307 4308 4309 4310 4311 4312 4313 4314 4315 4316 4317 4318 4319 4320 4321 4322 4323 4324 4325 4326 4327 4328 4329 4330 4331 4332 4333 4334 4335 4336 4337 4338 4339 4340 4341 4342 4343 4344 4345 4346 4347 4348 4349 4350 4351 4352 4353 4354 4355 4356 4357 4358 4359 4360 4361 4362 4363 4364 4365 4366 4367 4368 4369 4370 4371 4372 4373 4374 4375 4376 4377 4378 4379 4380 4381 4382 4383 4384 4385 4386 4387 4388 4389 4390 4391 4392 4393 4394 4395 4396 4397 4398 4399 4400 4401 4402 4403 4404 4405 4406 4407 4408 4409 4410 4411 4412 4413 4414 4415 4416 4417 4418 4419 4420 4421 4422 4423 4424 4425 4426 4427 4428 4429 4430 4431 4432 4433 4434 4435 4436 4437 4438 4439 4440 4441 4442 4443 4444 4445 4446 4447 4448 4449 4450 4451 4452 4453 4454 4455 4456 4457 4458 4459 4460 4461 4462 4463 4464 4465 4466 4467 4468 4469 4470 4471 4472 4473 4474 4475 4476 4477 4478 4479 4480 4481 4482 4483 4484 4485 4486 4487 4488 4489 4490 4491 4492 4493 4494 4495 4496 4497 4498 4499 4500 4501 4502 4503 4504 4505 4506 4507 4508 4509 4510 4511 4512 4513 4514 4515 4516 4517 4518 4519 4520 4521 4522 4523 4524 4525 4526 4527 4528 4529 4530 4531 4532 4533 4534 4535 4536 4537 4538 4539 4540 4541 4542 4543 4544 4545 4546 4547 4548 4549 4550 4551 4552 4553 4554 4555 4556 4557 4558 4559 4560 4561 4562 4563 4564 4565 4566 4567 4568 4569 4570 4571 4572 4573 4574 4575 4576 4577 4578 4579 4580 4581 4582 4583 4584 4585 4586 4587 4588 4589 4590 4591 4592 4593 4594 4595 4596 4597 4598 4599 4600 4601 4602 4603 4604 4605 4606 4607 4608 4609 4610 4611 4612 4613 4614 4615 4616 4617 4618 4619 4620 4621 4622 4623 4624 4625 4626 4627 4628 4629 4630 4631 4632 4633 4634 4635 4636 4637 4638 4639 4640 4641 4642 4643 4644 4645 4646 4647 4648 4649 4650 4651 4652 4653 4654 4655 4656 4657 4658 4659 4660 4661 4662 4663 4664 4665 4666 4667 4668 4669 4670 4671 4672 4673 4674 4675 4676 4677 4678 4679 4680 4681 4682 4683 4684 4685 4686 4687 4688 4689 4690 4691 4692 4693 4694 4695 4696 4697 4698 4699 4700 4701 4702 4703 4704 4705 4706 4707 4708 4709 4710 4711 4712 4713 4714 4715 4716 4717 4718 4719 4720 4721 4722 4723 4724 4725 4726 4727 4728 4729 4730 4731 4732 4733 4734 4735 4736 4737 4738 4739 4740 4741 4742 4743 4744 4745 4746 4747 4748 4749 4750 4751 4752 4753 4754 4755 4756 4757 4758 4759 4760 4761 4762 4763 4764 4765 4766 4767 4768 4769 4770 4771 4772 4773 4774 4775 4776 4777 4778 4779 4780 4781 4782 4783 4784 4785 4786 4787 4788 4789 4790 4791 4792 4793 4794 4795 4796 4797 4798 4799 4800 4801 4802 4803 4804 4805 4806 4807 4808 4809 4810 4811 4812 4813 4814 4815 4816 4817 4818 4819 4820 4821 4822 4823 4824 4825 4826 4827 4828 4829 4830 4831 4832 4833 4834 4835 4836 4837 4838 4839 4840 4841 4842 4843 4844 4845 4846 4847 4848 4849 4850 4851 4852 4853 4854 4855 4856 4857 4858 4859 4860 4861 4862 4863 4864 4865 4866 4867 4868 4869 4870 4871 4872 4873 4874 4875 4876 4877 4878 4879 4880 4881 4882 4883 4884 4885 4886 4887 4888 4889 4890 4891 4892 4893 4894 4895 4896 4897 4898 4899 4900 4901 4902 4903 4904 4905 4906 4907 4908 4909 4910 4911 4912 4913 4914 4915 4916 4917 4918 4919 4920 4921 4922 4923 4924 4925 4926 4927 4928 4929 4930 4931 4932 4933 4934 4935 4936 4937 4938 4939 4940 4941 4942 4943 4944 4945 4946 4947 4948 4949 4950 4951 4952 4953 4954 4955 4956 4957 4958 4959 4960 4961 4962 4963 4964 4965 4966 4967 4968 4969 4970 4971 4972 4973 4974 4975 4976 4977 4978 4979 4980 4981 4982 4983 4984 4985 4986 4987 4988 4989 4990 4991 4992 4993 4994 4995 4996 4997 4998 4999 5000 5001 5002 5003 5004 5005 5006 5007 5008 5009 5010 5011 5012 5013 5014 5015 5016 5017 5018 5019 5020 5021 5022 5023 5024 5025 5026 5027 5028 5029 5030 5031 5032 5033 5034 5035 5036 5037 5038 5039 5040 5041 5042 5043 5044 5045 5046 5047 5048 5049 5050 5051 5052 5053 5054 5055 5056 5057 5058 5059 5060 5061 5062 5063 5064 5065 5066 5067 5068 5069 5070 5071 5072 5073 5074 5075 5076 5077 5078 5079 5080 5081 5082 5083 5084 5085 5086 5087 5088 5089 5090 5091 5092 5093 5094 5095 5096 5097 5098 5099 5100 5101 5102 5103 5104 5105 5106 5107 5108 5109 5110 5111 5112 5113 5114 5115 5116 5117 5118 5119 5120 5121 5122 5123 5124 5125 5126 5127 5128 5129 5130 5131 5132 5133 5134 5135 5136 5137 5138 5139 5140 5141 5142 5143 5144 5145 5146 5147 5148 5149 5150 5151 5152 5153 5154 5155 5156 5157 5158 5159 5160 5161 5162 5163 5164 5165 5166 5167 5168 5169 5170 5171 5172 5173 5174 5175 5176 5177 5178 5179 5180 5181 5182 5183 5184 5185 5186 5187 5188 5189 5190 5191 5192 5193 5194 5195 5196 5197 5198 5199 5200 5201 5202 5203 5204 5205 5206 5207 5208 5209 5210 5211 5212 5213 5214 5215 5216 5217 5218 5219 5220 5221 5222 5223 5224 5225 5226 5227 5228 5229 5230 5231 5232 5233 5234 5235 5236 5237 5238 5239 5240 5241 5242 5243 5244 5245 5246 5247 5248 5249 5250 5251 5252 5253 5254 5255 5256 5257 5258 5259 5260 5261 5262 5263 5264 5265 5266 5267 5268 5269 5270 5271 5272 5273 5274 5275 5276 5277 5278 5279 5280 5281 5282 5283 5284 5285 5286 5287 5288 5289 5290 5291 5292 5293 5294 5295 5296 5297 5298 5299 5300 5301 5302 5303 5304 5305 5306 5307 5308 5309 5310 5311 5312 5313 5314 5315 5316 5317 5318 5319 5320 5321 5322 5323 5324 5325 5326 5327 5328 5329 5330 5331 5332 5333 5334 5335 5336 5337 5338 5339 5340 5341 5342 5343 5344 5345 5346 5347 5348 5349 5350 5351 5352 5353 5354 5355 5356 5357 5358 5359 5360 5361 5362 5363 5364 5365 5366 5367 5368 5369 5370 5371 5372 5373 5374 5375 5376 5377 5378 5379 5380 5381 5382 5383 5384 5385 5386 5387 5388 5389 5390 5391 5392 5393 5394 5395 5396 5397 5398 5399 5400 5401 5402 5403 5404 5405 5406 5407 5408 5409 5410 5411 5412 5413 5414 5415 5416 5417 5418 5419 5420 5421 5422 5423 5424 5425 5426 5427 5428 5429 5430 5431 5432 5433 5434 5435 5436 5437 5438 5439 5440 5441 5442 5443 5444 5445 5446 5447 5448 5449 5450 5451 5452 5453 5454 5455 5456 5457 5458 5459 5460 5461 5462 5463 5464 5465 5466 5467 5468 5469 5470 5471 5472 5473 5474 5475 5476 5477 5478 5479 5480 5481 5482 5483 5484 5485 5486 5487 5488 5489 5490 5491 5492 5493 5494 5495 5496 5497 5498 5499 5500 5501 5502 5503 5504 5505 5506 5507 5508 5509 5510 5511 5512 5513 5514 5515 5516 5517 5518 5519 5520 5521 5522 5523 5524 5525 5526 5527 5528 5529 5530 5531 5532 5533 5534 5535 5536 5537 5538 5539 5540 5541 5542 5543 5544 5545 5546 5547 5548 5549 5550 5551 5552 5553 5554 5555 5556 5557 5558 5559 5560 5561 5562 5563 5564 5565 5566 5567 5568 5569 5570 5571 5572 5573 5574 5575 5576 5577 5578 5579 5580 5581 5582 5583 5584 5585 5586 5587 5588 5589 5590 5591 5592 5593 5594 5595 5596 5597 5598 5599 5600 5601 5602 5603 5604 5605 5606 5607 5608 5609 5610 5611 5612 5613 5614 5615 5616 5617 5618 5619 5620 5621 5622 5623 5624 5625 5626 5627 5628 5629 5630 5631 5632 5633 5634 5635 5636 5637 5638 5639 5640 5641 5642 5643 5644 5645 5646 5647 5648 5649 5650 5651 5652 5653 5654 5655 5656 5657 5658 5659 5660 5661 5662 5663 5664 5665 5666 5667 5668 5669 5670 5671 5672 5673 5674 5675 5676 5677 5678 5679 5680 5681 5682 5683 5684 5685 5686 5687 5688 5689 5690 5691 5692 5693 5694 5695 5696 5697 5698 5699 5700 5701 5702 5703 5704 5705 5706 5707 5708 5709 5710 5711 5712 5713 5714 5715 5716 5717 5718 5719 5720 5721 5722 5723 5724 5725 5726 5727 5728 5729 5730 5731 5732 5733 5734 5735 5736 5737 5738 5739 5740 5741 5742 5743 5744 5745 5746 5747 5748 5749 5750 5751 5752 5753 5754 5755 5756 5757 5758 5759 5760 5761 5762 5763 5764 5765 5766 5767 5768 5769 5770 5771 5772 5773 5774 5775 5776 5777 5778 5779 5780 5781 5782 5783 5784 5785 5786 5787 5788 5789 5790 5791 5792 5793 5794 5795 5796 5797 5798 5799 5800 5801 5802 5803 5804 5805 5806 5807 5808 5809 5810 5811 5812 5813 5814 5815 5816 5817 5818 5819 5820 5821 5822 5823 5824 5825 5826 5827 5828 5829 5830 5831 5832 5833 5834 5835 5836 5837 5838 5839 5840 5841 5842 5843 5844 5845 5846 5847 5848 5849 5850 5851 5852 5853 5854 5855 5856 5857 5858 5859 5860 5861 5862 5863 5864 5865 5866 5867 5868 5869 5870 5871 5872 5873 5874 5875 5876 5877 5878 5879 5880 5881 5882 5883 5884 5885 5886 5887 5888 5889 5890 5891 5892 5893 5894 5895 5896 5897 5898 5899 5900 5901 5902 5903 5904 5905 5906 5907 5908 5909 5910 5911 5912 5913 5914 5915 5916 5917 5918 5919 5920 5921 5922 5923 5924 5925 5926 5927 5928 5929 5930 5931 5932 5933 5934 5935 5936 5937 5938 5939 5940 5941 5942 5943 5944 5945 5946 5947 5948 5949 5950 5951 5952 5953 5954 5955 5956 5957 5958 5959 5960 5961 5962 5963 5964 5965 5966 5967 5968 5969 5970 5971 5972 5973 5974 5975 5976 5977 5978 5979 5980 5981 5982 5983 5984 5985 5986 5987 5988 5989 5990 5991 5992 5993 5994 5995 5996 5997 5998 5999 6000 6001 6002 6003 6004 6005 6006 6007 6008 6009 6010 6011 6012 6013 6014 6015 6016 6017 6018 6019 6020 6021 6022 6023 6024 6025 6026 6027 6028 6029 6030 6031 6032 6033 6034 6035 6036 6037 6038 6039 6040 6041 6042 6043 6044 6045 6046 6047 6048 6049 6050 6051 6052 6053 6054 6055 6056 6057 6058 6059 6060 6061 6062 6063 6064 6065 6066 6067 6068 6069 6070 6071 6072 6073 6074 6075 6076 6077 6078 6079 6080 6081 6082 6083 6084 6085 6086 6087 6088 6089 6090 6091 6092 6093 6094 6095 6096 6097 6098 6099 6100 6101 6102 6103 6104 6105 6106 6107 6108 6109 6110 6111 6112 6113 6114 6115 6116 6117 6118 6119 6120 6121 6122 6123 6124 6125 6126 6127 6128 6129 6130 6131 6132 6133 6134 6135 6136 6137 6138 6139 6140 6141 6142 6143 6144 6145 6146 6147 6148 6149 6150 6151 6152 6153 6154 6155 6156 6157 6158 6159 6160 6161 6162 6163 6164 6165 6166 6167 6168 6169 6170 6171 6172 6173 6174 6175 6176 6177 6178 6179 6180 6181 6182 6183 6184 6185 6186 6187 6188 6189 6190 6191 6192 6193 6194 6195 6196 6197 6198 6199 6200 6201 6202 6203 6204 6205 6206 6207 6208 6209 6210 6211 6212 6213 6214 6215 6216 6217 6218 6219 6220 6221 6222 6223 6224 6225 6226 6227 6228 6229 6230 6231 6232 6233 6234 6235 6236 6237 6238 6239 6240 6241 6242 6243 6244 6245 6246 6247 6248 6249 6250 6251 6252 6253 6254 6255 6256 6257 6258 6259 6260 6261 6262 6263 6264 6265 6266 6267 6268 6269 6270 6271 6272 6273 6274 6275 6276 6277 6278 6279 6280 6281 6282 6283 6284 6285 6286 6287 6288 6289 6290 6291 6292 6293 6294 6295 6296 6297 6298 6299 6300 6301 6302 6303 6304 6305 6306 6307 6308 6309 6310 6311 6312 6313 6314 6315 6316 6317 6318 6319 6320 6321 6322 6323 6324 6325 6326 6327 6328 6329 6330 6331 6332 6333 6334 6335 6336 6337 6338 6339 6340 6341 6342 6343 6344 6345 6346 6347 6348 6349 6350 6351 6352 6353 6354 6355 6356 6357 6358 6359 6360 6361 6362 6363 6364 6365 6366 6367 6368 6369 6370 6371 6372 6373 6374 6375 6376 6377 6378 6379 6380 6381 6382 6383 6384 6385 6386 6387 6388 6389 6390 6391 6392 6393 6394 6395 6396 6397 6398 6399 6400 6401 6402 6403 6404 6405 6406 6407 6408 6409 6410 6411 6412 6413 6414 6415 6416 6417 6418 6419 6420 6421 6422 6423 6424 6425 6426 6427 6428 6429 6430 6431 6432 6433 6434 6435 6436 6437 6438 6439 6440 6441 6442 6443 6444 6445 6446 6447 6448 6449 6450 6451 6452 6453 6454 6455 6456 6457 6458 6459 6460 6461 6462 6463 6464 6465 6466 6467 6468 6469 6470 6471 6472 6473 6474 6475 6476 6477 6478 6479 6480 6481 6482 6483 6484 6485 6486 6487 6488 6489 6490 6491 6492 6493 6494 6495 6496 6497 6498 6499 6500 6501 6502 6503 6504 6505 6506 6507 6508 6509 6510 6511 6512 6513 6514 6515 6516 6517 6518 6519 6520 6521 6522 6523 6524 6525 6526 6527 6528 6529 6530 6531 6532 6533 6534 6535 6536 6537 6538 6539 6540 6541 6542 6543 6544 6545 6546 6547 6548 6549 6550 6551 6552 6553 6554 6555 6556 6557 6558 6559 6560 6561 6562 6563 6564 6565 6566 6567 6568 6569 6570 6571 6572 6573 6574 6575 6576 6577 6578 6579 6580 6581 6582 6583 6584 6585 6586 6587 6588 6589 6590 6591 6592 6593 6594 6595 6596 6597 6598 6599 6600 6601 6602 6603 6604 6605 6606 6607 6608 6609 6610 6611 6612 6613 6614 6615 6616 6617 6618 6619 6620 6621 6622 6623 6624 6625 6626 6627 6628 6629 6630 6631 6632 6633 6634 6635 6636 6637 6638 6639 6640 6641 6642 6643 6644 6645 6646 6647 6648 6649 6650 6651 6652 6653 6654 6655 6656 6657 6658 6659 6660 6661 6662 6663 6664 6665 6666 6667 6668 6669 6670 6671 6672 6673 6674 6675 6676 6677 6678 6679 6680 6681 6682 6683 6684 6685 6686 6687 6688 6689 6690 6691 6692 6693 6694 6695 6696 6697 6698 6699 6700 6701 6702 6703 6704 6705 6706 6707 6708 6709 6710 6711 6712 6713 6714 6715 6716 6717 6718 6719 6720 6721 6722 6723 6724 6725 6726 6727 6728 6729 6730 6731 6732 6733 6734 6735 6736 6737 6738 6739 6740 6741 6742 6743 6744 6745 6746 6747 6748 6749 6750 6751 6752 6753 6754 6755 6756 6757 6758 6759 6760 6761 6762 6763 6764 6765 6766 6767 6768 6769 6770 6771 6772 6773 6774 6775 6776 6777 6778 6779 6780 6781 6782 6783 6784 6785 6786 6787 6788 6789 6790 6791 6792 6793 6794 6795 6796 6797 6798 6799 6800 6801 6802 6803 6804 6805 6806 6807 6808 6809 6810 6811 6812 6813 6814 6815 6816 6817 6818 6819 6820 6821 6822 6823 6824 6825 6826 6827 6828 6829 6830 6831 6832 6833 6834 6835 6836 6837 6838 6839 6840 6841 6842 6843 6844 6845 6846 6847 6848 6849 6850 6851 6852 6853 6854 6855 6856 6857 6858 6859 6860 6861 6862 6863 6864 6865 6866 6867 6868 6869 6870 6871 6872 6873 6874 6875 6876 6877 6878 6879 6880 6881 6882 6883 6884 6885 6886 6887 6888 6889 6890 6891 6892 6893 6894 6895 6896 6897 6898 6899 6900 6901 6902 6903 6904 6905 6906 6907 6908 6909 6910 6911 6912 6913 6914 6915 6916 6917 6918 6919 6920 6921 6922 6923 6924 6925 6926 6927 6928 6929 6930 6931 6932 6933 6934 6935 6936 6937 6938 6939 6940 6941 6942 6943 6944 6945 6946 6947 6948 6949 6950 6951 6952 6953 6954 6955 6956 6957 6958 6959 6960 6961 6962 6963 6964 6965 6966 6967 6968 6969 6970 6971 6972 6973 6974 6975 6976 6977 6978 6979 6980 6981 6982 6983 6984 6985 6986 6987 6988 6989 6990 6991 6992 6993 6994 6995 6996 6997 6998 6999 7000 7001 7002 7003 7004 7005 7006 7007 7008 7009 7010 7011 7012 7013 7014 7015 7016 7017 7018 7019 7020 7021 7022 7023 7024 7025 7026 7027 7028 7029 7030 7031 7032 7033 7034 7035 7036 7037 7038 7039 7040 7041 7042 7043 7044 7045 7046 7047 7048 7049 7050 7051 7052 7053 7054 7055 7056 7057 7058 7059 7060 7061 7062 7063 7064 7065 7066 7067 7068 7069 7070 7071 7072 7073 7074 7075 7076 7077 7078 7079 7080 7081 7082 7083 7084 7085 7086 7087 7088 7089 7090 7091 7092 7093 7094 7095 7096 7097 7098 7099 7100 7101 7102 7103 7104 7105 7106 7107 7108 7109 7110 7111 7112 7113 7114 7115 7116 7117 7118 7119 7120 7121 7122 7123 7124 7125 7126 7127 7128 7129 7130 7131 7132 7133 7134 7135 7136 7137 7138 7139 7140 7141 7142 7143 7144 7145 7146 7147 7148 7149 7150 7151 7152 7153 7154 7155 7156 7157 7158 7159 7160 7161 7162 7163 7164 7165 7166 7167 7168 7169 7170 7171 7172 7173 7174 7175 7176 7177 7178 7179 7180 7181 7182 7183 7184 7185 7186 7187 7188 7189 7190 7191 7192 7193 7194 7195 7196 7197 7198 7199 7200 7201 7202 7203 7204 7205 7206 7207 7208 7209 7210 7211 7212 7213 7214 7215 7216 7217 7218 7219 7220 7221 7222 7223 7224 7225 7226 7227 7228 7229 7230 7231 7232 7233 7234 7235 7236 7237 7238 7239 7240 7241 7242 7243 7244 7245 7246 7247 7248 7249 7250 7251 7252 7253 7254 7255 7256 7257 7258 7259 7260 7261 7262 7263 7264 7265 7266 7267 7268 7269 7270 7271 7272 7273 7274 7275 7276 7277 7278 7279 7280 7281 7282 7283 7284 7285 7286 7287 7288 7289 7290 7291 7292 7293 7294 7295 7296 7297 7298 7299 7300 7301 7302 7303 7304 7305 7306 7307 7308 7309 7310 7311 7312 7313 7314 7315 7316 7317 7318 7319 7320 7321 7322 7323 7324 7325 7326 7327 7328 7329 7330 7331 7332 7333 7334 7335 7336 7337 7338 7339 7340 7341 7342 7343 7344 7345 7346 7347 7348 7349 7350 7351 7352 7353 7354 7355 7356 7357 7358 7359 7360 7361 7362 7363 7364 7365 7366 7367 7368 7369 7370 7371 7372 7373 7374 7375 7376 7377 7378 7379 7380 7381 7382 7383 7384 7385 7386 7387 7388 7389 7390 7391 7392 7393 7394 7395 7396 7397 7398 7399 7400 7401 7402 7403 7404 7405 7406 7407 7408 7409 7410 7411 7412 7413 7414 7415 7416 7417 7418 7419 7420 7421 7422 7423 7424 7425 7426 7427 7428 7429 7430 7431 7432 7433 7434 7435 7436 7437 7438 7439 7440 7441 7442 7443 7444 7445 7446 7447 7448 7449 7450 7451 7452 7453 7454 7455 7456 7457 7458 7459 7460 7461 7462 7463 7464 7465 7466 7467 7468 7469 7470 7471 7472 7473 7474 7475 7476 7477 7478 7479 7480 7481 7482 7483 7484 7485 7486 7487 7488 7489 7490 7491 7492 7493 7494 7495 7496 7497 7498 7499 7500 7501 7502 7503 7504 7505 7506 7507 7508 7509 7510 7511 7512 7513 7514 7515 7516 7517 7518 7519 7520 7521 7522 7523 7524 7525 7526 7527 7528 7529 7530 7531 7532 7533 7534 7535 7536 7537 7538 7539 7540 7541 7542 7543 7544 7545 7546 7547 7548 7549 7550 7551 7552 7553 7554 7555 7556 7557 7558 7559 7560 7561 7562 7563 7564 7565 7566 7567 7568 7569 7570 7571 7572 7573 7574 7575 7576 7577 7578 7579 7580 7581 7582 7583 7584 7585 7586 7587 7588 7589 7590 7591 7592 7593 7594 7595 7596 7597 7598 7599 7600 7601 7602 7603 7604 7605 7606 7607 7608 7609 7610 7611 7612 7613 7614 7615 7616 7617 7618 7619 7620 7621 7622 7623 7624 7625 7626 7627 7628 7629 7630 7631 7632 7633 7634 7635 7636 7637 7638 7639 7640 7641 7642 7643 7644 7645 7646 7647 7648 7649 7650 7651 7652 7653 7654 7655 7656 7657 7658 7659 7660 7661 7662 7663 7664 7665 7666 7667 7668 7669 7670 7671 7672 7673 7674 7675 7676 7677 7678 7679 7680 7681 7682 7683 7684 7685 7686 7687 7688 7689 7690 7691 7692 7693 7694 7695 7696 7697 7698 7699 7700 7701 7702 7703 7704 7705 7706 7707 7708 7709 7710 7711 7712 7713 7714 7715 7716 7717 7718 7719 7720 7721 7722 7723 7724 7725 7726 7727 7728 7729 7730 7731 7732 7733 7734 7735 7736 7737 7738 7739 7740 7741 7742 7743 7744 7745 7746 7747 7748 7749 7750 7751 7752 7753 7754 7755 7756 7757 7758 7759 7760 7761 7762 7763 7764 7765 7766 7767 7768 7769 7770 7771 7772 7773 7774 7775 7776 7777 7778 7779 7780 7781 7782 7783 7784 7785 7786 7787 7788 7789 7790 7791 7792 7793 7794 7795 7796 7797 7798 7799 7800 7801 7802 7803 7804 7805 7806 7807 7808 7809 7810 7811 7812 7813 7814 7815 7816 7817 7818 7819 7820 7821 7822 7823 7824 7825 7826 7827 7828 7829 7830 7831 7832 7833 7834 7835 7836 7837 7838 7839 7840 7841 7842 7843 7844 7845 7846 7847 7848 7849 7850 7851 7852 7853 7854 7855 7856 7857 7858 7859 7860 7861 7862 7863 7864 7865 7866 7867 7868 7869 7870 7871 7872 7873 7874 7875 7876 7877 7878 7879 7880 7881 7882 7883 7884 7885 7886 7887 7888 7889 7890 7891 7892 7893 7894 7895 7896 7897 7898 7899 7900 7901 7902 7903 7904 7905 7906 7907 7908 7909 7910 7911 7912 7913 7914 7915 7916 7917 7918 7919 7920 7921 7922 7923 7924 7925 7926 7927 7928 7929 7930 7931 7932 7933 7934 7935 7936 7937 7938 7939 7940 7941 7942 7943 7944 7945 7946 7947 7948 7949 7950 7951 7952 7953 7954 7955 7956 7957 7958 7959 7960 7961 7962 7963 7964 7965 7966 7967 7968 7969 7970 7971 7972 7973 7974 7975 7976 7977 7978 7979 7980 7981 7982 7983 7984 7985 7986 7987 7988 7989 7990 7991 7992 7993 7994 7995 7996 7997 7998 7999 8000 8001 8002 8003 8004 8005 8006 8007 8008 8009 8010 8011 8012 8013 8014 8015 8016 8017 8018 8019 8020 8021 8022 8023 8024 8025 8026 8027 8028 8029 8030 8031 8032 8033 8034 8035 8036 8037 8038 8039 8040 8041 8042 8043 8044 8045 8046 8047 8048 8049 8050 8051 8052 8053 8054 8055 8056 8057 8058 8059 8060 8061 8062 8063 8064 8065 8066 8067 8068 8069 8070 8071 8072 8073 8074 8075 8076 8077 8078 8079 8080 8081 8082 8083 8084 8085 8086 8087 8088 8089 8090 8091 8092 8093 8094 8095 8096 8097 8098 8099 8100 8101 8102 8103 8104 8105 8106 8107 8108 8109 8110 8111 8112 8113 8114 8115 8116 8117 8118 8119 8120 8121 8122 8123 8124 8125 8126 8127 8128 8129 8130 8131 8132 8133 8134 8135 8136 8137 8138 8139 8140 8141 8142 8143 8144 8145 8146 8147 8148 8149 8150 8151 8152 8153 8154 8155 8156 8157 8158 8159 8160 8161 8162 8163 8164 8165 8166 8167 8168 8169 8170 8171 8172 8173 8174 8175 8176 8177 8178 8179 8180 8181 8182 8183 8184 8185 8186 8187 8188 8189 8190 8191 8192 8193 8194 8195 8196 8197 8198 8199 8200 8201 8202 8203 8204 8205 8206 8207 8208 8209 8210 8211 8212 8213 8214 8215 8216 8217 8218 8219 8220 8221 8222 8223 8224 8225 8226 8227 8228 8229 8230 8231 8232 8233 8234 8235 8236 8237 8238 8239 8240 8241 8242 8243 8244 8245 8246 8247 8248 8249 8250 8251 8252 8253 8254 8255 8256 8257 8258 8259 8260 8261 8262 8263 8264 8265 8266 8267 8268 8269 8270 8271 8272 8273 8274 8275 8276 8277 8278 8279 8280 8281 8282 8283 8284 8285 8286 8287 8288 8289 8290 8291 8292 8293 8294 8295 8296 8297 8298 8299 8300 8301 8302 8303 8304 8305 8306 8307 8308 8309 8310 8311 8312 8313 8314 8315 8316 8317 8318 8319 8320 8321 8322 8323 8324 8325 8326 8327 8328 8329 8330 8331 8332 8333 8334 8335 8336 8337 8338 8339 8340 8341 8342 8343 8344 8345 8346 8347 8348 8349 8350 8351 8352 8353 8354 8355 8356 8357 8358 8359 8360 8361 8362 8363 8364 8365 8366 8367 8368 8369 8370 8371 8372 8373 8374 8375 8376 8377 8378 8379 8380 8381 8382 8383 8384 8385 8386 8387 8388 8389 8390 8391 8392 8393 8394 8395 8396 8397 8398 8399 8400 8401 8402 8403 8404 8405 8406 8407 8408 8409 8410 8411 8412 8413 8414 8415 8416 8417 8418 8419 8420 8421 8422 8423 8424 8425 8426 8427 8428 8429 8430 8431 8432 8433 8434 8435 8436 8437 8438 8439 8440 8441 8442 8443 8444 8445 8446 8447 8448 8449 8450 8451 8452 8453 8454 8455 8456 8457 8458 8459 8460 8461 8462 8463 8464 8465 8466 8467 8468 8469 8470 8471 8472 8473 8474 8475 8476 8477 8478 8479 8480 8481 8482 8483 8484 8485 8486 8487 8488 8489 8490 8491 8492 8493 8494 8495 8496 8497 8498 8499 8500 8501 8502 8503 8504 8505 8506 8507 8508 8509 8510 8511 8512 8513 8514 8515 8516 8517 8518 8519 8520 8521 8522 8523 8524 8525 8526 8527 8528 8529 8530 8531 8532 8533 8534 8535 8536 8537 8538 8539 8540 8541 8542 8543 8544 8545 8546 8547 8548 8549 8550 8551 8552 8553 8554 8555 8556 8557 8558 8559 8560 8561 8562 8563 8564 8565 8566 8567 8568 8569 8570 8571 8572 8573 8574 8575 8576 8577 8578 8579 8580 8581 8582 8583 8584 8585 8586 8587 8588 8589 8590 8591 8592 8593 8594 8595 8596 8597 8598 8599 8600 8601 8602 8603 8604 8605 8606 8607 8608 8609 8610 8611 8612 8613 8614 8615 8616 8617 8618 8619 8620 8621 8622 8623 8624 8625 8626 8627 8628 8629 8630 8631 8632 8633 8634 8635 8636 8637 8638 8639 8640 8641 8642 8643 8644 8645 8646 8647 8648 8649 8650 8651 8652 8653 8654 8655 8656 8657 8658 8659 8660 8661 8662 8663 8664 8665 8666 8667 8668 8669 8670 8671 8672 8673 8674 8675 8676 8677 8678 8679 8680 8681 8682 8683 8684 8685 8686 8687 8688 8689 8690 8691 8692 8693 8694 8695 8696 8697 8698 8699 8700 8701 8702 8703 8704 8705 8706 8707 8708 8709 8710 8711 8712 8713 8714 8715 8716 8717 8718 8719 8720 8721 8722 8723 8724 8725 8726 8727 8728 8729 8730 8731 8732 8733 8734 8735 8736 8737 8738 8739 8740 8741 8742 8743 8744 8745 8746 8747 8748 8749 8750 8751 8752 8753 8754 8755 8756 8757 8758 8759 8760 8761 8762 8763 8764 8765 8766 8767 8768 8769 8770 8771 8772 8773 8774 8775 8776 8777 8778 8779 8780 8781 8782 8783 8784 8785 8786 8787 8788 8789 8790 8791 8792 8793 8794 8795 8796 8797 8798 8799 8800 8801 8802 8803 8804 8805 8806 8807 8808 8809 8810 8811 8812 8813 8814 8815 8816 8817 8818 8819 8820 8821 8822 8823 8824 8825 8826 8827 8828 8829 8830 8831 8832 8833 8834 8835 8836 8837 8838 8839 8840 8841 8842 8843 8844 8845 8846 8847 8848 8849 8850 8851 8852 8853 8854 8855 8856 8857 8858 8859 8860 8861 8862 8863 8864 8865 8866 8867 8868 8869 8870 8871 8872 8873 8874 8875 8876 8877 8878 8879 8880 8881 8882 8883 8884 8885 8886 8887 8888 8889 8890 8891 8892 8893 8894 8895 8896 8897 8898 8899 8900 8901 8902 8903 8904 8905 8906 8907 8908 8909 8910 8911 8912 8913 8914 8915 8916 8917 8918 8919 8920 8921 8922 8923 8924 8925 8926 8927 8928 8929 8930 8931 8932 8933 8934 8935 8936 8937 8938 8939 8940 8941 8942 8943 8944 8945 8946 8947 8948 8949 8950 8951 8952 8953 8954 8955 8956 8957 8958 8959 8960 8961 8962 8963 8964 8965 8966 8967 8968 8969 8970 8971 8972 8973 8974 8975 8976 8977 8978 8979 8980 8981 8982 8983 8984 8985 8986 8987 8988 8989 8990 8991 8992 8993 8994 8995 8996 8997 8998 8999 9000 9001 9002 9003 9004 9005 9006 9007 9008 9009 9010 9011 9012 9013 9014 9015 9016 9017 9018 9019 9020 9021 9022 9023 9024 9025 9026 9027 9028 9029 9030 9031 9032 9033 9034 9035 9036 9037 9038 9039 9040 9041 9042 9043 9044 9045 9046 9047 9048 9049 9050 9051 9052 9053 9054 9055 9056 9057 9058 9059 9060 9061 9062 9063 9064 9065 9066 9067 9068 9069 9070 9071 9072 9073 9074 9075 9076 9077 9078 9079 9080 9081 9082 9083 9084 9085 9086 9087 9088 9089 9090 9091 9092 9093 9094 9095 9096 9097 9098 9099 9100 9101 9102 9103 9104 9105 9106 9107 9108 9109 9110 9111 9112 9113 9114 9115 9116 9117 9118 9119 9120 9121 9122 9123 9124 9125 9126 9127 9128 9129 9130 9131 9132 9133 9134 9135 9136 9137 9138 9139 9140 9141 9142 9143 9144 9145 9146 9147 9148 9149 9150 9151 9152 9153 9154 9155 9156 9157 9158 9159 9160 9161 9162 9163 9164 9165 9166 9167 9168 9169 9170 9171 9172 9173 9174 9175 9176 9177 9178 9179 9180 9181 9182 9183 9184 9185 9186 9187 9188 9189 9190 9191 9192 9193 9194 9195 9196 9197 9198 9199 9200 9201 9202 9203 9204 9205 9206 9207 9208 9209 9210 9211 9212 9213 9214 9215 9216 9217 9218 9219 9220 9221 9222 9223 9224 9225 9226 9227 9228 9229 9230 9231 9232 9233 9234 9235 9236 9237 9238 9239 9240 9241 9242 9243 9244 9245 9246 9247 9248 9249 9250 9251 9252 9253 9254 9255 9256 9257 9258 9259 9260 9261 9262 9263 9264 9265 9266 9267 9268 9269 9270 9271 9272 9273 9274 9275 9276 9277 9278 9279 9280 9281 9282 9283 9284 9285 9286 9287 9288 9289 9290 9291 9292 9293 9294 9295 9296 9297 9298 9299 9300 9301 9302 9303 9304 9305 9306 9307 9308 9309 9310 9311 9312 9313 9314 9315 9316 9317 9318 9319 9320 9321 9322 9323 9324 9325 9326 9327 9328 9329 9330 9331 9332 9333 9334 9335 9336 9337 9338 9339 9340 9341 9342 9343 9344 9345 9346 9347 9348 9349 9350 9351 9352 9353 9354 9355 9356 9357 9358 9359 9360 9361 9362 9363 9364 9365 9366 9367 9368 9369 9370 9371 9372 9373 9374 9375 9376 9377 9378 9379 9380 9381 9382 9383 9384 9385 9386 9387 9388 9389 9390 9391 9392 9393 9394 9395 9396 9397 9398 9399 9400 9401 9402 9403 9404 9405 9406 9407 9408 9409 9410 9411 9412 9413 9414 9415 9416 9417 9418 9419 9420 9421 9422 9423 9424 9425 9426 9427 9428 9429 9430 9431 9432 9433 9434 9435 9436 9437 9438 9439 9440 9441 9442 9443 9444 9445 9446 9447 9448 9449 9450 9451 9452 9453 9454 9455 9456 9457 9458 9459 9460 9461 9462 9463 9464 9465 9466 9467 9468 9469 9470 9471 9472 9473 9474 9475 9476 9477 9478 9479 9480 9481 9482 9483 9484 9485 9486 9487 9488 9489 9490 9491 9492 9493 9494 9495 9496 9497 9498 9499 9500 9501 9502 9503 9504 9505 9506 9507 9508 9509 9510 9511 9512 9513 9514 9515 9516 9517 9518 9519 9520 9521 9522 9523 9524 9525 9526 9527 9528 9529 9530 9531 9532 9533 9534 9535 9536 9537 9538 9539 9540 9541 9542 9543 9544 9545 9546 9547 9548 9549 9550 9551 9552 9553 9554 9555 9556 9557 9558 9559 9560 9561 9562 9563 9564 9565 9566 9567 9568 9569 9570 9571 9572 9573 9574 9575 9576 9577 9578 9579 9580 9581 9582 9583 9584 9585 9586 9587 9588 9589 9590 9591 9592 9593 9594 9595 9596 9597 9598 9599 9600 9601 9602 9603 9604 9605 9606 9607 9608 9609 9610 9611 9612 9613 9614 9615 9616 9617 9618 9619 9620 9621 9622 9623 9624 9625 9626 9627 9628 9629 9630 9631 9632 9633 9634 9635 9636 9637 9638 9639 9640 9641 9642 9643 9644 9645 9646 9647 9648 9649 9650 9651 9652 9653 9654 9655 9656 9657 9658 9659 9660 9661 9662 9663 9664 9665 9666 9667 9668 9669 9670 9671 9672 9673 9674 9675 9676 9677 9678 9679 9680 9681 9682 9683 9684 9685 9686 9687 9688 9689 9690 9691 9692 9693 9694 9695 9696 9697 9698 9699 9700 9701 9702 9703 9704 9705 9706 9707 9708 9709 9710 9711 9712 9713 9714 9715 9716 9717 9718 9719 9720 9721 9722 9723 9724 9725 9726 9727 9728 9729 9730 9731 9732 9733 9734 9735 9736 9737 9738 9739 9740 9741 9742 9743 9744 9745 9746 9747 9748 9749 9750 9751 9752 9753 9754 9755 9756 9757 9758 9759 9760 9761 9762 9763 9764 9765 9766 9767 9768 9769 9770 9771 9772 9773 9774 9775 9776 9777 9778 9779 9780 9781 9782 9783 9784 9785 9786 9787 9788 9789 9790 9791 9792 9793 9794 9795 9796 9797 9798 9799 9800 9801 9802 9803 9804 9805 9806 9807 9808 9809 9810 9811 9812 9813 9814 9815 9816 9817 9818 9819 9820 9821 9822 9823 9824 9825 9826 9827 9828 9829 9830 9831 9832 9833 9834 9835 9836 9837 9838 9839 9840 9841 9842 9843 9844 9845 9846 9847 9848 9849 9850 9851 9852 9853 9854 9855 9856 9857 9858 9859 9860 9861 9862 9863 9864 9865 9866 9867 9868 9869 9870 9871 9872 9873 9874 9875 9876 9877 9878 9879 9880 9881 9882 9883 9884 9885 9886 9887 9888 9889 9890 9891 9892 9893 9894 9895 9896 9897 9898 9899 9900 9901 9902 9903 9904 9905 9906 9907 9908 9909 9910 9911 9912 9913 9914 9915 9916 9917 9918 9919 9920 9921 9922 9923 9924 9925 9926 9927 9928 9929 9930 9931 9932 9933 9934 9935 9936 9937 9938 9939 9940 9941 9942 9943 9944 9945 9946 9947 9948 9949 9950 9951 9952 9953 9954 9955 9956 9957 9958 9959 9960 9961 9962 9963 9964 9965 9966 9967 9968 9969 9970 9971 9972 9973 9974 9975 9976 9977 9978 9979 9980 9981 9982 9983 9984 9985 9986 9987 9988 9989 9990 9991 9992 9993 9994 9995 9996 9997 9998 9999 10000 10001 10002 10003 10004 10005 10006 10007 10008 10009 10010 10011 10012 10013 10014 10015 10016 10017 10018 10019 10020 10021 10022 10023 10024 10025 10026 10027 10028 10029 10030 10031 10032 10033 10034 10035 10036 10037 10038 10039 10040 10041 10042 10043 10044 10045 10046 10047 10048 10049 10050 10051 10052 10053 10054 10055 10056 10057 10058 10059 10060 10061 10062 10063 10064 10065 10066 10067 10068 10069 10070 10071 10072 10073 10074 10075 10076 10077 10078 10079 10080 10081 10082 10083 10084 10085 10086 10087 10088 10089 10090 10091 10092 10093 10094 10095 10096 10097 10098 10099 10100 10101 10102 10103 10104 10105 10106 10107 10108 10109 10110 10111 10112 10113 10114 10115 10116 10117 10118 10119 10120 10121 10122 10123 10124 10125 10126 10127 10128 10129 10130 10131 10132 10133 10134 10135 10136 10137 10138 10139 10140 10141 10142 10143 10144 10145 10146 10147 10148 10149 10150 10151 10152 10153 10154 10155 10156 10157 10158 10159 10160 10161 10162 10163 10164 10165 10166 10167 10168 10169 10170 10171 10172 10173 10174 10175 10176 10177 10178 10179 10180 10181 10182 10183 10184 10185 10186 10187 10188 10189 10190 10191 10192 10193 10194 10195 10196 10197 10198 10199 10200 10201 10202 10203 10204 10205 10206 10207 10208 10209 10210 10211 10212 10213 10214 10215 10216 10217 10218 10219 10220 10221 10222 10223 10224 10225 10226 10227 10228 10229 10230 10231 10232 10233 10234 10235 10236 10237 10238 10239 10240 10241 10242 10243 10244 10245 10246 10247 10248 10249 10250 10251 10252 10253 10254 10255 10256 10257 10258 10259 10260 10261 10262 10263 10264 10265 10266 10267 10268 10269 10270 10271 10272 10273 10274 10275 10276 10277 10278 10279 10280 10281 10282 10283 10284 10285 10286 10287 10288 10289 10290 10291 10292 10293 10294 10295 10296 10297 10298 10299 10300 10301 10302 10303 10304 10305 10306 10307 10308 10309 10310 10311 10312 10313 10314 10315 10316 10317 10318 10319 10320 10321 10322 10323 10324 10325 10326 10327 10328 10329 10330 10331 10332 10333 10334 10335 10336 10337 10338 10339 10340 10341 10342 10343 10344 10345 10346 10347 10348 10349 10350 10351 10352 10353 10354 10355 10356 10357 10358 10359 10360 10361 10362 10363 10364 10365 10366 10367 10368 10369 10370 10371 10372 10373 10374 10375 10376 10377 10378 10379 10380 10381 10382 10383 10384 10385 10386 10387 10388 10389 10390 10391 10392 10393 10394 10395 10396 10397 10398 10399 10400 10401 10402 10403 10404 10405 10406 10407 10408 10409 10410 10411 10412 10413 10414 10415 10416 10417 10418 10419 10420 10421 10422 10423 10424 10425 10426 10427 10428 10429 10430 10431 10432 10433 10434 10435 10436 10437 10438 10439 10440 10441 10442 10443 10444 10445 10446 10447 10448 10449 10450 10451 10452 10453 10454 10455 10456 10457 10458 10459 10460 10461 10462 10463 10464 10465 10466 10467 10468 10469 10470 10471 10472 10473 10474 10475 10476 10477 10478 10479 10480 10481 10482 10483 10484 10485 10486 10487 10488 10489 10490 10491 10492 10493 10494 10495 10496 10497 10498 10499 10500 10501 10502 10503 10504 10505 10506 10507 10508 10509 10510 10511 10512 10513 10514 10515 10516 10517 10518 10519 10520 10521 10522 10523 10524 10525 10526 10527 10528 10529 10530 10531 10532 10533 10534 10535 10536 10537 10538 10539 10540 10541 10542 10543 10544 10545 10546 10547 10548 10549 10550 10551 10552 10553 10554 10555 10556 10557 10558 10559 10560 10561 10562 10563 10564 10565 10566 10567 10568 10569 10570 10571 10572 10573 10574 10575 10576 10577 10578 10579 10580 10581 10582 10583 10584 10585 10586 10587 10588 10589 10590 10591 10592 10593 10594 10595 10596 10597 10598 10599 10600 10601 10602 10603 10604 10605 10606 10607 10608 10609 10610 10611 10612 10613 10614 10615 10616 10617 10618 10619 10620 10621 10622 10623 10624 10625 10626 10627 10628 10629 10630 10631 10632 10633 10634 10635 10636 10637 10638 10639 10640 10641 10642 10643 10644 10645 10646 10647 10648 10649 10650 10651 10652 10653 10654 10655 10656 10657 10658 10659 10660 10661 10662 10663 10664 10665 10666 10667 10668 10669 10670 10671 10672 10673 10674 10675 10676 10677 10678 10679 10680 10681 10682 10683 10684 10685 10686 10687 10688 10689 10690 10691 10692 10693 10694 10695 10696 10697 10698 10699 10700 10701 10702 10703 10704 10705 10706 10707 10708 10709 10710 10711 10712 10713 10714 10715 10716 10717 10718 10719 10720 10721 10722 10723 10724 10725 10726 10727 10728 10729 10730 10731 10732 10733 10734 10735 10736 10737 10738 10739 10740 10741 10742 10743 10744 10745 10746 10747 10748 10749 10750 10751 10752 10753 10754 10755 10756 10757 10758 10759 10760 10761 10762 10763 10764 10765 10766 10767 10768 10769 10770 10771 10772 10773 10774 10775 10776 10777 10778 10779 10780 10781 10782 10783 10784 10785 10786 10787 10788 10789 10790 10791 10792 10793 10794 10795 10796 10797 10798 10799 10800 10801 10802 10803 10804 10805 10806 10807 10808 10809 10810 10811 10812 10813 10814 10815 10816 10817 10818 10819 10820 10821 10822 10823 10824 10825 10826 10827 10828 10829 10830 10831 10832 10833 10834 10835 10836 10837 10838 10839 10840 10841 10842 10843 10844 10845 10846 10847 10848 10849 10850 10851 10852 10853 10854 10855 10856 10857 10858 10859 10860 10861 10862 10863 10864 10865 10866 10867 10868 10869 10870 10871 10872 10873 10874 10875 10876 10877 10878 10879 10880 10881 10882 10883 10884 10885 10886 10887 10888 10889 10890 10891 10892 10893 10894 10895 10896 10897 10898 10899 10900 10901 10902 10903 10904 10905 10906 10907 10908 10909 10910 10911 10912 10913 10914 10915 10916 10917 10918 10919 10920 10921 10922 10923 10924 10925 10926 10927 10928 10929 10930 10931 10932 10933 10934 10935 10936 10937 10938 10939 10940 10941 10942 10943 10944 10945 10946 10947 10948 10949 10950 10951 10952 10953 10954 10955 10956 10957 10958 10959 10960 10961 10962 10963 10964 10965 10966 10967 10968 10969 10970 10971 10972 10973 10974 10975 10976 10977 10978 10979 10980 10981 10982 10983 10984 10985 10986 10987 10988 10989 10990 10991 10992 10993 10994 10995 10996 10997 10998 10999 11000 11001 11002 11003 11004 11005 11006 11007 11008 11009 11010 11011 11012 11013 11014 11015 11016 11017 11018 11019 11020 11021 11022 11023 11024 11025 11026 11027 11028 11029 11030 11031 11032 11033 11034 11035 11036 11037 11038 11039 11040 11041 11042 11043 11044 11045 11046 11047 11048 11049 11050 11051 11052 11053 11054 11055 11056 11057 11058 11059 11060 11061 11062 11063 11064 11065 11066 11067 11068 11069 11070 11071 11072 11073 11074 11075 11076 11077 11078 11079 11080 11081 11082 11083 11084 11085 11086 11087 11088 11089 11090 11091 11092 11093 11094 11095 11096 11097 11098 11099 11100 11101 11102 11103 11104 11105 11106 11107 11108 11109 11110 11111 11112 11113 11114 11115 11116 11117 11118 11119 11120 11121 11122 11123 11124 11125 11126 11127 11128 11129 11130 11131 11132 11133 11134 11135 11136 11137 11138 11139 11140 11141 11142 11143 11144 11145 11146 11147 11148 11149 11150 11151 11152 11153 11154 11155 11156 11157 11158 11159 11160 11161 11162 11163 11164 11165 11166 11167 11168 11169 11170 11171 11172 11173 11174 11175 11176 11177 11178 11179 11180 11181 11182 11183 11184 11185 11186 11187 11188 11189 11190 11191 11192 11193 11194 11195 11196 11197 11198 11199 11200 11201 11202 11203 11204 11205 11206 11207 11208 11209 11210 11211 11212 11213 11214 11215 11216 11217 11218 11219 11220 11221 11222 11223 11224 11225 11226 11227 11228 11229 11230 11231 11232 11233 11234 11235 11236 11237 11238 11239 11240 11241 11242 11243 11244 11245 11246 11247 11248 11249 11250 11251 11252 11253 11254 11255 11256 11257 11258 11259 11260 11261 11262 11263 11264 11265 11266 11267 11268 11269 11270 11271 11272 11273 11274 11275 11276 11277 11278 11279 11280 11281 11282 11283 11284 11285 11286 11287 11288 11289 11290 11291 11292 11293 11294 11295 11296 11297 11298 11299 11300 11301 11302 11303 11304 11305 11306 11307 11308 11309 11310 11311 11312 11313 11314 11315 11316 11317 11318 11319 11320 11321 11322 11323 11324 11325 11326 11327 11328 11329 11330 11331 11332 11333 11334 11335 11336 11337 11338 11339 11340 11341 11342 11343 11344 11345 11346 11347 11348 11349 11350 11351 11352 11353 11354 11355 11356 11357 11358 11359 11360 11361 11362 11363 11364 11365 11366 11367 11368 11369 11370 11371 11372 11373 11374 11375 11376 11377 11378 11379 11380 11381 11382 11383 11384 11385 11386 11387 11388 11389 11390 11391 11392 11393 11394 11395 11396 11397 11398 11399 11400 11401 11402 11403 11404 11405 11406 11407 11408 11409 11410 11411 11412 11413 11414 11415 11416 11417 11418 11419 11420 11421 11422 11423 11424 11425 11426 11427 11428 11429 11430 11431 11432 11433 11434 11435 11436 11437 11438 11439 11440 11441 11442 11443 11444 11445 11446 11447 11448 11449 11450 11451 11452 11453 11454 11455 11456 11457 11458 11459 11460 11461 11462 11463 11464 11465 11466 11467 11468 11469 11470 11471 11472 11473 11474 11475 11476 11477 11478 11479 11480 11481 11482 11483 11484 11485 11486 11487 11488 11489 11490 11491 11492 11493 11494 11495 11496 11497 11498 11499 11500 11501 11502 11503 11504 11505 11506 11507 11508 11509 11510 11511 11512 11513 11514 11515 11516 11517 11518 11519 11520 11521 11522 11523 11524 11525 11526 11527 11528 11529 11530 11531 11532 11533 11534 11535 11536 11537 11538 11539 11540 11541 11542 11543 11544 11545 11546 11547 11548 11549 11550 11551 11552 11553 11554 11555 11556 11557 11558 11559 11560 11561 11562 11563 11564 11565 11566 11567 11568 11569 11570 11571 11572 11573 11574 11575 11576 11577 11578 11579 11580 11581 11582 11583 11584 11585 11586 11587 11588 11589 11590 11591 11592 11593 11594 11595 11596 11597 11598 11599 11600 11601 11602 11603 11604 11605 11606 11607 11608 11609 11610 11611 11612 11613 11614 11615 11616 11617 11618 11619 11620 11621 11622 11623 11624 11625 11626 11627 11628 11629 11630 11631 11632 11633 11634 11635 11636 11637 11638 11639 11640 11641 11642 11643 11644 11645 11646 11647 11648 11649 11650 11651 11652 11653 11654 11655 11656 11657 11658 11659 11660 11661 11662 11663 11664 11665 11666 11667 11668 11669 11670 11671 11672 11673 11674 11675 11676 11677 11678 11679 11680 11681 11682 11683 11684 11685 11686 11687 11688 11689 11690 11691 11692 11693 11694 11695 11696 11697 11698 11699 11700 11701 11702 11703 11704 11705 11706 11707 11708 11709 11710 11711 11712 11713 11714 11715 11716 11717 11718 11719 11720 11721 11722 11723 11724 11725 11726 11727 11728 11729 11730 11731 11732 11733 11734 11735 11736 11737 11738 11739 11740 11741 11742 11743 11744 11745 11746 11747 11748 11749 11750 11751 11752 11753 11754 11755 11756 11757 11758 11759 11760 11761 11762 11763 11764 11765 11766 11767 11768 11769 11770 11771 11772 11773 11774 11775 11776 11777 11778 11779 11780 11781 11782 11783 11784 11785 11786 11787 11788 11789 11790 11791 11792 11793 11794 11795 11796 11797 11798 11799 11800 11801 11802 11803 11804 11805 11806 11807 11808 11809 11810 11811 11812 11813 11814 11815 11816 11817 11818 11819 11820 11821 11822 11823 11824 11825 11826 11827 11828 11829 11830 11831 11832 11833 11834 11835 11836 11837 11838 11839 11840 11841 11842 11843 11844 11845 11846 11847 11848 11849 11850 11851 11852 11853 11854 11855 11856 11857 11858 11859 11860 11861 11862 11863 11864 11865 11866 11867 11868 11869 11870 11871 11872 11873 11874 11875 11876 11877 11878 11879 11880 11881 11882 11883 11884 11885 11886 11887 11888 11889 11890 11891 11892 11893 11894 11895 11896 11897 11898 11899 11900 11901 11902 11903 11904 11905 11906 11907 11908 11909 11910 11911 11912 11913 11914 11915 11916 11917 11918 11919 11920 11921 11922 11923 11924 11925 11926 11927 11928 11929 11930 11931 11932 11933 11934 11935 11936 11937 11938 11939 11940 11941 11942 11943 11944 11945 11946 11947 11948 11949 11950 11951 11952 11953 11954 11955 11956 11957 11958 11959 11960 11961 11962 11963 11964 11965 11966 11967 11968 11969 11970 11971 11972 11973 11974 11975 11976 11977 11978 11979 11980 11981 11982 11983 11984 11985 11986 11987 11988 11989 11990 11991 11992 11993 11994 11995 11996 11997 11998 11999 12000 12001 12002 12003 12004 12005 12006 12007 12008 12009 12010 12011 12012 12013 12014 12015 12016 12017 12018 12019 12020 12021 12022 12023 12024 12025 12026 12027 12028 12029 12030 12031 12032 12033 12034 12035 12036 12037 12038 12039 12040 12041 12042 12043 12044 12045 12046 12047 12048 12049 12050 12051 12052 12053 12054 12055 12056 12057 12058 12059 12060 12061 12062 12063 12064 12065 12066 12067 12068 12069 12070 12071 12072 12073 12074 12075 12076 12077 12078 12079 12080 12081 12082 12083 12084 12085 12086 12087 12088 12089 12090 12091 12092 12093 12094 12095 12096 12097 12098 12099 12100 12101 12102 12103 12104 12105 12106 12107 12108 12109 12110 12111 12112 12113 12114 12115 12116 12117 12118 12119 12120 12121 12122 12123 12124 12125 12126 12127 12128 12129 12130 12131 12132 12133 12134 12135 12136 12137 12138 12139 12140 12141 12142 12143 12144 12145 12146 12147 12148 12149 12150 12151 12152 12153 12154 12155 12156 12157 12158 12159 12160 12161 12162 12163 12164 12165 12166 12167 12168 12169 12170 12171 12172 12173 12174 12175 12176 12177 12178 12179 12180 12181 12182 12183 12184 12185 12186 12187 12188 12189 12190 12191 12192 12193 12194 12195 12196 12197 12198 12199 12200 12201 12202 12203 12204 12205 12206 12207 12208 12209 12210 12211 12212 12213 12214 12215 12216 12217 12218 12219 12220 12221 12222 12223 12224 12225 12226 12227 12228 12229 12230 12231 12232 12233 12234 12235 12236 12237 12238 12239 12240 12241 12242 12243 12244 12245 12246 12247 12248 12249 12250 12251 12252 12253 12254 12255 12256 12257 12258 12259 12260 12261 12262 12263 12264 12265 12266 12267 12268 12269 12270 12271 12272 12273 12274 12275 12276 12277 12278 12279 12280 12281 12282 12283 12284 12285 12286 12287 12288 12289 12290 12291 12292 12293 12294 12295 12296 12297 12298 12299 12300 12301 12302 12303 12304 12305 12306 12307 12308 12309 12310 12311 12312 12313 12314 12315 12316 12317 12318 12319 12320 12321 12322 12323 12324 12325 12326 12327 12328 12329 12330 12331 12332 12333 12334 12335 12336 12337 12338 12339 12340 12341 12342 12343 12344 12345 12346 12347 12348 12349 12350 12351 12352 12353 12354 12355 12356 12357 12358 12359 12360 12361 12362 12363 12364 12365 12366 12367 12368 12369 12370 12371 12372 12373 12374 12375 12376 12377 12378 12379 12380 12381 12382 12383 12384 12385 12386 12387 12388 12389 12390 12391 12392 12393 12394 12395 12396 12397 12398 12399 12400 12401 12402 12403 12404 12405 12406 12407 12408 12409 12410 12411 12412 12413 12414 12415 12416 12417 12418 12419 12420 12421 12422 12423 12424 12425 12426 12427 12428 12429 12430 12431 12432 12433 12434 12435 12436 12437 12438 12439 12440 12441 12442 12443 12444 12445 12446 12447 12448 12449 12450 12451 12452 12453 12454 12455 12456 12457 12458 12459 12460 12461 12462 12463 12464 12465 12466 12467 12468 12469 12470 12471 12472 12473 12474 12475 12476 12477 12478 12479 12480 12481 12482 12483 12484 12485 12486 12487 12488 12489 12490 12491 12492 12493 12494 12495 12496 12497 12498 12499 12500 12501 12502 12503 12504 12505 12506 12507 12508 12509 12510 12511 12512 12513 12514 12515 12516 12517 12518 12519 12520 12521 12522 12523 12524 12525 12526 12527 12528 12529 12530 12531 12532 12533 12534 12535 12536 12537 12538 12539 12540 12541 12542 12543 12544 12545 12546 12547 12548 12549 12550 12551 12552 12553 12554 12555 12556 12557 12558 12559 12560 12561 12562 12563 12564 12565 12566 12567 12568 12569 12570 12571 12572 12573 12574 12575 12576 12577 12578 12579 12580 12581 12582 12583 12584 12585 12586 12587 12588 12589 12590 12591 12592 12593 12594 12595 12596 12597 12598 12599 12600 12601 12602 12603 12604 12605 12606 12607 12608 12609 12610 12611 12612 12613 12614 12615 12616 12617 12618 12619 12620 12621 12622 12623 12624 12625 12626 12627 12628 12629 12630 12631 12632 12633 12634 12635 12636 12637 12638 12639 12640 12641 12642 12643 12644 12645 12646 12647 12648 12649 12650 12651 12652 12653 12654 12655 12656 12657 12658 12659 12660 12661 12662 12663 12664 12665 12666 12667 12668 12669 12670 12671 12672 12673 12674 12675 12676 12677 12678 12679 12680 12681 12682 12683 12684 12685 12686 12687 12688 12689 12690 12691 12692 12693 12694 12695 12696 12697 12698 12699 12700 12701 12702 12703 12704 12705 12706 12707 12708 12709 12710 12711 12712 12713 12714 12715 12716 12717 12718 12719 12720 12721 12722 12723 12724 12725 12726 12727 12728 12729 12730 12731 12732 12733 12734 12735 12736 12737 12738 12739 12740 12741 12742 12743 12744 12745 12746 12747 12748 12749 12750 12751 12752 12753 12754 12755 12756 12757 12758 12759 12760 12761 12762 12763 12764 12765 12766 12767 12768 12769 12770 12771 12772 12773 12774 12775 12776 12777 12778 12779 12780 12781 12782 12783 12784 12785 12786 12787 12788 12789 12790 12791 12792 12793 12794 12795 12796 12797 12798 12799 12800 12801 12802 12803 12804 12805 12806 12807 12808 12809 12810 12811 12812 12813 12814 12815 12816 12817 12818 12819 12820 12821 12822 12823 12824 12825 12826 12827 12828 12829 12830 12831 12832 12833 12834 12835 12836 12837 12838 12839 12840 12841 12842 12843 12844 12845 12846 12847 12848 12849 12850 12851 12852 12853 12854 12855 12856 12857 12858 12859 12860 12861 12862 12863 12864 12865 12866 12867 12868 12869 12870 12871 12872 12873 12874 12875 12876 12877 12878 12879 12880 12881 12882 12883 12884 12885 12886 12887 12888 12889 12890 12891 12892 12893 12894 12895 12896 12897 12898 12899 12900 12901 12902 12903 12904 12905 12906 12907 12908 12909 12910 12911 12912 12913 12914 12915 12916 12917 12918 12919 12920 12921 12922 12923 12924 12925 12926 12927 12928 12929 12930 12931 12932 12933 12934 12935 12936 12937 12938 12939 12940 12941 12942 12943 12944 12945 12946 12947 12948 12949 12950 12951 12952 12953 12954 12955 12956 12957 12958 12959 12960 12961 12962 12963 12964 12965 12966 12967 12968 12969 12970 12971 12972 12973 12974 12975 12976 12977 12978 12979 12980 12981 12982 12983 12984 12985 12986 12987 12988 12989 12990 12991 12992 12993 12994 12995 12996 12997 12998 12999 13000 13001 13002 13003 13004 13005 13006 13007 13008 13009 13010 13011 13012 13013 13014 13015 13016 13017 13018 13019 13020 13021 13022 13023 13024 13025 13026 13027 13028 13029 13030 13031 13032 13033 13034 13035 13036 13037 13038 13039 13040 13041 13042 13043 13044 13045 13046 13047 13048 13049 13050 13051 13052 13053 13054 13055 13056 13057 13058 13059 13060 13061 13062 13063 13064 13065 13066 13067 13068 13069 13070 13071 13072 13073 13074 13075 13076 13077 13078 13079 13080 13081 13082 13083 13084 13085 13086 13087 13088 13089 13090 13091 13092 13093 13094 13095 13096 13097 13098 13099 13100 13101 13102 13103 13104 13105 13106 13107 13108 13109 13110 13111 13112 13113 13114 13115 13116 13117 13118 13119 13120 13121 13122 13123 13124 13125 13126 13127 13128 13129 13130 13131 13132 13133 13134 13135 13136 13137 13138 13139 13140 13141 13142 13143 13144 13145 13146 13147 13148 13149 13150 13151 13152 13153 13154 13155 13156 13157 13158 13159 13160 13161 13162 13163 13164 13165 13166 13167 13168 13169 13170 13171 13172 13173 13174 13175 13176 13177 13178 13179 13180 13181 13182 13183 13184 13185 13186 13187 13188 13189 13190 13191 13192 13193 13194 13195 13196 13197 13198 13199 13200 13201 13202 13203 13204 13205 13206 13207 13208 13209 13210 13211 13212 13213 13214 13215 13216 13217 13218 13219 13220 13221 13222 13223 13224 13225 13226 13227 13228 13229 13230 13231 13232 13233 13234 13235 13236 13237 13238 13239 13240 13241 13242 13243 13244 13245 13246 13247 13248 13249 13250 13251 13252 13253 13254 13255 13256 13257 13258 13259 13260 13261 13262 13263 13264 13265 13266 13267 13268 13269 13270 13271 13272 13273 13274 13275 13276 13277 13278 13279 13280 13281 13282 13283 13284 13285 13286 13287 13288 13289 13290 13291 13292 13293 13294 13295 13296 13297 13298 13299 13300 13301 13302 13303 13304 13305 13306 13307 13308 13309 13310 13311 13312 13313 13314 13315 13316 13317 13318 13319 13320 13321 13322 13323 13324 13325 13326 13327 13328 13329 13330 13331 13332 13333 13334 13335 13336 13337 13338 13339 13340 13341 13342 13343 13344 13345 13346 13347 13348 13349 13350 13351 13352 13353 13354 13355 13356 13357 13358 13359 13360 13361 13362 13363 13364 13365 13366 13367 13368 13369 13370 13371 13372 13373 13374 13375 13376 13377 13378 13379 13380 13381 13382 13383 13384 13385 13386 13387 13388 13389 13390 13391 13392 13393 13394 13395 13396 13397 13398 13399 13400 13401 13402 13403 13404 13405 13406 13407 13408 13409 13410 13411 13412 13413 13414 13415 13416 13417 13418 13419 13420 13421 13422 13423 13424 13425 13426 13427 13428 13429 13430 13431 13432 13433 13434 13435 13436 13437 13438 13439 13440 13441 13442 13443 13444 13445 13446 13447 13448 13449 13450 13451 13452 13453 13454 13455 13456 13457 13458 13459 13460 13461 13462 13463 13464 13465 13466 13467 13468 13469 13470 13471 13472 13473 13474 13475 13476 13477 13478 13479 13480 13481 13482 13483 13484 13485 13486 13487 13488 13489 13490 13491 13492 13493 13494 13495 13496 13497 13498 13499 13500 13501 13502 13503 13504 13505 13506 13507 13508 13509 13510 13511 13512 13513 13514 13515 13516 13517 13518 13519 13520 13521 13522 13523 13524 13525 13526 13527 13528 13529 13530 13531 13532 13533 13534 13535 13536 13537 13538 13539 13540 13541 13542 13543 13544 13545 13546 13547 13548 13549 13550 13551 13552 13553 13554 13555 13556 13557 13558 13559 13560 13561 13562 13563 13564 13565 13566 13567 13568 13569 13570 13571 13572 13573 13574 13575 13576 13577 13578 13579 13580 13581 13582 13583 13584 13585 13586 13587 13588 13589 13590 13591 13592 13593 13594 13595 13596 13597 13598 13599 13600 13601 13602 13603 13604 13605 13606 13607 13608 13609 13610 13611 13612 13613 13614 13615 13616 13617 13618 13619 13620 13621 13622 13623 13624 13625 13626 13627 13628 13629 13630 13631 13632 13633 13634 13635 13636 13637 13638 13639 13640 13641 13642 13643 13644 13645 13646 13647 13648 13649 13650 13651 13652 13653 13654 13655 13656 13657 13658 13659 13660 13661 13662 13663 13664 13665 13666 13667 13668 13669 13670 13671 13672 13673 13674 13675 13676 13677 13678 13679 13680 13681 13682 13683 13684 13685 13686 13687 13688 13689 13690 13691 13692 13693 13694 13695 13696 13697 13698 13699 13700 13701 13702 13703 13704 13705 13706 13707 13708 13709 13710 13711 13712 13713 13714 13715 13716 13717 13718 13719 13720 13721 13722 13723 13724 13725 13726 13727 13728 13729 13730 13731 13732 13733 13734 13735 13736 13737 13738 13739 13740 13741 13742 13743 13744 13745 13746 13747 13748 13749 13750 13751 13752 13753 13754 13755 13756 13757 13758 13759 13760 13761 13762 13763 13764 13765 13766 13767 13768 13769 13770 13771 13772 13773 13774 13775 13776 13777 13778 13779 13780 13781 13782 13783 13784 13785 13786 13787 13788 13789 13790 13791 13792 13793 13794 13795 13796 13797 13798 13799 13800 13801 13802 13803 13804 13805 13806 13807 13808 13809 13810 13811 13812 13813 13814 13815 13816 13817 13818 13819 13820 13821 13822 13823 13824 13825 13826 13827 13828 13829 13830 13831 13832 13833 13834 13835 13836 13837 13838 13839 13840 13841 13842 13843 13844 13845 13846 13847 13848 13849 13850 13851 13852 13853 13854 13855 13856 13857 13858 13859 13860 13861 13862 13863 13864 13865 13866 13867 13868 13869 13870 13871 13872 13873 13874 13875 13876 13877 13878 13879 13880 13881 13882 13883 13884 13885 13886 13887 13888 13889 13890 13891 13892 13893 13894 13895 13896 13897 13898 13899 13900 13901 13902 13903 13904 13905 13906 13907 13908 13909 13910 13911 13912 13913 13914 13915 13916 13917 13918 13919 13920 13921 13922 13923 13924 13925 13926 13927 13928 13929 13930 13931 13932 13933 13934 13935 13936 13937 13938 13939 13940 13941 13942 13943 13944 13945 13946 13947 13948 13949 13950 13951 13952 13953 13954 13955 13956 13957 13958 13959 13960 13961 13962 13963 13964 13965 13966 13967 13968 13969 13970 13971 13972 13973 13974 13975 13976 13977 13978 13979 13980 13981 13982 13983 13984 13985 13986 13987 13988 13989 13990 13991 13992 13993 13994 13995 13996 13997 13998 13999 14000 14001 14002 14003 14004 14005 14006 14007 14008 14009 14010 14011 14012 14013 14014 14015 14016 14017 14018 14019 14020 14021 14022 14023 14024 14025 14026 14027 14028 14029 14030 14031 14032 14033 14034 14035 14036 14037 14038 14039 14040 14041 14042 14043 14044 14045 14046 14047 14048 14049 14050 14051 14052 14053 14054 14055 14056 14057 14058 14059 14060 14061 14062 14063 14064 14065 14066 14067 14068 14069 14070 14071 14072 14073 14074 14075 14076 14077 14078 14079 14080 14081 14082 14083 14084 14085 14086 14087 14088 14089 14090 14091 14092 14093 14094 14095 14096 14097 14098 14099 14100 14101 14102 14103 14104 14105 14106 14107 14108 14109 14110 14111 14112 14113 14114 14115 14116 14117 14118 14119 14120 14121 14122 14123 14124 14125 14126 14127 14128 14129 14130 14131 14132 14133 14134 14135 14136 14137 14138 14139 14140 14141 14142 14143 14144 14145 14146 14147 14148 14149 14150 14151 14152 14153 14154 14155 14156 14157 14158 14159 14160 14161 14162 14163 14164 14165 14166 14167 14168 14169 14170 14171 14172 14173 14174 14175 14176 14177 14178 14179 14180 14181 14182 14183 14184 14185 14186 14187 14188 14189 14190 14191 14192 14193 14194 14195 14196 14197 14198 14199 14200 14201 14202 14203 14204 14205 14206 14207 14208 14209 14210 14211 14212 14213 14214 14215 14216 14217 14218 14219 14220 14221 14222 14223 14224 14225 14226 14227 14228 14229 14230 14231 14232 14233 14234 14235 14236 14237 14238 14239 14240 14241 14242 14243 14244 14245 14246 14247 14248 14249 14250 14251 14252 14253 14254 14255 14256 14257 14258 14259 14260 14261 14262 14263 14264 14265 14266 14267 14268 14269 14270 14271 14272 14273 14274 14275 14276 14277 14278 14279 14280 14281 14282 14283 14284 14285 14286 14287 14288 14289 14290 14291 14292 14293 14294 14295 14296 14297 14298 14299 14300 14301 14302 14303 14304 14305 14306 14307 14308 14309 14310 14311 14312 14313 14314 14315 14316 14317 14318 14319 14320 14321 14322 14323 14324 14325 14326 14327 14328 14329 14330 14331 14332 14333 14334 14335 14336 14337 14338 14339 14340 14341 14342 14343 14344 14345 14346 14347 14348 14349 14350 14351 14352 14353 14354 14355 14356 14357 14358 14359 14360 14361 14362 14363 14364 14365 14366 14367 14368 14369 14370 14371 14372 14373 14374 14375 14376 14377 14378 14379 14380 14381 14382 14383 14384 14385 14386 14387 14388 14389 14390 14391 14392 14393 14394 14395 14396 14397 14398 14399 14400 14401 14402 14403 14404 14405 14406 14407 14408 14409 14410 14411 14412 14413 14414 14415 14416 14417 14418 14419 14420 14421 14422 14423 14424 14425 14426 14427 14428 14429 14430 14431 14432 14433 14434 14435 14436 14437 14438 14439 14440 14441 14442 14443 14444 14445 14446 14447 14448 14449 14450 14451 14452 14453 14454 14455 14456 14457 14458 14459 14460 14461 14462 14463 14464 14465 14466 14467 14468 14469 14470 14471 14472 14473 14474 14475 14476 14477 14478 14479 14480 14481 14482 14483 14484 14485 14486 14487 14488 14489 14490 14491 14492 14493 14494 14495 14496 14497 14498 14499 14500 14501 14502 14503 14504 14505 14506 14507 14508 14509 14510 14511 14512 14513 14514 14515 14516 14517 14518 14519 14520 14521 14522 14523 14524 14525 14526 14527 14528 14529 14530 14531 14532 14533 14534 14535 14536 14537 14538 14539 14540 14541 14542 14543 14544 14545 14546 14547 14548 14549 14550 14551 14552 14553 14554 14555 14556 14557 14558 14559 14560 14561 14562 14563 14564 14565 14566 14567 14568 14569 14570 14571 14572 14573 14574 14575 14576 14577 14578 14579 14580 14581 14582 14583 14584 14585 14586 14587 14588 14589 14590 14591 14592 14593 14594 14595 14596 14597 14598 14599 14600 14601 14602 14603 14604 14605 14606 14607 14608 14609 14610 14611 14612 14613 14614 14615 14616 14617 14618 14619 14620 14621 14622 14623 14624 14625 14626 14627 14628 14629 14630 14631 14632 14633 14634 14635 14636 14637 14638 14639 14640 14641 14642 14643 14644 14645 14646 14647 14648 14649 14650 14651 14652 14653 14654 14655 14656 14657 14658 14659 14660 14661 14662 14663 14664 14665 14666 14667 14668 14669 14670 14671 14672 14673 14674 14675 14676 14677 14678 14679 14680 14681 14682 14683 14684 14685 14686 14687 14688 14689 14690 14691 14692 14693 14694 14695 14696 14697 14698 14699 14700 14701 14702 14703 14704 14705 14706 14707 14708 14709 14710 14711 14712 14713 14714 14715 14716 14717 14718 14719 14720 14721 14722 14723 14724 14725 14726 14727 14728 14729 14730 14731 14732 14733 14734 14735 14736 14737 14738 14739 14740 14741 14742 14743 14744 14745 14746 14747 14748 14749 14750 14751 14752 14753 14754 14755 14756 14757 14758 14759 14760 14761 14762 14763 14764 14765 14766 14767 14768 14769 14770 14771 14772 14773 14774 14775 14776 14777 14778 14779 14780 14781 14782 14783 14784 14785 14786 14787 14788 14789 14790 14791 14792 14793 14794 14795 14796 14797 14798 14799 14800 14801 14802 14803 14804 14805 14806 14807 14808 14809 14810 14811 14812 14813 14814 14815 14816 14817 14818 14819 14820 14821 14822 14823 14824 14825 14826 14827 14828 14829 14830 14831 14832 14833 14834 14835 14836 14837 14838 14839 14840 14841 14842 14843 14844 14845 14846 14847 14848 14849 14850 14851 14852 14853 14854 14855 14856 14857 14858 14859 14860 14861 14862 14863 14864 14865 14866 14867 14868 14869 14870 14871 14872 14873 14874 14875 14876 14877 14878 14879 14880 14881 14882 14883 14884 14885 14886 14887 14888 14889 14890 14891 14892 14893 14894 14895 14896 14897 14898 14899 14900 14901 14902 14903 14904 14905 14906 14907 14908 14909 14910 14911 14912 14913 14914 14915 14916 14917 14918 14919 14920 14921 14922 14923 14924 14925 14926 14927 14928 14929 14930 14931 14932 14933 14934 14935 14936 14937 14938 14939 14940 14941 14942 14943 14944 14945 14946 14947 14948 14949 14950 14951 14952 14953 14954 14955 14956 14957 14958 14959 14960 14961 14962 14963 14964 14965 14966 14967 14968 14969 14970 14971 14972 14973 14974 14975 14976 14977 14978 14979 14980 14981 14982 14983 14984 14985 14986 14987 14988 14989 14990 14991 14992 14993 14994 14995 14996 14997 14998 14999 15000 15001 15002 15003 15004 15005 15006 15007 15008 15009 15010 15011 15012 15013 15014 15015 15016 15017 15018 15019 15020 15021 15022 15023 15024 15025 15026 15027 15028 15029 15030 15031 15032 15033 15034 15035 15036 15037 15038 15039 15040 15041 15042 15043 15044 15045 15046 15047 15048 15049 15050 15051 15052 15053 15054 15055 15056 15057 15058 15059 15060 15061 15062 15063 15064 15065 15066 15067 15068 15069 15070 15071 15072 15073 15074 15075 15076 15077 15078 15079 15080 15081 15082 15083 15084 15085 15086 15087 15088 15089 15090 15091 15092 15093 15094 15095 15096 15097 15098 15099 15100 15101 15102 15103 15104 15105 15106 15107 15108 15109 15110 15111 15112 15113 15114 15115 15116 15117 15118 15119 15120 15121 15122 15123 15124 15125 15126 15127 15128 15129 15130 15131 15132 15133 15134 15135 15136 15137 15138 15139 15140 15141 15142 15143 15144 15145 15146 15147 15148 15149 15150 15151 15152 15153 15154 15155 15156 15157 15158 15159 15160 15161 15162 15163 15164 15165 15166 15167 15168 15169 15170 15171 15172 15173 15174 15175 15176 15177 15178 15179 15180 15181 15182 15183 15184 15185 15186 15187 15188 15189 15190 15191 15192 15193 15194 15195 15196 15197 15198 15199 15200 15201 15202 15203 15204 15205 15206 15207 15208 15209 15210 15211 15212 15213 15214 15215 15216 15217 15218 15219 15220 15221 15222 15223 15224 15225 15226 15227 15228 15229 15230 15231 15232 15233 15234 15235 15236 15237 15238 15239 15240 15241 15242 15243 15244 15245 15246 15247 15248 15249 15250 15251 15252 15253 15254 15255 15256 15257 15258 15259 15260 15261 15262 15263 15264 15265 15266 15267 15268 15269 15270 15271 15272 15273 15274 15275 15276 15277 15278 15279 15280 15281 15282 15283 15284 15285 15286 15287 15288 15289 15290 15291 15292 15293 15294 15295 15296 15297 15298 15299 15300 15301 15302 15303 15304 15305 15306 15307 15308 15309 15310 15311 15312 15313 15314 15315 15316 15317 15318 15319 15320 15321 15322 15323 15324 15325 15326 15327 15328 15329 15330 15331 15332 15333 15334 15335 15336 15337 15338 15339 15340 15341 15342 15343 15344 15345 15346 15347 15348 15349 15350 15351 15352 15353 15354 15355 15356 15357 15358 15359 15360 15361 15362 15363 15364 15365 15366 15367 15368 15369 15370 15371 15372 15373 15374 15375 15376 15377 15378 15379 15380 15381 15382 15383 15384 15385 15386 15387 15388 15389 15390 15391 15392 15393 15394 15395 15396 15397 15398 15399 15400 15401 15402 15403 15404 15405 15406 15407 15408 15409 15410 15411 15412 15413 15414 15415 15416 15417 15418 15419 15420 15421 15422 15423 15424 15425 15426 15427 15428 15429 15430 15431 15432 15433 15434 15435 15436 15437 15438 15439 15440 15441 15442 15443 15444 15445 15446 15447 15448 15449 15450 15451 15452 15453 15454 15455 15456 15457 15458 15459 15460 15461 15462 15463 15464 15465 15466 15467 15468 15469 15470 15471 15472 15473 15474 15475 15476 15477 15478 15479 15480 15481 15482 15483 15484 15485 15486 15487 15488 15489 15490 15491 15492 15493 15494 15495 15496 15497 15498 15499 15500 15501 15502 15503 15504 15505 15506 15507 15508 15509 15510 15511 15512 15513 15514 15515 15516 15517 15518 15519 15520 15521 15522 15523 15524 15525 15526 15527 15528 15529 15530 15531 15532 15533 15534 15535 15536 15537 15538 15539 15540 15541 15542 15543 15544 15545 15546 15547 15548 15549 15550 15551 15552 15553 15554 15555 15556 15557 15558 15559 15560 15561 15562 15563 15564 15565 15566 15567 15568 15569 15570 15571 15572 15573 15574 15575 15576 15577 15578 15579 15580 15581 15582 15583 15584 15585 15586 15587 15588 15589 15590 15591 15592 15593 15594 15595 15596 15597 15598 15599 15600 15601 15602 15603 15604 15605 15606 15607 15608 15609 15610 15611 15612 15613 15614 15615 15616 15617 15618 15619 15620 15621 15622 15623 15624 15625 15626 15627 15628 15629 15630 15631 15632 15633 15634 15635 15636 15637 15638 15639 15640 15641 15642 15643 15644 15645 15646 15647 15648 15649 15650 15651 15652 15653 15654 15655 15656 15657 15658 15659 15660 15661 15662 15663 15664 15665 15666 15667 15668 15669 15670 15671 15672 15673 15674 15675 15676 15677 15678 15679 15680 15681 15682 15683 15684 15685 15686 15687 15688 15689 15690 15691 15692 15693 15694 15695 15696 15697 15698 15699 15700 15701 15702 15703 15704 15705 15706 15707 15708 15709 15710 15711 15712 15713 15714 15715 15716 15717 15718 15719 15720 15721 15722 15723 15724 15725 15726 15727 15728 15729 15730 15731 15732 15733 15734 15735 15736 15737 15738 15739 15740 15741 15742 15743 15744 15745 15746 15747 15748 15749 15750 15751 15752 15753 15754 15755 15756 15757 15758 15759 15760 15761 15762 15763 15764 15765 15766 15767 15768 15769 15770 15771 15772 15773 15774 15775 15776 15777 15778 15779 15780 15781 15782 15783 15784 15785 15786 15787 15788 15789 15790 15791 15792 15793 15794 15795 15796 15797 15798 15799 15800 15801 15802 15803 15804 15805 15806 15807 15808 15809 15810 15811 15812 15813 15814 15815 15816 15817 15818 15819 15820 15821 15822 15823 15824 15825 15826 15827 15828 15829 15830 15831 15832 15833 15834 15835 15836 15837 15838 15839 15840 15841 15842 15843 15844 15845 15846 15847 15848 15849 15850 15851 15852 15853 15854 15855 15856 15857 15858 15859 15860 15861 15862 15863 15864 15865 15866 15867 15868 15869 15870 15871 15872 15873 15874 15875 15876 15877 15878 15879 15880 15881 15882 15883 15884 15885 15886 15887 15888 15889 15890 15891 15892 15893 15894 15895 15896 15897 15898 15899 15900 15901 15902 15903 15904 15905 15906 15907 15908 15909 15910 15911 15912 15913 15914 15915 15916 15917 15918 15919 15920 15921 15922 15923 15924 15925 15926 15927 15928 15929 15930 15931 15932 15933 15934 15935 15936 15937 15938 15939 15940 15941 15942 15943 15944 15945 15946 15947 15948 15949 15950 15951 15952 15953 15954 15955 15956 15957 15958 15959 15960 15961 15962 15963 15964 15965 15966 15967 15968 15969 15970 15971 15972 15973 15974 15975 15976 15977 15978 15979 15980 15981 15982 15983 15984 15985 15986 15987 15988 15989 15990 15991 15992 15993 15994 15995 15996 15997 15998 15999 16000 16001 16002 16003 16004 16005 16006 16007 16008 16009 16010 16011 16012 16013 16014 16015 16016 16017 16018 16019 16020 16021 16022 16023 16024 16025 16026 16027 16028 16029 16030 16031 16032 16033 16034 16035 16036 16037 16038 16039 16040 16041 16042 16043 16044 16045 16046 16047 16048 16049 16050 16051 16052 16053 16054 16055 16056 16057 16058 16059 16060 16061 16062 16063 16064 16065 16066 16067 16068 16069 16070 16071 16072 16073 16074 16075 16076 16077 16078 16079 16080 16081 16082 16083 16084 16085 16086 16087 16088 16089 16090 16091 16092 16093 16094 16095 16096 16097 16098 16099 16100 16101 16102 16103 16104 16105 16106 16107 16108 16109 16110 16111 16112 16113 16114 16115 16116 16117 16118 16119 16120 16121 16122 16123 16124 16125 16126 16127 16128 16129 16130 16131 16132 16133 16134 16135 16136 16137 16138 16139 16140 16141 16142 16143 16144 16145 16146 16147 16148 16149 16150 16151 16152 16153 16154 16155 16156 16157 16158 16159 16160 16161 16162 16163 16164 16165 16166 16167 16168 16169 16170 16171 16172 16173 16174 16175 16176 16177 16178 16179 16180 16181 16182 16183 16184 16185 16186 16187 16188 16189 16190 16191 16192 16193 16194 16195 16196 16197 16198 16199 16200 16201 16202 16203 16204 16205 16206 16207 16208 16209 16210 16211 16212 16213 16214 16215 16216 16217 16218 16219 16220 16221 16222 16223 16224 16225 16226 16227 16228 16229 16230 16231 16232 16233 16234 16235 16236 16237 16238 16239 16240 16241 16242 16243 16244 16245 16246 16247 16248 16249 16250 16251 16252 16253 16254 16255 16256 16257 16258 16259 16260 16261 16262 16263 16264 16265 16266 16267 16268 16269 16270 16271 16272 16273 16274 16275 16276 16277 16278 16279 16280 16281 16282 16283 16284 16285 16286 16287 16288 16289 16290 16291 16292 16293 16294 16295 16296 16297 16298 16299 16300 16301 16302 16303 16304 16305 16306 16307 16308 16309 16310 16311 16312 16313 16314 16315 16316 16317 16318 16319 16320 16321 16322 16323 16324 16325 16326 16327 16328 16329 16330 16331 16332 16333 16334 16335 16336 16337 16338 16339 16340 16341 16342 16343 16344 16345 16346 16347 16348 16349 16350 16351 16352 16353 16354 16355 16356 16357 16358 16359 16360 16361 16362 16363 16364 16365 16366 16367 16368 16369 16370 16371 16372 16373 16374 16375 16376 16377 16378 16379 16380 16381 16382 16383 16384 16385 16386 16387 16388 16389 16390 16391 16392 16393 16394 16395 16396 16397 16398 16399 16400 16401 16402 16403 16404 16405 16406 16407 16408 16409 16410 16411 16412 16413 16414 16415 16416 16417 16418 16419 16420 16421 16422 16423 16424 16425 16426 16427 16428 16429 16430 16431 16432 16433 16434 16435 16436 16437 16438 16439 16440 16441 16442 16443 16444 16445 16446 16447 16448 16449 16450 16451 16452 16453 16454 16455 16456 16457 16458 16459 16460 16461 16462 16463 16464 16465 16466 16467 16468 16469 16470 16471 16472 16473 16474 16475 16476 16477 16478 16479 16480 16481 16482 16483 16484 16485 16486 16487 16488 16489 16490 16491 16492 16493 16494 16495 16496 16497 16498 16499 16500 16501 16502 16503 16504 16505 16506 16507 16508 16509 16510 16511 16512 16513 16514 16515 16516 16517 16518 16519 16520 16521 16522 16523 16524 16525 16526 16527 16528 16529 16530 16531 16532 16533 16534 16535 16536 16537 16538 16539 16540 16541 16542 16543 16544 16545 16546 16547 16548 16549 16550 16551 16552 16553 16554 16555 16556 16557 16558 16559 16560 16561 16562 16563 16564 16565 16566 16567 16568 16569 16570 16571 16572 16573 16574 16575 16576 16577 16578 16579 16580 16581 16582 16583 16584 16585 16586 16587 16588 16589 16590 16591 16592 16593 16594 16595 16596 16597 16598 16599 16600 16601 16602 16603 16604 16605 16606 16607 16608 16609 16610 16611 16612 16613 16614 16615 16616 16617 16618 16619 16620 16621 16622 16623 16624 16625 16626 16627 16628 16629 16630 16631 16632 16633 16634 16635 16636 16637 16638 16639 16640 16641 16642 16643 16644 16645 16646 16647 16648 16649 16650 16651 16652 16653 16654 16655 16656 16657 16658 16659 16660 16661 16662 16663 16664 16665 16666 16667 16668 16669 16670 16671 16672 16673 16674 16675 16676 16677 16678 16679 16680 16681 16682 16683 16684 16685 16686 16687 16688 16689 16690 16691 16692 16693 16694 16695 16696 16697 16698 16699 16700 16701 16702 16703 16704 16705 16706 16707 16708 16709 16710 16711 16712 16713 16714 16715 16716 16717 16718 16719 16720 16721 16722 16723 16724 16725 16726 16727 16728 16729 16730 16731 16732 16733 16734 16735 16736 16737 16738 16739 16740 16741 16742 16743 16744 16745 16746 16747 16748 16749 16750 16751 16752 16753 16754 16755 16756 16757 16758 16759 16760 16761 16762 16763 16764 16765 16766 16767 16768 16769 16770 16771 16772 16773 16774 16775 16776 16777 16778 16779 16780 16781 16782 16783 16784 16785 16786 16787 16788 16789 16790 16791 16792 16793 16794 16795 16796 16797 16798 16799 16800 16801 16802 16803 16804 16805 16806 16807 16808 16809 16810 16811 16812 16813 16814 16815 16816 16817 16818 16819 16820 16821 16822 16823 16824 16825 16826 16827 16828 16829 16830 16831 16832 16833 16834 16835 16836 16837 16838 16839 16840 16841 16842 16843 16844 16845 16846 16847 16848 16849 16850 16851 16852 16853 16854 16855 16856 16857 16858 16859 16860 16861 16862 16863 16864 16865 16866 16867 16868 16869 16870 16871 16872 16873 16874 16875 16876 16877 16878 16879 16880 16881 16882 16883 16884 16885 16886 16887 16888 16889 16890 16891 16892 16893 16894 16895 16896 16897 16898 16899 16900 16901 16902 16903 16904 16905 16906 16907 16908 16909 16910 16911 16912 16913 16914 16915 16916 16917 16918 16919 16920 16921 16922 16923 16924 16925 16926 16927 16928 16929 16930 16931 16932 16933 16934 16935 16936 16937 16938 16939 16940 16941 16942 16943 16944 16945 16946 16947 16948 16949 16950 16951 16952 16953 16954 16955 16956 16957 16958 16959 16960 16961 16962 16963 16964 16965 16966 16967 16968 16969 16970 16971 16972 16973 16974 16975 16976 16977 16978 16979 16980 16981 16982 16983 16984 16985 16986 16987 16988 16989 16990 16991 16992 16993 16994 16995 16996 16997 16998 16999 17000 17001 17002 17003 17004 17005 17006 17007 17008 17009 17010 17011 17012 17013 17014 17015 17016 17017 17018 17019 17020 17021 17022 17023 17024 17025 17026 17027 17028 17029 17030 17031 17032 17033 17034 17035 17036 17037 17038 17039 17040 17041 17042 17043 17044 17045 17046 17047 17048 17049 17050 17051 17052 17053 17054 17055 17056 17057 17058 17059 17060 17061 17062 17063 17064 17065 17066 17067 17068 17069 17070 17071 17072 17073 17074 17075 17076 17077 17078 17079 17080 17081 17082 17083 17084 17085 17086 17087 17088 17089 17090 17091 17092 17093 17094 17095 17096 17097 17098 17099 17100 17101 17102 17103 17104 17105 17106 17107 17108 17109 17110 17111 17112 17113 17114 17115 17116 17117 17118 17119 17120 17121 17122 17123 17124 17125 17126 17127 17128 17129 17130 17131 17132 17133 17134 17135 17136 17137 17138 17139 17140 17141 17142 17143 17144 17145 17146 17147 17148 17149 17150 17151 17152 17153 17154 17155 17156 17157 17158 17159 17160 17161 17162 17163 17164 17165 17166 17167 17168 17169 17170 17171 17172 17173 17174 17175 17176 17177 17178 17179 17180 17181 17182 17183 17184 17185 17186 17187 17188 17189 17190 17191 17192 17193 17194 17195 17196 17197 17198 17199 17200 17201 17202 17203 17204 17205 17206 17207 17208 17209 17210 17211 17212 17213 17214 17215 17216 17217 17218 17219 17220 17221 17222 17223 17224 17225 17226 17227 17228 17229 17230 17231 17232 17233 17234 17235 17236 17237 17238 17239 17240 17241 17242 17243 17244 17245 17246 17247 17248 17249 17250 17251 17252 17253 17254 17255 17256 17257 17258 17259 17260 17261 17262 17263 17264 17265 17266 17267 17268 17269 17270 17271 17272 17273 17274 17275 17276 17277 17278 17279 17280 17281 17282 17283 17284 17285 17286 17287 17288 17289 17290 17291 17292 17293 17294 17295 17296 17297 17298 17299 17300 17301 17302 17303 17304 17305 17306 17307 17308 17309 17310 17311 17312 17313 17314 17315 17316 17317 17318 17319 17320 17321 17322 17323 17324 17325 17326 17327 17328 17329 17330 17331 17332 17333 17334 17335 17336 17337 17338 17339 17340 17341 17342 17343 17344 17345 17346 17347 17348 17349 17350 17351 17352 17353 17354 17355 17356 17357 17358 17359 17360 17361 17362 17363 17364 17365 17366 17367 17368 17369 17370 17371 17372 17373 17374 17375 17376 17377 17378 17379 17380 17381 17382 17383 17384 17385 17386 17387 17388 17389 17390 17391 17392 17393 17394 17395 17396 17397 17398 17399 17400 17401 17402 17403 17404 17405 17406 17407 17408 17409 17410 17411 17412 17413 17414 17415 17416 17417 17418 17419 17420 17421 17422 17423 17424 17425 17426 17427 17428 17429 17430 17431 17432 17433 17434 17435 17436 17437 17438 17439 17440 17441 17442 17443 17444 17445 17446 17447 17448 17449 17450 17451 17452 17453 17454 17455 17456 17457 17458 17459 17460 17461 17462 17463 17464 17465 17466 17467 17468 17469 17470 17471 17472 17473 17474 17475 17476 17477 17478 17479 17480 17481 17482 17483 17484 17485 17486 17487 17488 17489 17490 17491 17492 17493 17494 17495 17496 17497 17498 17499 17500 17501 17502 17503 17504 17505 17506 17507 17508 17509 17510 17511 17512 17513 17514 17515 17516 17517 17518 17519 17520 17521 17522 17523 17524 17525 17526 17527 17528 17529 17530 17531 17532 17533 17534 17535 17536 17537 17538 17539 17540 17541 17542 17543 17544 17545 17546 17547 17548 17549 17550 17551 17552 17553 17554 17555 17556 17557 17558 17559 17560 17561 17562 17563 17564 17565 17566 17567 17568 17569 17570 17571 17572 17573 17574 17575 17576 17577 17578 17579 17580 17581 17582 17583 17584 17585 17586 17587 17588 17589 17590 17591 17592 17593 17594 17595 17596 17597 17598 17599 17600 17601 17602 17603 17604 17605 17606 17607 17608 17609 17610 17611 17612 17613 17614 17615 17616 17617 17618 17619 17620 17621 17622 17623 17624 17625 17626 17627 17628 17629 17630 17631 17632 17633 17634 17635 17636 17637 17638 17639 17640 17641 17642 17643 17644 17645 17646 17647 17648 17649 17650 17651 17652 17653 17654 17655 17656 17657 17658 17659 17660 17661 17662 17663 17664 17665 17666 17667 17668 17669 17670 17671 17672 17673 17674 17675 17676 17677 17678 17679 17680 17681 17682 17683 17684 17685 17686 17687 17688 17689 17690 17691 17692 17693 17694 17695 17696 17697 17698 17699 17700 17701 17702 17703 17704 17705 17706 17707 17708 17709 17710 17711 17712 17713 17714 17715 17716 17717 17718 17719 17720 17721 17722 17723 17724 17725 17726 17727 17728 17729 17730 17731 17732 17733 17734 17735 17736 17737 17738 17739 17740 17741 17742 17743 17744 17745 17746 17747 17748 17749 17750 17751 17752 17753 17754 17755 17756 17757 17758 17759 17760 17761 17762 17763 17764 17765 17766 17767 17768 17769 17770 17771 17772 17773 17774 17775 17776 17777 17778 17779 17780 17781 17782 17783 17784 17785 17786 17787 17788 17789 17790 17791 17792 17793 17794 17795 17796 17797 17798 17799 17800 17801 17802 17803 17804 17805 17806 17807 17808 17809 17810 17811 17812 17813 17814 17815 17816 17817 17818 17819 17820 17821 17822 17823 17824 17825 17826 17827 17828 17829 17830 17831 17832 17833 17834 17835 17836 17837 17838 17839 17840 17841 17842 17843 17844 17845 17846 17847 17848 17849 17850 17851 17852 17853 17854 17855 17856 17857 17858 17859 17860 17861 17862 17863 17864 17865 17866 17867 17868 17869 17870 17871 17872 17873 17874 17875 17876 17877 17878 17879 17880 17881 17882 17883 17884 17885 17886 17887 17888 17889 17890 17891 17892 17893 17894 17895 17896 17897 17898 17899 17900 17901 17902 17903 17904 17905 17906 17907 17908 17909 17910 17911 17912 17913 17914 17915 17916 17917 17918 17919 17920 17921 17922 17923 17924 17925 17926 17927 17928 17929 17930 17931 17932 17933 17934 17935 17936 17937 17938 17939 17940 17941 17942 17943 17944 17945 17946 17947 17948 17949 17950 17951 17952 17953 17954 17955 17956 17957 17958 17959 17960 17961 17962 17963 17964 17965 17966 17967 17968 17969 17970 17971 17972 17973 17974 17975 17976 17977 17978 17979 17980 17981 17982 17983 17984 17985 17986 17987 17988 17989 17990 17991 17992 17993 17994 17995 17996 17997 17998 17999 18000 18001 18002 18003 18004 18005 18006 18007 18008 18009 18010 18011 18012 18013 18014 18015 18016 18017 18018 18019 18020 18021 18022 18023 18024 18025 18026 18027 18028 18029 18030 18031 18032 18033 18034 18035 18036 18037 18038 18039 18040 18041 18042 18043 18044 18045 18046 18047 18048 18049 18050 18051 18052 18053 18054 18055 18056 18057 18058 18059 18060 18061 18062 18063 18064 18065 18066 18067 18068 18069 18070 18071 18072 18073 18074 18075 18076 18077 18078 18079 18080 18081 18082 18083 18084 18085 18086 18087 18088 18089 18090 18091 18092 18093 18094 18095 18096 18097 18098 18099 18100 18101 18102 18103 18104 18105 18106 18107 18108 18109 18110 18111 18112 18113 18114 18115 18116 18117 18118 18119 18120 18121 18122 18123 18124 18125 18126 18127 18128 18129 18130 18131 18132 18133 18134 18135 18136 18137 18138 18139 18140 18141 18142 18143 18144 18145 18146 18147 18148 18149 18150 18151 18152 18153 18154 18155 18156 18157 18158 18159 18160 18161 18162 18163 18164 18165 18166 18167 18168 18169 18170 18171 18172 18173 18174 18175 18176 18177 18178 18179 18180 18181 18182 18183 18184 18185 18186 18187 18188 18189 18190 18191 18192 18193 18194 18195 18196 18197 18198 18199 18200 18201 18202 18203 18204 18205 18206 18207 18208 18209 18210 18211 18212 18213 18214 18215 18216 18217 18218 18219 18220 18221 18222 18223 18224 18225 18226 18227 18228 18229 18230 18231 18232 18233 18234 18235 18236 18237 18238 18239 18240 18241 18242 18243 18244 18245 18246 18247 18248 18249 18250 18251 18252 18253 18254 18255 18256 18257 18258 18259 18260 18261 18262 18263 18264 18265 18266 18267 18268 18269 18270 18271 18272 18273 18274 18275 18276 18277 18278 18279 18280 18281 18282 18283 18284 18285 18286 18287 18288 18289 18290 18291 18292 18293 18294 18295 18296 18297 18298 18299 18300 18301 18302 18303 18304 18305 18306 18307 18308 18309 18310 18311 18312 18313 18314 18315 18316 18317 18318 18319 18320 18321 18322 18323 18324 18325 18326 18327 18328 18329 18330 18331 18332 18333 18334 18335 18336 18337 18338 18339 18340 18341 18342 18343 18344 18345 18346 18347 18348 18349 18350 18351 18352 18353 18354 18355 18356 18357 18358 18359 18360 18361 18362 18363 18364 18365 18366 18367 18368 18369 18370 18371 18372 18373 18374 18375 18376 18377 18378 18379 18380 18381 18382 18383 18384 18385 18386 18387 18388 18389 18390 18391 18392 18393 18394 18395 18396 18397 18398 18399 18400 18401 18402 18403 18404 18405 18406 18407 18408 18409 18410 18411 18412 18413 18414 18415 18416 18417 18418 18419 18420 18421 18422 18423 18424 18425 18426 18427 18428 18429 18430 18431 18432 18433 18434 18435 18436 18437 18438 18439 18440 18441 18442 18443 18444 18445 18446 18447 18448 18449 18450 18451 18452 18453 18454 18455 18456 18457 18458 18459 18460 18461 18462 18463 18464 18465 18466 18467 18468 18469 18470 18471 18472 18473 18474 18475 18476 18477 18478 18479 18480 18481 18482 18483 18484 18485 18486 18487 18488 18489 18490 18491 18492 18493 18494 18495 18496 18497 18498 18499 18500 18501 18502 18503 18504 18505 18506 18507 18508 18509 18510 18511 18512 18513 18514 18515 18516 18517 18518 18519 18520 18521 18522 18523 18524 18525 18526 18527 18528 18529 18530 18531 18532 18533 18534 18535 18536 18537 18538 18539 18540 18541 18542 18543 18544 18545 18546 18547 18548 18549 18550 18551 18552 18553 18554 18555 18556 18557 18558 18559 18560 18561 18562 18563 18564 18565 18566 18567 18568 18569 18570 18571 18572 18573 18574 18575 18576 18577 18578 18579 18580 18581 18582 18583 18584 18585 18586 18587 18588 18589 18590 18591 18592 18593 18594 18595 18596 18597 18598 18599 18600 18601 18602 18603 18604 18605 18606 18607 18608 18609 18610 18611 18612 18613 18614 18615 18616 18617 18618 18619 18620 18621 18622 18623 18624 18625 18626 18627 18628 18629 18630 18631 18632 18633 18634 18635 18636 18637 18638 18639 18640 18641 18642 18643 18644 18645 18646 18647 18648 18649 18650 18651 18652 18653 18654 18655 18656 18657 18658 18659 18660 18661 18662 18663 18664 18665 18666 18667 18668 18669 18670 18671 18672 18673 18674 18675 18676 18677 18678 18679 18680 18681 18682 18683 18684 18685 18686 18687 18688 18689 18690 18691 18692 18693 18694 18695 18696 18697 18698 18699 18700 18701 18702 18703 18704 18705 18706 18707 18708 18709 18710 18711 18712 18713 18714 18715 18716 18717 18718 18719 18720 18721 18722 18723 18724 18725 18726 18727 18728 18729 18730 18731 18732 18733 18734 18735 18736 18737 18738 18739 18740 18741 18742 18743 18744 18745 18746 18747 18748 18749 18750 18751 18752 18753 18754 18755 18756 18757 18758 18759 18760 18761 18762 18763 18764 18765 18766 18767 18768 18769 18770 18771 18772 18773 18774 18775 18776 18777 18778 18779 18780 18781 18782 18783 18784 18785 18786 18787 18788 18789 18790 18791 18792 18793 18794 18795 18796 18797 18798 18799 18800 18801 18802 18803 18804 18805 18806 18807 18808 18809 18810 18811 18812 18813 18814 18815 18816 18817 18818 18819 18820 18821 18822 18823 18824 18825 18826 18827 18828 18829 18830 18831 18832 18833 18834 18835 18836 18837 18838 18839 18840 18841 18842 18843 18844 18845 18846 18847 18848 18849 18850 18851 18852 18853 18854 18855 18856 18857 18858 18859 18860 18861 18862 18863 18864 18865 18866 18867 18868 18869 18870 18871 18872 18873 18874 18875 18876 18877 18878 18879 18880 18881 18882 18883 18884 18885 18886 18887 18888 18889 18890 18891 18892 18893 18894 18895 18896 18897 18898 18899 18900 18901 18902 18903 18904 18905 18906 18907 18908 18909 18910 18911 18912 18913 18914 18915 18916 18917 18918 18919 18920 18921 18922 18923 18924 18925 18926 18927 18928 18929 18930 18931 18932 18933 18934 18935 18936 18937 18938 18939 18940 18941 18942 18943 18944 18945 18946 18947 18948 18949 18950 18951 18952 18953 18954 18955 18956 18957 18958 18959 18960 18961 18962 18963 18964 18965 18966 18967 18968 18969 18970 18971 18972 18973 18974 18975 18976 18977 18978 18979 18980 18981 18982 18983 18984 18985 18986 18987 18988 18989 18990 18991 18992 18993 18994 18995 18996 18997 18998 18999 19000 19001 19002 19003 19004 19005 19006 19007 19008 19009 19010 19011 19012 19013 19014 19015 19016 19017 19018 19019 19020 19021 19022 19023 19024 19025 19026 19027 19028 19029 19030 19031 19032 19033 19034 19035 19036 19037 19038 19039 19040 19041 19042 19043 19044 19045 19046 19047 19048 19049 19050 19051 19052 19053 19054 19055 19056 19057 19058 19059 19060 19061 19062 19063 19064 19065 19066 19067 19068 19069 19070 19071 19072 19073 19074 19075 19076 19077 19078 19079 19080 19081 19082 19083 19084 19085 19086 19087 19088 19089 19090 19091 19092 19093 19094 19095 19096 19097 19098 19099 19100 19101 19102 19103 19104 19105 19106 19107 19108 19109 19110 19111 19112 19113 19114 19115 19116 19117 19118 19119 19120 19121 19122 19123 19124 19125 19126 19127 19128 19129 19130 19131 19132 19133 19134 19135 19136 19137 19138 19139 19140 19141 19142 19143 19144 19145 19146 19147 19148 19149 19150 19151 19152 19153 19154 19155 19156 19157 19158 19159 19160 19161 19162 19163 19164 19165 19166 19167 19168 19169 19170 19171 19172 19173 19174 19175 19176 19177 19178 19179 19180 19181 19182 19183 19184 19185 19186 19187 19188 19189 19190 19191 19192 19193 19194 19195 19196 19197 19198 19199 19200 19201 19202 19203 19204 19205 19206 19207 19208 19209 19210 19211 19212 19213 19214 19215 19216 19217 19218 19219 19220 19221 19222 19223 19224 19225 19226 19227 19228 19229 19230 19231 19232 19233 19234 19235 19236 19237 19238 19239 19240 19241 19242 19243 19244 19245 19246 19247 19248 19249 19250 19251 19252 19253 19254 19255 19256 19257 19258 19259 19260 19261 19262 19263 19264 19265 19266 19267 19268 19269 19270 19271 19272 19273 19274 19275 19276 19277 19278 19279 19280 19281 19282 19283 19284 19285 19286 19287 19288 19289 19290 19291 19292 19293 19294 19295 19296 19297 19298 19299 19300 19301 19302 19303 19304 19305 19306 19307 19308 19309 19310 19311 19312 19313 19314 19315 19316 19317 19318 19319 19320 19321 19322 19323 19324 19325 19326 19327 19328 19329 19330 19331 19332 19333 19334 19335 19336 19337 19338 19339 19340 19341 19342 19343 19344 19345 19346 19347 19348 19349 19350 19351 19352 19353 19354 19355 19356 19357 19358 19359 19360 19361 19362 19363 19364 19365 19366 19367 19368 19369 19370 19371 19372 19373 19374 19375 19376 19377 19378 19379 19380 19381 19382 19383 19384 19385 19386 19387 19388 19389 19390 19391 19392 19393 19394 19395 19396 19397 19398 19399 19400 19401 19402 19403 19404 19405 19406 19407 19408 19409 19410 19411 19412 19413 19414 19415 19416 19417 19418 19419 19420 19421 19422 19423 19424 19425 19426 19427 19428 19429 19430 19431 19432 19433 19434 19435 19436 19437 19438 19439 19440 19441 19442 19443 19444 19445 19446 19447 19448 19449 19450 19451 19452 19453 19454 19455 19456 19457 19458 19459 19460 19461 19462 19463 19464 19465 19466 19467 19468 19469 19470 19471 19472 19473 19474 19475 19476 19477 19478 19479 19480 19481 19482 19483 19484 19485 19486 19487 19488 19489 19490 19491 19492 19493 19494 19495 19496 19497 19498 19499 19500 19501 19502 19503 19504 19505 19506 19507 19508 19509 19510 19511 19512 19513 19514 19515 19516 19517 19518 19519 19520 19521 19522 19523 19524 19525 19526 19527 19528 19529 19530 19531 19532 19533 19534 19535 19536 19537 19538 19539 19540 19541 19542 19543 19544 19545 19546 19547 19548 19549 19550 19551 19552 19553 19554 19555 19556 19557 19558 19559 19560 19561 19562 19563 19564 19565 19566 19567 19568 19569 19570 19571 19572 19573 19574 19575 19576 19577 19578 19579 19580 19581 19582 19583 19584 19585 19586 19587 19588 19589 19590 19591 19592 19593 19594 19595 19596 19597 19598 19599 19600 19601 19602 19603 19604 19605 19606 19607 19608 19609 19610 19611 19612 19613 19614 19615 19616 19617 19618 19619 19620 19621 19622 19623 19624 19625 19626 19627 19628 19629 19630 19631 19632 19633 19634 19635 19636 19637 19638 19639 19640 19641 19642 19643 19644 19645 19646 19647 19648 19649 19650 19651 19652 19653 19654 19655 19656 19657 19658 19659 19660 19661 19662 19663 19664 19665 19666 19667 19668 19669 19670 19671 19672 19673 19674 19675 19676 19677 19678 19679 19680 19681 19682 19683 19684 19685 19686 19687 19688 19689 19690 19691 19692 19693 19694 19695 19696 19697 19698 19699 19700 19701 19702 19703 19704 19705 19706 19707 19708 19709 19710 19711 19712 19713 19714 19715 19716 19717 19718 19719 19720 19721 19722 19723 19724 19725 19726 19727 19728 19729 19730 19731 19732 19733 19734 19735 19736 19737 19738 19739 19740 19741 19742 19743 19744 19745 19746 19747 19748 19749 19750 19751 19752 19753 19754 19755 19756 19757 19758 19759 19760 19761 19762 19763 19764 19765 19766 19767 19768 19769 19770 19771 19772 19773 19774 19775 19776 19777 19778 19779 19780 19781 19782 19783 19784 19785 19786 19787 19788 19789 19790 19791 19792 19793 19794 19795 19796 19797 19798 19799 19800 19801 19802 19803 19804 19805 19806 19807 19808 19809 19810 19811 19812 19813 19814 19815 19816 19817 19818 19819 19820 19821 19822 19823 19824 19825 19826 19827 19828 19829 19830 19831 19832 19833 19834 19835 19836 19837 19838 19839 19840 19841 19842 19843 19844 19845 19846 19847 19848 19849 19850 19851 19852 19853 19854 19855 19856 19857 19858 19859 19860 19861 19862 19863 19864 19865 19866 19867 19868 19869 19870 19871 19872 19873 19874 19875 19876 19877 19878 19879 19880 19881 19882 19883 19884 19885 19886 19887 19888 19889 19890 19891 19892 19893 19894 19895 19896 19897 19898 19899 19900 19901 19902 19903 19904 19905 19906 19907 19908 19909 19910 19911 19912 19913 19914 19915 19916 19917 19918 19919 19920 19921 19922 19923 19924 19925 19926 19927 19928 19929 19930 19931 19932 19933 19934 19935 19936 19937 19938 19939 19940 19941 19942 19943 19944 19945 19946 19947 19948 19949 19950 19951 19952 19953 19954 19955 19956 19957 19958 19959 19960 19961 19962 19963 19964 19965 19966 19967 19968 19969 19970 19971 19972 19973 19974 19975 19976 19977 19978 19979 19980 19981 19982 19983 19984 19985 19986 19987 19988 19989 19990 19991 19992 19993 19994 19995 19996 19997 19998 19999 20000 20001 20002 20003 20004 20005 20006 20007 20008 20009 20010 20011 20012 20013 20014 20015 20016 20017 20018 20019 20020 20021 20022 20023 20024 20025 20026 20027 20028 20029 20030 20031 20032 20033 20034 20035 20036 20037 20038 20039 20040 20041 20042 20043 20044 20045 20046 20047 20048 20049 20050 20051 20052 20053 20054 20055 20056 20057 20058 20059 20060 20061 20062 20063 20064 20065 20066 20067 20068 20069 20070 20071 20072 20073 20074 20075 20076 20077 20078 20079 20080 20081 20082 20083 20084 20085 20086 20087 20088 20089 20090 20091 20092 20093 20094 20095 20096 20097 20098 20099 20100 20101 20102 20103 20104 20105 20106 20107 20108 20109 20110 20111 20112 20113 20114 20115 20116 20117 20118 20119 20120 20121 20122 20123 20124 20125 20126 20127 20128 20129 20130 20131 20132 20133 20134 20135 20136 20137 20138 20139 20140 20141 20142 20143 20144 20145 20146 20147 20148 20149 20150 20151 20152 20153 20154 20155 20156 20157 20158 20159 20160 20161 20162 20163 20164 20165 20166 20167 20168 20169 20170 20171 20172 20173 20174 20175 20176 20177 20178 20179 20180 20181 20182 20183 20184 20185 20186 20187 20188 20189 20190 20191 20192 20193 20194 20195 20196 20197 20198 20199 20200 20201 20202 20203 20204 20205 20206 20207 20208 20209 20210 20211 20212 20213 20214 20215 20216 20217 20218 20219 20220 20221 20222 20223 20224 20225 20226 20227 20228 20229 20230 20231 20232 20233 20234 20235 20236 20237 20238 20239 20240 20241 20242 20243 20244 20245 20246 20247 20248 20249 20250 20251 20252 20253 20254 20255 20256 20257 20258 20259 20260 20261 20262 20263 20264 20265 20266 20267 20268 20269 20270 20271 20272 20273 20274 20275 20276 20277 20278 20279 20280 20281 20282 20283 20284 20285 20286 20287 20288 20289 20290 20291 20292 20293 20294 20295 20296 20297 20298 20299 20300 20301 20302 20303 20304 20305 20306 20307 20308 20309 20310 20311 20312 20313 20314 20315 20316 20317 20318 20319 20320 20321 20322 20323 20324 20325 20326 20327 20328 20329 20330 20331 20332 20333 20334 20335 20336 20337 20338 20339 20340 20341 20342 20343 20344 20345 20346 20347 20348 20349 20350 20351 20352 20353 20354 20355 20356 20357 20358 20359 20360 20361 20362 20363 20364 20365 20366 20367 20368 20369 20370 20371 20372 20373 20374 20375 20376 20377 20378 20379 20380 20381 20382 20383 20384 20385 20386 20387 20388 20389 20390 20391 20392 20393 20394 20395 20396 20397 20398 20399 20400 20401 20402 20403 20404 20405 20406 20407 20408 20409 20410 20411 20412 20413 20414 20415 20416 20417 20418 20419 20420 20421 20422 20423 20424 20425 20426 20427 20428 20429 20430 20431 20432 20433 20434 20435 20436 20437 20438 20439 20440 20441 20442 20443 20444 20445 20446 20447 20448 20449 20450 20451 20452 20453 20454 20455 20456 20457 20458 20459 20460 20461 20462 20463 20464 20465 20466 20467 20468 20469 20470 20471 20472 20473 20474 20475 20476 20477 20478 20479 20480 20481 20482 20483 20484 20485 20486 20487 20488 20489 20490 20491 20492 20493 20494 20495 20496 20497 20498 20499 20500 20501 20502 20503 20504 20505 20506 20507 20508 20509 20510 20511 20512 20513 20514 20515 20516 20517 20518 20519 20520 20521 20522 20523 20524 20525 20526 20527 20528 20529 20530 20531 20532 20533 20534 20535 20536 20537 20538 20539 20540 20541 20542 20543 20544 20545 20546 20547 20548 20549 20550 20551 20552 20553 20554 20555 20556 20557 20558 20559 20560 20561 20562 20563 20564 20565 20566 20567 20568 20569 20570 20571 20572 20573 20574 20575 20576 20577 20578 20579 20580 20581 20582 20583 20584 20585 20586 20587 20588 20589 20590 20591 20592 20593 20594 20595 20596 20597 20598 20599 20600 20601 20602 20603 20604 20605 20606 20607 20608 20609 20610 20611 20612 20613 20614 20615 20616 20617 20618 20619 20620 20621 20622 20623 20624 20625 20626 20627 20628 20629 20630 20631 20632 20633 20634 20635 20636 20637 20638 20639 20640 20641 20642 20643 20644 20645 20646 20647 20648 20649 20650 20651 20652 20653 20654 20655 20656 20657 20658 20659 20660 20661 20662 20663 20664 20665 20666 20667 20668 20669 20670 20671 20672 20673 20674 20675 20676 20677 20678 20679 20680 20681 20682 20683 20684 20685 20686 20687 20688 20689 20690 20691 20692 20693 20694 20695 20696 20697 20698 20699 20700 20701 20702 20703 20704 20705 20706 20707 20708 20709 20710 20711 20712 20713 20714 20715 20716 20717 20718 20719 20720 20721 20722 20723 20724 20725 20726 20727 20728 20729 20730 20731 20732 20733 20734 20735 20736 20737 20738 20739 20740 20741 20742 20743 20744 20745 20746 20747 20748 20749 20750 20751 20752 20753 20754 20755 20756 20757 20758 20759 20760 20761 20762 20763 20764 20765 20766 20767 20768 20769 20770 20771 20772 20773 20774 20775 20776 20777 20778 20779 20780 20781 20782 20783 20784 20785 20786 20787 20788 20789 20790 20791 20792 20793 20794 20795 20796 20797 20798 20799 20800 20801 20802 20803 20804 20805 20806 20807 20808 20809 20810 20811 20812 20813 20814 20815 20816 20817 20818 20819 20820 20821 20822 20823 20824 20825 20826 20827 20828 20829 20830 20831 20832 20833 20834 20835 20836 20837 20838 20839 20840 20841 20842 20843 20844 20845 20846 20847 20848 20849 20850 20851 20852 20853 20854 20855 20856 20857 20858 20859 20860 20861 20862 20863 20864 20865 20866 20867 20868 20869 20870 20871 20872 20873 20874 20875 20876 20877 20878 20879 20880 20881 20882 20883 20884 20885 20886 20887 20888 20889 20890 20891 20892 20893 20894 20895 20896 20897 20898 20899 20900 20901 20902 20903 20904 20905 20906 20907 20908 20909 20910 20911 20912 20913 20914 20915 20916 20917 20918 20919 20920 20921 20922 20923 20924 20925 20926 20927 20928 20929 20930 20931 20932 20933 20934 20935 20936 20937 20938 20939 20940 20941 20942 20943 20944 20945 20946 20947 20948 20949 20950 20951 20952 20953 20954 20955 20956 20957 20958 20959 20960 20961 20962 20963 20964 20965 20966 20967 20968 20969 20970 20971 20972 20973 20974 20975 20976 20977 20978 20979 20980 20981 20982 20983 20984 20985 20986 20987 20988 20989 20990 20991 20992 20993 20994 20995 20996 20997 20998 20999 21000 21001 21002 21003 21004 21005 21006 21007 21008 21009 21010 21011 21012 21013 21014 21015 21016 21017 21018 21019 21020 21021 21022 21023 21024 21025 21026 21027 21028 21029 21030 21031 21032 21033 21034 21035 21036 21037 21038 21039 21040 21041 21042 21043 21044 21045 21046 21047 21048 21049 21050 21051 21052 21053 21054 21055 21056 21057 21058 21059 21060 21061 21062 21063 21064 21065 21066 21067 21068 21069 21070 21071 21072 21073 21074 21075 21076 21077 21078 21079 21080 21081 21082 21083 21084 21085 21086 21087 21088 21089 21090 21091 21092 21093 21094 21095 21096 21097 21098 21099 21100 21101 21102 21103 21104 21105 21106 21107 21108 21109 21110 21111 21112 21113 21114 21115 21116 21117 21118 21119 21120 21121 21122 21123 21124 21125 21126 21127 21128 21129 21130 21131 21132 21133 21134 21135 21136 21137 21138 21139 21140 21141 21142 21143 21144 21145 21146 21147 21148 21149 21150 21151 21152 21153 21154 21155 21156 21157 21158 21159 21160 21161 21162 21163 21164 21165 21166 21167 21168 21169 21170 21171 21172 21173 21174 21175 21176 21177 21178 21179 21180 21181 21182 21183 21184 21185 21186 21187 21188 21189 21190 21191 21192 21193 21194 21195 21196 21197 21198 21199 21200 21201 21202 21203 21204 21205 21206 21207 21208 21209 21210 21211 21212 21213 21214 21215 21216 21217 21218 21219 21220 21221 21222 21223 21224 21225 21226 21227 21228 21229 21230 21231 21232 21233 21234 21235 21236 21237 21238 21239 21240 21241 21242 21243 21244 21245 21246 21247 21248 21249 21250 21251 21252 21253 21254 21255 21256 21257 21258 21259 21260 21261 21262 21263 21264 21265 21266 21267 21268 21269 21270 21271 21272 21273 21274 21275 21276 21277 21278 21279 21280 21281 21282 21283 21284 21285 21286 21287 21288 21289 21290 21291 21292 21293 21294 21295 21296 21297 21298 21299 21300 21301 21302 21303 21304 21305 21306 21307 21308 21309 21310 21311 21312 21313 21314 21315 21316 21317 21318 21319 21320 21321 21322 21323 21324 21325 21326 21327 21328 21329 21330 21331 21332 21333 21334 21335 21336 21337 21338 21339 21340 21341 21342 21343 21344 21345 21346 21347 21348 21349 21350 21351 21352 21353 21354 21355 21356 21357 21358 21359 21360 21361 21362 21363 21364 21365 21366 21367 21368 21369 21370 21371 21372 21373 21374 21375 21376 21377 21378 21379 21380 21381 21382 21383 21384 21385 21386 21387 21388 21389 21390 21391 21392 21393 21394 21395 21396 21397 21398 21399 21400 21401 21402 21403 21404 21405 21406 21407 21408 21409 21410 21411 21412 21413 21414 21415 21416 21417 21418 21419 21420 21421 21422 21423 21424 21425 21426 21427 21428 21429 21430 21431 21432 21433 21434 21435 21436 21437 21438 21439 21440 21441 21442 21443 21444 21445 21446 21447 21448 21449 21450 21451 21452 21453 21454 21455 21456 21457 21458 21459 21460 21461 21462 21463 21464 21465 21466 21467 21468 21469 21470 21471 21472 21473 21474 21475 21476 21477 21478 21479 21480 21481 21482 21483 21484 21485 21486 21487 21488 21489 21490 21491 21492 21493 21494 21495 21496 21497 21498 21499 21500 21501 21502 21503 21504 21505 21506 21507 21508 21509 21510 21511 21512 21513 21514 21515 21516 21517 21518 21519 21520 21521 21522 21523 21524 21525 21526 21527 21528 21529 21530 21531 21532 21533 21534 21535 21536 21537 21538 21539 21540 21541 21542 21543 21544 21545 21546 21547 21548 21549 21550 21551 21552 21553 21554 21555 21556 21557 21558 21559 21560 21561 21562 21563 21564 21565 21566 21567 21568 21569 21570 21571 21572 21573 21574 21575 21576 21577 21578 21579 21580 21581 21582 21583 21584 21585 21586 21587 21588 21589 21590 21591 21592 21593 21594 21595 21596 21597 21598 21599 21600 21601 21602 21603 21604 21605 21606 21607 21608 21609 21610 21611 21612 21613 21614 21615 21616 21617 21618 21619 21620 21621 21622 21623 21624 21625 21626 21627 21628 21629 21630 21631 21632 21633 21634 21635 21636 21637 21638 21639 21640 21641 21642 21643 21644 21645 21646 21647 21648 21649 21650 21651 21652 21653 21654 21655 21656 21657 21658 21659 21660 21661 21662 21663 21664 21665 21666 21667 21668 21669 21670 21671 21672 21673 21674 21675 21676 21677 21678 21679 21680 21681 21682 21683 21684 21685 21686 21687 21688 21689 21690 21691 21692 21693 21694 21695 21696 21697 21698 21699 21700 21701 21702 21703 21704 21705 21706 21707 21708 21709 21710 21711 21712 21713 21714 21715 21716 21717 21718 21719 21720 21721 21722 21723 21724 21725 21726 21727 21728 21729 21730 21731 21732 21733 21734 21735 21736 21737 21738 21739 21740 21741 21742 21743 21744 21745 21746 21747 21748 21749 21750 21751 21752 21753 21754 21755 21756 21757 21758 21759 21760 21761 21762 21763 21764 21765 21766 21767 21768 21769 21770 21771 21772 21773 21774 21775 21776 21777 21778 21779 21780 21781 21782 21783 21784 21785 21786 21787 21788 21789 21790 21791 21792 21793 21794 21795 21796 21797 21798 21799 21800 21801 21802 21803 21804 21805 21806 21807 21808 21809 21810 21811 21812 21813 21814 21815 21816 21817 21818 21819 21820 21821 21822 21823 21824 21825 21826 21827 21828 21829 21830 21831 21832 21833 21834 21835 21836 21837 21838 21839 21840 21841 21842 21843 21844 21845 21846 21847 21848 21849 21850 21851 21852 21853 21854 21855 21856 21857 21858 21859 21860 21861 21862 21863 21864 21865 21866 21867 21868 21869 21870 21871 21872 21873 21874 21875 21876 21877 21878 21879 21880 21881 21882 21883 21884 21885 21886 21887 21888 21889 21890 21891 21892 21893 21894 21895 21896 21897 21898 21899 21900 21901 21902 21903 21904 21905 21906 21907 21908 21909 21910 21911 21912 21913 21914 21915 21916 21917 21918 21919 21920 21921 21922 21923 21924 21925 21926 21927 21928 21929 21930 21931 21932 21933 21934 21935 21936 21937 21938 21939 21940 21941 21942 21943 21944 21945 21946 21947 21948 21949 21950 21951 21952 21953 21954 21955 21956 21957 21958 21959 21960 21961 21962 21963 21964 21965 21966 21967 21968 21969 21970 21971 21972 21973 21974 21975 21976 21977 21978 21979 21980 21981 21982 21983 21984 21985 21986 21987 21988 21989 21990 21991 21992 21993 21994 21995 21996 21997 21998 21999 22000 22001 22002 22003 22004 22005 22006 22007 22008 22009 22010 22011 22012 22013 22014 22015 22016 22017 22018 22019 22020 22021 22022 22023 22024 22025 22026 22027 22028 22029 22030 22031 22032 22033 22034 22035 22036 22037 22038 22039 22040 22041 22042 22043 22044 22045 22046 22047 22048 22049 22050 22051 22052 22053 22054 22055 22056 22057 22058 22059 22060 22061 22062 22063 22064 22065 22066 22067 22068 22069 22070 22071 22072 22073 22074 22075 22076 22077 22078 22079 22080 22081 22082 22083 22084 22085 22086 22087 22088 22089 22090 22091 22092 22093 22094 22095 22096 22097 22098 22099 22100 22101 22102 22103 22104 22105 22106 22107 22108 22109 22110 22111 22112 22113 22114 22115 22116 22117 22118 22119 22120 22121 22122 22123 22124 22125 22126 22127 22128 22129 22130 22131 22132 22133 22134 22135 22136 22137 22138 22139 22140 22141 22142 22143 22144 22145 22146 22147 22148 22149 22150 22151 22152 22153 22154 22155 22156 22157 22158 22159 22160 22161 22162 22163 22164 22165 22166 22167 22168 22169 22170 22171 22172 22173 22174 22175 22176 22177 22178 22179 22180 22181 22182 22183 22184 22185 22186 22187 22188 22189 22190 22191 22192 22193 22194 22195 22196 22197 22198 22199 22200 22201 22202 22203 22204 22205 22206 22207 22208 22209 22210 22211 22212 22213 22214 22215 22216 22217 22218 22219 22220 22221 22222 22223 22224 22225 22226 22227 22228 22229 22230 22231 22232 22233 22234 22235 22236 22237 22238 22239 22240 22241 22242 22243 22244 22245 22246 22247 22248 22249 22250 22251 22252 22253 22254 22255 22256 22257 22258 22259 22260 22261 22262 22263 22264 22265 22266 22267 22268 22269 22270 22271 22272 22273 22274 22275 22276 22277 22278 22279 22280 22281 22282 22283 22284 22285 22286 22287 22288 22289 22290 22291 22292 22293 22294 22295 22296 22297 22298 22299 22300 22301 22302 22303 22304 22305 22306 22307 22308 22309 22310 22311 22312 22313 22314 22315 22316 22317 22318 22319 22320 22321 22322 22323 22324 22325 22326 22327 22328 22329 22330 22331 22332 22333 22334 22335 22336 22337 22338 22339 22340 22341 22342 22343 22344 22345 22346 22347 22348 22349 22350 22351 22352 22353 22354 22355 22356 22357 22358 22359 22360 22361 22362 22363 22364 22365 22366 22367 22368 22369 22370 22371 22372 22373 22374 22375 22376 22377 22378 22379 22380 22381 22382 22383 22384 22385 22386 22387 22388 22389 22390 22391 22392 22393 22394 22395 22396 22397 22398 22399 22400 22401 22402 22403 22404 22405 22406 22407 22408 22409 22410 22411 22412 22413 22414 22415 22416 22417 22418 22419 22420 22421 22422 22423 22424 22425 22426 22427 22428 22429 22430 22431 22432 22433 22434 22435 22436 22437 22438 22439 22440 22441 22442 22443 22444 22445 22446 22447 22448 22449 22450 22451 22452 22453 22454 22455 22456 22457 22458 22459 22460 22461 22462 22463 22464 22465 22466 22467 22468 22469 22470 22471 22472 22473 22474 22475 22476 22477 22478 22479 22480 22481 22482 22483 22484 22485 22486 22487 22488 22489 22490 22491 22492 22493 22494 22495 22496 22497 22498 22499 22500 22501 22502 22503 22504 22505 22506 22507 22508 22509 22510 22511 22512 22513 22514 22515 22516 22517 22518 22519 22520 22521 22522 22523 22524 22525 22526 22527 22528 22529 22530 22531 22532 22533 22534 22535 22536 22537 22538 22539 22540 22541 22542 22543 22544 22545 22546 22547 22548 22549 22550 22551 22552 22553 22554 22555 22556 22557 22558 22559 22560 22561 22562 22563 22564 22565 22566 22567 22568 22569 22570 22571 22572 22573 22574 22575 22576 22577 22578 22579 22580 22581 22582 22583 22584 22585 22586 22587 22588 22589 22590 22591 22592 22593 22594 22595 22596 22597 22598 22599 22600 22601 22602 22603 22604 22605 22606 22607 22608 22609 22610 22611 22612 22613 22614 22615 22616 22617 22618 22619 22620 22621 22622 22623 22624 22625 22626 22627 22628 22629 22630 22631 22632 22633 22634 22635 22636 22637 22638 22639 22640 22641 22642 22643 22644 22645 22646 22647 22648 22649 22650 22651 22652 22653 22654 22655 22656 22657 22658 22659 22660 22661 22662 22663 22664 22665 22666 22667 22668 22669 22670 22671 22672 22673 22674 22675 22676 22677 22678 22679 22680 22681 22682 22683 22684 22685 22686 22687 22688 22689 22690 22691 22692 22693 22694 22695 22696 22697 22698 22699 22700 22701 22702 22703 22704 22705 22706 22707 22708 22709 22710 22711 22712 22713 22714 22715 22716 22717 22718 22719 22720 22721 22722 22723 22724 22725 22726 22727 22728 22729 22730 22731 22732 22733 22734 22735 22736 22737 22738 22739 22740 22741 22742 22743 22744 22745 22746 22747 22748 22749 22750 22751 22752 22753 22754 22755 22756 22757 22758 22759 22760 22761 22762 22763 22764 22765 22766 22767 22768 22769 22770 22771 22772 22773 22774 22775 22776 22777 22778 22779 22780 22781 22782 22783 22784 22785 22786 22787 22788 22789 22790 22791 22792 22793 22794 22795 22796 22797 22798 22799 22800 22801 22802 22803 22804 22805 22806 22807 22808 22809 22810 22811 22812 22813 22814 22815 22816 22817 22818 22819 22820 22821 22822 22823 22824 22825 22826 22827 22828 22829 22830 22831 22832 22833 22834 22835 22836 22837 22838 22839 22840 22841 22842 22843 22844 22845 22846 22847 22848 22849 22850 22851 22852 22853 22854 22855 22856 22857 22858 22859 22860 22861 22862 22863 22864 22865 22866 22867 22868 22869 22870 22871 22872 22873 22874 22875 22876 22877 22878 22879 22880 22881 22882 22883 22884 22885 22886 22887 22888 22889 22890 22891 22892 22893 22894 22895 22896 22897 22898 22899 22900 22901 22902 22903 22904 22905 22906 22907 22908 22909 22910 22911 22912 22913 22914 22915 22916 22917 22918 22919 22920 22921 22922 22923 22924 22925 22926 22927 22928 22929 22930 22931 22932 22933 22934 22935 22936 22937 22938 22939 22940 22941 22942 22943 22944 22945 22946 22947 22948 22949 22950 22951 22952 22953 22954 22955 22956 22957 22958 22959 22960 22961 22962 22963 22964 22965 22966 22967 22968 22969 22970 22971 22972 22973 22974 22975 22976 22977 22978 22979 22980 22981 22982 22983 22984 22985 22986 22987 22988 22989 22990 22991 22992 22993 22994 22995 22996 22997 22998 22999 23000 23001 23002 23003 23004 23005 23006 23007 23008 23009 23010 23011 23012 23013 23014 23015 23016 23017 23018 23019 23020 23021 23022 23023 23024 23025 23026 23027 23028 23029 23030 23031 23032 23033 23034 23035 23036 23037 23038 23039 23040 23041 23042 23043 23044 23045 23046 23047 23048 23049 23050 23051 23052 23053 23054 23055 23056 23057 23058 23059 23060 23061 23062 23063 23064 23065 23066 23067 23068 23069 23070 23071 23072 23073 23074 23075 23076 23077 23078 23079 23080 23081 23082 23083 23084 23085 23086 23087 23088 23089 23090 23091 23092 23093 23094 23095 23096 23097 23098 23099 23100 23101 23102 23103 23104 23105 23106 23107 23108 23109 23110 23111 23112 23113 23114 23115 23116 23117 23118 23119 23120 23121 23122 23123 23124 23125 23126 23127 23128 23129 23130 23131 23132 23133 23134 23135 23136 23137 23138 23139 23140 23141 23142 23143 23144 23145 23146 23147 23148 23149 23150 23151 23152 23153 23154 23155 23156 23157 23158 23159 23160 23161 23162 23163 23164 23165 23166 23167 23168 23169 23170 23171 23172 23173 23174 23175 23176 23177 23178 23179 23180 23181 23182 23183 23184 23185 23186 23187 23188 23189 23190 23191 23192 23193 23194 23195 23196 23197 23198 23199 23200 23201 23202 23203 23204 23205 23206 23207 23208 23209 23210 23211 23212 23213 23214 23215 23216 23217 23218 23219 23220 23221 23222 23223 23224 23225 23226 23227 23228 23229 23230 23231 23232 23233 23234 23235 23236 23237 23238 23239 23240 23241 23242 23243 23244 23245 23246 23247 23248 23249 23250 23251 23252 23253 23254 23255 23256 23257 23258 23259 23260 23261 23262 23263 23264 23265 23266 23267 23268 23269 23270 23271 23272 23273 23274 23275 23276 23277 23278 23279 23280 23281 23282 23283 23284 23285 23286 23287 23288 23289 23290 23291 23292 23293 23294 23295 23296 23297 23298 23299 23300 23301 23302 23303 23304 23305 23306 23307 23308 23309 23310 23311 23312 23313 23314 23315 23316 23317 23318 23319 23320 23321 23322 23323 23324 23325 23326 23327 23328 23329 23330 23331 23332 23333 23334 23335 23336 23337 23338 23339 23340 23341 23342 23343 23344 23345 23346 23347 23348 23349 23350 23351 23352 23353 23354 23355 23356 23357 23358 23359 23360 23361 23362 23363 23364 23365 23366 23367 23368 23369 23370 23371 23372 23373 23374 23375 23376 23377 23378 23379 23380 23381 23382 23383 23384 23385 23386 23387 23388 23389 23390 23391 23392 23393 23394 23395 23396 23397 23398 23399 23400 23401 23402 23403 23404 23405 23406 23407 23408 23409 23410 23411 23412 23413 23414 23415 23416 23417 23418 23419 23420 23421 23422 23423 23424 23425 23426 23427 23428 23429 23430 23431 23432 23433 23434 23435 23436 23437 23438 23439 23440 23441 23442 23443 23444 23445 23446 23447 23448 23449 23450 23451 23452 23453 23454 23455 23456 23457 23458 23459 23460 23461 23462 23463 23464 23465 23466 23467 23468 23469 23470 23471 23472 23473 23474 23475 23476 23477 23478 23479 23480 23481 23482 23483 23484 23485 23486 23487 23488 23489 23490 23491 23492 23493 23494 23495 23496 23497 23498 23499 23500 23501 23502 23503 23504 23505 23506 23507 23508 23509 23510 23511 23512 23513 23514 23515 23516 23517 23518 23519 23520 23521 23522 23523 23524 23525 23526 23527 23528 23529 23530 23531 23532 23533 23534 23535 23536 23537 23538 23539 23540 23541 23542 23543 23544 23545 23546 23547 23548 23549 23550 23551 23552 23553 23554 23555 23556 23557 23558 23559 23560 23561 23562 23563 23564 23565 23566 23567 23568 23569 23570 23571 23572 23573 23574 23575 23576 23577 23578 23579 23580 23581 23582 23583 23584 23585 23586 23587 23588 23589 23590 23591 23592 23593 23594 23595 23596 23597 23598 23599 23600 23601 23602 23603 23604 23605 23606 23607 23608 23609 23610 23611 23612 23613 23614 23615 23616 23617 23618 23619 23620 23621 23622 23623 23624 23625 23626 23627 23628 23629 23630 23631 23632 23633 23634 23635 23636 23637 23638 23639 23640 23641 23642 23643 23644 23645 23646 23647 23648 23649 23650 23651 23652 23653 23654 23655 23656 23657 23658 23659 23660 23661 23662 23663 23664 23665 23666 23667 23668 23669 23670 23671 23672 23673 23674 23675 23676 23677 23678 23679 23680 23681 23682 23683 23684 23685 23686 23687 23688 23689 23690 23691 23692 23693 23694 23695 23696 23697 23698 23699 23700 23701 23702 23703 23704 23705 23706 23707 23708 23709 23710 23711 23712 23713 23714 23715 23716 23717 23718 23719 23720 23721 23722 23723 23724 23725 23726 23727 23728 23729 23730 23731 23732 23733 23734 23735 23736 23737 23738 23739 23740 23741 23742 23743 23744 23745 23746 23747 23748 23749 23750 23751 23752 23753 23754 23755 23756 23757 23758 23759 23760 23761 23762 23763 23764 23765 23766 23767 23768 23769 23770 23771 23772 23773 23774 23775 23776 23777 23778 23779 23780 23781 23782 23783 23784 23785 23786 23787 23788 23789 23790 23791 23792 23793 23794 23795 23796 23797 23798 23799 23800 23801 23802 23803 23804 23805 23806 23807 23808 23809 23810 23811 23812 23813 23814 23815 23816 23817 23818 23819 23820 23821 23822 23823 23824 23825 23826 23827 23828 23829 23830 23831 23832 23833 23834 23835 23836 23837 23838 23839 23840 23841 23842 23843 23844 23845 23846 23847 23848 23849 23850 23851 23852 23853 23854 23855 23856 23857 23858 23859 23860 23861 23862 23863 23864 23865 23866 23867 23868 23869 23870 23871 23872 23873 23874 23875 23876 23877 23878 23879 23880 23881 23882 23883 23884 23885 23886 23887 23888 23889 23890 23891 23892 23893 23894 23895 23896 23897 23898 23899 23900 23901 23902 23903 23904 23905 23906 23907 23908 23909 23910 23911 23912 23913 23914 23915 23916 23917 23918 23919 23920 23921 23922 23923 23924 23925 23926 23927 23928 23929 23930 23931 23932 23933 23934 23935 23936 23937 23938 23939 23940 23941 23942 23943 23944 23945 23946 23947 23948 23949 23950 23951 23952 23953 23954 23955 23956 23957 23958 23959 23960 23961 23962 23963 23964 23965 23966 23967 23968 23969 23970 23971 23972 23973 23974 23975 23976 23977 23978 23979 23980 23981 23982 23983 23984 23985 23986 23987 23988 23989 23990 23991 23992 23993 23994 23995 23996 23997 23998 23999 24000 24001 24002 24003 24004 24005 24006 24007 24008 24009 24010 24011 24012 24013 24014 24015 24016 24017 24018 24019 24020 24021 24022 24023 24024 24025 24026 24027 24028 24029 24030 24031 24032 24033 24034 24035 24036 24037 24038 24039 24040 24041 24042 24043 24044 24045 24046 24047 24048 24049 24050 24051 24052 24053 24054 24055 24056 24057 24058 24059 24060 24061 24062 24063 24064 24065 24066 24067 24068 24069 24070 24071 24072 24073 24074 24075 24076 24077 24078 24079 24080 24081 24082 24083 24084 24085 24086 24087 24088 24089 24090 24091 24092 24093 24094 24095 24096 24097 24098 24099 24100 24101 24102 24103 24104 24105 24106 24107 24108 24109 24110 24111 24112 24113 24114 24115 24116 24117 24118 24119 24120 24121 24122 24123 24124 24125 24126 24127 24128 24129 24130 24131 24132 24133 24134 24135 24136 24137 24138 24139 24140 24141 24142 24143 24144 24145 24146 24147 24148 24149 24150 24151 24152 24153 24154 24155 24156 24157 24158 24159 24160 24161 24162 24163 24164 24165 24166 24167 24168 24169 24170 24171 24172 24173 24174 24175 24176 24177 24178 24179 24180 24181 24182 24183 24184 24185 24186 24187 24188 24189 24190 24191 24192 24193 24194 24195 24196 24197 24198 24199 24200 24201 24202 24203 24204 24205 24206 24207 24208 24209 24210 24211 24212 24213 24214 24215 24216 24217 24218 24219 24220 24221 24222 24223 24224 24225 24226 24227 24228 24229 24230 24231 24232 24233 24234 24235 24236 24237 24238 24239 24240 24241 24242 24243 24244 24245 24246 24247 24248 24249 24250 24251 24252 24253 24254 24255 24256 24257 24258 24259 24260 24261 24262 24263 24264 24265 24266 24267 24268 24269 24270 24271 24272 24273 24274 24275 24276 24277 24278 24279 24280 24281 24282 24283 24284 24285 24286 24287 24288 24289 24290 24291 24292 24293 24294 24295 24296 24297 24298 24299 24300 24301 24302 24303 24304 24305 24306 24307 24308 24309 24310 24311 24312 24313 24314 24315 24316 24317 24318 24319 24320 24321 24322 24323 24324 24325 24326 24327 24328 24329 24330 24331 24332 24333 24334 24335 24336 24337 24338 24339 24340 24341 24342 24343 24344 24345 24346 24347 24348 24349 24350 24351 24352 24353 24354 24355 24356 24357 24358 24359 24360 24361 24362 24363 24364 24365 24366 24367 24368 24369 24370 24371 24372 24373 24374 24375 24376 24377 24378 24379 24380 24381 24382 24383 24384 24385 24386 24387 24388 24389 24390 24391 24392 24393 24394 24395 24396 24397 24398 24399 24400 24401 24402 24403 24404 24405 24406 24407 24408 24409 24410 24411 24412 24413 24414 24415 24416 24417 24418 24419 24420 24421 24422 24423 24424 24425 24426 24427 24428 24429 24430 24431 24432 24433 24434 24435 24436 24437 24438 24439 24440 24441 24442 24443 24444 24445 24446 24447 24448 24449 24450 24451 24452 24453 24454 24455 24456 24457 24458 24459 24460 24461 24462 24463 24464 24465 24466 24467 24468 24469 24470 24471 24472 24473 24474 24475 24476 24477 24478 24479 24480 24481 24482 24483 24484 24485 24486 24487 24488 24489 24490 24491 24492 24493 24494 24495 24496 24497 24498 24499 24500 24501 24502 24503 24504 24505 24506 24507 24508 24509 24510 24511 24512 24513 24514 24515 24516 24517 24518 24519 24520 24521 24522 24523 24524 24525 24526 24527 24528 24529 24530 24531 24532 24533 24534 24535 24536 24537 24538 24539 24540 24541 24542 24543 24544 24545 24546 24547 24548 24549 24550 24551 24552 24553 24554 24555 24556 24557 24558 24559 24560 24561 24562 24563 24564 24565 24566 24567 24568 24569 24570 24571 24572 24573 24574 24575 24576 24577 24578 24579 24580 24581 24582 24583 24584 24585 24586 24587 24588 24589 24590 24591 24592 24593 24594 24595 24596 24597 24598 24599 24600 24601 24602 24603 24604 24605 24606 24607 24608 24609 24610 24611 24612 24613 24614 24615 24616 24617 24618 24619 24620 24621 24622 24623 24624 24625 24626 24627 24628 24629 24630 24631 24632 24633 24634 24635 24636 24637 24638 24639 24640 24641 24642 24643 24644 24645 24646 24647 24648 24649 24650 24651 24652 24653 24654 24655 24656 24657 24658 24659 24660 24661 24662 24663 24664 24665 24666 24667 24668 24669 24670 24671 24672 24673 24674 24675 24676 24677 24678 24679 24680 24681 24682 24683 24684 24685 24686 24687 24688 24689 24690 24691 24692 24693 24694 24695 24696 24697 24698 24699 24700 24701 24702 24703 24704 24705 24706 24707 24708 24709 24710 24711 24712 24713 24714 24715 24716 24717 24718 24719 24720 24721 24722 24723 24724 24725 24726 24727 24728 24729 24730 24731 24732 24733 24734 24735 24736 24737 24738 24739 24740 24741 24742 24743 24744 24745 24746 24747 24748 24749 24750 24751 24752 24753 24754 24755 24756 24757 24758 24759 24760 24761 24762 24763 24764 24765 24766 24767 24768 24769 24770 24771 24772 24773 24774 24775 24776 24777 24778 24779 24780 24781 24782 24783 24784 24785 24786 24787 24788 24789 24790 24791 24792 24793 24794 24795 24796 24797 24798 24799 24800 24801 24802 24803 24804 24805 24806 24807 24808 24809 24810 24811 24812 24813 24814 24815 24816 24817 24818 24819 24820 24821 24822 24823 24824 24825 24826 24827 24828 24829 24830 24831 24832 24833 24834 24835 24836 24837 24838 24839 24840 24841 24842 24843 24844 24845 24846 24847 24848 24849 24850 24851 24852 24853 24854 24855 24856 24857 24858 24859 24860 24861 24862 24863 24864 24865 24866 24867 24868 24869 24870 24871 24872 24873 24874 24875 24876 24877 24878 24879 24880 24881 24882 24883 24884 24885 24886 24887 24888 24889 24890 24891 24892 24893 24894 24895 24896 24897 24898 24899 24900 24901 24902 24903 24904 24905 24906 24907 24908 24909 24910 24911 24912 24913 24914 24915 24916 24917 24918 24919 24920 24921 24922 24923 24924 24925 24926 24927 24928 24929 24930 24931 24932 24933 24934 24935 24936 24937 24938 24939 24940 24941 24942 24943 24944 24945 24946 24947 24948 24949 24950 24951 24952 24953 24954 24955 24956 24957 24958 24959 24960 24961 24962 24963 24964 24965 24966 24967 24968 24969 24970 24971 24972 24973 24974 24975 24976 24977 24978 24979 24980 24981 24982 24983 24984 24985 24986 24987 24988 24989 24990 24991 24992 24993 24994 24995 24996 24997 24998 24999 25000 25001 25002 25003 25004 25005 25006 25007 25008 25009 25010 25011 25012 25013 25014 25015 25016 25017 25018 25019 25020 25021 25022 25023 25024 25025 25026 25027 25028 25029 25030 25031 25032 25033 25034 25035 25036 25037 25038 25039 25040 25041 25042 25043 25044 25045 25046 25047 25048 25049 25050 25051 25052 25053 25054 25055 25056 25057 25058 25059 25060 25061 25062 25063 25064 25065 25066 25067 25068 25069 25070 25071 25072 25073 25074 25075 25076 25077 25078 25079 25080 25081 25082 25083 25084 25085 25086 25087 25088 25089 25090 25091 25092 25093 25094 25095 25096 25097 25098 25099 25100 25101 25102 25103 25104 25105 25106 25107 25108 25109 25110 25111 25112 25113 25114 25115 25116 25117 25118 25119 25120 25121 25122 25123 25124 25125 25126 25127 25128 25129 25130 25131 25132 25133 25134 25135 25136 25137 25138 25139 25140 25141 25142 25143 25144 25145 25146 25147 25148 25149 25150 25151 25152 25153 25154 25155 25156 25157 25158 25159 25160 25161 25162 25163 25164 25165 25166 25167 25168 25169 25170 25171 25172 25173 25174 25175 25176 25177 25178 25179 25180 25181 25182 25183 25184 25185 25186 25187 25188 25189 25190 25191 25192 25193 25194 25195 25196 25197 25198 25199 25200 25201 25202 25203 25204 25205 25206 25207 25208 25209 25210 25211 25212 25213 25214 25215 25216 25217 25218 25219 25220 25221 25222 25223 25224 25225 25226 25227 25228 25229 25230 25231 25232 25233 25234 25235 25236 25237 25238 25239 25240 25241 25242 25243 25244 25245 25246 25247 25248 25249 25250 25251 25252 25253 25254 25255 25256 25257 25258 25259 25260 25261 25262 25263 25264 25265 25266 25267 25268 25269 25270 25271 25272 25273 25274 25275 25276 25277 25278 25279 25280 25281 25282 25283 25284 25285 25286 25287 25288 25289 25290 25291 25292 25293 25294 25295 25296 25297 25298 25299 25300 25301 25302 25303 25304 25305 25306 25307 25308 25309 25310 25311 25312 25313 25314 25315 25316 25317 25318 25319 25320 25321 25322 25323 25324 25325 25326 25327 25328 25329 25330 25331 25332 25333 25334 25335 25336 25337 25338 25339 25340 25341 25342 25343 25344 25345 25346 25347 25348 25349 25350 25351 25352 25353 25354 25355 25356 25357 25358 25359 25360 25361 25362 25363 25364 25365 25366 25367 25368 25369 25370 25371 25372 25373 25374 25375 25376 25377 25378 25379 25380 25381 25382 25383 25384 25385 25386 25387 25388 25389 25390 25391 25392 25393 25394 25395 25396 25397 25398 25399 25400 25401 25402 25403 25404 25405 25406 25407 25408 25409 25410 25411 25412 25413 25414 25415 25416 25417 25418 25419 25420 25421 25422 25423 25424 25425 25426 25427 25428 25429 25430 25431 25432 25433 25434 25435 25436 25437 25438 25439 25440 25441 25442 25443 25444 25445 25446 25447 25448 25449 25450 25451 25452 25453 25454 25455 25456 25457 25458 25459 25460 25461 25462 25463 25464 25465 25466 25467 25468 25469 25470 25471 25472 25473 25474 25475 25476 25477 25478 25479 25480 25481 25482 25483 25484 25485 25486 25487 25488 25489 25490 25491 25492 25493 25494 25495 25496 25497 25498 25499 25500 25501 25502 25503 25504 25505 25506 25507 25508 25509 25510 25511 25512 25513 25514 25515 25516 25517 25518 25519 25520 25521 25522 25523 25524 25525 25526 25527 25528 25529 25530 25531 25532 25533 25534 25535 25536 25537 25538 25539 25540 25541 25542 25543 25544 25545 25546 25547 25548 25549 25550 25551 25552 25553 25554 25555 25556 25557 25558 25559 25560 25561 25562 25563 25564 25565 25566 25567 25568 25569 25570 25571 25572 25573 25574 25575 25576 25577 25578 25579 25580 25581 25582 25583 25584 25585 25586 25587 25588 25589 25590 25591 25592 25593 25594 25595 25596 25597 25598 25599 25600 25601 25602 25603 25604 25605 25606 25607 25608 25609 25610 25611 25612 25613 25614 25615 25616 25617 25618 25619 25620 25621 25622 25623 25624 25625 25626 25627 25628 25629 25630 25631 25632 25633 25634 25635 25636 25637 25638 25639 25640 25641 25642 25643 25644 25645 25646 25647 25648 25649 25650 25651 25652 25653 25654 25655 25656 25657 25658 25659 25660 25661 25662 25663 25664 25665 25666 25667 25668 25669 25670 25671 25672 25673 25674 25675 25676 25677 25678 25679 25680 25681 25682 25683 25684 25685 25686 25687 25688 25689 25690 25691 25692 25693 25694 25695 25696 25697 25698 25699 25700 25701 25702 25703 25704 25705 25706 25707 25708 25709 25710 25711 25712 25713 25714 25715 25716 25717 25718 25719 25720 25721 25722 25723 25724 25725 25726 25727 25728 25729 25730 25731 25732 25733 25734 25735 25736 25737 25738 25739 25740 25741 25742 25743 25744 25745 25746 25747 25748 25749 25750 25751 25752 25753 25754 25755 25756 25757 25758 25759 25760 25761 25762 25763 25764 25765 25766 25767 25768 25769 25770 25771 25772 25773 25774 25775 25776 25777 25778 25779 25780 25781 25782 25783 25784 25785 25786 25787 25788 25789 25790 25791 25792 25793 25794 25795 25796 25797 25798 25799 25800 25801 25802 25803 25804 25805 25806 25807 25808 25809 25810 25811 25812 25813 25814 25815 25816 25817 25818 25819 25820 25821 25822 25823 25824 25825 25826 25827 25828 25829 25830 25831 25832 25833 25834 25835 25836 25837 25838 25839 25840 25841 25842 25843 25844 25845 25846 25847 25848 25849 25850 25851 25852 25853 25854 25855 25856 25857 25858 25859 25860 25861 25862 25863 25864 25865 25866 25867 25868 25869 25870 25871 25872 25873 25874 25875 25876 25877 25878 25879 25880 25881 25882 25883 25884 25885 25886 25887 25888 25889 25890 25891 25892 25893 25894 25895 25896 25897 25898 25899 25900 25901 25902 25903 25904 25905 25906 25907 25908 25909 25910 25911 25912 25913 25914 25915 25916 25917 25918 25919 25920 25921 25922 25923 25924 25925 25926 25927 25928 25929 25930 25931 25932 25933 25934 25935 25936 25937 25938 25939 25940 25941 25942 25943 25944 25945 25946 25947 25948 25949 25950 25951 25952 25953 25954 25955 25956 25957 25958 25959 25960 25961 25962 25963 25964 25965 25966 25967 25968 25969 25970 25971 25972 25973 25974 25975 25976 25977 25978 25979 25980 25981 25982 25983 25984 25985 25986 25987 25988 25989 25990 25991 25992 25993 25994 25995 25996 25997 25998 25999 26000 26001 26002 26003 26004 26005 26006 26007 26008 26009 26010 26011 26012 26013 26014 26015 26016 26017 26018 26019 26020 26021 26022 26023 26024 26025 26026 26027 26028 26029 26030 26031 26032 26033 26034 26035 26036 26037 26038 26039 26040 26041 26042 26043 26044 26045 26046 26047 26048 26049 26050 26051 26052 26053 26054 26055 26056 26057 26058 26059 26060 26061 26062 26063 26064 26065 26066 26067 26068 26069 26070 26071 26072 26073 26074 26075 26076 26077 26078 26079 26080 26081 26082 26083 26084 26085 26086 26087 26088 26089 26090 26091 26092 26093 26094 26095 26096 26097 26098 26099 26100 26101 26102 26103 26104 26105 26106 26107 26108 26109 26110 26111 26112 26113 26114 26115 26116 26117 26118 26119 26120 26121 26122 26123 26124 26125 26126 26127 26128 26129 26130 26131 26132 26133 26134 26135 26136 26137 26138 26139 26140 26141 26142 26143 26144 26145 26146 26147 26148 26149 26150 26151 26152 26153 26154 26155 26156 26157 26158 26159 26160 26161 26162 26163 26164 26165 26166 26167 26168 26169 26170 26171 26172 26173 26174 26175 26176 26177 26178 26179 26180 26181 26182 26183 26184 26185 26186 26187 26188 26189 26190 26191 26192 26193 26194 26195 26196 26197 26198 26199 26200 26201 26202 26203 26204 26205 26206 26207 26208 26209 26210 26211 26212 26213 26214 26215 26216 26217 26218 26219 26220 26221 26222 26223 26224 26225 26226 26227 26228 26229 26230 26231 26232 26233 26234 26235 26236 26237 26238 26239 26240 26241 26242 26243 26244 26245 26246 26247 26248 26249 26250 26251 26252 26253 26254 26255 26256 26257 26258 26259 26260 26261 26262 26263 26264 26265 26266 26267 26268 26269 26270 26271 26272 26273 26274 26275 26276 26277 26278 26279 26280 26281 26282 26283 26284 26285 26286 26287 26288 26289 26290 26291 26292 26293 26294 26295 26296 26297 26298 26299 26300 26301 26302 26303 26304 26305 26306 26307 26308 26309 26310 26311 26312 26313 26314 26315 26316 26317 26318 26319 26320 26321 26322 26323 26324 26325 26326 26327 26328 26329 26330 26331 26332 26333 26334 26335 26336 26337 26338 26339 26340 26341 26342 26343 26344 26345 26346 26347 26348 26349 26350 26351 26352 26353 26354 26355 26356 26357 26358 26359 26360 26361 26362 26363 26364 26365 26366 26367 26368 26369 26370 26371 26372 26373 26374 26375 26376 26377 26378 26379 26380 26381 26382 26383 26384 26385 26386 26387 26388 26389 26390 26391 26392 26393 26394 26395 26396 26397 26398 26399 26400 26401 26402 26403 26404 26405 26406 26407 26408 26409 26410 26411 26412 26413 26414 26415 26416 26417 26418 26419 26420 26421 26422 26423 26424 26425 26426 26427 26428 26429 26430 26431 26432 26433 26434 26435 26436 26437 26438 26439 26440 26441 26442 26443 26444 26445 26446 26447 26448 26449 26450 26451 26452 26453 26454 26455 26456 26457 26458 26459 26460 26461 26462 26463 26464 26465 26466 26467 26468 26469 26470 26471 26472 26473 26474 26475 26476 26477 26478 26479 26480 26481 26482 26483 26484 26485 26486 26487 26488 26489 26490 26491 26492 26493 26494 26495 26496 26497 26498 26499 26500 26501 26502 26503 26504 26505 26506 26507 26508 26509 26510 26511 26512 26513 26514 26515 26516 26517 26518 26519 26520 26521 26522 26523 26524 26525 26526 26527 26528 26529 26530 26531 26532 26533 26534 26535 26536 26537 26538 26539 26540 26541 26542 26543 26544 26545 26546 26547 26548 26549 26550 26551 26552 26553 26554 26555 26556 26557 26558 26559 26560 26561 26562 26563 26564 26565 26566 26567 26568 26569 26570 26571 26572 26573 26574 26575 26576 26577 26578 26579 26580 26581 26582 26583 26584 26585 26586 26587 26588 26589 26590 26591 26592 26593 26594 26595 26596 26597 26598 26599 26600 26601 26602 26603 26604 26605 26606 26607 26608 26609 26610 26611 26612 26613 26614 26615 26616 26617 26618 26619 26620 26621 26622 26623 26624 26625 26626 26627 26628 26629 26630 26631 26632 26633 26634 26635 26636 26637 26638 26639 26640 26641 26642 26643 26644 26645 26646 26647 26648 26649 26650 26651 26652 26653 26654 26655 26656 26657 26658 26659 26660 26661 26662 26663 26664 26665 26666 26667 26668 26669 26670 26671 26672 26673 26674 26675 26676 26677 26678 26679 26680 26681 26682 26683 26684 26685 26686 26687 26688 26689 26690 26691 26692 26693 26694 26695 26696 26697 26698 26699 26700 26701 26702 26703 26704 26705 26706 26707 26708 26709 26710 26711 26712 26713 26714 26715 26716 26717 26718 26719 26720 26721 26722 26723 26724 26725 26726 26727 26728 26729 26730 26731 26732 26733 26734 26735 26736 26737 26738 26739 26740 26741 26742 26743 26744 26745 26746 26747 26748 26749 26750 26751 26752 26753 26754 26755 26756 26757 26758 26759 26760 26761 26762 26763 26764 26765 26766 26767 26768 26769 26770 26771 26772 26773 26774 26775 26776 26777 26778 26779 26780 26781 26782 26783 26784 26785 26786 26787 26788 26789 26790 26791 26792 26793 26794 26795 26796 26797 26798 26799 26800 26801 26802 26803 26804 26805 26806 26807 26808 26809 26810 26811 26812 26813 26814 26815 26816 26817 26818 26819 26820 26821 26822 26823 26824 26825 26826 26827 26828 26829 26830 26831 26832 26833 26834 26835 26836 26837 26838 26839 26840 26841 26842 26843 26844 26845 26846 26847 26848 26849 26850 26851 26852 26853 26854 26855 26856 26857 26858 26859 26860 26861 26862 26863 26864 26865 26866 26867 26868 26869 26870 26871 26872 26873 26874 26875 26876 26877 26878 26879 26880 26881 26882 26883 26884 26885 26886 26887 26888 26889 26890 26891 26892 26893 26894 26895 26896 26897 26898 26899 26900 26901 26902 26903 26904 26905 26906 26907 26908 26909 26910 26911 26912 26913 26914 26915 26916 26917 26918 26919 26920 26921 26922 26923 26924 26925 26926 26927 26928 26929 26930 26931 26932 26933 26934 26935 26936 26937 26938 26939 26940 26941 26942 26943 26944 26945 26946 26947 26948 26949 26950 26951 26952 26953 26954 26955 26956 26957 26958 26959 26960 26961 26962 26963 26964 26965 26966 26967 26968 26969 26970 26971 26972 26973 26974 26975 26976 26977 26978 26979 26980 26981 26982 26983 26984 26985 26986 26987 26988 26989 26990 26991 26992 26993 26994 26995 26996 26997 26998 26999 27000 27001 27002 27003 27004 27005 27006 27007 27008 27009 27010 27011 27012 27013 27014 27015 27016 27017 27018 27019 27020 27021 27022 27023 27024 27025 27026 27027 27028 27029 27030 27031 27032 27033 27034 27035 27036 27037 27038 27039 27040 27041 27042 27043 27044 27045 27046 27047 27048 27049 27050 27051 27052 27053 27054 27055 27056 27057 27058 27059 27060 27061 27062 27063 27064 27065 27066 27067 27068 27069 27070 27071 27072 27073 27074 27075 27076 27077 27078 27079 27080 27081 27082 27083 27084 27085 27086 27087 27088 27089 27090 27091 27092 27093 27094 27095 27096 27097 27098 27099 27100 27101 27102 27103 27104 27105 27106 27107 27108 27109 27110 27111 27112 27113 27114 27115 27116 27117 27118 27119 27120 27121 27122 27123 27124 27125 27126 27127 27128 27129 27130 27131 27132 27133 27134 27135 27136 27137 27138 27139 27140 27141 27142 27143 27144 27145 27146 27147 27148 27149 27150 27151 27152 27153 27154 27155 27156 27157 27158 27159 27160 27161 27162 27163 27164 27165 27166 27167 27168 27169 27170 27171 27172 27173 27174 27175 27176 27177 27178 27179 27180 27181 27182 27183 27184 27185 27186 27187 27188 27189 27190 27191 27192 27193 27194 27195 27196 27197 27198 27199 27200 27201 27202 27203 27204 27205 27206 27207 27208 27209 27210 27211 27212 27213 27214 27215 27216 27217 27218 27219 27220 27221 27222 27223 27224 27225 27226 27227 27228 27229 27230 27231 27232 27233 27234 27235 27236 27237 27238 27239 27240 27241 27242 27243 27244 27245 27246 27247 27248 27249 27250 27251 27252 27253 27254 27255 27256 27257 27258 27259 27260 27261 27262 27263 27264 27265 27266 27267 27268 27269 27270 27271 27272 27273 27274 27275 27276 27277 27278 27279 27280 27281 27282 27283 27284 27285 27286 27287 27288 27289 27290 27291 27292 27293 27294 27295 27296 27297 27298 27299 27300 27301 27302 27303 27304 27305 27306 27307 27308 27309 27310 27311 27312 27313 27314 27315 27316 27317 27318 27319 27320 27321 27322 27323 27324 27325 27326 27327 27328 27329 27330 27331 27332 27333 27334 27335 27336 27337 27338 27339 27340 27341 27342 27343 27344 27345 27346 27347 27348 27349 27350 27351 27352 27353 27354 27355 27356 27357 27358 27359 27360 27361 27362 27363 27364 27365 27366 27367 27368 27369 27370 27371 27372 27373 27374 27375 27376 27377 27378 27379 27380 27381 27382 27383 27384 27385 27386 27387 27388 27389 27390 27391 27392 27393 27394 27395 27396 27397 27398 27399 27400 27401 27402 27403 27404 27405 27406 27407 27408 27409 27410 27411 27412 27413 27414 27415 27416 27417 27418 27419 27420 27421 27422 27423 27424 27425 27426 27427 27428 27429 27430 27431 27432 27433 27434 27435 27436 27437 27438 27439 27440 27441 27442 27443 27444 27445 27446 27447 27448 27449 27450 27451 27452 27453 27454 27455 27456 27457 27458 27459 27460 27461 27462 27463 27464 27465 27466 27467 27468 27469 27470 27471 27472 27473 27474 27475 27476 27477 27478 27479 27480 27481 27482 27483 27484 27485 27486 27487 27488 27489 27490 27491 27492 27493 27494 27495 27496 27497 27498 27499 27500 27501 27502 27503 27504 27505 27506 27507 27508 27509 27510 27511 27512 27513 27514 27515 27516 27517 27518 27519 27520 27521 27522 27523 27524 27525 27526 27527 27528 27529 27530 27531 27532 27533 27534 27535 27536 27537 27538 27539 27540 27541 27542 27543 27544 27545 27546 27547 27548 27549 27550 27551 27552 27553 27554 27555 27556 27557 27558 27559 27560 27561 27562 27563 27564 27565 27566 27567 27568 27569 27570 27571 27572 27573 27574 27575 27576 27577 27578 27579 27580 27581 27582 27583 27584 27585 27586 27587 27588 27589 27590 27591 27592 27593 27594 27595 27596 27597 27598 27599 27600 27601 27602 27603 27604 27605 27606 27607 27608 27609 27610 27611 27612 27613 27614 27615 27616 27617 27618 27619 27620 27621 27622 27623 27624 27625 27626 27627 27628 27629 27630 27631 27632 27633 27634 27635 27636 27637 27638 27639 27640 27641 27642 27643 27644 27645 27646 27647 27648 27649 27650 27651 27652 27653 27654 27655 27656 27657 27658 27659 27660 27661 27662 27663 27664 27665 27666 27667 27668 27669 27670 27671 27672 27673 27674 27675 27676 27677 27678 27679 27680 27681 27682 27683 27684 27685 27686 27687 27688 27689 27690 27691 27692 27693 27694 27695 27696 27697 27698 27699 27700 27701 27702 27703 27704 27705 27706 27707 27708 27709 27710 27711 27712 27713 27714 27715 27716 27717 27718 27719 27720 27721 27722 27723 27724 27725 27726 27727 27728 27729 27730 27731 27732 27733 27734 27735 27736 27737 27738 27739 27740 27741 27742 27743 27744 27745 27746 27747 27748 27749 27750 27751 27752 27753 27754 27755 27756 27757 27758 27759 27760 27761 27762 27763 27764 27765 27766 27767 27768 27769 27770 27771 27772 27773 27774 27775 27776 27777 27778 27779 27780 27781 27782 27783 27784 27785 27786 27787 27788 27789 27790 27791 27792 27793 27794 27795 27796 27797 27798 27799 27800 27801 27802 27803 27804 27805 27806 27807 27808 27809 27810 27811 27812 27813 27814 27815 27816 27817 27818 27819 27820 27821 27822 27823 27824 27825 27826 27827 27828 27829 27830 27831 27832 27833 27834 27835 27836 27837 27838 27839 27840 27841 27842 27843 27844 27845 27846 27847 27848 27849 27850 27851 27852 27853 27854 27855 27856 27857 27858 27859 27860 27861 27862 27863 27864 27865 27866 27867 27868 27869 27870 27871 27872 27873 27874 27875 27876 27877 27878 27879 27880 27881 27882 27883 27884 27885 27886 27887 27888 27889 27890 27891 27892 27893 27894 27895 27896 27897 27898 27899 27900 27901 27902 27903 27904 27905 27906 27907 27908 27909 27910 27911 27912 27913 27914 27915 27916 27917 27918 27919 27920 27921 27922 27923 27924 27925 27926 27927 27928 27929 27930 27931 27932 27933 27934 27935 27936 27937 27938 27939 27940 27941 27942 27943 27944 27945 27946 27947 27948 27949 27950 27951 27952 27953 27954 27955 27956 27957 27958 27959 27960 27961 27962 27963 27964 27965 27966 27967 27968 27969 27970 27971 27972 27973 27974 27975 27976 27977 27978 27979 27980 27981 27982 27983 27984 27985 27986 27987 27988 27989 27990 27991 27992 27993 27994 27995 27996 27997 27998 27999 28000 28001 28002 28003 28004 28005 28006 28007 28008 28009 28010 28011 28012 28013 28014 28015 28016 28017 28018 28019 28020 28021 28022 28023 28024 28025 28026 28027 28028 28029 28030 28031 28032 28033 28034 28035 28036 28037 28038 28039 28040 28041 28042 28043 28044 28045 28046 28047 28048 28049 28050 28051 28052 28053 28054 28055 28056 28057 28058 28059 28060 28061 28062 28063 28064 28065 28066 28067 28068 28069 28070 28071 28072 28073 28074 28075 28076 28077 28078 28079 28080 28081 28082 28083 28084 28085 28086 28087 28088 28089 28090 28091 28092 28093 28094 28095 28096 28097 28098 28099 28100 28101 28102 28103 28104 28105 28106 28107 28108 28109 28110 28111 28112 28113 28114 28115 28116 28117 28118 28119 28120 28121 28122 28123 28124 28125 28126 28127 28128 28129 28130 28131 28132 28133 28134 28135 28136 28137 28138 28139 28140 28141 28142 28143 28144 28145 28146 28147 28148 28149 28150 28151 28152 28153 28154 28155 28156 28157 28158 28159 28160 28161 28162 28163 28164 28165 28166 28167 28168 28169 28170 28171 28172 28173 28174 28175 28176 28177 28178 28179 28180 28181 28182 28183 28184 28185 28186 28187 28188 28189 28190 28191 28192 28193 28194 28195 28196 28197 28198 28199 28200 28201 28202 28203 28204 28205 28206 28207 28208 28209 28210 28211 28212 28213 28214 28215 28216 28217 28218 28219 28220 28221 28222 28223 28224 28225 28226 28227 28228 28229 28230 28231 28232 28233 28234 28235 28236 28237 28238 28239 28240 28241 28242 28243 28244 28245 28246 28247 28248 28249 28250 28251 28252 28253 28254 28255 28256 28257 28258 28259 28260 28261 28262 28263 28264 28265 28266 28267 28268 28269 28270 28271 28272 28273 28274 28275 28276 28277 28278 28279 28280 28281 28282 28283 28284 28285 28286 28287 28288 28289 28290 28291 28292 28293 28294 28295 28296 28297 28298 28299 28300 28301 28302 28303 28304 28305 28306 28307 28308 28309 28310 28311 28312 28313 28314 28315 28316 28317 28318 28319 28320 28321 28322 28323 28324 28325 28326 28327 28328 28329 28330 28331 28332 28333 28334 28335 28336 28337 28338 28339 28340 28341 28342 28343 28344 28345 28346 28347 28348 28349 28350 28351 28352 28353 28354 28355 28356 28357 28358 28359 28360 28361 28362 28363 28364 28365 28366 28367 28368 28369 28370 28371 28372 28373 28374 28375 28376 28377 28378 28379 28380 28381 28382 28383 28384 28385 28386 28387 28388 28389 28390 28391 28392 28393 28394 28395 28396 28397 28398 28399 28400 28401 28402 28403 28404 28405 28406 28407 28408 28409 28410 28411 28412 28413 28414 28415 28416 28417 28418 28419 28420 28421 28422 28423 28424 28425 28426 28427 28428 28429 28430 28431 28432 28433 28434 28435 28436 28437 28438 28439 28440 28441 28442 28443 28444 28445 28446 28447 28448 28449 28450 28451 28452 28453 28454 28455 28456 28457 28458 28459 28460 28461 28462 28463 28464 28465 28466 28467 28468 28469 28470 28471 28472 28473 28474 28475 28476 28477 28478 28479 28480 28481 28482 28483 28484 28485 28486 28487 28488 28489 28490 28491 28492 28493 28494 28495 28496 28497 28498 28499 28500 28501 28502 28503 28504 28505 28506 28507 28508 28509 28510 28511 28512 28513 28514 28515 28516 28517 28518 28519 28520 28521 28522 28523 28524 28525 28526 28527 28528 28529 28530 28531 28532 28533 28534 28535 28536 28537 28538 28539 28540 28541 28542 28543 28544 28545 28546 28547 28548 28549 28550 28551 28552 28553 28554 28555 28556 28557 28558 28559 28560 28561 28562 28563 28564 28565 28566 28567 28568 28569 28570 28571 28572 28573 28574 28575 28576 28577 28578 28579 28580 28581 28582 28583 28584 28585 28586 28587 28588 28589 28590 28591 28592 28593 28594 28595 28596 28597 28598 28599 28600 28601 28602 28603 28604 28605 28606 28607 28608 28609 28610 28611 28612 28613 28614 28615 28616 28617 28618 28619 28620 28621 28622 28623 28624 28625 28626 28627 28628 28629 28630 28631 28632 28633 28634 28635 28636 28637 28638 28639 28640 28641 28642 28643 28644 28645 28646 28647 28648 28649 28650 28651 28652 28653 28654 28655 28656 28657 28658 28659 28660 28661 28662 28663 28664 28665 28666 28667 28668 28669 28670 28671 28672 28673 28674 28675 28676 28677 28678 28679 28680 28681 28682 28683 28684 28685 28686 28687 28688 28689 28690 28691 28692 28693 28694 28695 28696 28697 28698 28699 28700 28701 28702 28703 28704 28705 28706 28707 28708 28709 28710 28711 28712 28713 28714 28715 28716 28717 28718 28719 28720 28721 28722 28723 28724 28725 28726 28727 28728 28729 28730 28731 28732 28733 28734 28735 28736 28737 28738 28739 28740 28741 28742 28743 28744 28745 28746 28747 28748 28749 28750 28751 28752 28753 28754 28755 28756 28757 28758 28759 28760 28761 28762 28763 28764 28765 28766 28767 28768 28769 28770 28771 28772 28773 28774 28775 28776 28777 28778 28779 28780 28781 28782 28783 28784 28785 28786 28787 28788 28789 28790 28791 28792 28793 28794 28795 28796 28797 28798 28799 28800 28801 28802 28803 28804 28805 28806 28807 28808 28809 28810 28811 28812 28813 28814 28815 28816 28817 28818 28819 28820 28821 28822 28823 28824 28825 28826 28827 28828 28829 28830 28831 28832 28833 28834 28835 28836 28837 28838 28839 28840 28841 28842 28843 28844 28845 28846 28847 28848 28849 28850 28851 28852 28853 28854 28855 28856 28857 28858 28859 28860 28861 28862 28863 28864 28865 28866 28867 28868 28869 28870 28871 28872 28873 28874 28875 28876 28877 28878 28879 28880 28881 28882 28883 28884 28885 28886 28887 28888 28889 28890 28891 28892 28893 28894 28895 28896 28897 28898 28899 28900 28901 28902 28903 28904 28905 28906 28907 28908 28909 28910 28911 28912 28913 28914 28915 28916 28917 28918 28919 28920 28921 28922 28923 28924 28925 28926 28927 28928 28929 28930 28931 28932 28933 28934 28935 28936 28937 28938 28939 28940 28941 28942 28943 28944 28945 28946 28947 28948 28949 28950 28951 28952 28953 28954 28955 28956 28957 28958 28959 28960 28961 28962 28963 28964 28965 28966 28967 28968 28969 28970 28971 28972 28973 28974 28975 28976 28977 28978 28979 28980 28981 28982 28983 28984 28985 28986 28987 28988 28989 28990 28991 28992 28993 28994 28995 28996 28997 28998 28999 29000 29001 29002 29003 29004 29005 29006 29007 29008 29009 29010 29011 29012 29013 29014 29015 29016 29017 29018 29019 29020 29021 29022 29023 29024 29025 29026 29027 29028 29029 29030 29031 29032 29033 29034 29035 29036 29037 29038 29039 29040 29041 29042 29043 29044 29045 29046 29047 29048 29049 29050 29051 29052 29053 29054 29055 29056 29057 29058 29059 29060 29061 29062 29063 29064 29065 29066 29067 29068 29069 29070 29071 29072 29073 29074 29075 29076 29077 29078 29079 29080 29081 29082 29083 29084 29085 29086 29087 29088 29089 29090 29091 29092 29093 29094 29095 29096 29097 29098 29099 29100 29101 29102 29103 29104 29105 29106 29107 29108 29109 29110 29111 29112 29113 29114 29115 29116 29117 29118 29119 29120 29121 29122 29123 29124 29125 29126 29127 29128 29129 29130 29131 29132 29133 29134 29135 29136 29137 29138 29139 29140 29141 29142 29143 29144 29145 29146 29147 29148 29149 29150 29151 29152 29153 29154 29155 29156 29157 29158 29159 29160 29161 29162 29163 29164 29165 29166 29167 29168 29169 29170 29171 29172 29173 29174 29175 29176 29177 29178 29179 29180 29181 29182 29183 29184 29185 29186 29187 29188 29189 29190 29191 29192 29193 29194 29195 29196 29197 29198 29199 29200 29201 29202 29203 29204 29205 29206 29207 29208 29209 29210 29211 29212 29213 29214 29215 29216 29217 29218 29219 29220 29221 29222 29223 29224 29225 29226 29227 29228 29229 29230 29231 29232 29233 29234 29235 29236 29237 29238 29239 29240 29241 29242 29243 29244 29245 29246 29247 29248 29249 29250 29251 29252 29253 29254 29255 29256 29257 29258 29259 29260 29261 29262 29263 29264 29265 29266 29267 29268 29269 29270 29271 29272 29273 29274 29275 29276 29277 29278 29279 29280 29281 29282 29283 29284 29285 29286 29287 29288 29289 29290 29291 29292 29293 29294 29295 29296 29297 29298 29299 29300 29301 29302 29303 29304 29305 29306 29307 29308 29309 29310 29311 29312 29313 29314 29315 29316 29317 29318 29319 29320 29321 29322 29323 29324 29325 29326 29327 29328 29329 29330 29331 29332 29333 29334 29335 29336 29337 29338 29339 29340 29341 29342 29343 29344 29345 29346 29347 29348 29349 29350 29351 29352 29353 29354 29355 29356 29357 29358 29359 29360 29361 29362 29363 29364 29365 29366 29367 29368 29369 29370 29371 29372 29373 29374 29375 29376 29377 29378 29379 29380 29381 29382 29383 29384 29385 29386 29387 29388 29389 29390 29391 29392 29393 29394 29395 29396 29397 29398 29399 29400 29401 29402 29403 29404 29405 29406 29407 29408 29409 29410 29411 29412 29413 29414 29415 29416 29417 29418 29419 29420 29421 29422 29423 29424 29425 29426 29427 29428 29429 29430 29431 29432 29433 29434 29435 29436 29437 29438 29439 29440 29441 29442 29443 29444 29445 29446 29447 29448 29449 29450 29451 29452 29453 29454 29455 29456 29457 29458 29459 29460 29461 29462 29463 29464 29465 29466 29467 29468 29469 29470 29471 29472 29473 29474 29475 29476 29477 29478 29479 29480 29481 29482 29483 29484 29485 29486 29487 29488 29489 29490 29491 29492 29493 29494 29495 29496 29497 29498 29499 29500 29501 29502 29503 29504 29505 29506 29507 29508 29509 29510 29511 29512 29513 29514 29515 29516 29517 29518 29519 29520 29521 29522 29523 29524 29525 29526 29527 29528 29529 29530 29531 29532 29533 29534 29535 29536 29537 29538 29539 29540 29541 29542 29543 29544 29545 29546 29547 29548 29549 29550 29551 29552 29553 29554 29555 29556 29557 29558 29559 29560 29561 29562 29563 29564 29565 29566 29567 29568 29569 29570 29571 29572 29573 29574 29575 29576 29577 29578 29579 29580 29581 29582 29583 29584 29585 29586 29587 29588 29589 29590 29591 29592 29593 29594 29595 29596 29597 29598 29599 29600 29601 29602 29603 29604 29605 29606 29607 29608 29609 29610 29611 29612 29613 29614 29615 29616 29617 29618 29619 29620 29621 29622 29623 29624 29625 29626 29627 29628 29629 29630 29631 29632 29633 29634 29635 29636 29637 29638 29639 29640 29641 29642 29643 29644 29645 29646 29647 29648 29649 29650 29651 29652 29653 29654 29655 29656 29657 29658 29659 29660 29661 29662 29663 29664 29665 29666 29667 29668 29669 29670 29671 29672 29673 29674 29675 29676 29677 29678 29679 29680 29681 29682 29683 29684 29685 29686 29687 29688 29689 29690 29691 29692 29693 29694 29695 29696 29697 29698 29699 29700 29701 29702 29703 29704 29705 29706 29707 29708 29709 29710 29711 29712 29713 29714 29715 29716 29717 29718 29719 29720 29721 29722 29723 29724 29725 29726 29727 29728 29729 29730 29731 29732 29733 29734 29735 29736 29737 29738 29739 29740 29741 29742 29743 29744 29745 29746 29747 29748 29749 29750 29751 29752 29753 29754 29755 29756 29757 29758 29759 29760 29761 29762 29763 29764 29765 29766 29767 29768 29769 29770 29771 29772 29773 29774 29775 29776 29777 29778 29779 29780 29781 29782 29783 29784 29785 29786 29787 29788 29789 29790 29791 29792 29793 29794 29795 29796 29797 29798 29799 29800 29801 29802 29803 29804 29805 29806 29807 29808 29809 29810 29811 29812 29813 29814 29815 29816 29817 29818 29819 29820 29821 29822 29823 29824 29825 29826 29827 29828 29829 29830 29831 29832 29833 29834 29835 29836 29837 29838 29839 29840 29841 29842 29843 29844 29845 29846 29847 29848 29849 29850 29851 29852 29853 29854 29855 29856 29857 29858 29859 29860 29861 29862 29863 29864 29865 29866 29867 29868 29869 29870 29871 29872 29873 29874 29875 29876 29877 29878 29879 29880 29881 29882 29883 29884 29885 29886 29887 29888 29889 29890 29891 29892 29893 29894 29895 29896 29897 29898 29899 29900 29901 29902 29903 29904 29905 29906 29907 29908 29909 29910 29911 29912 29913 29914 29915 29916 29917 29918 29919 29920 29921 29922 29923 29924 29925 29926 29927 29928 29929 29930 29931 29932 29933 29934 29935 29936 29937 29938 29939 29940 29941 29942 29943 29944 29945 29946 29947 29948 29949 29950 29951 29952 29953 29954 29955 29956 29957 29958 29959 29960 29961 29962 29963 29964 29965 29966 29967 29968 29969 29970 29971 29972 29973 29974 29975 29976 29977 29978 29979 29980 29981 29982 29983 29984 29985 29986 29987 29988 29989 29990 29991 29992 29993 29994 29995 29996 29997 29998 29999 30000 30001 30002 30003 30004 30005 30006 30007 30008 30009 30010 30011 30012 30013 30014 30015 30016 30017 30018 30019 30020 30021 30022 30023 30024 30025 30026 30027 30028 30029 30030 30031 30032 30033 30034 30035 30036 30037 30038 30039 30040 30041 30042 30043 30044 30045 30046 30047 30048 30049 30050 30051 30052 30053 30054 30055 30056 30057 30058 30059 30060 30061 30062 30063 30064 30065 30066 30067 30068 30069 30070 30071 30072 30073 30074 30075 30076 30077 30078 30079 30080 30081 30082 30083 30084 30085 30086 30087 30088 30089 30090 30091 30092 30093 30094 
</DataArray>
<DataArray type="UInt32" Name="offsets" format="ascii">
3 6 9 12 15 18 21 23 26 29 31 34 37 39 42 45 47 50 52 54 57 59 62 65 68 71 74 77 80 83 86 89 92 95 98 101 103 106 108 111 114 117 120 123 126 129 132 135 137 140 143 145 148 151 154 157 160 163 166 169 171 174 177 180 182 185 188 191 193 196 199 201 204 207 209 212 215 218 221 223 226 229 232 235 238 241 244 247 250 253 256 258 261 264 266 269 272 275 278 281 284 286 289 292 295 298 301 304 307 310 312 315 318 321 324 327 330 332 335 338 341 344 347 350 353 356 359 362 364 367 370 373 376 379 382 385 388 391 394 397 400 403 406 409 412 415 418 421 424 427 430 433 436 439 442 444 447 450 452 454 457 460 463 466 469 472 475 478 481 484 487 490 493 496 499 502 505 508 511 514 517 520 523 526 529 532 535 538 541 544 547 549 552 555 557 560 563 566 569 572 575 578 580 583 586 589 591 594 597 600 603 606 609 611 614 617 620 623 626 629 632 635 638 641 644 647 650 653 656 659 662 665 668 671 674 677 680 683 685 688 691 694 697 700 703 706 709 712 715 717 720 723 725 728 731 734 737 740 743 746 748 751 754 756 759 762 765 768 771 774 777 780 783 786 789 792 795 798 801 804 807 810 813 816 819 822 825 828 831 834 837 840 843 846 849 851 854 857 860 862 865 868 871 874 877 880 883 886 889 892 895 898 901 904 907 910 913 916 919 922 925 928 931 934 937 940 943 946 948 950 953 956 959 962 965 968 971 974 977 980 982 985 988 991 993 996 999 1002 1005 1007 1010 1013 1016 1018 1021 1024 1027 1030 1033 1036 1039 1042 1044 1047 1050 1053 1056 1058 1061 1064 1067 1070 1072 1074 1077 1080 1082 1085 1088 1091 1094 1097 1100 1103 1106 1109 1112 1115 1117 1120 1123 1125 1127 1130 1133 1136 1139 1141 1143 1146 1149 1152 1155 1158 1161 1164 1167 1170 1173 1176 1179 1181 1183 1186 1189 1192 1195 1198 1200 1203 1206 1209 1211 1214 1217 1220 1223 1226 1228 1231 1234 1237 1240 1243 1246 1249 1252 1255 1258 1261 1263 1266 1269 1271 1274 1277 1280 1283 1286 1289 1291 1294 1296 1299 1302 1304 1307 1310 1313 1316 1319 1322 1325 1328 1331 1333 1336 1339 1342 1345 1348 1351 1354 1357 1360 1363 1366 1369 1372 1375 1378 1381 1384 1387 1390 1392 1395 1398 1401 1404 1407 1410 1413 1416 1419 1422 1425 1428 1431 1434 1437 1440 1443 1445 1448 1451 1454 1457 1460 1463 1466 1468 1471 1473 1476 1479 1482 1484 1487 1490 1493 1496 1498 1500 1502 1505 1508 1511 1514 1516 1519 1522 1525 1528 1531 1534 1537 1540 1543 1546 1549 1552 1554 1557 1560 1562 1565 1568 1570 1573 1576 1579 1582 1585 1588 1591 1594 1597 1600 1603 1606 1609 1612 1615 1618 1621 1624 1627 1630 1633 1636 1639 1642 1645 1648 1651 1654 1656 1659 1662 1665 1667 1670 1673 1676 1678 1681 1684 1687 1690 1692 1695 1698 1700 1703 1706 1709 1712 1715 1718 1721 1724 1726 1728 1731 1734 1737 1739 1741 1743 1746 1749 1752 1755 1758 1760 1763 1766 1769 1772 1775 1778 1781 1784 1787 1790 1793 1796 1799 1802 1805 1808 1811 1814 1817 1820 1823 1826 1829 1832 1835 1838 1841 1844 1847 1850 1853 1856 1859 1862 1865 1868 1871 1874 1877 1880 1883 1886 1889 1892 1895 1898 1901 1904 1907 1910 1913 1916 1919 1922 1925 1928 1931 1934 1937 1940 1943 1946 1949 1952 1955 1958 1961 1964 1967 1970 1973 1976 1979 1982 1985 1988 1991 1994 1997 2000 2003 2006 2009 2012 2014 2017 2020 2023 2026 2029 2031 2034 2037 2040 2043 2046 2048 2051 2054 2057 2060 2063 2066 2068 2071 2073 2075 2078 2081 2084 2086 2089 2091 2094 2096 2099 2102 2104 2107 2110 2113 2116 2119 2122 2125 2128 2131 2134 2136 2139 2142 2145 2147 2149 2152 2155 2157 2160 2163 2166 2168 2171 2174 2177 2179 2182 2185 2188 2191 2194 2196 2199 2202 2205 2208 2210 2213 2216 2218 2220 2222 2225 2227 2230 2232 2235 2238 2240 2242 2245 2248 2251 2254 2257 2260 2263 2265 2268 2270 2273 2276 2279 2282 2285 2288 2291 2294 2296 2299 2302 2304 2307 2310 2313 2316 2319 2322 2325 2328 2331 2334 2336 2339 2342 2344 2347 2350 2353 2355 2358 2360 2363 2366 2369 2372 2375 2378 2380 2383 2386 2389 2392 2394 2397 2400 2403 2405 2408 2410 2412 2415 2418 2421 2424 2426 2429 2432 2435 2438 2441 2444 2447 2450 2453 2456 2459 2461 2464 2467 2470 2472 2475 2478 2481 2483 2486 2489 2492 2495 2498 2501 2504 2507 2510 2513 2516 2519 2522 2524 2527 2530 2533 2536 2538 2541 2544 2547 2550 2553 2555 2558 2561 2563 2566 2569 2571 2574 2577 2580 2582 2585 2588 2590 2592 2595 2598 2600 2603 2606 2609 2612 2615 2618 2621 2624 2627 2630 2632 2635 2637 2640 2643 2645 2648 2651 2653 2656 2659 2662 2665 2668 2671 2674 2676 2679 2682 2684 2687 2690 2693 2696 2699 2702 2705 2708 2711 2714 2717 2720 2723 2726 2729 2732 2735 2738 2741 2744 2747 2750 2753 2756 2758 2761 2764 2767 2770 2773 2776 2779 2782 2785 2788 2791 2793 2796 2799 2802 2805 2808 2811 2813 2816 2819 2822 2825 2828 2831 2834 2837 2840 2843 2846 2849 2851 2854 2857 2860 2863 2865 2868 2871 2874 2876 2879 2882 2884 2887 2890 2892 2895 2898 2901 2903 2906 2909 2912 2915 2918 2921 2924 2927 2930 2933 2936 2939 2942 2945 2948 2951 2954 2957 2960 2963 2966 2969 2972 2975 2978 2980 2983 2986 2989 2991 2994 2997 3000 3003 3005 3008 3011 3014 3017 3020 3023 3026 3029 3032 3035 3038 3040 3043 3046 3048 3051 3054 3057 3060 3062 3065 3068 3070 3073 3076 3079 3082 3085 3088 3091 3094 3097 3099 3102 3104 3107 3110 3113 3115 3118 3121 3124 3127 3130 3132 3135 3138 3141 3143 3146 3149 3152 3154 3157 3160 3162 3165 3168 3171 3174 3176 3179 3182 3184 3187 3190 3193 3196 3199 3202 3205 3208 3211 3214 3216 3218 3221 3224 3227 3230 3232 3235 3238 3241 3243 3246 3249 3252 3255 3258 3261 3264 3267 3270 3273 3276 3279 3282 3284 3287 3290 3292 3294 3297 3300 3303 3306 3308 3311 3314 3317 3320 3323 3326 3329 3332 3335 3338 3341 3344 3347 3350 3353 3356 3358 3361 3364 3366 3369 3372 3375 3377 3380 3382 3385 3387 3389 3392 3395 3398 3401 3403 3406 3409 3412 3415 3417 3420 3423 3426 3428 3430 3432 3435 3437 3440 3443 3445 3448 3450 3453 3456 3459 3462 3465 3467 3470 3472 3475 3478 3481 3483 3486 3489 3492 3495 3498 3501 3504 3507 3509 3512 3515 3517 3520 3522 3525 3528 3531 3534 3537 3540 3543 3546 3548 3550 3553 3555 3558 3561 3564 3567 3570 3573 3576 3579 3582 3585 3588 3591 3593 3595 3598 3601 3604 3607 3610 3613 3616 3619 3622 3625 3628 3631 3634 3637 3640 3642 3645 3647 3650 3653 3656 3658 3661 3664 3667 3670 3673 3676 3679 3682 3685 3688 3691 3694 3697 3700 3703 3706 3708 3711 3714 3717 3720 3723 3725 3728 3731 3734 3736 3739 3741 3744 3747 3750 3753 3756 3759 3762 3765 3768 3771 3774 3777 3780 3783 3786 3789 3792 3795 3798 3801 3804 3807 3810 3813 3816 3819 3822 3825 3828 3831 3834 3837 3840 3843 3846 3849 3852 3854 3857 3860 3863 3865 3868 3871 3874 3877 3880 3883 3886 3889 3892 3895 3897 3900 3903 3906 3909 3912 3915 3918 3921 3924 3927 3930 3933 3936 3939 3942 3945 3948 3951 3954 3957 3960 3963 3966 3968 3971 3974 3976 3979 3982 3985 3988 3991 3993 3996 3999 4001 4004 4007 4009 4012 4015 4017 4020 4023 4026 4029 4032 4034 4037 4040 4043 4046 4048 4051 4053 4056 4059 4062 4065 4067 4070 4072 4075 4078 4080 4082 4085 4088 4091 4094 4096 4099 4102 4105 4108 4111 4114 4117 4120 4123 4126 4128 4131 4134 4137 4140 4142 4145 4147 4149 4152 4154 4156 4159 4162 4165 4167 4170 4172 4175 4177 4180 4183 4186 4189 4192 4194 4196 4199 4202 4204 4207 4210 4212 4215 4218 4220 4223 4226 4229 4231 4234 4237 4239 4242 4245 4248 4250 4253 4256 4259 4262 4265 4268 4271 4274 4277 4279 4282 4285 4288 4291 4294 4296 4299 4302 4305 4307 4310 4313 4316 4319 4321 4324 4327 4330 4333 4335 4338 4341 4343 4345 4347 4350 4352 4354 4357 4359 4362 4365 4368 4370 4373 4376 4379 4382 4385 4387 4390 4393 4396 4399 4402 4405 4408 4411 4413 4416 4419 4422 4425 4428 4431 4434 4437 4439 4442 4445 4447 4449 4452 4455 4458 4461 4463 4466 4469 4472 4475 4478 4480 4483 4486 4489 4492 4495 4498 4500 4503 4506 4509 4511 4514 4517 4520 4523 4526 4529 4532 4535 4538 4541 4544 4547 4550 4553 4555 4558 4561 4564 4567 4569 4572 4575 4578 4581 4584 4587 4590 4593 4596 4598 4601 4604 4607 4609 4612 4615 4618 4621 4624 4626 4629 4632 4634 4637 4640 4643 4646 4649 4652 4654 4657 4660 4663 4666 4669 4672 4674 4677 4680 4683 4685 4688 4691 4694 4697 4700 4703 4706 4709 4712 4715 4717 4720 4723 4725 4728 4731 4734 4736 4739 4741 4744 4747 4750 4753 4756 4759 4762 4765 4768 4771 4774 4777 4779 4782 4784 4786 4789 4792 4794 4797 4800 4803 4805 4807 4810 4812 4815 4818 4821 4824 4827 4829 4832 4834 4836 4838 4841 4844 4847 4850 4853 4856 4858 4861 4864 4867 4870 4873 4875 4878 4881 4884 4887 4890 4893 4896 4899 4902 4905 4908 4910 4913 4916 4919 4922 4925 4928 4931 4934 4937 4940 4943 4946 4949 4952 4955 4958 4961 4964 4967 4970 4973 4976 4979 4982 4985 4988 4991 4994 4997 4999 5002 5005 5008 5011 5014 5017 5020 5023 5025 5028 5031 5034 5037 5040 5042 5045 5048 5051 5054 5057 5059 5062 5065 5068 5071 5074 5077 5080 5083 5086 5089 5092 5095 5098 5100 5103 5105 5108 5110 5113 5116 5119 5122 5125 5128 5131 5133 5136 5139 5142 5145 5148 5151 5154 5157 5160 5163 5166 5169 5172 5175 5178 5181 5184 5187 5190 5193 5196 5199 5202 5205 5208 5211 5214 5217 5220 5223 5226 5229 5232 5235 5238 5241 5244 5247 5250 5253 5256 5259 5262 5265 5268 5271 5274 5276 5279 5282 5285 5288 5291 5294 5297 5300 5303 5306 5309 5312 5314 5317 5320 5323 5326 5329 5332 5335 5338 5340 5343 5346 5349 5352 5355 5358 5360 5363 5366 5369 5372 5375 5378 5381 5384 5387 5389 5392 5395 5398 5401 5404 5407 5410 5413 5416 5419 5422 5424 5427 5430 5433 5435 5438 5441 5444 5447 5450 5453 5456 5459 5462 5465 5468 5471 5474 5477 5480 5483 5485 5488 5491 5494 5497 5500 5503 5506 5509 5511 5514 5517 5520 5523 5526 5529 5532 5535 5538 5541 5544 5547 5550 5553 5556 5559 5562 5565 5568 5571 5574 5576 5579 5582 5585 5587 5590 5593 5596 5599 5602 5605 5608 5611 5613 5616 5619 5622 5625 5628 5631 5634 5637 5640 5643 5645 5648 5651 5654 5656 5659 5661 5664 5667 5670 5673 5676 5679 5682 5685 5688 5690 5693 5696 5698 5701 5703 5706 5708 5711 5714 5717 5720 5723 5726 5728 5731 5734 5736 5738 5741 5744 5747 5750 5753 5756 5758 5761 5763 5766 5769 5771 5774 5777 5779 5782 5785 5788 5791 5794 5797 5800 5803 5806 5809 5812 5815 5818 5821 5824 5826 5829 5832 5834 5837 5840 5843 5845 5848 5851 5854 5857 5860 5863 5866 5869 5872 5875 5878 5880 5883 5886 5889 5892 5895 5898 5901 5904 5907 5910 5913 5916 5919 5921 5924 5926 5929 5932 5935 5938 5940 5943 5945 5948 5950 5953 5956 5959 5962 5964 5967 5970 5972 5975 5977 5980 5983 5986 5989 5991 5994 5997 6000 6003 6005 6008 6011 6013 6016 6018 6021 6023 6025 6028 6031 6034 6037 6040 6043 6045 6048 6051 6054 6056 6059 6062 6065 6068 6070 6072 6075 6077 6080 6083 6086 6089 6092 6095 6098 6101 6104 6107 6110 6112 6115 6118 6121 6124 6127 6129 6132 6135 6138 6140 6143 6146 6149 6152 6155 6158 6161 6164 6167 6170 6173 6176 6179 6182 6185 6187 6190 6193 6196 6199 6202 6205 6208 6211 6214 6217 6220 6223 6226 6229 6232 6235 6238 6241 6244 6247 6250 6252 6255 6258 6260 6263 6266 6269 6272 6275 6278 6281 6284 6286 6289 6292 6295 6298 6301 6304 6307 6310 6313 6316 6318 6320 6323 6326 6329 6332 6334 6337 6339 6342 6345 6348 6351 6354 6356 6359 6362 6365 6368 6371 6373 6376 6379 6382 6385 6388 6391 6394 6397 6399 6402 6405 6407 6409 6412 6414 6417 6419 6422 6425 6428 6431 6433 6435 6438 6441 6443 6446 6448 6451 6454 6457 6460 6463 6465 6468 6471 6474 6477 6479 6481 6484 6487 6489 6491 6494 6497 6500 6503 6505 6508 6511 6514 6516 6519 6522 6524 6527 6529 6532 6535 6538 6541 6544 6547 6550 6553 6556 6559 6562 6565 6568 6571 6574 6576 6579 6582 6585 6588 6591 6593 6596 6599 6602 6605 6608 6610 6613 6616 6619 6622 6624 6627 6630 6633 6636 6639 6642 6645 6648 6651 6654 6657 6660 6663 6666 6669 6672 6675 6678 6681 6684 6687 6690 6693 6696 6699 6702 6705 6708 6711 6714 6717 6720 6723 6726 6729 6732 6735 6738 6741 6744 6747 6750 6753 6756 6759 6762 6765 6768 6771 6774 6777 6780 6783 6786 6789 6792 6795 6798 6801 6804 6807 6809 6812 6815 6818 6821 6824 6826 6829 6832 6834 6837 6840 6843 6846 6849 6852 6855 6858 6861 6864 6867 6869 6872 6875 6878 6881 6884 6887 6890 6892 6895 6897 6899 6902 6905 6908 6911 6914 6917 6920 6923 6925 6928 6931 6934 6937 6940 6943 6945 6948 6951 6954 6956 6959 6962 6965 6968 6971 6974 6977 6979 6982 6985 6987 6990 6993 6996 6999 7002 7005 7008 7011 7014 7016 7018 7021 7024 7027 7030 7032 7034 7036 7038 7041 7043 7046 7049 7052 7055 7058 7061 7064 7067 7070 7073 7076 7079 7082 7085 7088 7090 7093 7096 7098 7101 7104 7107 7110 7113 7116 7119 7122 7125 7127 7130 7133 7136 7139 7142 7145 7148 7151 7153 7156 7159 7162 7165 7168 7171 7174 7177 7180 7183 7186 7189 7192 7195 7198 7201 7204 7207 7210 7213 7216 7219 7222 7225 7227 7230 7233 7236 7239 7242 7244 7247 7250 7252 7254 7256 7259 7262 7264 7267 7270 7272 7275 7278 7280 7282 7285 7288 7290 7293 7295 7298 7301 7304 7307 7310 7313 7316 7319 7322 7325 7328 7331 7334 7337 7340 7342 7345 7348 7351 7354 7357 7360 7363 7366 7368 7371 7374 7377 7380 7382 7385 7387 7390 7393 7395 7398 7401 7404 7407 7410 7413 7416 7419 7421 7424 7427 7429 7432 7435 7438 7440 7443 7446 7449 7452 7455 7457 7460 7463 7465 7468 7471 7474 7477 7480 7483 7486 7489 7492 7495 7498 7501 7504 7507 7510 7513 7516 7519 7522 7525 7528 7531 7534 7537 7540 7543 7546 7549 7551 7553 7556 7559 7562 7565 7568 7570 7573 7576 7579 7582 7585 7588 7591 7594 7597 7600 7603 7606 7608 7611 7614 7617 7620 7623 7626 7629 7632 7635 7638 7641 7644 7647 7650 7653 7656 7659 7661 7664 7667 7669 7672 7675 7678 7681 7684 7686 7689 7692 7695 7698 7701 7703 7706 7709 7712 7715 7718 7720 7723 7726 7729 7732 7735 7738 7741 7744 7747 7750 7753 7756 7759 7762 7765 7768 7771 7774 7777 7780 7783 7785 7788 7791 7793 7796 7799 7802 7805 7808 7811 7814 7816 7819 7822 7825 7828 7831 7834 7837 7840 7843 7846 7849 7852 7855 7858 7861 7864 7867 7870 7873 7876 7879 7882 7885 7888 7891 7894 7897 7900 7903 7906 7909 7912 7915 7918 7921 7924 7927 7929 7932 7935 7937 7940 7943 7946 7948 7951 7954 7957 7960 7962 7965 7968 7971 7974 7977 7980 7982 7985 7988 7991 7994 7997 8000 8003 8006 8009 8012 8014 8017 8020 8023 8026 8028 8031 8033 8036 8039 8042 8045 8047 8050 8053 8056 8059 8062 8065 8068 8071 8074 8077 8080 8082 8085 8088 8091 8094 8097 8100 8103 8106 8108 8111 8114 8117 8120 8123 8126 8129 8132 8135 8138 8141 8144 8147 8150 8153 8156 8159 8162 8165 8167 8170 8173 8176 8179 8182 8185 8188 8191 8194 8196 8199 8202 8205 8208 8211 8213 8216 8219 8222 8225 8228 8230 8232 8234 8237 8239 8242 8245 8248 8251 8254 8257 8260 8263 8266 8268 8271 8274 8277 8279 8282 8285 8288 8291 8294 8297 8300 8303 8306 8309 8312 8315 8318 8321 8324 8327 8330 8333 8336 8339 8342 8345 8348 8350 8353 8356 8359 8362 8365 8368 8371 8373 8376 8379 8381 8384 8387 8390 8392 8395 8398 8400 8403 8406 8409 8412 8414 8417 8420 8422 8425 8428 8431 8434 8437 8440 8443 8446 8448 8450 8453 8456 8459 8462 8465 8468 8471 8473 8476 8479 8482 8484 8487 8490 8493 8496 8499 8502 8505 8508 8511 8514 8517 8520 8522 8525 8528 8531 8534 8536 8539 8542 8545 8547 8549 8552 8554 8557 8559 8562 8565 8568 8571 8573 8576 8578 8581 8584 8587 8590 8593 8596 8599 8602 8605 8607 8610 8612 8614 8617 8620 8623 8626 8628 8630 8632 8635 8638 8641 8644 8646 8649 8651 8654 8657 8659 8662 8665 8667 8670 8673 8676 8679 8682 8685 8687 8690 8692 8695 8698 8700 8703 8706 8709 8712 8715 8718 8721 8724 8727 8730 8733 8736 8739 8742 8745 8748 8751 8754 8756 8759 8762 8765 8768 8771 8774 8777 8779 8781 8783 8786 8788 8791 8794 8797 8799 8802 8804 8807 8810 8812 8815 8818 8820 8823 8826 8828 8830 8833 8835 8838 8840 8843 8846 8849 8851 8853 8856 8859 8862 8864 8867 8870 8873 8876 8878 8881 8884 8886 8889 8892 8895 8898 8901 8904 8906 8909 8912 8915 8918 8921 8924 8927 8930 8933 8936 8939 8942 8945 8948 8951 8954 8957 8959 8962 8965 8968 8971 8973 8976 8979 8982 8985 8988 8991 8994 8996 8999 9002 9005 9008 9011 9014 9017 9020 9023 9026 9029 9032 9035 9038 9041 9044 9047 9049 9052 9055 9058 9060 9062 9065 9067 9070 9072 9075 9078 9081 9084 9087 9090 9093 9096 9099 9101 9104 9107 9110 9113 9115 9118 9120 9123 9126 9129 9131 9134 9137 9139 9141 9144 9147 9150 9153 9155 9158 9161 9163 9166 9169 9172 9175 9178 9180 9183 9185 9188 9191 9194 9196 9199 9202 9204 9206 9209 9212 9214 9217 9220 9223 9226 9229 9231 9234 9237 9240 9243 9246 9249 9252 9255 9258 9261 9264 9266 9269 9271 9274 9277 9280 9283 9286 9289 9292 9295 9297 9300 9302 9304 9307 9309 9312 9315 9318 9321 9324 9326 9329 9332 9335 9337 9340 9343 9346 9348 9351 9354 9357 9360 9363 9366 9369 9372 9375 9378 9381 9384 9387 9390 9393 9395 9398 9401 9403 9406 9409 9412 9415 9418 9421 9424 9427 9430 9432 9435 9438 9441 9444 9447 9450 9453 9456 9459 9461 9464 9467 9470 9473 9476 9479 9482 9485 9488 9491 9494 9496 9499 9502 9505 9508 9511 9514 9516 9519 9521 9523 9526 9529 9532 9535 9538 9540 9543 9546 9549 9552 9555 9558 9561 9564 9567 9570 9573 9576 9579 9582 9585 9588 9590 9593 9596 9599 9602 9605 9608 9610 9613 9616 9619 9622 9625 9628 9631 9634 9637 9640 9643 9645 9648 9651 9654 9657 9660 9663 9665 9668 9671 9674 9677 9680 9683 9686 9689 9692 9695 9698 9701 9704 9707 9710 9713 9716 9719 9722 9725 9727 9730 9733 9736 9739 9742 9745 9748 9751 9753 9756 9759 9762 9764 9767 9770 9773 9776 9778 9781 9783 9786 9789 9792 9795 9797 9800 9803 9806 9808 9811 9814 9817 9820 9823 9825 9828 9831 9834 9837 9840 9843 9846 9849 9851 9854 9857 9859 9861 9864 9867 9869 9872 9875 9878 9881 9884 9887 9890 9893 9895 9898 9901 9904 9907 9910 9913 9916 9919 9922 9925 9927 9929 9932 9935 9938 9941 9944 9947 9950 9953 9955 9958 9961 9963 9966 9969 9972 9975 9978 9981 9983 9986 9989 9992 9995 9998 10000 10003 10006 10009 10012 10015 10018 10020 10023 10026 10029 10031 10033 10036 10039 10042 10045 10048 10051 10054 10056 10059 10062 10064 10067 10070 10073 10076 10079 10081 10084 10087 10090 10093 10096 10099 10102 10105 10108 10111 10114 10116 10119 10122 10125 10128 10131 10134 10137 10140 10143 10146 10149 10151 10154 10157 10160 10163 10166 10169 10172 10175 10178 10181 10184 10187 10189 10192 10195 10198 10200 10202 10205 10207 10210 10213 10216 10218 10220 10223 10226 10229 10232 10234 10236 10239 10242 10244 10247 10250 10252 10255 10258 10261 10264 10267 10270 10272 10275 10277 10280 10283 10285 10287 10289 10292 10295 10297 10300 10302 10305 10308 10310 10312 10315 10318 10321 10323 10325 10328 10331 10333 10336 10338 10341 10344 10347 10350 10353 10356 10358 10360 10363 10366 10369 10372 10374 10376 10379 10382 10385 10388 10391 10393 10396 10399 10402 10405 10408 10411 10414 10417 10420 10422 10424 10427 10430 10433 10436 10439 10442 10444 10447 10450 10453 10456 10459 10461 10464 10467 10470 10472 10475 10478 10481 10484 10487 10489 10492 10494 10497 10500 10503 10505 10508 10511 10514 10517 10519 10522 10525 10528 10530 10533 10536 10539 10542 10545 10547 10550 10552 10555 10558 10560 10563 10566 10569 10571 10574 10577 10579 10582 10585 10588 10591 10593 10596 10599 10602 10605 10608 10611 10614 10617 10619 10622 10625 10628 10631 10634 10637 10639 10641 10643 10645 10648 10651 10653 10656 10659 10662 10664 10666 10669 10672 10675 10678 10681 10684 10687 10690 10693 10695 10698 10701 10704 10707 10710 10713 10715 10718 10721 10723 10726 10728 10730 10733 10736 10739 10741 10744 10746 10749 10752 10755 10757 10759 10762 10764 10767 10770 10773 10776 10778 10781 10784 10787 10790 10792 10795 10798 10801 10804 10807 10810 10812 10815 10818 10821 10824 10827 10830 10833 10836 10839 10842 10845 10848 10851 10854 10857 10860 10863 10866 10869 10872 10875 10878 10881 10884 10887 10889 10892 10895 10897 10900 10903 10905 10907 10909 10912 10915 10918 10920 10923 10925 10927 10930 10932 10935 10938 10941 10944 10947 10950 10952 10955 10958 10961 10963 10966 10968 10971 10974 10977 10980 10982 10985 10988 10991 10994 10996 10999 11001 11004 11007 11009 11011 11014 11017 11020 11023 11026 11029 11032 11035 11037 11039 11042 11044 11047 11050 11053 11056 11058 11061 11063 11066 11069 11072 11074 11077 11080 11083 11086 11089 11092 11095 11097 11100 11103 11106 11109 11112 11114 11117 11120 11123 11125 11127 11130 11132 11134 11137 11140 11143 11146 11149 11152 11154 11157 11160 11162 11165 11167 11170 11173 11176 11178 11180 11183 11186 11188 11191 11193 11196 11198 11201 11204 11207 11210 11213 11216 11218 11220 11223 11226 11228 11231 11234 11236 11239 11242 11244 11246 11249 11252 11255 11258 11261 11264 11266 11269 11272 11275 11278 11280 11283 11285 11288 11291 11293 11296 11299 11302 11305 11308 11311 11314 11317 11320 11323 11326 11329 11332 11335 11338 11341 11344 11347 11350 11353 11356 11358 11361 11364 11367 11370 11373 11376 11379 11382 11385 11388 11391 11394 11397 11399 11402 11404 11407 11410 11413 11416 11419 11422 11425 11427 11430 11432 11435 11437 11440 11443 11446 11449 11452 11455 11457 11460 11463 11466 11469 11472 11475 11478 11481 11484 11487 11490 11492 11495 11497 11500 11503 11506 11508 11511 11514 11516 11519 11522 11525 11528 11530 11533 11536 11538 11541 11543 11546 11549 11552 11555 11558 11560 11563 11566 11569 11572 11574 11577 11579 11582 11585 11587 11590 11593 11595 11598 11600 11603 11606 11608 11611 11614 11616 11619 11621 11624 11627 11630 11633 11636 11639 11642 11645 11648 11651 11654 11657 11660 11663 11666 11669 11672 11675 11678 11681 11684 11687 11690 11693 11696 11699 11702 11705 11708 11711 11714 11717 11720 11723 11726 11729 11732 11735 11737 11740 11743 11745 11747 11750 11753 11756 11758 11760 11762 11764 11767 11770 11773 11776 11778 11781 11784 11787 11790 11792 11795 11798 11801 11804 11807 11809 11812 11815 11818 11821 11823 11826 11829 11832 11835 11838 11841 11844 11847 11850 11853 11856 11859 11862 11865 11867 11870 11873 11876 11879 11882 11885 11888 11890 11893 11896 11899 11902 11905 11908 11910 11913 11916 11919 11922 11925 11928 11931 11934 11937 11940 11943 11946 11949 11952 11955 11958 11961 11964 11967 11970 11973 11976 11979 11982 11985 11988 11991 11994 11996 11999 12002 12005 12008 12010 12013 12016 12019 12022 12025 12027 12030 12033 12036 12038 12041 12043 12046 12049 12051 12054 12057 12060 12063 12066 12068 12071 12074 12077 12079 12082 12085 12087 12090 12092 12095 12098 12101 12104 12107 12110 12112 12115 12118 12121 12124 12127 12130 12132 12135 12138 12141 12144 12147 12150 12153 12156 12159 12162 12165 12168 12171 12173 12176 12179 12182 12184 12187 12190 12193 12196 12199 12202 12205 12208 12211 12213 12216 12218 12221 12224 12227 12230 12233 12236 12239 12242 12245 12247 12250 12253 12256 12259 12262 12265 12268 12271 12273 12276 12279 12282 12285 12288 12291 12294 12297 12300 12303 12306 12309 12312 12315 12318 12321 12324 12327 12330 12333 12336 12339 12342 12345 12348 12351 12354 12357 12360 12363 12365 12368 12370 12373 12376 12379 12382 12385 12388 12391 12394 12396 12398 12401 12404 12407 12410 12413 12416 12419 12422 12425 12428 12431 12434 12437 12440 12443 12446 12449 12452 12455 12458 12460 12463 12466 12469 12471 12474 12476 12479 12482 12485 12488 12491 12494 12497 12500 12503 12505 12508 12511 12513 12515 12518 12520 12523 12526 12529 12531 12534 12537 12540 12543 12546 12549 12552 12555 12557 12560 12563 12566 12569 12572 12575 12578 12581 12584 12587 12590 12593 12595 12598 12601 12604 12606 12609 12612 12615 12618 12621 12624 12627 12630 12633 12635 12638 12640 12643 12646 12648 12651 12654 12656 12659 12662 12665 12668 12671 12673 12676 12679 12682 12685 12688 12691 12694 12697 12700 12703 12705 12707 12710 12713 12716 12719 12721 12724 12727 12730 12733 12736 12739 12742 12745 12748 12751 12754 12756 12759 12762 12765 12768 12771 12774 12777 12780 12783 12786 12789 12791 12794 12797 12799 12802 12805 12807 12810 12813 12815 12818 12821 12823 12826 12829 12832 12834 12837 12840 12843 12846 12849 12852 12854 12857 12860 12863 12866 12869 12871 12874 12877 12880 12883 12886 12889 12892 12895 12898 12900 12903 12906 12909 12912 12915 12918 12921 12924 12926 12929 12932 12935 12938 12941 12944 12947 12950 12953 12956 12959 12962 12965 12967 12970 12973 12976 12979 12982 12985 12987 12990 12993 12996 12999 13002 13005 13008 13011 13013 13016 13019 13022 13025 13028 13030 13032 13034 13037 13040 13043 13046 13049 13052 13055 13058 13061 13064 13067 13070 13073 13076 13079 13082 13085 13088 13091 13094 13096 13099 13102 13105 13107 13110 13113 13116 13119 13122 13124 13127 13130 13133 13135 13138 13141 13144 13147 13150 13153 13156 13159 13162 13165 13167 13170 13173 13176 13179 13181 13183 13186 13188 13191 13193 13195 13198 13201 13204 13207 13210 13213 13216 13219 13222 13225 13228 13231 13234 13237 13240 13243 13246 13249 13252 13255 13258 13261 13263 13266 13268 13271 13274 13276 13278 13281 13284 13287 13290 13293 13295 13298 13300 13302 13305 13308 13310 13312 13315 13318 13321 13324 13327 13330 13333 13336 13338 13340 13343 13346 13349 13351 13354 13356 13359 13362 13364 13367 13370 13373 13375 13377 13380 13383 13385 13388 13391 13394 13397 13400 13403 13406 13409 13412 13415 13418 13421 13424 13427 13430 13433 13436 13439 13441 13444 13447 13449 13452 13455 13458 13460 13463 13466 13468 13471 13474 13477 13480 13483 13486 13488 13491 13494 13497 13500 13503 13506 13509 13512 13514 13517 13519 13522 13525 13528 13531 13534 13537 13540 13543 13546 13548 13551 13554 13557 13560 13563 13566 13569 13572 13575 13578 13581 13584 13587 13590 13593 13596 13599 13602 13605 13607 13610 13613 13616 13619 13622 13625 13628 13631 13634 13637 13640 13643 13646 13649 13651 13654 13657 13660 13663 13666 13669 13671 13674 13677 13680 13682 13685 13687 13690 13692 13694 13697 13700 13703 13706 13709 13712 13715 13718 13721 13724 13727 13730 13733 13735 13738 13741 13744 13747 13749 13752 13755 13758 13760 13763 13765 13768 13771 13774 13777 13780 13782 13785 13788 13791 13794 13797 13800 13803 13806 13809 13812 13814 13816 13819 13822 13824 13826 13829 13832 13835 13838 13841 13844 13847 13850 13853 13856 13859 13862 13865 13868 13871 13874 13876 13879 13882 13885 13888 13891 13894 13897 13899 13902 13905 13908 13911 13914 13916 13918 13921 13924 13927 13929 13932 13935 13938 13941 13944 13946 13949 13952 13955 13958 13961 13963 13965 13968 13971 13974 13977 13979 13982 13985 13987 13990 13993 13996 13999 14002 14005 14008 14011 14014 14017 14020 14023 14026 14029 14032 14034 14037 14040 14043 14046 14048 14051 14054 14057 14060 14063 14066 14069 14072 14075 14078 14081 14084 14087 14090 14093 14096 14099 14102 14105 14108 14111 14114 14117 14120 14123 14126 14129 14132 14135 14138 14141 14144 14147 14150 14153 14156 14158 14161 14164 14167 14170 14172 14175 14178 14181 14183 14186 14189 14192 14195 14198 14201 14204 14207 14210 14213 14216 14219 14222 14225 14228 14230 14233 14235 14238 14241 14244 14247 14249 14251 14254 14257 14260 14263 14266 14269 14272 14275 14278 14281 14284 14287 14290 14292 14295 14298 14301 14304 14306 14309 14311 14314 14317 14320 14323 14325 14328 14331 14333 14335 14338 14341 14344 14347 14349 14352 14355 14357 14360 14363 14366 14369 14371 14374 14377 14380 14383 14386 14389 14392 14395 14398 14401 14403 14405 14407 14410 14413 14415 14418 14421 14424 14427 14430 14433 14435 14437 14440 14442 14445 14448 14450 14453 14456 14459 14462 14464 14467 14470 14473 14476 14479 14482 14485 14488 14491 14493 14495 14498 14501 14504 14507 14510 14513 14516 14519 14522 14525 14528 14530 14533 14535 14538 14541 14544 14547 14550 14553 14556 14559 14562 14565 14568 14571 14574 14577 14580 14583 14586 14588 14591 14594 14597 14600 14603 14605 14608 14610 14613 14616 14619 14622 14624 14627 14629 14632 14635 14638 14640 14642 14645 14648 14651 14654 14657 14660 14662 14665 14668 14671 14674 14677 14680 14683 14685 14688 14691 14694 14697 14700 14703 14706 14709 14712 14714 14717 14719 14722 14725 14728 14731 14734 14736 14739 14742 14745 14748 14751 14753 14756 14758 14761 14763 14766 14769 14772 14774 14777 14780 14783 14786 14788 14791 14794 14797 14800 14803 14806 14809 14812 14815 14818 14821 14823 14826 14829 14831 14834 14837 14840 14843 14846 14849 14852 14855 14858 14861 14864 14866 14869 14872 14875 14878 14881 14883 14886 14888 14890 14893 14896 14898 14901 14903 14906 14909 14912 14915 14918 14921 14924 14927 14930 14933 14936 14939 14942 14945 14948 14951 14954 14957 14960 14963 14966 14969 14971 14974 14977 14980 14983 14986 14989 14992 14995 14998 15001 15004 15007 15010 15013 15016 15019 15022 15025 15028 15031 15034 15037 15040 15043 15046 15049 15052 15055 15058 15061 15063 15066 15069 15072 15075 15078 15081 15083 15086 15089 15092 15095 15098 15101 15104 15107 15110 15113 15116 15119 15122 15125 15128 15131 15133 15136 15139 15142 15145 15148 15151 15154 15157 15160 15163 15166 15169 15172 15175 15178 15181 15184 15187 15190 15193 15196 15199 15201 15204 15207 15210 15213 15216 15219 15222 15225 15228 15230 15233 15236 15239 15242 15245 15248 15251 15254 15256 15259 15262 15265 15268 15271 15274 15277 15279 15281 15284 15287 15290 15293 15296 15298 15301 15303 15306 15309 15311 15314 15317 15320 15323 15326 15329 15332 15335 15338 15341 15344 15347 15350 15353 15356 15359 15362 15365 15367 15370 15373 15376 15379 15382 15385 15388 15391 15394 15397 15399 15402 15404 15407 15409 15412 15415 15418 15421 15424 15427 15430 15433 15436 15439 15442 15445 15448 15451 15454 15457 15460 15463 15466 15469 15472 15475 15478 15481 15484 15487 15490 15493 15496 15499 15502 15505 15508 15511 15514 15517 15520 15523 15526 15529 15532 15535 15538 15541 15544 15547 15550 15553 15556 15559 15561 15564 15567 15570 15572 15575 15578 15581 15584 15586 15589 15591 15594 15597 15600 15603 15605 15608 15611 15614 15617 15620 15623 15626 15629 15632 15635 15638 15640 15642 15645 15648 15651 15654 15656 15658 15661 15664 15667 15670 15673 15676 15679 15682 15685 15688 15691 15694 15697 15700 15703 15706 15709 15711 15714 15717 15720 15723 15726 15729 15732 15735 15738 15741 15744 15747 15750 15753 15756 15759 15762 15765 15768 15771 15774 15777 15780 15783 15786 15789 15792 15795 15798 15801 15804 15807 15810 15813 15816 15819 15822 15825 15828 15830 15833 15836 15838 15841 15844 15847 15850 15853 15856 15859 15862 15865 15868 15871 15874 15877 15880 15883 15886 15889 15892 15895 15898 15901 15904 15907 15910 15913 15916 15919 15922 15925 15928 15931 15934 15937 15940 15943 15946 15949 15952 15955 15958 15961 15964 15967 15970 15973 15976 15979 15982 15985 15988 15991 15994 15997 15999 16002 16005 16008 16010 16013 16016 16019 16022 16025 16027 16030 16033 16036 16038 16041 16044 16047 16050 16053 16055 16057 16060 16062 16065 16068 16071 16074 16077 16079 16082 16085 16088 16091 16093 16096 16099 16102 16105 16107 16110 16113 16116 16119 16122 16125 16128 16131 16134 16137 16140 16143 16146 16149 16152 16155 16158 16161 16164 16167 16169 16171 16174 16177 16180 16183 16186 16189 16192 16194 16196 16199 16202 16205 16207 16210 16212 16215 16218 16221 16223 16226 16229 16232 16235 16238 16241 16244 16247 16250 16253 16256 16259 16262 16265 16268 16271 16273 16276 16279 16282 16285 16287 16290 16293 16296 16299 16302 16304 16307 16310 16313 16316 16319 16322 16324 16327 16330 16333 16335 16337 16339 16342 16345 16348 16350 16353 16356 16359 16362 16364 16367 16369 16372 16375 16377 16380 16383 16386 16389 16392 16395 16398 16400 16403 16406 16409 16412 16415 16417 16420 16423 16426 16429 16431 16434 16437 16440 16443 16446 16449 16452 16455 16457 16460 16463 16465 16467 16470 16473 16476 16478 16481 16483 16486 16489 16492 16495 16497 16499 16502 16505 16508 16511 16514 16516 16519 16522 16525 16528 16531 16534 16537 16540 16543 16545 16547 16550 16553 16556 16559 16562 16564 16567 16569 16572 16575 16578 16581 16584 16587 16590 16593 16596 16599 16602 16605 16608 16611 16614 16617 16620 16622 16625 16628 16630 16633 16635 16638 16640 16643 16645 16648 16651 16653 16655 16658 16661 16663 16666 16668 16671 16673 16676 16679 16682 16684 16686 16689 16692 16695 16697 16700 16703 16706 16708 16710 16713 16716 16719 16722 16725 16727 16730 16733 16736 16738 16741 16744 16746 16749 16752 16754 16757 16760 16763 16765 16768 16771 16774 16777 16779 16782 16785 16787 16789 16792 16795 16798 16801 16803 16805 16808 16810 16813 16816 16819 16821 16824 16827 16829 16832 16835 16837 16839 16842 16845 16847 16850 16852 16854 16857 16859 16861 16864 16867 16870 16873 16875 16878 16881 16884 16887 16890 16893 16896 16898 16901 16904 16906 16909 16912 16915 16918 16921 16924 16927 16929 16932 16934 16937 16940 16943 16946 16949 16952 16954 16956 16959 16961 16964 16966 16968 16971 16973 16976 16979 16982 16984 16987 16990 16993 16996 16998 17001 17004 17006 17009 17012 17014 17017 17020 17023 17025 17028 17031 17034 17037 17040 17042 17045 17048 17051 17054 17057 17060 17063 17066 17069 17072 17075 17078 17081 17083 17085 17088 17091 17094 17096 17099 17102 17105 17107 17109 17112 17115 17118 17121 17124 17127 17130 17133 17135 17138 17141 17144 17147 17149 17152 17155 17158 17161 17164 17167 17170 17173 17176 17179 17182 17185 17188 17191 17194 17197 17200 17203 17206 17209 17212 17215 17218 17221 17224 17227 17230 17233 17236 17239 17242 17244 17247 17250 17253 17256 17259 17262 17265 17268 17271 17274 17277 17280 17283 17286 17289 17292 17295 17298 17301 17303 17306 17309 17312 17314 17317 17320 17322 17325 17327 17330 17333 17336 17339 17342 17345 17348 17351 17354 17357 17360 17362 17365 17368 17371 17374 17377 17380 17382 17385 17387 17390 17393 17395 17397 17400 17403 17406 17409 17411 17414 17416 17419 17422 17425 17428 17430 17433 17436 17439 17442 17444 17446 17449 17452 17454 17457 17460 17462 17465 17468 17471 17474 17476 17479 17482 17485 17487 17490 17493 17496 17499 17502 17505 17508 17511 17514 17517 17520 17523 17526 17529 17532 17535 17538 17540 17543 17546 17548 17551 17553 17556 17559 17561 17564 17566 17569 17571 17574 17577 17579 17582 17585 17588 17591 17594 17597 17600 17603 17606 17609 17612 17615 17618 17621 17624 17627 17629 17632 17634 17637 17640 17643 17646 17649 17652 17655 17658 17661 17664 17666 17669 17671 17674 17677 17680 17682 17685 17688 17691 17694 17696 17698 17701 17704 17707 17710 17713 17716 17719 17721 17724 17726 17729 17732 17735 17738 17741 17744 17747 17750 17752 17755 17758 17761 17764 17766 17769 17772 17774 17777 17780 17783 17786 17789 17792 17795 17798 17801 17804 17807 17809 17812 17815 17818 17821 17824 17826 17829 17832 17835 17838 17841 17844 17847 17850 17852 17855 17858 17861 17863 17866 17869 17872 17875 17878 17881 17884 17886 17889 17892 17895 17898 17901 17904 17907 17910 17913 17916 17918 17921 17924 17926 17929 17931 17934 17937 17940 17943 17946 17948 17950 17953 17956 17959 17961 17964 17966 17969 17972 17975 17978 17981 17984 17987 17990 17992 17994 17997 18000 18002 18005 18008 18010 18012 18015 18018 18021 18023 18026 18029 18032 18035 18038 18041 18043 18046 18049 18052 18055 18058 18061 18064 18067 18070 18073 18076 18079 18082 18085 18088 18090 18093 18096 18099 18102 18105 18108 18111 18114 18116 18119 18122 18125 18128 18131 18134 18137 18140 18142 18145 18148 18151 18154 18157 18160 18163 18166 18169 18171 18174 18177 18180 18182 18184 18186 18188 18191 18194 18197 18200 18203 18206 18208 18211 18214 18217 18220 18223 18226 18229 18232 18235 18238 18241 18244 18247 18249 18251 18253 18256 18259 18262 18265 18268 18271 18274 18276 18278 18281 18284 18287 18289 18291 18294 18297 18300 18303 18306 18309 18312 18315 18318 18321 18324 18327 18330 18333 18336 18339 18341 18344 18346 18349 18352 18355 18358 18361 18363 18365 18367 18370 18373 18375 18377 18380 18382 18385 18387 18389 18391 18394 18396 18399 18402 18405 18408 18411 18414 18416 18419 18421 18424 18427 18430 18433 18436 18439 18442 18445 18448 18451 18454 18456 18459 18462 18465 18467 18470 18473 18476 18479 18482 18484 18487 18490 18492 18495 18498 18500 18503 18506 18509 18511 18514 18517 18520 18523 18526 18529 18532 18535 18537 18540 18543 18546 18548 18551 18554 18557 18560 18562 18565 18568 18571 18574 18577 18580 18583 18586 18589 18592 18595 18598 18601 18604 18607 18610 18613 18616 18619 18622 18625 18628 18631 18634 18637 18640 18642 18645 18648 18651 18654 18656 18659 18662 18665 18668 18671 18674 18676 18679 18682 18685 18688 18691 18694 18697 18700 18703 18705 18708 18711 18714 18717 18720 18723 18726 18729 18732 18735 18738 18741 18744 18747 18750 18753 18756 18759 18762 18765 18768 18771 18774 18776 18779 18782 18785 18788 18790 18793 18796 18799 18802 18805 18808 18811 18814 18817 18820 18823 18826 18829 18831 18834 18837 18839 18841 18844 18847 18850 18852 18854 18857 18859 18862 18864 18867 18870 18873 18876 18879 18881 18884 18887 18889 18892 18894 18897 18900 18902 18904 18907 18910 18913 18916 18919 18922 18925 18928 18930 18933 18935 18938 18941 18944 18947 18950 18952 18955 18958 18961 18964 18967 18970 18973 18976 18979 18982 18985 18988 18991 18993 18996 18999 19001 19004 19007 19010 19013 19016 19019 19022 19025 19028 19031 19034 19037 19040 19043 19045 19048 19051 19054 19057 19059 19062 19065 19068 19071 19074 19076 19079 19082 19084 19087 19090 19093 19095 19098 19101 19104 19106 19109 19112 19115 19118 19121 19124 19127 19130 19133 19136 19139 19142 19145 19148 19151 19154 19157 19160 19163 19166 19169 19172 19175 19177 19180 19183 19186 19189 19192 19195 19198 19201 19204 19207 19210 19213 19215 19218 19221 19223 19226 19229 19232 19235 19238 19241 19244 19247 19250 19253 19256 19259 19262 19265 19268 19271 19274 19276 19279 19282 19285 19288 19291 19294 19297 19300 19303 19306 19308 19311 19314 19317 19319 19322 19325 19327 19330 19333 19336 19339 19342 19345 19348 19351 19354 19357 19360 19363 19366 19369 19372 19375 19378 19381 19384 19387 19390 19393 19396 19399 19402 19405 19408 19411 19414 19417 19420 19423 19426 19429 19432 19435 19438 19441 19444 19447 19450 19453 19456 19459 19462 19465 19468 19471 19474 19477 19480 19483 19486 19489 19492 19495 19498 19500 19503 19506 19508 19511 19513 19516 19519 19522 19525 19528 19531 19534 19537 19539 19542 19545 19547 19550 19552 19555 19558 19561 19564 19567 19570 19573 19576 19579 19581 19584 19587 19590 19592 19595 19597 19600 19603 19606 19609 19611 19614 19617 19620 19623 19625 19628 19631 19634 19637 19640 19643 19646 19648 19650 19653 19656 19659 19662 19665 19668 19671 19674 19677 19680 19683 19686 19689 19692 19695 19698 19701 19704 19706 19709 19712 19715 19717 19720 19723 19725 19728 19731 19734 19737 19740 19743 19746 19749 19752 19755 19758 19761 19764 19767 19770 19773 19776 19779 19782 19785 19788 19791 19794 19797 19800 19802 19805 19808 19811 19814 19817 19820 19823 19826 19829 19832 19835 19837 19840 19843 19845 19848 19851 19853 19856 19859 19862 19865 19868 19871 19874 19877 19880 19883 19886 19889 19892 19895 19898 19901 19904 19907 19910 19913 19915 19918 19921 19924 19927 19930 19933 19936 19939 19942 19945 19948 19951 19954 19957 19959 19962 19965 19968 19971 19973 19976 19979 19982 19985 19988 19990 19993 19996 19999 20002 20005 20008 20011 20014 20017 20020 20023 20026 20029 20032 20035 20038 20041 20044 20047 20050 20053 20056 20059 20062 20064 20067 20070 20073 20076 20079 20082 20085 20088 20091 20094 20097 20100 20103 20106 20109 20111 20114 20117 20120 20123 20125 20128 20131 20134 20137 20140 20143 20146 20149 20152 20155 20158 20161 20164 20167 20170 20173 20176 20179 20182 20185 20188 20191 20194 20197 20200 20203 20206 20209 20212 20214 20217 20220 20223 20226 20229 20231 20234 20237 20240 20243 20246 20249 20252 20255 20258 20261 20264 20267 20270 20273 20276 20279 20282 20285 20288 20291 20294 20297 20300 20303 20306 20309 20312 20315 20318 20321 20324 20327 20330 20333 20336 20339 20342 20345 20348 20351 20354 20357 20360 20363 20366 20369 20372 20375 20378 20381 20384 20387 20390 20393 20396 20399 20402 20405 20408 20411 20414 20417 20420 20423 20426 20429 20432 20435 20438 20441 20444 20447 20450 20453 20456 20458 20461 20464 20467 20470 20473 20475 20478 20481 20484 20487 20490 20493 20496 20499 20502 20505 20508 20511 20514 20517 20520 20523 20526 20529 20532 20535 20538 20541 20543 20546 20549 20552 20555 20558 20561 20564 20567 20570 20573 20576 20579 20582 20585 20588 20591 20594 20596 20599 20602 20604 20607 20610 20612 20615 20617 20620 20623 20626 20629 20631 20634 20637 20639 20642 20645 20648 20651 20654 20657 20660 20663 20666 20669 20672 20675 20677 20680 20683 20686 20689 20692 20695 20698 20701 20704 20707 20710 20713 20716 20719 20722 20725 20728 20731 20734 20737 20740 20742 20745 20748 20751 20754 20757 20760 20763 20766 20769 20772 20775 20777 20780 20783 20786 20789 20792 20795 20798 20801 20804 20807 20810 20813 20816 20819 20822 20825 20828 20831 20834 20837 20839 20842 20845 20848 20851 20854 20857 20860 20863 20866 20869 20872 20875 20877 20880 20882 20885 20888 20891 20893 20896 20899 20901 20904 20907 20909 20912 20915 20917 20920 20923 20926 20929 20932 20935 20937 20939 20942 20945 20948 20951 20953 20956 20959 20962 20965 20968 20971 20974 20977 20980 20983 20986 20989 20991 20994 20997 21000 21003 21005 21008 21011 21014 21017 21020 21023 21026 21029 21032 21034 21037 21040 21043 21046 21049 21052 21055 21058 21061 21064 21067 21070 21073 21076 21079 21081 21084 21087 21090 21093 21095 21097 21100 21103 21106 21109 21112 21115 21118 21121 21123 21126 21129 21132 21135 21138 21141 21144 21147 21150 21153 21156 21159 21162 21165 21168 21171 21174 21177 21180 21182 21185 21188 21191 21194 21197 21200 21203 21206 21209 21212 21215 21218 21221 21224 21227 21230 21233 21236 21239 21242 21245 21248 21251 21253 21256 21259 21262 21264 21267 21270 21273 21275 21278 21280 21283 21286 21288 21291 21294 21297 21300 21302 21305 21308 21311 21314 21317 21320 21323 21326 21329 21332 21335 21338 21341 21344 21347 21350 21352 21355 21358 21361 21364 21367 21370 21373 21376 21379 21382 21385 21388 21391 21394 21397 21400 21403 21406 21408 21411 21414 21417 21420 21423 21426 21429 21432 21435 21438 21441 21443 21446 21448 21451 21454 21457 21459 21462 21465 21468 21470 21472 21475 21478 21481 21484 21487 21489 21492 21494 21497 21500 21503 21505 21508 21511 21514 21517 21520 21522 21525 21528 21531 21534 21537 21540 21543 21546 21549 21552 21555 21558 21561 21564 21567 21570 21573 21576 21579 21582 21585 21587 21590 21593 21596 21599 21602 21605 21608 21610 21613 21616 21619 21622 21624 21626 21629 21632 21634 21636 21639 21642 21645 21648 21651 21654 21657 21660 21663 21666 21669 21672 21675 21678 21681 21684 21687 21690 21693 21696 21699 21702 21705 21708 21711 21714 21717 21720 21723 21726 21729 21731 21734 21736 21739 21742 21745 21748 21751 21754 21757 21760 21763 21766 21769 21772 21774 21777 21780 21782 21785 21787 21790 21793 21795 21797 21800 21803 21805 21807 21810 21813 21816 21819 21821 21823 21826 21828 21831 21834 21837 21839 21841 21844 21847 21850 21853 21855 21858 21861 21864 21867 21870 21873 21875 21878 21881 21884 21887 21890 21893 21896 21899 21902 21905 21908 21911 21914 21917 21920 21923 21926 21928 21931 21934 21937 21939 21942 21945 21948 21950 21953 21956 21959 21961 21964 21967 21970 21973 21975 21978 21981 21983 21986 21989 21992 21995 21997 22000 22003 22005 22008 22011 22014 22017 22020 22023 22026 22029 22032 22035 22038 22041 22043 22046 22049 22052 22055 22057 22060 22063 22065 22068 22071 22074 22076 22079 22082 22085 22087 22090 22093 22096 22099 22101 22104 22106 22109 22112 22115 22118 22121 22124 22127 22130 22133 22135 22138 22141 22144 22147 22150 22153 22156 22159 22162 22165 22168 22170 22173 22176 22178 22181 22184 22186 22189 22192 22195 22198 22201 22204 22207 22210 22213 22216 22219 22221 22224 22227 22230 22233 22236 22239 22241 22244 22247 22249 22252 22255 22258 22261 22264 22267 22270 22273 22276 22279 22282 22285 22287 22290 22293 22296 22299 22302 22305 22308 22310 22313 22316 22319 22321 22324 22327 22330 22333 22336 22339 22342 22345 22348 22350 22353 22356 22359 22362 22365 22368 22371 22374 22377 22380 22383 22385 22388 22391 22394 22396 22399 22402 22405 22408 22410 22413 22415 22417 22419 22422 22425 22428 22431 22434 22437 22439 22442 22445 22448 22451 22453 22455 22458 22461 22464 22467 22470 22473 22476 22478 22481 22484 22487 22490 22493 22496 22499 22502 22505 22508 22510 22513 22516 22519 22522 22525 22528 22531 22534 22537 22540 22543 22546 22548 22551 22554 22557 22560 22563 22566 22568 22571 22573 22576 22579 22582 22585 22588 22591 22594 22597 22600 22603 22605 22608 22611 22614 22617 22620 22623 22626 22629 22631 22634 22637 22640 22643 22646 22649 22652 22655 22657 22660 22663 22665 22668 22671 22674 22677 22680 22682 22685 22688 22691 22693 22696 22699 22702 22705 22708 22711 22714 22717 22720 22723 22726 22729 22732 22735 22738 22740 22743 22746 22749 22751 22753 22756 22758 22761 22764 22767 22770 22773 22776 22778 22781 22784 22787 22790 22793 22796 22799 22802 22805 22808 22811 22814 22817 22820 22823 22826 22829 22832 22835 22838 22841 22844 22847 22850 22853 22856 22859 22862 22865 22868 22871 22874 22877 22880 22883 22886 22889 22891 22893 22896 22899 22902 22905 22908 22910 22913 22915 22918 22920 22923 22926 22928 22931 22933 22936 22939 22941 22944 22947 22949 22952 22954 22957 22960 22963 22966 22969 22972 22974 22977 22980 22983 22986 22989 22992 22995 22998 23001 23004 23007 23010 23013 23016 23019 23022 23025 23028 23031 23034 23037 23040 23043 23046 23049 23052 23055 23058 23061 23064 23067 23070 23073 23076 23079 23082 23085 23088 23091 23094 23097 23100 23103 23106 23109 23112 23115 23118 23121 23124 23127 23130 23133 23136 23139 23142 23145 23148 23151 23154 23157 23160 23163 23166 23169 23172 23175 23178 23181 23184 23187 23190 23193 23196 23199 23202 23205 23208 23211 23214 23216 23219 23222 23225 23228 23231 23233 23236 23239 23242 23244 23247 23250 23253 23256 23258 23261 23263 23266 23268 23271 23274 23277 23279 23282 23285 23288 23291 23294 23297 23300 23303 23306 23309 23312 23315 23318 23321 23324 23327 23330 23333 23336 23339 23342 23345 23348 23351 23353 23356 23359 23362 23365 23367 23370 23372 23375 23378 23380 23383 23386 23389 23392 23395 23398 23401 23403 23406 23409 23411 23413 23416 23419 23422 23425 23428 23431 23434 23437 23439 23442 23444 23446 23448 23451 23454 23457 23460 23463 23465 23468 23471 23474 23477 23480 23483 23486 23489 23492 23495 23498 23501 23504 23507 23509 23512 23515 23518 23521 23524 23527 23529 23531 23534 23537 23539 23541 23544 23547 23550 23553 23555 23558 23561 23564 23567 23570 23573 23576 23578 23581 23584 23587 23589 23592 23595 23598 23601 23604 23607 23610 23613 23616 23619 23622 23624 23627 23630 23633 23636 23639 23642 23645 23648 23651 23654 23657 23660 23663 23666 23669 23672 23675 23678 23681 23684 23686 23689 23692 23695 23698 23701 23704 23707 23710 23713 23716 23719 23722 23725 23728 23731 23734 23737 23740 23743 23746 23749 23752 23755 23758 23761 23764 23766 23769 23772 23775 23778 23781 23784 23787 23790 23793 23796 23799 23802 23805 23808 23811 23814 23817 23820 23823 23826 23829 23832 23835 23838 23841 23844 23847 23850 23852 23855 23858 23861 23863 23866 23869 23872 23875 23878 23881 23884 23887 23890 23893 23896 23899 23902 23905 23907 23910 23913 23915 23918 23921 23924 23927 23930 23933 23936 23939 23942 23945 23948 23950 23953 23956 23958 23961 23964 23967 23970 23973 23976 23979 23982 23985 23988 23991 23994 23997 24000 24003 24006 24009 24012 24015 24018 24021 24024 24027 24029 24032 24035 24037 24040 24043 24045 24048 24050 24053 24056 24058 24060 24063 24066 24069 24072 24075 24078 24080 24082 24085 24088 24091 24094 24097 24099 24101 24104 24107 24110 24113 24116 24119 24122 24125 24128 24131 24134 24137 24140 24143 24146 24148 24151 24154 24156 24159 24162 24165 24168 24171 24173 24176 24179 24182 24185 24188 24191 24194 24197 24200 24203 24206 24209 24212 24214 24216 24219 24222 24225 24228 24231 24234 24236 24239 24242 24245 24248 24251 24254 24257 24260 24262 24265 24268 24271 24274 24277 24280 24283 24286 24288 24291 24293 24296 24299 24302 24305 24308 24310 24312 24315 24318 24321 24323 24326 24328 24331 24333 24336 24339 24342 24345 24348 24351 24353 24355 24358 24361 24364 24367 24370 24372 24375 24378 24381 24383 24386 24389 24391 24394 24397 24400 24403 24405 24407 24410 24413 24416 24419 24422 24425 24428 24431 24434 24437 24439 24441 24444 24447 24449 24452 24454 24457 24459 24462 24465 24468 24471 24474 24477 24480 24483 24486 24489 24491 24494 24497 24500 24503 24505 24508 24511 24514 24517 24520 24522 24525 24528 24531 24534 24537 24540 24543 24546 24549 24552 24555 24557 24560 24563 24566 24569 24572 24574 24576 24579 24582 24585 24588 24591 24594 24597 24600 24603 24606 24609 24612 24615 24617 24620 24623 24626 24629 24632 24635 24638 24641 24644 24646 24649 24652 24655 24658 24661 24664 24667 24670 24672 24675 24678 24681 24684 24687 24690 24693 24695 24698 24701 24703 24706 24709 24712 24715 24717 24720 24723 24726 24729 24732 24735 24738 24741 24743 24746 24749 24752 24755 24758 24760 24763 24766 24768 24770 24773 24776 24779 24782 24785 24788 24791 24794 24796 24799 24802 24805 24808 24811 24814 24817 24820 24823 24826 24829 24832 24834 24837 24840 24843 24846 24848 24851 24854 24857 24860 24863 24866 24869 24872 24875 24878 24881 24884 24887 24890 24893 24896 24899 24902 24904 24907 24910 24913 24916 24919 24922 24925 24928 24931 24934 24937 24940 24943 24946 24948 24951 24954 24957 24960 24963 24966 24969 24972 24975 24978 24981 24984 24987 24989 24992 24995 24998 25001 25004 25007 25009 25012 25015 25018 25021 25024 25027 25030 25032 25035 25038 25041 25044 25047 25049 25052 25055 25058 25061 25064 25067 25070 25073 25076 25079 25082 25085 25088 25091 25094 25097 25100 25103 25106 25109 25112 25114 25117 25120 25123 25126 25129 25132 25135 25137 25140 25143 25146 25149 25152 25155 25158 25160 25162 25165 25168 25171 25174 25177 25180 25183 25186 25189 25191 25194 25197 25200 25203 25206 25209 25212 25214 25217 25220 25223 25225 25228 25231 25234 25237 25240 25243 25245 25248 25251 25254 25257 25260 25263 25265 25268 25271 25274 25277 25280 25283 25285 25288 25290 25293 25295 25298 25301 25303 25306 25309 25311 25313 25316 25318 25321 25323 25326 25329 25332 25335 25338 25341 25344 25347 25350 25353 25356 25359 25362 25365 25368 25371 25374 25377 25380 25383 25386 25389 25392 25395 25398 25401 25404 25406 25409 25412 25415 25417 25420 25423 25426 25429 25432 25435 25438 25441 25444 25446 25449 25452 25455 25458 25461 25464 25467 25470 25472 25474 25477 25479 25482 25485 25488 25491 25494 25497 25500 25503 25506 25509 25512 25515 25518 25521 25524 25527 25530 25533 25536 25539 25542 25545 25548 25551 25554 25557 25560 25563 25566 25569 25572 25575 25578 25581 25584 25586 25589 25591 25594 25597 25600 25603 25606 25609 25612 25615 25618 25621 25624 25627 25630 25633 25636 25639 25642 25645 25648 25651 25654 25657 25660 25663 25666 25669 25672 25675 25678 25681 25684 25687 25690 25693 25696 25699 25702 25705 25708 25711 25714 25717 25720 25723 25726 25729 25732 25735 25738 25740 25743 25746 25749 25752 25754 25757 25759 25762 25765 25768 25771 25774 25777 25780 25783 25786 25789 25791 25794 25797 25800 25803 25806 25809 25812 25815 25818 25821 25824 25827 25830 25833 25835 25838 25841 25844 25846 25849 25852 25855 25858 25861 25864 25867 25870 25873 25876 25879 25882 25885 25888 25891 25894 25897 25900 25903 25906 25909 25912 25915 25918 25920 25923 25926 25929 25932 25935 25938 25940 25943 25946 25949 25952 25955 25958 25961 25964 25967 25970 25973 25976 25979 25982 25984 25987 25989 25992 25994 25997 26000 26003 26006 26009 26011 26014 26017 26020 26023 26026 26029 26031 26034 26037 26040 26043 26046 26049 26052 26055 26058 26061 26064 26066 26069 26071 26074 26076 26079 26082 26085 26088 26091 26093 26096 26099 26102 26105 26108 26111 26114 26117 26120 26123 26126 26129 26132 26135 26138 26141 26144 26147 26150 26152 26155 26158 26161 26164 26167 26170 26173 26175 26178 26181 26184 26187 26190 26193 26196 26199 26202 26205 26208 26211 26214 26217 26220 26223 26226 26229 26232 26234 26237 26240 26243 26246 26249 26251 26253 26256 26259 26262 26264 26267 26270 26273 26275 26278 26281 26284 26287 26290 26293 26296 26298 26301 26304 26307 26309 26312 26314 26317 26320 26323 26326 26329 26332 26335 26337 26340 26343 26346 26349 26352 26355 26358 26361 26364 26367 26370 26373 26375 26378 26381 26384 26387 26390 26393 26396 26399 26402 26405 26408 26411 26414 26417 26420 26423 26425 26428 26431 26434 26437 26440 26443 26446 26449 26452 26455 26458 26461 26464 26467 26470 26473 26476 26479 26482 26485 26488 26491 26494 26497 26500 26503 26506 26509 26512 26515 26518 26521 26523 26526 26529 26532 26535 26538 26541 26544 26547 26550 26553 26556 26559 26562 26565 26568 26571 26574 26577 26580 26583 26586 26589 26592 26594 26597 26600 26603 26606 26609 26611 26614 26617 26620 26623 26626 26628 26631 26634 26637 26640 26643 26646 26649 26652 26654 26657 26660 26663 26666 26669 26672 26675 26678 26681 26683 26686 26689 26691 26694 26697 26700 26703 26706 26709 26712 26715 26718 26721 26724 26727 26730 26733 26735 26738 26741 26744 26747 26749 26752 26755 26758 26760 26763 26766 26769 26772 26775 26778 26781 26784 26787 26790 26793 26796 26799 26802 26804 26807 26810 26813 26816 26818 26821 26823 26826 26829 26832 26834 26837 26840 26843 26845 26847 26849 26852 26855 26858 26861 26863 26866 26868 26871 26873 26875 26878 26881 26884 26887 26890 26892 26895 26898 26901 26904 26907 26910 26912 26915 26917 26920 26922 26925 26928 26931 26934 26936 26938 26941 26944 26947 26950 26953 26956 26959 26962 26965 26968 26971 26974 26976 26979 26982 26985 26988 26991 26994 26997 27000 27002 27005 27008 27011 27013 27016 27018 27021 27024 27027 27030 27032 27034 27036 27039 27042 27044 27047 27050 27052 27055 27058 27061 27063 27066 27069 27072 27075 27078 27080 27083 27086 27089 27092 27095 27098 27101 27103 27106 27109 27111 27113 27116 27119 27122 27124 27126 27129 27132 27135 27138 27141 27144 27146 27149 27152 27155 27158 27161 27163 27166 27169 27172 27175 27178 27181 27184 27187 27190 27193 27196 27199 27202 27205 27208 27211 27214 27217 27220 27223 27226 27229 27231 27234 27236 27239 27242 27244 27247 27250 27253 27256 27258 27261 27264 27267 27270 27273 27276 27279 27282 27285 27288 27290 27293 27295 27298 27300 27303 27305 27308 27311 27313 27316 27319 27322 27325 27328 27331 27334 27337 27340 27342 27345 27348 27351 27354 27357 27360 27363 27366 27369 27372 27375 27378 27381 27384 27387 27390 27393 27396 27399 27402 27405 27408 27411 27414 27417 27420 27423 27426 27429 27432 27435 27438 27441 27444 27447 27450 27452 27455 27458 27461 27464 27466 27469 27472 27475 27478 27481 27484 27487 27490 27493 27496 27499 27502 27505 27507 27510 27513 27516 27519 27522 27525 27528 27531 27534 27537 27539 27542 27545 27548 27551 27554 27556 27559 27562 27565 27568 27571 27574 27577 27580 27583 27586 27589 27591 27594 27597 27600 27603 27606 27609 27611 27614 27617 27620 27622 27625 27627 27629 27632 27635 27638 27641 27644 27647 27650 27653 27655 27658 27661 27664 27666 27669 27672 27675 27677 27680 27683 27686 27689 27692 27695 27698 27701 27704 27706 27708 27711 27714 27717 27720 27723 27726 27729 27732 27735 27738 27741 27744 27747 27750 27753 27756 27759 27762 27765 27768 27770 27772 27775 27778 27781 27784 27787 27790 27793 27796 27799 27802 27805 27808 27811 27814 27817 27819 27822 27825 27828 27831 27833 27836 27839 27842 27845 27848 27851 27854 27857 27860 27863 27866 27869 27872 27875 27878 27881 27884 27887 27890 27893 27896 27899 27902 27904 27907 27910 27913 27916 27919 27921 27924 27927 27930 27933 27935 27937 27940 27943 27946 27949 27951 27954 27956 27959 27961 27963 27966 27969 27972 27975 27977 27980 27982 27985 27988 27990 27993 27995 27998 28000 28003 28006 28009 28012 28015 28018 28021 28024 28027 28030 28033 28036 28039 28042 28045 28048 28051 28053 28056 28059 28062 28065 28067 28069 28072 28075 28078 28081 28084 28087 28090 28092 28095 28098 28100 28103 28105 28108 28111 28114 28117 28120 28123 28125 28128 28131 28134 28137 28140 28143 28146 28149 28152 28155 28158 28161 28163 28166 28169 28171 28174 28177 28180 28183 28186 28189 28192 28195 28198 28201 28204 28207 28210 28213 28216 28219 28222 28225 28228 28230 28233 28236 28239 28242 28244 28246 28249 28252 28255 28258 28261 28264 28267 28270 28273 28275 28278 28281 28283 28286 28288 28291 28294 28297 28300 28302 28305 28308 28311 28314 28317 28320 28323 28326 28329 28332 28335 28338 28341 28344 28346 28349 28352 28355 28357 28360 28363 28366 28369 28372 28375 28378 28381 28384 28387 28390 28393 28395 28398 28400 28403 28406 28409 28412 28414 28417 28420 28423 28425 28428 28431 28434 28437 28440 28443 28446 28449 28452 28455 28458 28460 28462 28465 28468 28471 28474 28477 28480 28483 28486 28489 28491 28494 28497 28500 28503 28506 28509 28512 28515 28517 28520 28523 28526 28529 28531 28534 28537 28540 28543 28545 28548 28550 28553 28556 28559 28562 28565 28568 28571 28574 28577 28580 28583 28586 28589 28592 28595 28598 28601 28603 28606 28609 28612 28615 28618 28621 28624 28626 28629 28632 28635 28638 28641 28644 28647 28650 28653 28656 28659 28662 28665 28667 28669 28672 28675 28678 28681 28683 28686 28689 28692 28695 28698 28700 28703 28706 28709 28712 28715 28718 28720 28723 28726 28728 28731 28733 28736 28739 28741 28744 28747 28750 28753 28756 28759 28762 28764 28767 28770 28773 28776 28779 28782 28785 28788 28790 28792 28794 28797 28800 28803 28806 28809 28812 28815 28818 28821 28823 28826 28829 28832 28835 28838 28841 28844 28846 28849 28852 28855 28857 28860 28863 28865 28868 28871 28874 28877 28879 28882 28885 28888 28891 28894 28897 28900 28903 28905 28908 28910 28913 28916 28919 28922 28925 28928 28930 28933 28936 28938 28941 28944 28947 28950 28953 28956 28959 28962 28965 28967 28970 28973 28976 28979 28982 28985 28987 28990 28993 28996 28999 29001 29004 29007 29010 29013 29016 29019 29022 29025 29028 29031 29034 29037 29040 29043 29046 29049 29052 29055 29058 29061 29064 29067 29070 29073 29076 29079 29082 29085 29088 29091 29094 29097 29100 29103 29106 29109 29112 29115 29118 29121 29124 29127 29130 29133 29136 29139 29142 29145 29148 29151 29154 29157 29159 29162 29165 29167 29170 29172 29174 29177 29180 29182 29185 29187 29190 29193 29196 29199 29201 29204 29207 29209 29212 29215 29218 29221 29224 29227 29229 29231 29234 29237 29240 29243 29246 29249 29251 29254 29256 29259 29261 29263 29266 29268 29271 29273 29275 29278 29281 29284 29287 29290 29293 29296 29299 29302 29304 29307 29309 29312 29315 29318 29321 29324 29327 29330 29332 29334 29337 29340 29343 29346 29348 29351 29353 29356 29359 29361 29364 29366 29369 29372 29375 29377 29380 29382 29384 29387 29390 29393 29395 29398 29400 29402 29405 29408 29411 29413 29416 29419 29421 29424 29427 29430 29433 29436 29439 29442 29444 29447 29450 29453 29456 29459 29462 29465 29468 29471 29474 29477 29480 29483 29486 29489 29492 29495 29498 29501 29504 29507 29510 29513 29516 29519 29522 29525 29528 29531 29534 29537 29539 29542 29545 29548 29550 29553 29556 29559 29561 29563 29566 29569 29572 29575 29577 29580 29583 29586 29589 29592 29595 29598 29601 29604 29607 29610 29613 29616 29619 29622 29625 29628 29631 29634 29636 29639 29641 29644 29647 29650 29653 29655 29658 29661 29663 29666 29669 29672 29675 29678 29681 29684 29686 29689 29692 29695 29698 29700 29703 29706 29709 29711 29714 29716 29718 29721 29724 29726 29729 29732 29735 29738 29741 29744 29746 29749 29752 29755 29758 29761 29763 29766 29769 29772 29774 29777 29779 29782 29785 29788 29791 29794 29796 29799 29801 29803 29806 29808 29811 29814 29816 29819 29822 29824 29827 29830 29833 29835 29838 29840 29843 29846 29849 29851 29854 29857 29860 29863 29866 29869 29872 29875 29878 29880 29883 29886 29889 29892 29895 29898 29901 29904 29907 29909 29912 29915 29918 29921 29923 29926 29929 29932 29934 29937 29940 29943 29946 29949 29952 29955 29958 29960 29963 29966 29968 29971 29974 29977 29980 29983 29986 29988 29990 29993 29996 29998 30001 30004 30007 30010 30013 30016 30019 30022 30025 30027 30030 30033 30036 30039 30042 30044 30047 30049 30052 30055 30058 30061 30064 30067 30070 30073 30076 30079 30081 30084 30086 30089 30092 30095 
</DataArray>
<DataArray type="UInt32" Name="types" format="ascii">
5 5 5 5 5 5 5 3 5 5 3 5 5 3 5 5 3 5 3 3 5 3 5 5 5 5 5 5 5 5 5 5 5 5 5 5 3 5 3 5 5 5 5 5 5 5 5 5 3 5 5 3 5 5 5 5 5 5 5 5 3 5 5 5 3 5 5 5 3 5 5 3 5 5 3 5 5 5 5 3 5 5 5 5 5 5 5 5 5 5 5 3 5 5 3 5 5 5 5 5 5 3 5 5 5 5 5 5 5 5 3 5 5 5 5 5 5 3 5 5 5 5 5 5 5 5 5 5 3 5 5 5 5 5 5 5 5 5 5 5 5 5 5 5 5 5 5 5 5 5 5 5 5 5 5 3 5 5 3 3 5 5 5 5 5 5 5 5 5 5 5 5 5 5 5 5 5 5 5 5 5 5 5 5 5 5 5 5 5 5 5 3 5 5 3 5 5 5 5 5 5 5 3 5 5 5 3 5 5 5 5 5 5 3 5 5 5 5 5 5 5 5 5 5 5 5 5 5 5 5 5 5 5 5 5 5 5 5 3 5 5 5 5 5 5 5 5 5 5 3 5 5 3 5 5 5 5 5 5 5 3 5 5 3 5 5 5 5 5 5 5 5 5 5 5 5 5 5 5 5 5 5 5 5 5 5 5 5 5 5 5 5 5 5 5 3 5 5 5 3 5 5 5 5 5 5 5 5 5 5 5 5 5 5 5 5 5 5 5 5 5 5 5 5 5 5 5 5 3 3 5 5 5 5 5 5 5 5 5 5 3 5 5 5 3 5 5 5 5 3 5 5 5 3 5 5 5 5 5 5 5 5 3 5 5 5 5 3 5 5 5 5 3 3 5 5 3 5 5 5 5 5 5 5 5 5 5 5 3 5 5 3 3 5 5 5 5 3 3 5 5 5 5 5 5 5 5 5 5 5 5 3 3 5 5 5 5 5 3 5 5 5 3 5 5 5 5 5 3 5 5 5 5 5 5 5 5 5 5 5 3 5 5 3 5 5 5 5 5 5 3 5 3 5 5 3 5 5 5 5 5 5 5 5 5 3 5 5 5 5 5 5 5 5 5 5 5 5 5 5 5 5 5 5 5 3 5 5 5 5 5 5 5 5 5 5 5 5 5 5 5 5 5 3 5 5 5 5 5 5 5 3 5 3 5 5 5 3 5 5 5 5 3 3 3 5 5 5 5 3 5 5 5 5 5 5 5 5 5 5 5 5 3 5 5 3 5 5 3 5 5 5 5 5 5 5 5 5 5 5 5 5 5 5 5 5 5 5 5 5 5 5 5 5 5 5 5 3 5 5 5 3 5 5 5 3 5 5 5 5 3 5 5 3 5 5 5 5 5 5 5 5 3 3 5 5 5 3 3 3 5 5 5 5 5 3 5 5 5 5 5 5 5 5 5 5 5 5 5 5 5 5 5 5 5 5 5 5 5 5 5 5 5 5 5 5 5 5 5 5 5 5 5 5 5 5 5 5 5 5 5 5 5 5 5 5 5 5 5 5 5 5 5 5 5 5 5 5 5 5 5 5 5 5 5 5 5 5 5 5 5 5 5 5 5 5 5 5 5 5 3 5 5 5 5 5 3 5 5 5 5 5 3 5 5 5 5 5 5 3 5 3 3 5 5 5 3 5 3 5 3 5 5 3 5 5 5 5 5 5 5 5 5 5 3 5 5 5 3 3 5 5 3 5 5 5 3 5 5 5 3 5 5 5 5 5 3 5 5 5 5 3 5 5 3 3 3 5 3 5 3 5 5 3 3 5 5 5 5 5 5 5 3 5 3 5 5 5 5 5 5 5 5 3 5 5 3 5 5 5 5 5 5 5 5 5 5 3 5 5 3 5 5 5 3 5 3 5 5 5 5 5 5 3 5 5 5 5 3 5 5 5 3 5 3 3 5 5 5 5 3 5 5 5 5 5 5 5 5 5 5 5 3 5 5 5 3 5 5 5 3 5 5 5 5 5 5 5 5 5 5 5 5 5 3 5 5 5 5 3 5 5 5 5 5 3 5 5 3 5 5 3 5 5 5 3 5 5 3 3 5 5 3 5 5 5 5 5 5 5 5 5 5 3 5 3 5 5 3 5 5 3 5 5 5 5 5 5 5 3 5 5 3 5 5 5 5 5 5 5 5 5 5 5 5 5 5 5 5 5 5 5 5 5 5 5 5 3 5 5 5 5 5 5 5 5 5 5 5 3 5 5 5 5 5 5 3 5 5 5 5 5 5 5 5 5 5 5 5 3 5 5 5 5 3 5 5 5 3 5 5 3 5 5 3 5 5 5 3 5 5 5 5 5 5 5 5 5 5 5 5 5 5 5 5 5 5 5 5 5 5 5 5 5 3 5 5 5 3 5 5 5 5 3 5 5 5 5 5 5 5 5 5 5 5 3 5 5 3 5 5 5 5 3 5 5 3 5 5 5 5 5 5 5 5 5 3 5 3 5 5 5 3 5 5 5 5 5 3 5 5 5 3 5 5 5 3 5 5 3 5 5 5 5 3 5 5 3 5 5 5 5 5 5 5 5 5 5 3 3 5 5 5 5 3 5 5 5 3 5 5 5 5 5 5 5 5 5 5 5 5 5 3 5 5 3 3 5 5 5 5 3 5 5 5 5 5 5 5 5 5 5 5 5 5 5 5 5 3 5 5 3 5 5 5 3 5 3 5 3 3 5 5 5 5 3 5 5 5 5 3 5 5 5 3 3 3 5 3 5 5 3 5 3 5 5 5 5 5 3 5 3 5 5 5 3 5 5 5 5 5 5 5 5 3 5 5 3 5 3 5 5 5 5 5 5 5 5 3 3 5 3 5 5 5 5 5 5 5 5 5 5 5 5 3 3 5 5 5 5 5 5 5 5 5 5 5 5 5 5 5 3 5 3 5 5 5 3 5 5 5 5 5 5 5 5 5 5 5 5 5 5 5 5 3 5 5 5 5 5 3 5 5 5 3 5 3 5 5 5 5 5 5 5 5 5 5 5 5 5 5 5 5 5 5 5 5 5 5 5 5 5 5 5 5 5 5 5 5 5 5 5 5 5 3 5 5 5 3 5 5 5 5 5 5 5 5 5 5 3 5 5 5 5 5 5 5 5 5 5 5 5 5 5 5 5 5 5 5 5 5 5 5 3 5 5 3 5 5 5 5 5 3 5 5 3 5 5 3 5 5 3 5 5 5 5 5 3 5 5 5 5 3 5 3 5 5 5 5 3 5 3 5 5 3 3 5 5 5 5 3 5 5 5 5 5 5 5 5 5 5 3 5 5 5 5 3 5 3 3 5 3 3 5 5 5 3 5 3 5 3 5 5 5 5 5 3 3 5 5 3 5 5 3 5 5 3 5 5 5 3 5 5 3 5 5 5 3 5 5 5 5 5 5 5 5 5 3 5 5 5 5 5 3 5 5 5 3 5 5 5 5 3 5 5 5 5 3 5 5 3 3 3 5 3 3 5 3 5 5 5 3 5 5 5 5 5 3 5 5 5 5 5 5 5 5 3 5 5 5 5 5 5 5 5 3 5 5 3 3 5 5 5 5 3 5 5 5 5 5 3 5 5 5 5 5 5 3 5 5 5 3 5 5 5 5 5 5 5 5 5 5 5 5 5 5 3 5 5 5 5 3 5 5 5 5 5 5 5 5 5 3 5 5 5 3 5 5 5 5 5 3 5 5 3 5 5 5 5 5 5 3 5 5 5 5 5 5 3 5 5 5 3 5 5 5 5 5 5 5 5 5 5 3 5 5 3 5 5 5 3 5 3 5 5 5 5 5 5 5 5 5 5 5 5 3 5 3 3 5 5 3 5 5 5 3 3 5 3 5 5 5 5 5 3 5 3 3 3 5 5 5 5 5 5 3 5 5 5 5 5 3 5 5 5 5 5 5 5 5 5 5 5 3 5 5 5 5 5 5 5 5 5 5 5 5 5 5 5 5 5 5 5 5 5 5 5 5 5 5 5 5 5 3 5 5 5 5 5 5 5 5 3 5 5 5 5 5 3 5 5 5 5 5 3 5 5 5 5 5 5 5 5 5 5 5 5 5 3 5 3 5 3 5 5 5 5 5 5 5 3 5 5 5 5 5 5 5 5 5 5 5 5 5 5 5 5 5 5 5 5 5 5 5 5 5 5 5 5 5 5 5 5 5 5 5 5 5 5 5 5 5 5 5 5 5 5 5 3 5 5 5 5 5 5 5 5 5 5 5 5 3 5 5 5 5 5 5 5 5 3 5 5 5 5 5 5 3 5 5 5 5 5 5 5 5 5 3 5 5 5 5 5 5 5 5 5 5 5 3 5 5 5 3 5 5 5 5 5 5 5 5 5 5 5 5 5 5 5 5 3 5 5 5 5 5 5 5 5 3 5 5 5 5 5 5 5 5 5 5 5 5 5 5 5 5 5 5 5 5 5 3 5 5 5 3 5 5 5 5 5 5 5 5 3 5 5 5 5 5 5 5 5 5 5 3 5 5 5 3 5 3 5 5 5 5 5 5 5 5 5 3 5 5 3 5 3 5 3 5 5 5 5 5 5 3 5 5 3 3 5 5 5 5 5 5 3 5 3 5 5 3 5 5 3 5 5 5 5 5 5 5 5 5 5 5 5 5 5 5 3 5 5 3 5 5 5 3 5 5 5 5 5 5 5 5 5 5 5 3 5 5 5 5 5 5 5 5 5 5 5 5 5 3 5 3 5 5 5 5 3 5 3 5 3 5 5 5 5 3 5 5 3 5 3 5 5 5 5 3 5 5 5 5 3 5 5 3 5 3 5 3 3 5 5 5 5 5 5 3 5 5 5 3 5 5 5 5 3 3 5 3 5 5 5 5 5 5 5 5 5 5 5 3 5 5 5 5 5 3 5 5 5 3 5 5 5 5 5 5 5 5 5 5 5 5 5 5 5 3 5 5 5 5 5 5 5 5 5 5 5 5 5 5 5 5 5 5 5 5 5 3 5 5 3 5 5 5 5 5 5 5 5 3 5 5 5 5 5 5 5 5 5 5 3 3 5 5 5 5 3 5 3 5 5 5 5 5 3 5 5 5 5 5 3 5 5 5 5 5 5 5 5 3 5 5 3 3 5 3 5 3 5 5 5 5 3 3 5 5 3 5 3 5 5 5 5 5 3 5 5 5 5 3 3 5 5 3 3 5 5 5 5 3 5 5 5 3 5 5 3 5 3 5 5 5 5 5 5 5 5 5 5 5 5 5 5 5 3 5 5 5 5 5 3 5 5 5 5 5 3 5 5 5 5 3 5 5 5 5 5 5 5 5 5 5 5 5 5 5 5 5 5 5 5 5 5 5 5 5 5 5 5 5 5 5 5 5 5 5 5 5 5 5 5 5 5 5 5 5 5 5 5 5 5 5 5 5 5 5 5 5 5 5 5 5 5 3 5 5 5 5 5 3 5 5 3 5 5 5 5 5 5 5 5 5 5 5 3 5 5 5 5 5 5 5 3 5 3 3 5 5 5 5 5 5 5 5 3 5 5 5 5 5 5 3 5 5 5 3 5 5 5 5 5 5 5 3 5 5 3 5 5 5 5 5 5 5 5 5 3 3 5 5 5 5 3 3 3 3 5 3 5 5 5 5 5 5 5 5 5 5 5 5 5 5 5 3 5 5 3 5 5 5 5 5 5 5 5 5 3 5 5 5 5 5 5 5 5 3 5 5 5 5 5 5 5 5 5 5 5 5 5 5 5 5 5 5 5 5 5 5 5 5 3 5 5 5 5 5 3 5 5 3 3 3 5 5 3 5 5 3 5 5 3 3 5 5 3 5 3 5 5 5 5 5 5 5 5 5 5 5 5 5 5 5 3 5 5 5 5 5 5 5 5 3 5 5 5 5 3 5 3 5 5 3 5 5 5 5 5 5 5 5 3 5 5 3 5 5 5 3 5 5 5 5 5 3 5 5 3 5 5 5 5 5 5 5 5 5 5 5 5 5 5 5 5 5 5 5 5 5 5 5 5 5 5 5 5 3 3 5 5 5 5 5 3 5 5 5 5 5 5 5 5 5 5 5 5 3 5 5 5 5 5 5 5 5 5 5 5 5 5 5 5 5 5 3 5 5 3 5 5 5 5 5 3 5 5 5 5 5 3 5 5 5 5 5 3 5 5 5 5 5 5 5 5 5 5 5 5 5 5 5 5 5 5 5 5 5 3 5 5 3 5 5 5 5 5 5 5 3 5 5 5 5 5 5 5 5 5 5 5 5 5 5 5 5 5 5 5 5 5 5 5 5 5 5 5 5 5 5 5 5 5 5 5 5 5 3 5 5 3 5 5 5 3 5 5 5 5 3 5 5 5 5 5 5 3 5 5 5 5 5 5 5 5 5 5 3 5 5 5 5 3 5 3 5 5 5 5 3 5 5 5 5 5 5 5 5 5 5 5 3 5 5 5 5 5 5 5 5 3 5 5 5 5 5 5 5 5 5 5 5 5 5 5 5 5 5 5 5 3 5 5 5 5 5 5 5 5 5 3 5 5 5 5 5 3 5 5 5 5 5 3 3 3 5 3 5 5 5 5 5 5 5 5 5 3 5 5 5 3 5 5 5 5 5 5 5 5 5 5 5 5 5 5 5 5 5 5 5 5 5 5 5 3 5 5 5 5 5 5 5 3 5 5 3 5 5 5 3 5 5 3 5 5 5 5 3 5 5 3 5 5 5 5 5 5 5 5 3 3 5 5 5 5 5 5 5 3 5 5 5 3 5 5 5 5 5 5 5 5 5 5 5 5 3 5 5 5 5 3 5 5 5 3 3 5 3 5 3 5 5 5 5 3 5 3 5 5 5 5 5 5 5 5 5 3 5 3 3 5 5 5 5 3 3 3 5 5 5 5 3 5 3 5 5 3 5 5 3 5 5 5 5 5 5 3 5 3 5 5 3 5 5 5 5 5 5 5 5 5 5 5 5 5 5 5 5 5 5 3 5 5 5 5 5 5 5 3 3 3 5 3 5 5 5 3 5 3 5 5 3 5 5 3 5 5 3 3 5 3 5 3 5 5 5 3 3 5 5 5 3 5 5 5 5 3 5 5 3 5 5 5 5 5 5 3 5 5 5 5 5 5 5 5 5 5 5 5 5 5 5 5 5 3 5 5 5 5 3 5 5 5 5 5 5 5 3 5 5 5 5 5 5 5 5 5 5 5 5 5 5 5 5 5 3 5 5 5 3 3 5 3 5 3 5 5 5 5 5 5 5 5 5 3 5 5 5 5 3 5 3 5 5 5 3 5 5 3 3 5 5 5 5 3 5 5 3 5 5 5 5 5 3 5 3 5 5 5 3 5 5 3 3 5 5 3 5 5 5 5 5 3 5 5 5 5 5 5 5 5 5 5 5 3 5 3 5 5 5 5 5 5 5 5 3 5 3 3 5 3 5 5 5 5 5 3 5 5 5 3 5 5 5 3 5 5 5 5 5 5 5 5 5 5 5 5 5 5 5 3 5 5 3 5 5 5 5 5 5 5 5 5 3 5 5 5 5 5 5 5 5 5 3 5 5 5 5 5 5 5 5 5 5 5 3 5 5 5 5 5 5 3 5 3 3 5 5 5 5 5 3 5 5 5 5 5 5 5 5 5 5 5 5 5 5 5 5 3 5 5 5 5 5 5 3 5 5 5 5 5 5 5 5 5 5 5 3 5 5 5 5 5 5 3 5 5 5 5 5 5 5 5 5 5 5 5 5 5 5 5 5 5 5 5 3 5 5 5 5 5 5 5 5 3 5 5 5 3 5 5 5 5 3 5 3 5 5 5 5 3 5 5 5 3 5 5 5 5 5 3 5 5 5 5 5 5 5 5 3 5 5 3 3 5 5 3 5 5 5 5 5 5 5 5 3 5 5 5 5 5 5 5 5 5 5 3 3 5 5 5 5 5 5 5 5 3 5 5 3 5 5 5 5 5 5 3 5 5 5 5 5 3 5 5 5 5 5 5 3 5 5 5 3 3 5 5 5 5 5 5 5 3 5 5 3 5 5 5 5 5 3 5 5 5 5 5 5 5 5 5 5 5 3 5 5 5 5 5 5 5 5 5 5 5 3 5 5 5 5 5 5 5 5 5 5 5 5 3 5 5 5 3 3 5 3 5 5 5 3 3 5 5 5 5 3 3 5 5 3 5 5 3 5 5 5 5 5 5 3 5 3 5 5 3 3 3 5 5 3 5 3 5 5 3 3 5 5 5 3 3 5 5 3 5 3 5 5 5 5 5 5 3 3 5 5 5 5 3 3 5 5 5 5 5 3 5 5 5 5 5 5 5 5 5 3 3 5 5 5 5 5 5 3 5 5 5 5 5 3 5 5 5 3 5 5 5 5 5 3 5 3 5 5 5 3 5 5 5 5 3 5 5 5 3 5 5 5 5 5 3 5 3 5 5 3 5 5 5 3 5 5 3 5 5 5 5 3 5 5 5 5 5 5 5 5 3 5 5 5 5 5 5 3 3 3 3 5 5 3 5 5 5 3 3 5 5 5 5 5 5 5 5 5 3 5 5 5 5 5 5 3 5 5 3 5 3 3 5 5 5 3 5 3 5 5 5 3 3 5 3 5 5 5 5 3 5 5 5 5 3 5 5 5 5 5 5 3 5 5 5 5 5 5 5 5 5 5 5 5 5 5 5 5 5 5 5 5 5 5 5 5 5 3 5 5 3 5 5 3 3 3 5 5 5 3 5 3 3 5 3 5 5 5 5 5 5 3 5 5 5 3 5 3 5 5 5 5 3 5 5 5 5 3 5 3 5 5 3 3 5 5 5 5 5 5 5 5 3 3 5 3 5 5 5 5 3 5 3 5 5 5 3 5 5 5 5 5 5 5 3 5 5 5 5 5 3 5 5 5 3 3 5 3 3 5 5 5 5 5 5 3 5 5 3 5 3 5 5 5 3 3 5 5 3 5 3 5 3 5 5 5 5 5 5 3 3 5 5 3 5 5 3 5 5 3 3 5 5 5 5 5 5 3 5 5 5 5 3 5 3 5 5 3 5 5 5 5 5 5 5 5 5 5 5 5 5 5 5 5 5 5 5 5 5 3 5 5 5 5 5 5 5 5 5 5 5 5 5 3 5 3 5 5 5 5 5 5 5 3 5 3 5 3 5 5 5 5 5 5 3 5 5 5 5 5 5 5 5 5 5 5 3 5 3 5 5 5 3 5 5 3 5 5 5 5 3 5 5 3 5 3 5 5 5 5 5 3 5 5 5 5 3 5 3 5 5 3 5 5 3 5 3 5 5 3 5 5 3 5 3 5 5 5 5 5 5 5 5 5 5 5 5 5 5 5 5 5 5 5 5 5 5 5 5 5 5 5 5 5 5 5 5 5 5 5 5 5 5 3 5 5 3 3 5 5 5 3 3 3 3 5 5 5 5 3 5 5 5 5 3 5 5 5 5 5 3 5 5 5 5 3 5 5 5 5 5 5 5 5 5 5 5 5 5 5 3 5 5 5 5 5 5 5 3 5 5 5 5 5 5 3 5 5 5 5 5 5 5 5 5 5 5 5 5 5 5 5 5 5 5 5 5 5 5 5 5 5 5 5 3 5 5 5 5 3 5 5 5 5 5 3 5 5 5 3 5 3 5 5 3 5 5 5 5 5 3 5 5 5 3 5 5 3 5 3 5 5 5 5 5 5 3 5 5 5 5 5 5 3 5 5 5 5 5 5 5 5 5 5 5 5 5 3 5 5 5 3 5 5 5 5 5 5 5 5 5 3 5 3 5 5 5 5 5 5 5 5 5 3 5 5 5 5 5 5 5 5 3 5 5 5 5 5 5 5 5 5 5 5 5 5 5 5 5 5 5 5 5 5 5 5 5 5 5 5 5 5 5 3 5 3 5 5 5 5 5 5 5 5 3 3 5 5 5 5 5 5 5 5 5 5 5 5 5 5 5 5 5 5 5 5 3 5 5 5 3 5 3 5 5 5 5 5 5 5 5 5 3 5 5 3 3 5 3 5 5 5 3 5 5 5 5 5 5 5 5 3 5 5 5 5 5 5 5 5 5 5 5 5 3 5 5 5 3 5 5 5 5 5 5 5 5 5 3 5 3 5 5 3 5 5 3 5 5 5 5 5 3 5 5 5 5 5 5 5 5 5 5 3 3 5 5 5 5 3 5 5 5 5 5 5 5 5 5 5 5 3 5 5 5 5 5 5 5 5 5 5 5 3 5 5 3 5 5 3 5 5 3 5 5 3 5 5 5 3 5 5 5 5 5 5 3 5 5 5 5 5 3 5 5 5 5 5 5 5 5 5 3 5 5 5 5 5 5 5 5 3 5 5 5 5 5 5 5 5 5 5 5 5 5 3 5 5 5 5 5 5 3 5 5 5 5 5 5 5 5 3 5 5 5 5 5 3 3 3 5 5 5 5 5 5 5 5 5 5 5 5 5 5 5 5 5 5 5 5 3 5 5 5 3 5 5 5 5 5 3 5 5 5 3 5 5 5 5 5 5 5 5 5 5 3 5 5 5 5 3 3 5 3 5 3 3 5 5 5 5 5 5 5 5 5 5 5 5 5 5 5 5 5 5 5 5 5 5 3 5 3 5 5 3 3 5 5 5 5 5 3 5 3 3 5 5 3 3 5 5 5 5 5 5 5 5 3 3 5 5 5 3 5 3 5 5 3 5 5 5 3 3 5 5 3 5 5 5 5 5 5 5 5 5 5 5 5 5 5 5 5 5 5 3 5 5 3 5 5 5 3 5 5 3 5 5 5 5 5 5 3 5 5 5 5 5 5 5 5 3 5 3 5 5 5 5 5 5 5 5 5 3 5 5 5 5 5 5 5 5 5 5 5 5 5 5 5 5 5 5 5 3 5 5 5 5 5 5 5 5 5 5 5 5 5 5 3 5 5 5 5 5 5 3 5 5 5 3 5 3 5 3 3 5 5 5 5 5 5 5 5 5 5 5 5 5 3 5 5 5 5 3 5 5 5 3 5 3 5 5 5 5 5 3 5 5 5 5 5 5 5 5 5 5 3 3 5 5 3 3 5 5 5 5 5 5 5 5 5 5 5 5 5 5 5 5 3 5 5 5 5 5 5 5 3 5 5 5 5 5 3 3 5 5 5 3 5 5 5 5 5 3 5 5 5 5 5 3 3 5 5 5 5 3 5 5 3 5 5 5 5 5 5 5 5 5 5 5 5 5 5 5 3 5 5 5 5 3 5 5 5 5 5 5 5 5 5 5 5 5 5 5 5 5 5 5 5 5 5 5 5 5 5 5 5 5 5 5 5 5 5 5 5 5 3 5 5 5 5 3 5 5 5 3 5 5 5 5 5 5 5 5 5 5 5 5 5 5 5 3 5 3 5 5 5 5 3 3 5 5 5 5 5 5 5 5 5 5 5 5 5 3 5 5 5 5 3 5 3 5 5 5 5 3 5 5 3 3 5 5 5 5 3 5 5 3 5 5 5 5 3 5 5 5 5 5 5 5 5 5 5 3 3 3 5 5 3 5 5 5 5 5 5 3 3 5 3 5 5 3 5 5 5 5 3 5 5 5 5 5 5 5 5 5 3 3 5 5 5 5 5 5 5 5 5 5 5 3 5 3 5 5 5 5 5 5 5 5 5 5 5 5 5 5 5 5 5 3 5 5 5 5 5 3 5 3 5 5 5 5 3 5 3 5 5 5 3 3 5 5 5 5 5 5 3 5 5 5 5 5 5 5 3 5 5 5 5 5 5 5 5 5 3 5 3 5 5 5 5 5 3 5 5 5 5 5 3 5 3 5 3 5 5 5 3 5 5 5 5 3 5 5 5 5 5 5 5 5 5 5 5 3 5 5 3 5 5 5 5 5 5 5 5 5 5 5 3 5 5 5 5 5 3 5 3 3 5 5 3 5 3 5 5 5 5 5 5 5 5 5 5 5 5 5 5 5 5 5 5 5 5 5 5 3 5 5 5 5 5 5 5 5 5 5 5 5 5 5 5 5 5 5 5 5 5 5 5 5 5 5 5 5 5 5 3 5 5 5 5 5 5 3 5 5 5 5 5 5 5 5 5 5 5 5 5 5 5 5 3 5 5 5 5 5 5 5 5 5 5 5 5 5 5 5 5 5 5 5 5 5 5 3 5 5 5 5 5 5 5 5 5 3 5 5 5 5 5 5 5 5 3 5 5 5 5 5 5 5 3 3 5 5 5 5 5 3 5 3 5 5 3 5 5 5 5 5 5 5 5 5 5 5 5 5 5 5 5 5 5 3 5 5 5 5 5 5 5 5 5 5 3 5 3 5 3 5 5 5 5 5 5 5 5 5 5 5 5 5 5 5 5 5 5 5 5 5 5 5 5 5 5 5 5 5 5 5 5 5 5 5 5 5 5 5 5 5 5 5 5 5 5 5 5 5 5 3 5 5 5 3 5 5 5 5 3 5 3 5 5 5 5 3 5 5 5 5 5 5 5 5 5 5 5 3 3 5 5 5 5 3 3 5 5 5 5 5 5 5 5 5 5 5 5 5 5 5 5 5 3 5 5 5 5 5 5 5 5 5 5 5 5 5 5 5 5 5 5 5 5 5 5 5 5 5 5 5 5 5 5 5 5 5 5 5 5 5 5 5 3 5 5 3 5 5 5 5 5 5 5 5 5 5 5 5 5 5 5 5 5 5 5 5 5 5 5 5 5 5 5 5 5 5 5 5 5 5 5 5 5 5 5 5 5 5 5 5 5 5 5 5 5 5 5 5 5 3 5 5 5 3 5 5 5 5 5 3 5 5 5 3 5 5 5 5 5 3 3 5 3 5 5 5 5 5 3 5 5 5 5 3 5 5 5 5 3 5 5 5 5 5 5 5 5 5 5 5 5 5 5 5 5 5 5 5 5 3 3 5 5 5 5 5 5 5 3 3 5 5 5 3 5 3 5 5 5 3 5 5 5 5 5 5 5 5 5 5 5 5 5 5 5 5 3 5 5 5 5 3 5 5 5 5 5 3 5 5 5 5 5 5 3 5 5 5 3 3 3 5 5 5 3 5 5 5 5 3 5 3 5 5 3 5 5 5 5 5 5 5 3 5 5 5 5 5 3 5 5 5 5 3 5 5 5 5 5 5 5 5 3 5 5 3 3 5 5 5 3 5 3 5 5 5 5 3 3 5 5 5 5 5 3 5 5 5 5 5 5 5 5 5 3 3 5 5 5 5 5 3 5 3 5 5 5 5 5 5 5 5 5 5 5 5 5 5 5 5 5 3 5 5 3 5 3 5 3 5 3 5 5 3 3 5 5 3 5 3 5 3 5 5 5 3 3 5 5 5 3 5 5 5 3 3 5 5 5 5 5 3 5 5 5 3 5 5 3 5 5 3 5 5 5 3 5 5 5 5 3 5 5 3 3 5 5 5 5 3 3 5 3 5 5 5 3 5 5 3 5 5 3 3 5 5 3 5 3 3 5 3 3 5 5 5 5 3 5 5 5 5 5 5 5 3 5 5 3 5 5 5 5 5 5 5 3 5 3 5 5 5 5 5 5 3 3 5 3 5 3 3 5 3 5 5 5 3 5 5 5 5 3 5 5 3 5 5 3 5 5 5 3 5 5 5 5 5 3 5 5 5 5 5 5 5 5 5 5 5 5 5 3 3 5 5 5 3 5 5 5 3 3 5 5 5 5 5 5 5 5 3 5 5 5 5 3 5 5 5 5 5 5 5 5 5 5 5 5 5 5 5 5 5 5 5 5 5 5 5 5 5 5 5 5 5 5 5 3 5 5 5 5 5 5 5 5 5 5 5 5 5 5 5 5 5 5 5 3 5 5 5 3 5 5 3 5 3 5 5 5 5 5 5 5 5 5 5 5 3 5 5 5 5 5 5 3 5 3 5 5 3 3 5 5 5 5 3 5 3 5 5 5 5 3 5 5 5 5 3 3 5 5 3 5 5 3 5 5 5 5 3 5 5 5 3 5 5 5 5 5 5 5 5 5 5 5 5 5 5 5 5 5 3 5 5 3 5 3 5 5 3 5 3 5 3 5 5 3 5 5 5 5 5 5 5 5 5 5 5 5 5 5 5 5 3 5 3 5 5 5 5 5 5 5 5 5 5 3 5 3 5 5 5 3 5 5 5 5 3 3 5 5 5 5 5 5 5 3 5 3 5 5 5 5 5 5 5 5 3 5 5 5 5 3 5 5 3 5 5 5 5 5 5 5 5 5 5 5 3 5 5 5 5 5 3 5 5 5 5 5 5 5 5 3 5 5 5 3 5 5 5 5 5 5 5 3 5 5 5 5 5 5 5 5 5 5 3 5 5 3 5 3 5 5 5 5 5 3 3 5 5 5 3 5 3 5 5 5 5 5 5 5 5 3 3 5 5 3 5 5 3 3 5 5 5 3 5 5 5 5 5 5 3 5 5 5 5 5 5 5 5 5 5 5 5 5 5 5 3 5 5 5 5 5 5 5 5 3 5 5 5 5 5 5 5 5 3 5 5 5 5 5 5 5 5 5 3 5 5 5 3 3 3 3 5 5 5 5 5 5 3 5 5 5 5 5 5 5 5 5 5 5 5 5 3 3 3 5 5 5 5 5 5 5 3 3 5 5 5 3 3 5 5 5 5 5 5 5 5 5 5 5 5 5 5 5 5 3 5 3 5 5 5 5 5 3 3 3 5 5 3 3 5 3 5 3 3 3 5 3 5 5 5 5 5 5 3 5 3 5 5 5 5 5 5 5 5 5 5 5 3 5 5 5 3 5 5 5 5 5 3 5 5 3 5 5 3 5 5 5 3 5 5 5 5 5 5 5 5 3 5 5 5 3 5 5 5 5 3 5 5 5 5 5 5 5 5 5 5 5 5 5 5 5 5 5 5 5 5 5 5 5 5 5 5 3 5 5 5 5 3 5 5 5 5 5 5 3 5 5 5 5 5 5 5 5 5 3 5 5 5 5 5 5 5 5 5 5 5 5 5 5 5 5 5 5 5 5 5 5 5 3 5 5 5 5 3 5 5 5 5 5 5 5 5 5 5 5 5 5 3 5 5 3 3 5 5 5 3 3 5 3 5 3 5 5 5 5 5 3 5 5 3 5 3 5 5 3 3 5 5 5 5 5 5 5 5 3 5 3 5 5 5 5 5 3 5 5 5 5 5 5 5 5 5 5 5 5 5 3 5 5 3 5 5 5 5 5 5 5 5 5 5 5 5 5 5 3 5 5 5 5 3 5 5 5 5 5 3 5 5 3 5 5 5 3 5 5 5 3 5 5 5 5 5 5 5 5 5 5 5 5 5 5 5 5 5 5 5 5 5 5 5 3 5 5 5 5 5 5 5 5 5 5 5 5 3 5 5 3 5 5 5 5 5 5 5 5 5 5 5 5 5 5 5 5 5 3 5 5 5 5 5 5 5 5 5 5 3 5 5 5 3 5 5 3 5 5 5 5 5 5 5 5 5 5 5 5 5 5 5 5 5 5 5 5 5 5 5 5 5 5 5 5 5 5 5 5 5 5 5 5 5 5 5 5 5 5 5 5 5 5 5 5 5 5 5 5 5 5 5 5 5 3 5 5 3 5 3 5 5 5 5 5 5 5 5 3 5 5 3 5 3 5 5 5 5 5 5 5 5 5 3 5 5 5 3 5 3 5 5 5 5 3 5 5 5 5 3 5 5 5 5 5 5 5 3 3 5 5 5 5 5 5 5 5 5 5 5 5 5 5 5 5 5 5 3 5 5 5 3 5 5 3 5 5 5 5 5 5 5 5 5 5 5 5 5 5 5 5 5 5 5 5 5 5 5 5 5 3 5 5 5 5 5 5 5 5 5 5 5 3 5 5 3 5 5 3 5 5 5 5 5 5 5 5 5 5 5 5 5 5 5 5 5 5 5 5 3 5 5 5 5 5 5 5 5 5 5 5 5 5 5 3 5 5 5 5 3 5 5 5 5 5 3 5 5 5 5 5 5 5 5 5 5 5 5 5 5 5 5 5 5 5 5 5 5 5 5 3 5 5 5 5 5 5 5 5 5 5 5 5 5 5 5 3 5 5 5 5 3 5 5 5 5 5 5 5 5 5 5 5 5 5 5 5 5 5 5 5 5 5 5 5 5 5 5 5 5 5 3 5 5 5 5 5 3 5 5 5 5 5 5 5 5 5 5 5 5 5 5 5 5 5 5 5 5 5 5 5 5 5 5 5 5 5 5 5 5 5 5 5 5 5 5 5 5 5 5 5 5 5 5 5 5 5 5 5 5 5 5 5 5 5 5 5 5 5 5 5 5 5 5 5 5 5 5 5 5 5 5 5 3 5 5 5 5 5 3 5 5 5 5 5 5 5 5 5 5 5 5 5 5 5 5 5 5 5 5 5 5 3 5 5 5 5 5 5 5 5 5 5 5 5 5 5 5 5 5 3 5 5 3 5 5 3 5 3 5 5 5 5 3 5 5 3 5 5 5 5 5 5 5 5 5 5 5 5 3 5 5 5 5 5 5 5 5 5 5 5 5 5 5 5 5 5 5 5 5 5 3 5 5 5 5 5 5 5 5 5 5 5 3 5 5 5 5 5 5 5 5 5 5 5 5 5 5 5 5 5 5 5 5 3 5 5 5 5 5 5 5 5 5 5 5 5 3 5 3 5 5 5 3 5 5 3 5 5 3 5 5 3 5 5 5 5 5 5 3 3 5 5 5 5 3 5 5 5 5 5 5 5 5 5 5 5 5 3 5 5 5 5 3 5 5 5 5 5 5 5 5 5 3 5 5 5 5 5 5 5 5 5 5 5 5 5 5 5 3 5 5 5 5 3 3 5 5 5 5 5 5 5 5 3 5 5 5 5 5 5 5 5 5 5 5 5 5 5 5 5 5 5 5 3 5 5 5 5 5 5 5 5 5 5 5 5 5 5 5 5 5 5 5 5 5 5 5 3 5 5 5 3 5 5 5 3 5 3 5 5 3 5 5 5 5 3 5 5 5 5 5 5 5 5 5 5 5 5 5 5 5 5 3 5 5 5 5 5 5 5 5 5 5 5 5 5 5 5 5 5 5 3 5 5 5 5 5 5 5 5 5 5 5 3 5 3 5 5 5 3 5 5 5 3 3 5 5 5 5 5 3 5 3 5 5 5 3 5 5 5 5 5 3 5 5 5 5 5 5 5 5 5 5 5 5 5 5 5 5 5 5 5 5 5 3 5 5 5 5 5 5 5 3 5 5 5 5 3 3 5 5 3 3 5 5 5 5 5 5 5 5 5 5 5 5 5 5 5 5 5 5 5 5 5 5 5 5 5 5 5 5 5 5 5 3 5 3 5 5 5 5 5 5 5 5 5 5 5 5 3 5 5 3 5 3 5 5 3 3 5 5 3 3 5 5 5 5 3 3 5 3 5 5 5 3 3 5 5 5 5 3 5 5 5 5 5 5 3 5 5 5 5 5 5 5 5 5 5 5 5 5 5 5 5 5 3 5 5 5 3 5 5 5 3 5 5 5 3 5 5 5 5 3 5 5 3 5 5 5 5 3 5 5 3 5 5 5 5 5 5 5 5 5 5 5 5 3 5 5 5 5 3 5 5 3 5 5 5 3 5 5 5 3 5 5 5 5 3 5 3 5 5 5 5 5 5 5 5 5 3 5 5 5 5 5 5 5 5 5 5 5 3 5 5 3 5 5 3 5 5 5 5 5 5 5 5 5 5 5 3 5 5 5 5 5 5 3 5 5 3 5 5 5 5 5 5 5 5 5 5 5 5 3 5 5 5 5 5 5 5 3 5 5 5 3 5 5 5 5 5 5 5 5 5 3 5 5 5 5 5 5 5 5 5 5 5 3 5 5 5 3 5 5 5 5 3 5 3 3 3 5 5 5 5 5 5 3 5 5 5 5 3 3 5 5 5 5 5 5 5 3 5 5 5 5 5 5 5 5 5 5 3 5 5 5 5 5 5 5 5 5 5 5 5 3 5 5 5 5 5 5 3 5 3 5 5 5 5 5 5 5 5 5 5 3 5 5 5 5 5 5 5 5 3 5 5 5 5 5 5 5 5 3 5 5 3 5 5 5 5 5 3 5 5 5 3 5 5 5 5 5 5 5 5 5 5 5 5 5 5 5 3 5 5 5 3 3 5 3 5 5 5 5 5 5 3 5 5 5 5 5 5 5 5 5 5 5 5 5 5 5 5 5 5 5 5 5 5 5 5 5 5 5 5 5 5 5 5 5 5 5 5 5 3 3 5 5 5 5 5 3 5 3 5 3 5 5 3 5 3 5 5 3 5 5 3 5 3 5 5 5 5 5 5 3 5 5 5 5 5 5 5 5 5 5 5 5 5 5 5 5 5 5 5 5 5 5 5 5 5 5 5 5 5 5 5 5 5 5 5 5 5 5 5 5 5 5 5 5 5 5 5 5 5 5 5 5 5 5 5 5 5 5 5 5 5 5 5 5 5 5 5 5 5 5 5 5 5 5 5 5 5 5 5 5 3 5 5 5 5 5 3 5 5 5 3 5 5 5 5 3 5 3 5 3 5 5 5 3 5 5 5 5 5 5 5 5 5 5 5 5 5 5 5 5 5 5 5 5 5 5 5 5 3 5 5 5 5 3 5 3 5 5 3 5 5 5 5 5 5 5 3 5 5 3 3 5 5 5 5 5 5 5 5 3 5 3 3 3 5 5 5 5 5 3 5 5 5 5 5 5 5 5 5 5 5 5 5 5 3 5 5 5 5 5 5 3 3 5 5 3 3 5 5 5 5 3 5 5 5 5 5 5 5 3 5 5 5 3 5 5 5 5 5 5 5 5 5 5 5 3 5 5 5 5 5 5 5 5 5 5 5 5 5 5 5 5 5 5 5 5 3 5 5 5 5 5 5 5 5 5 5 5 5 5 5 5 5 5 5 5 5 5 5 5 5 5 5 3 5 5 5 5 5 5 5 5 5 5 5 5 5 5 5 5 5 5 5 5 5 5 5 5 5 5 5 5 3 5 5 5 3 5 5 5 5 5 5 5 5 5 5 5 5 5 5 3 5 5 3 5 5 5 5 5 5 5 5 5 5 5 3 5 5 3 5 5 5 5 5 5 5 5 5 5 5 5 5 5 5 5 5 5 5 5 5 5 5 3 5 5 3 5 5 3 5 3 5 5 3 3 5 5 5 5 5 5 3 3 5 5 5 5 5 3 3 5 5 5 5 5 5 5 5 5 5 5 5 5 5 5 3 5 5 3 5 5 5 5 5 3 5 5 5 5 5 5 5 5 5 5 5 5 5 3 3 5 5 5 5 5 5 3 5 5 5 5 5 5 5 5 3 5 5 5 5 5 5 5 5 3 5 3 5 5 5 5 5 3 3 5 5 5 3 5 3 5 3 5 5 5 5 5 5 3 3 5 5 5 5 5 3 5 5 5 3 5 5 3 5 5 5 5 3 3 5 5 5 5 5 5 5 5 5 5 3 3 5 5 3 5 3 5 3 5 5 5 5 5 5 5 5 5 5 3 5 5 5 5 3 5 5 5 5 5 3 5 5 5 5 5 5 5 5 5 5 5 3 5 5 5 5 5 3 3 5 5 5 5 5 5 5 5 5 5 5 5 5 3 5 5 5 5 5 5 5 5 5 3 5 5 5 5 5 5 5 5 3 5 5 5 5 5 5 5 3 5 5 3 5 5 5 5 3 5 5 5 5 5 5 5 5 3 5 5 5 5 5 3 5 5 3 3 5 5 5 5 5 5 5 5 3 5 5 5 5 5 5 5 5 5 5 5 5 3 5 5 5 5 3 5 5 5 5 5 5 5 5 5 5 5 5 5 5 5 5 5 5 3 5 5 5 5 5 5 5 5 5 5 5 5 5 5 3 5 5 5 5 5 5 5 5 5 5 5 5 5 3 5 5 5 5 5 5 3 5 5 5 5 5 5 5 3 5 5 5 5 5 3 5 5 5 5 5 5 5 5 5 5 5 5 5 5 5 5 5 5 5 5 5 3 5 5 5 5 5 5 5 3 5 5 5 5 5 5 5 3 3 5 5 5 5 5 5 5 5 5 3 5 5 5 5 5 5 5 3 5 5 5 3 5 5 5 5 5 5 3 5 5 5 5 5 5 3 5 5 5 5 5 5 3 5 3 5 3 5 5 3 5 5 3 3 5 3 5 3 5 5 5 5 5 5 5 5 5 5 5 5 5 5 5 5 5 5 5 5 5 5 5 5 5 5 5 3 5 5 5 3 5 5 5 5 5 5 5 5 5 3 5 5 5 5 5 5 5 5 3 3 5 3 5 5 5 5 5 5 5 5 5 5 5 5 5 5 5 5 5 5 5 5 5 5 5 5 5 5 5 5 5 5 5 5 5 5 5 3 5 3 5 5 5 5 5 5 5 5 5 5 5 5 5 5 5 5 5 5 5 5 5 5 5 5 5 5 5 5 5 5 5 5 5 5 5 5 5 5 5 5 5 5 5 5 5 5 5 5 5 3 5 5 5 5 3 5 3 5 5 5 5 5 5 5 5 5 5 3 5 5 5 5 5 5 5 5 5 5 5 5 5 5 3 5 5 5 3 5 5 5 5 5 5 5 5 5 5 5 5 5 5 5 5 5 5 5 5 5 5 5 5 3 5 5 5 5 5 5 3 5 5 5 5 5 5 5 5 5 5 5 5 5 5 3 5 3 5 3 5 5 5 5 5 3 5 5 5 5 5 5 3 5 5 5 5 5 5 5 5 5 5 5 3 5 3 5 3 5 5 5 5 5 3 5 5 5 5 5 5 5 5 5 5 5 5 5 5 5 5 5 5 5 3 5 5 5 5 5 5 5 3 5 5 5 5 5 5 5 5 5 5 5 5 5 5 5 5 5 5 5 3 5 5 5 5 5 3 3 5 5 5 3 5 5 5 3 5 5 5 5 5 5 5 3 5 5 5 3 5 3 5 5 5 5 5 5 5 3 5 5 5 5 5 5 5 5 5 5 5 5 3 5 5 5 5 5 5 5 5 5 5 5 5 5 5 5 5 3 5 5 5 5 5 5 5 5 5 5 5 5 5 5 5 5 5 5 5 5 5 5 5 5 5 5 5 5 5 5 5 5 3 5 5 5 5 5 5 5 5 5 5 5 5 5 5 5 5 5 5 5 5 5 5 5 3 5 5 5 5 5 3 5 5 5 5 5 3 5 5 5 5 5 5 5 5 3 5 5 5 5 5 5 5 5 5 3 5 5 3 5 5 5 5 5 5 5 5 5 5 5 5 5 5 3 5 5 5 5 3 5 5 5 3 5 5 5 5 5 5 5 5 5 5 5 5 5 5 3 5 5 5 5 3 5 3 5 5 5 3 5 5 5 3 3 3 5 5 5 5 3 5 3 5 3 3 5 5 5 5 5 3 5 5 5 5 5 5 3 5 3 5 3 5 5 5 5 3 3 5 5 5 5 5 5 5 5 5 5 5 5 3 5 5 5 5 5 5 5 5 3 5 5 5 3 5 3 5 5 5 5 3 3 3 5 5 3 5 5 3 5 5 5 3 5 5 5 5 5 3 5 5 5 5 5 5 5 3 5 5 3 3 5 5 5 3 3 5 5 5 5 5 5 3 5 5 5 5 5 3 5 5 5 5 5 5 5 5 5 5 5 5 5 5 5 5 5 5 5 5 5 5 3 5 3 5 5 3 5 5 5 5 3 5 5 5 5 5 5 5 5 5 5 3 5 3 5 3 5 3 5 5 3 5 5 5 5 5 5 5 5 5 3 5 5 5 5 5 5 5 5 5 5 5 5 5 5 5 5 5 5 5 5 5 5 5 5 5 5 5 5 5 5 5 5 5 5 5 5 3 5 5 5 5 3 5 5 5 5 5 5 5 5 5 5 5 5 5 3 5 5 5 5 5 5 5 5 5 5 3 5 5 5 5 5 3 5 5 5 5 5 5 5 5 5 5 5 3 5 5 5 5 5 5 3 5 5 5 3 5 3 3 5 5 5 5 5 5 5 5 3 5 5 5 3 5 5 5 3 5 5 5 5 5 5 5 5 5 3 3 5 5 5 5 5 5 5 5 5 5 5 5 5 5 5 5 5 5 5 5 3 3 5 5 5 5 5 5 5 5 5 5 5 5 5 5 5 3 5 5 5 5 3 5 5 5 5 5 5 5 5 5 5 5 5 5 5 5 5 5 5 5 5 5 5 5 3 5 5 5 5 5 3 5 5 5 5 3 3 5 5 5 5 3 5 3 5 3 3 5 5 5 5 3 5 3 5 5 3 5 3 5 3 5 5 5 5 5 5 5 5 5 5 5 5 5 5 5 5 5 3 5 5 5 5 3 3 5 5 5 5 5 5 5 3 5 5 3 5 3 5 5 5 5 5 5 3 5 5 5 5 5 5 5 5 5 5 5 5 3 5 5 3 5 5 5 5 5 5 5 5 5 5 5 5 5 5 5 5 5 5 5 3 5 5 5 5 3 3 5 5 5 5 5 5 5 5 5 3 5 5 3 5 3 5 5 5 5 3 5 5 5 5 5 5 5 5 5 5 5 5 5 5 3 5 5 5 3 5 5 5 5 5 5 5 5 5 5 5 5 3 5 3 5 5 5 5 3 5 5 5 3 5 5 5 5 5 5 5 5 5 5 5 3 3 5 5 5 5 5 5 5 5 5 3 5 5 5 5 5 5 5 5 3 5 5 5 5 3 5 5 5 5 3 5 3 5 5 5 5 5 5 5 5 5 5 5 5 5 5 5 5 5 3 5 5 5 5 5 5 5 3 5 5 5 5 5 5 5 5 5 5 5 5 5 3 3 5 5 5 5 3 5 5 5 5 5 3 5 5 5 5 5 5 3 5 5 3 5 3 5 5 3 5 5 5 5 5 5 5 3 5 5 5 5 5 5 5 5 3 3 3 5 5 5 5 5 5 5 5 5 3 5 5 5 5 5 5 5 3 5 5 5 3 5 5 3 5 5 5 5 3 5 5 5 5 5 5 5 5 3 5 3 5 5 5 5 5 5 3 5 5 3 5 5 5 5 5 5 5 5 5 3 5 5 5 5 5 5 3 5 5 5 5 3 5 5 5 5 5 5 5 5 5 5 5 5 5 5 5 5 5 5 5 5 5 5 5 5 5 5 5 5 5 5 5 5 5 5 5 5 5 5 5 5 5 5 5 5 5 5 5 5 5 5 5 5 3 5 5 3 5 3 3 5 5 3 5 3 5 5 5 5 3 5 5 3 5 5 5 5 5 5 3 3 5 5 5 5 5 5 3 5 3 5 3 3 5 3 5 3 3 5 5 5 5 5 5 5 5 5 3 5 3 5 5 5 5 5 5 5 3 3 5 5 5 5 3 5 3 5 5 3 5 3 5 5 5 3 5 3 3 5 5 5 3 5 3 3 5 5 5 3 5 5 3 5 5 5 5 5 5 5 3 5 5 5 5 5 5 5 5 5 5 5 5 5 5 5 5 5 5 5 5 5 5 5 5 5 5 5 5 5 5 5 3 5 5 5 3 5 5 5 3 3 5 5 5 5 3 5 5 5 5 5 5 5 5 5 5 5 5 5 5 5 5 5 5 5 3 5 3 5 5 5 5 3 5 5 3 5 5 5 5 5 5 5 3 5 5 5 5 3 5 5 5 3 5 3 3 5 5 3 5 5 5 5 5 5 3 5 5 5 5 5 3 5 5 5 3 5 3 5 5 5 5 5 3 5 3 3 5 3 5 5 3 5 5 3 5 5 5 3 5 3 5 5 5 3 5 5 5 5 5 5 5 5 5 3 5 5 5 5 5 5 5 5 5 3 5 5 5 5 3 5 5 5 3 5 5 5 5 5 5 5 5 3 5 5 3 5 5 5 5 5 5 3 3 5 5 3 5 5 5 5 5 5 5 5 5 3 5 5 5 5 5 3 5 3 5 5 5 5 5 5 5 5 5 5 3 5 3 5 5 5 
</DataArray>
</Cells>
<PointData Scalars="" Vectors="displacement," Tensors="">
<DataArray type="Float64" Name="displacement" NumberOfComponents="3" format="ascii">
0.034998729066143701 0.034998109392336475 0 0.034781478742234161 0.033446716146835115 0 0.032239129075285339 0.035015254548420451 0 0.034998729066143701 0.034998109392336475 0 0.034781478742234161 0.033446716146835115 0 0.034998054388774145 0.031621491226557059 0 0.034998729066143701 0.034998109392336475 0 0.032239129075285339 0.035015254548420451 0 0.030263452180676036 0.034998302605305398 0 0.034781478742234161 0.033446716146835115 0 0.035147357886041279 0.031618617839941118 0 0.034998054388774145 0.031621491226557059 0 0.034781478742234161 0.033446716146835115 0 0.035017667071244617 0.032488363323305312 0 0.035147357886041279 0.031618617839941118 0 0.034781478742234161 0.033446716146835115 0 0.035017667071244617 0.032488363323305312 0 0.033864387760121691 0.034044400445572116 0 0.032419268634201685 0.03748283969850473 0 0.031723126865491377 0.037197701680711313 0 0.031826447068006955 0.036851804911315046 0 0.034222541431026876 0.033395892076567464 0 0.032769621505405438 0.035571123239002043 0 0.035215529946941576 0.029883382769318761 0 0.034799646897240855 0.02976798242005857 0 0.034380344830335023 0.029218475241462125 0 0.032419268634201685 0.03748283969850473 0 0.031692266185183622 0.037541958502011877 0 0.031723126865491377 0.037197701680711313 0 0.034222541431026876 0.033395892076567464 0 0.033107428469954708 0.033338068132024994 0 0.035215529946941576 0.029883382769318761 0 0.034799646897240855 0.02976798242005857 0 0.035149584777127485 0.030135804198187566 0 0.035215529946941576 0.029883382769318761 0 0.035385693174826392 0.03062536054411575 0 0.035149584777127485 0.030135804198187566 0 0.034222541431026876 0.033395892076567464 0 0.034511938259055928 0.031357251225658828 0 0.035385693174826392 0.03062536054411575 0 0.035147357886041279 0.031618617839941118 0 0.034998054388774145 0.031621491226557059 0 0.036069145038196651 0.031333715706129361 0 0.035385693174826392 0.03062536054411575 0 0.035147357886041279 0.031618617839941118 0 0.034222541431026876 0.033395892076567464 0 0.035452592729864223 0.03207340578953391 0 0.031905602602136804 0.029518784315515752 0 0.034030100970744361 0.0293900332832439 0 0.031603411111272142 0.030658350647937736 0 0.033848891846260214 0.029394097355978338 0 0.032004059759912273 0.030069302742855904 0 0.030558873328241448 0.035422285707696469 0 0.031544800760939989 0.037928387869831118 0 0.033656023720534556 0.029481333234666628 0 0.034030100970744361 0.0293900332832439 0 0.032580081304146497 0.029312132664207183 0 0.030558873328241448 0.035422285707696469 0 0.033107428469954708 0.033338068132024994 0 0.033656023720534556 0.029481333234666628 0 0.034060846668109095 0.029548946988411144 0 0.034030100970744361 0.0293900332832439 0 0.031101709793067422 0.037574716301732113 0 0.031692266185183622 0.037541958502011877 0 0.031723126865491377 0.037197701680711313 0 0.031905602602136804 0.029518784315515752 0 0.034030100970744361 0.0293900332832439 0 0.034380344830335023 0.029218475241462125 0 0.034060846668109095 0.029548946988411144 0 0.034406682259565724 0.029606522137986681 0 0.034122978523238118 0.029727571254376386 0 0.034060846668109095 0.029548946988411144 0 0.034030100970744361 0.0293900332832439 0 0.034406682259565724 0.029606522137986681 0 0.034799646897240855 0.02976798242005857 0 0.034406682259565724 0.029606522137986681 0 0.034380344830335023 0.029218475241462125 0 0.034799646897240855 0.02976798242005857 0 0.034406682259565724 0.029606522137986681 0 0.034724721437189555 0.029931779327409064 0 0.034030100970744361 0.0293900332832439 0 0.034406682259565724 0.029606522137986681 0 0.034380344830335023 0.029218475241462125 0 0.031723126865491377 0.037197701680711313 0 0.031826447068006955 0.036851804911315046 0 0.031089330790404112 0.036999259233536787 0 0.03050246558735447 0.038166744896665501 0 0.031089330790404112 0.036999259233536787 0 0.030382084748804203 0.036987964140611257 0 0.03050246558735447 0.038166744896665501 0 0.031723126865491377 0.037197701680711313 0 0.031089330790404112 0.036999259233536787 0 0.030382084748804203 0.036987964140611257 0 0.030950655034400778 0.035917886308088044 0 0.029609203276330303 0.036647770138885767 0 0.031089330790404112 0.036999259233536787 0 0.030382084748804203 0.036987964140611257 0 0.030950655034400778 0.035917886308088044 0 0.034781478742234161 0.033446716146835115 0 0.033864387760121691 0.034044400445572116 0 0.032239129075285339 0.035015254548420451 0 0.032769621505405438 0.035571123239002043 0 0.031524992651615166 0.035333146639873025 0 0.031826447068006955 0.036851804911315046 0 0.031089330790404112 0.036999259233536787 0 0.030950655034400778 0.035917886308088044 0 0.031524992651615166 0.035333146639873025 0 0.030258562015493061 0.034999879456007181 0 0.030950655034400778 0.035917886308088044 0 0.030257281218217014 0.03499986797028945 0 0.029361309552281632 0.035801442080036466 0 0.030257281218217014 0.03499986797028945 0 0.029361309552281632 0.035801442080036466 0 0.028188596762935843 0.034999888847550682 0 0.029361309552281632 0.035801442080036466 0 0.028188596762935843 0.034999888847550682 0 0.028301607209836287 0.036437213449820621 0 0.029361309552281632 0.035801442080036466 0 0.029609203276330303 0.036647770138885767 0 0.028301607209836287 0.036437213449820621 0 0.030950655034400778 0.035917886308088044 0 0.029361309552281632 0.035801442080036466 0 0.029609203276330303 0.036647770138885767 0 0.027183709789265386 0.035726352845012917 0 0.028188596762935843 0.034999888847550682 0 0.026118533022500692 0.034999896942065796 0 0.027183709789265386 0.035726352845012917 0 0.028188596762935843 0.034999888847550682 0 0.028301607209836287 0.036437213449820621 0 0.027183709789265386 0.035726352845012917 0 0.028301607209836287 0.036437213449820621 0 0.026777567308988184 0.03680170828441965 0 0.027183709789265386 0.035726352845012917 0 0.026777567308988184 0.03680170828441965 0 0.025408186374162912 0.035961775750850619 0 0.025929746773724373 0.036188788621016939 0 0.027400797253726114 0.036994696586022745 0 0.02504674368545623 0.035567495466520972 0 0.025071758250390482 0.036494023244105389 0 0.026799140760305679 0.036402673771780927 0 0.028301607209836287 0.036437213449820621 0 0.026777567308988184 0.03680170828441965 0 0.028010029507302931 0.037482394887743235 0 0.02687395010925453 0.037432653709973514 0 0.024806632788094918 0.037223335273174667 0 0.026799140760305679 0.036402673771780927 0 0.028118316474934422 0.038120028232257352 0 0.025071541220651437 0.037808780130002821 0 0.025071758250390482 0.036494023244105389 0 0.026799140760305679 0.036402673771780927 0 0.025071541220651437 0.037808780130002821 0 0.03050246558735447 0.038166744896665501 0 0.030382084748804203 0.036987964140611257 0 0.029560444132747093 0.037439358298549864 0 0.030382084748804203 0.036987964140611257 0 0.029609203276330303 0.036647770138885767 0 0.029560444132747093 0.037439358298549864 0 0.029609203276330303 0.036647770138885767 0 0.029560444132747093 0.037439358298549864 0 0.028803629474283665 0.037285437009964291 0 0.029609203276330303 0.036647770138885767 0 0.028301607209836287 0.036437213449820621 0 0.028803629474283665 0.037285437009964291 0 0.028301607209836287 0.036437213449820621 0 0.028010029507302931 0.037482394887743235 0 0.028803629474283665 0.037285437009964291 0 0.029560444132747093 0.037439358298549864 0 0.028803629474283665 0.037285437009964291 0 0.028736596363723318 0.038068242655933164 0 0.027400797253726114 0.036994696586022745 0 0.028649643486942138 0.03797164157629427 0 0.028010029507302931 0.037482394887743235 0 0.028803629474283665 0.037285437009964291 0 0.028736596363723318 0.038068242655933164 0 0.026799140760305679 0.036402673771780927 0 0.028736596363723318 0.038068242655933164 0 0.028118316474934422 0.038120028232257352 0 0.03050246558735447 0.038166744896665501 0 0.029560444132747093 0.037439358298549864 0 0.028736596363723318 0.038068242655933164 0 0.030558873328241448 0.035422285707696469 0 0.02687395010925453 0.037432653709973514 0 0.03050246558735447 0.038166744896665501 0 0.028736596363723318 0.038068242655933164 0 0.028118316474934422 0.038120028232257352 0 0.029131449666779091 0.031352723674447164 0 0.028977258462325961 0.031941441349862661 0 0.031603411111272142 0.030658350647937736 0 0.031905602602136804 0.029518784315515752 0 0.029131449666779091 0.031352723674447164 0 0.031603411111272142 0.030658350647937736 0 0.030558873328241448 0.035422285707696469 0 0.027780381675732973 0.033982392024912586 0 0.028427530062401719 0.035924024088224579 0 0.026115753627892313 0.036261035632066015 0 0.026778301074852705 0.036982438250728472 0 0.032230449798454061 0.029939524798082172 0 0.030885775018261077 0.029889943219007443 0 0.032580081304146497 0.029312132664207183 0 0.030310844683608163 0.030601145191943707 0 0.032004059759912273 0.030069302742855904 0 0.032230449798454061 0.029939524798082172 0 0.030885775018261077 0.029889943219007443 0 0.031552635835234939 0.030168925227855404 0 0.029131449666779091 0.031352723674447164 0 0.028977258462325961 0.031941441349862661 0 0.026329415214015873 0.03323062046637925 0 0.027780381675732973 0.033982392024912586 0 0.026936463794737096 0.03459722697471488 0 0.025867962371230669 0.03701355445633682 0 0.026778301074852705 0.036982438250728472 0 0.025313123757971123 0.037747431189771273 0 0.026115753627892313 0.036261035632066015 0 0.025867962371230669 0.03701355445633682 0 0.026778301074852705 0.036982438250728472 0 0.030885775018261077 0.029889943219007443 0 0.031018710896840575 0.030523634420816004 0 0.030015916350869806 0.030421818692176354 0 0.031018710896840575 0.030523634420816004 0 0.030015916350869806 0.030421818692176354 0 0.03052074347833858 0.030913394086564589 0 0.030310844683608163 0.030601145191943707 0 0.026936463794737096 0.03459722697471488 0 0.031018710896840575 0.030523634420816004 0 0.032213136703360103 0.031312208152650511 0 0.03052074347833858 0.030913394086564589 0 0.031018710896840575 0.030523634420816004 0 0.031999157546081569 0.030433501632656595 0 0.032213136703360103 0.031312208152650511 0 0.032230449798454061 0.029939524798082172 0 0.031999157546081569 0.030433501632656595 0 0.031552635835234939 0.030168925227855404 0 0.031018710896840575 0.030523634420816004 0 0.031999157546081569 0.030433501632656595 0 0.031552635835234939 0.030168925227855404 0 0.030885775018261077 0.029889943219007443 0 0.031018710896840575 0.030523634420816004 0 0.031552635835234939 0.030168925227855404 0 0.024306311020752685 0.036737374533663075 0 0.024683736172293039 0.037355845875219021 0 0.023905277647946782 0.037597577925701918 0 0.024306311020752685 0.036737374533663075 0 0.024683736172293039 0.037355845875219021 0 0.02528494059752515 0.037010588553239132 0 0.026115753627892313 0.036261035632066015 0 0.024306311020752685 0.036737374533663075 0 0.02528494059752515 0.037010588553239132 0 0.024683736172293039 0.037355845875219021 0 0.02528494059752515 0.037010588553239132 0 0.025313123757971123 0.037747431189771273 0 0.026115753627892313 0.036261035632066015 0 0.025867962371230669 0.03701355445633682 0 0.02528494059752515 0.037010588553239132 0 0.025867962371230669 0.03701355445633682 0 0.02528494059752515 0.037010588553239132 0 0.025313123757971123 0.037747431189771273 0 0.026936463794737096 0.03459722697471488 0 0.023949698640068719 0.037895822776368285 0 0.024683736172293039 0.037355845875219021 0 0.025313123757971123 0.037747431189771273 0 0.02461392866632562 0.037936891968056961 0 0.02461392866632562 0.037936891968056961 0 0.023905277647946782 0.037597577925701918 0 0.023972667855626711 0.038320637331300263 0 0.026936463794737096 0.03459722697471488 0 0.02695936840814148 0.034309622446152821 0 0.025238600192486787 0.037738081466752282 0 0.02461392866632562 0.037936891968056961 0 0.023972667855626711 0.038320637331300263 0 0.024683736172293039 0.037355845875219021 0 0.02461392866632562 0.037936891968056961 0 0.023905277647946782 0.037597577925701918 0 0.030015916350869806 0.030421818692176354 0 0.030012314040852445 0.030798102253431506 0 0.029619160902029498 0.030543502545004778 0 0.030015916350869806 0.030421818692176354 0 0.030012314040852445 0.030798102253431506 0 0.03052074347833858 0.030913394086564589 0 0.030012314040852445 0.030798102253431506 0 0.029619160902029498 0.030543502545004778 0 0.029531052704262782 0.030714418854944112 0 0.030012314040852445 0.030798102253431506 0 0.029531052704262782 0.030714418854944112 0 0.029792402845642964 0.03096289361747169 0 0.030848734231617835 0.03116755976163376 0 0.03081404453542377 0.030941607534975692 0 0.03030370709712997 0.030861655158179083 0 0.03052074347833858 0.030913394086564589 0 0.030326937070618586 0.030819218875993138 0 0.03030370709712997 0.030861655158179083 0 0.030326937070618586 0.030819218875993138 0 0.030289431774862614 0.030809996134156366 0 0.030012314040852445 0.030798102253431506 0 0.03052074347833858 0.030913394086564589 0 0.030268336420380598 0.030829230782020323 0 0.03052074347833858 0.030913394086564589 0 0.030268336420380598 0.030829230782020323 0 0.030326937070618586 0.030819218875993138 0 0.030012314040852445 0.030798102253431506 0 0.030268336420380598 0.030829230782020323 0 0.030094971074685964 0.030867396284815687 0 0.030268336420380598 0.030829230782020323 0 0.030239756296489187 0.030817038932897677 0 0.030326937070618586 0.030819218875993138 0 0.030239756296489187 0.030817038932897677 0 0.030326937070618586 0.030819218875993138 0 0.030289431774862614 0.030809996134156366 0 0.030239756296489187 0.030817038932897677 0 0.030289431774862614 0.030809996134156366 0 0.030259209074764894 0.030804017904225611 0 0.034343584947985006 0.028908177601863184 0 0.03372414154486713 0.028478499451688243 0 0.030302785049590941 0.030808450029518129 0 0.030289431774862614 0.030809996134156366 0 0.030259209074764894 0.030804017904225611 0 0.030302785049590941 0.030808450029518129 0 0.030274104996576661 0.030799596106139061 0 0.030259209074764894 0.030804017904225611 0 0.03030370709712997 0.030861655158179083 0 0.030302785049590941 0.030808450029518129 0 0.030339381813387769 0.030824585639079558 0 0.03030370709712997 0.030861655158179083 0 0.030302785049590941 0.030808450029518129 0 0.030289431774862614 0.030809996134156366 0 0.038259460788739194 0.027175224132068354 0 0.037110445745859678 0.027515484845244506 0 0.037860485366739513 0.028585864984044584 0 0.037110445745859678 0.027515484845244506 0 0.036445166592072559 0.028873765087659192 0 0.037860485366739513 0.028585864984044584 0 0.034343584947985006 0.028908177601863184 0 0.034177122869732027 0.029824662665106801 0 0.038259460788739194 0.027175224132068354 0 0.037110445745859678 0.027515484845244506 0 0.036970373627786685 0.026024750717260715 0 0.038259460788739194 0.027175224132068354 0 0.036970373627786685 0.026024750717260715 0 0.038651311443038093 0.025755899674409572 0 0.037110445745859678 0.027515484845244506 0 0.036107888917474101 0.027105218193129194 0 0.036970373627786685 0.026024750717260715 0 0.036107888917474101 0.027105218193129194 0 0.034999975446982724 0.027426248337656573 0 0.034999971137076522 0.025657873292262569 0 0.036107888917474101 0.027105218193129194 0 0.034999971137076522 0.025657873292262569 0 0.036970373627786685 0.026024750717260715 0 0.036107888917474101 0.027105218193129194 0 0.034999975446982724 0.027426248337656573 0 0.036445166592072559 0.028873765087659192 0 0.037110445745859678 0.027515484845244506 0 0.036107888917474101 0.027105218193129194 0 0.036445166592072559 0.028873765087659192 0 0.035108202367012807 0.030239641308320627 0 0.034735946835831213 0.030123717813299224 0 0.034202241069718614 0.030387970555464588 0 0.035385693174826392 0.03062536054411575 0 0.034998054388774145 0.031621491226557059 0 0.035000522227639365 0.029194886452000638 0 0.035108202367012807 0.030239641308320627 0 0.034735946835831213 0.030123717813299224 0 0.035236340663747874 0.030021780877819045 0 0.036041744441581598 0.029479538996071378 0 0.034999601764702709 0.029194865332925125 0 0.034999975446982724 0.027426248337656573 0 0.036445166592072559 0.028873765087659192 0 0.034999964264303088 0.029194441066532708 0 0.035108202367012807 0.030239641308320627 0 0.035000522227639365 0.029194886452000638 0 0.035236340663747874 0.030021780877819045 0 0.035385693174826392 0.03062536054411575 0 0.035000522227639365 0.029194886452000638 0 0.035236340663747874 0.030021780877819045 0 0.034735946835831213 0.030123717813299224 0 0.035236340663747874 0.030021780877819045 0 0.034724721437189555 0.029931779327409064 0 0.035236340663747874 0.030021780877819045 0 0.035149584777127485 0.030135804198187566 0 0.034724721437189555 0.029931779327409064 0 0.035385693174826392 0.03062536054411575 0 0.035236340663747874 0.030021780877819045 0 0.035149584777127485 0.030135804198187566 0 0.034799646897240855 0.02976798242005857 0 0.035149584777127485 0.030135804198187566 0 0.034724721437189555 0.029931779327409064 0 0.034406682259565724 0.029606522137986681 0 0.034724721437189555 0.029931779327409064 0 0.034122978523238118 0.029727571254376386 0 0.034724721437189555 0.029931779327409064 0 0.034202678320876805 0.030012337865841024 0 0.034122978523238118 0.029727571254376386 0 0.034735946835831213 0.030123717813299224 0 0.034202678320876805 0.030012337865841024 0 0.034202241069718614 0.030387970555464588 0 0.034735946835831213 0.030123717813299224 0 0.034724721437189555 0.029931779327409064 0 0.034202678320876805 0.030012337865841024 0 0.034202678320876805 0.030012337865841024 0 0.033655692935999397 0.030062796187773574 0 0.034202241069718614 0.030387970555464588 0 0.034202678320876805 0.030012337865841024 0 0.033643359007342236 0.029767001805583809 0 0.033655692935999397 0.030062796187773574 0 0.034202678320876805 0.030012337865841024 0 0.034122978523238118 0.029727571254376386 0 0.033643359007342236 0.029767001805583809 0 0.033656023720534556 0.029481333234666628 0 0.034060846668109095 0.029548946988411144 0 0.034122978523238118 0.029727571254376386 0 0.033656023720534556 0.029481333234666628 0 0.034122978523238118 0.029727571254376386 0 0.033643359007342236 0.029767001805583809 0 0.033656023720534556 0.029481333234666628 0 0.033244278646588729 0.029588198764207405 0 0.033643359007342236 0.029767001805583809 0 0.033656023720534556 0.029481333234666628 0 0.033244278646588729 0.029588198764207405 0 0.032580081304146497 0.029312132664207183 0 0.033244278646588729 0.029588198764207405 0 0.033643359007342236 0.029767001805583809 0 0.033086173401810921 0.029811904896685094 0 0.033244278646588729 0.029588198764207405 0 0.032580081304146497 0.029312132664207183 0 0.033086173401810921 0.029811904896685094 0 0.032230449798454061 0.029939524798082172 0 0.032580081304146497 0.029312132664207183 0 0.033086173401810921 0.029811904896685094 0 0.032230449798454061 0.029939524798082172 0 0.033086173401810921 0.029811904896685094 0 0.033078951922273156 0.030385302402119917 0 0.033086173401810921 0.029811904896685094 0 0.033655692935999397 0.030062796187773574 0 0.033078951922273156 0.030385302402119917 0 0.033643359007342236 0.029767001805583809 0 0.033086173401810921 0.029811904896685094 0 0.033655692935999397 0.030062796187773574 0 0.032213136703360103 0.031312208152650511 0 0.033078951922273156 0.030385302402119917 0 0.033932422029686285 0.031168231222018752 0 0.033655692935999397 0.030062796187773574 0 0.033078951922273156 0.030385302402119917 0 0.034202241069718614 0.030387970555464588 0 0.030848734231617835 0.03116755976163376 0 0.034177122869732027 0.029824662665106801 0 0.032230449798454061 0.029939524798082172 0 0.031999157546081569 0.030433501632656595 0 0.033078951922273156 0.030385302402119917 0 0.031999157546081569 0.030433501632656595 0 0.032213136703360103 0.031312208152650511 0 0.033078951922273156 0.030385302402119917 0 0.036041744441581598 0.029479538996071378 0 0.034177122869732027 0.029824662665106801 0 0.034177122869732027 0.029824662665106801 0 0.034057792154366745 0.030628068517572465 0 0.035108202367012807 0.030239641308320627 0 0.034091457439930785 0.030785371237005345 0 0.034202241069718614 0.030387970555464588 0 0.033078951922273156 0.030385302402119917 0 0.033932422029686285 0.031168231222018752 0 0.034202241069718614 0.030387970555464588 0 0.018355015260204003 0.036369558735625765 0 0.019105141944101234 0.036335349824984806 0 0.018481991594537495 0.035983114489290972 0 0.018355015260204003 0.036369558735625765 0 0.018481991594537495 0.035983114489290972 0 0.017675522731423393 0.035881974221805862 0 0.019105141944101234 0.036335349824984806 0 0.020029394534446347 0.036534636316820447 0 0.01921128431076637 0.036809198552008426 0 0.018355015260204003 0.036369558735625765 0 0.019105141944101234 0.036335349824984806 0 0.01921128431076637 0.036809198552008426 0 0.019105141944101234 0.036335349824984806 0 0.018481991594537495 0.035983114489290972 0 0.019624707575272349 0.035772793928039663 0 0.019105141944101234 0.036335349824984806 0 0.019624707575272349 0.035772793928039663 0 0.020029394534446347 0.036534636316820447 0 0.018481991594537495 0.035983114489290972 0 0.017901827762458557 0.035731167135307489 0 0.017675522731423393 0.035881974221805862 0 0.018481991594537495 0.035983114489290972 0 0.017901827762458557 0.035731167135307489 0 0.018353912261043361 0.035606345745337331 0 0.017901827762458557 0.035731167135307489 0 0.018353912261043361 0.035606345745337331 0 0.017477840908347426 0.035442263821246829 0 0.018353912261043361 0.035606345745337331 0 0.01832729809416558 0.034999468254369108 0 0.017477840908347426 0.035442263821246829 0 0.01832729809416558 0.034999468254369108 0 0.019624707575272349 0.035772793928039663 0 0.020234293484318287 0.034999509641030824 0 0.018481991594537495 0.035983114489290972 0 0.018353912261043361 0.035606345745337331 0 0.019624707575272349 0.035772793928039663 0 0.018353912261043361 0.035606345745337331 0 0.01832729809416558 0.034999468254369108 0 0.019624707575272349 0.035772793928039663 0 0.019624707575272349 0.035772793928039663 0 0.021067337322412522 0.035487226676622304 0 0.0211416723950895 0.036080088209898616 0 0.019624707575272349 0.035772793928039663 0 0.020234293484318287 0.034999509641030824 0 0.021067337322412522 0.035487226676622304 0 0.020234293484318287 0.034999509641030824 0 0.021067337322412522 0.035487226676622304 0 0.022141663377529909 0.034999512585019515 0 0.021067337322412522 0.035487226676622304 0 0.0211416723950895 0.036080088209898616 0 0.022365645675910976 0.035563292113505368 0 0.019624707575272349 0.035772793928039663 0 0.0211416723950895 0.036080088209898616 0 0.020029394534446347 0.036534636316820447 0 0.0211416723950895 0.036080088209898616 0 0.020029394534446347 0.036534636316820447 0 0.021279814104111325 0.036904334524404794 0 0.022435952010776791 0.03676471992959153 0 0.022484032303182522 0.036105416556889078 0 0.021279814104111325 0.036904334524404794 0 0.022435952010776791 0.03676471992959153 0 0.022484032303182522 0.036105416556889078 0 0.023705345138889059 0.036237211349285439 0 0.0211416723950895 0.036080088209898616 0 0.022484032303182522 0.036105416556889078 0 0.021279814104111325 0.036904334524404794 0 0.0211416723950895 0.036080088209898616 0 0.022484032303182522 0.036105416556889078 0 0.022365645675910976 0.035563292113505368 0 0.021067337322412522 0.035487226676622304 0 0.022365645675910976 0.035563292113505368 0 0.022141663377529909 0.034999512585019515 0 0.022365645675910976 0.035563292113505368 0 0.022141663377529909 0.034999512585019515 0 0.024045813418709271 0.034999540478957716 0 0.022365645675910976 0.035563292113505368 0 0.024045813418709271 0.034999540478957716 0 0.02337881647008213 0.035515439189614202 0 0.022484032303182522 0.036105416556889078 0 0.022365645675910976 0.035563292113505368 0 0.02337881647008213 0.035515439189614202 0 0.02337881647008213 0.035515439189614202 0 0.024036292815107184 0.0352085020523304 0 0.023705345138889059 0.036237211349285439 0 0.024045813418709271 0.034999540478957716 0 0.02337881647008213 0.035515439189614202 0 0.024036292815107184 0.0352085020523304 0 0.024048588549957985 0.035000094872606691 0 0.024746133488616699 0.035564253181242469 0 0.027183709789265386 0.035726352845012917 0 0.025408186374162912 0.035961775750850619 0 0.026118533022500692 0.034999896942065796 0 0.024048574081060866 0.035000014207948509 0 0.025408186374162912 0.035961775750850619 0 0.026118533022500692 0.034999896942065796 0 0.025929746773724373 0.036188788621016939 0 0.024746133488616699 0.035564253181242469 0 0.02504674368545623 0.035567495466520972 0 0.024036292815107184 0.0352085020523304 0 0.023705345138889059 0.036237211349285439 0 0.02504674368545623 0.035567495466520972 0 0.025071758250390482 0.036494023244105389 0 0.023705345138889059 0.036237211349285439 0 0.022484032303182522 0.036105416556889078 0 0.02337881647008213 0.035515439189614202 0 0.023705345138889059 0.036237211349285439 0 0.022435952010776791 0.03676471992959153 0 0.023705345138889059 0.036237211349285439 0 0.02314454069379325 0.037254194048543215 0 0.025071541220651437 0.037808780130002821 0 0.023705345138889059 0.036237211349285439 0 0.02314454069379325 0.037254194048543215 0 0.025071758250390482 0.036494023244105389 0 0.025071541220651437 0.037808780130002821 0 0.023705345138889059 0.036237211349285439 0 0.024306311020752685 0.036737374533663075 0 0.02314454069379325 0.037254194048543215 0 0.023905277647946782 0.037597577925701918 0 0.024806632788094918 0.037223335273174667 0 0.023224991537989393 0.037283650048885751 0 0.02314454069379325 0.037254194048543215 0 0.023124083204276436 0.037987857709779499 0 0.022145555055722108 0.037749394499884258 0 0.02314454069379325 0.037254194048543215 0 0.023124083204276436 0.037987857709779499 0 0.023905277647946782 0.037597577925701918 0 0.023124083204276436 0.037987857709779499 0 0.023905277647946782 0.037597577925701918 0 0.023972667855626711 0.038320637331300263 0 0.02695936840814148 0.034309622446152821 0 0.025932459412087706 0.034681848967254063 0 0.023124083204276436 0.037987857709779499 0 0.023972667855626711 0.038320637331300263 0 0.022813879587961806 0.038782306806864876 0 0.029619160902029498 0.030543502545004778 0 0.029531052704262782 0.030714418854944112 0 0.029145446601632135 0.030541909025228815 0 0.029531052704262782 0.030714418854944112 0 0.029145446601632135 0.030541909025228815 0 0.029282584618875347 0.03086228064551208 0 0.023124083204276436 0.037987857709779499 0 0.022813879587961806 0.038782306806864876 0 0.022145555055722108 0.037749394499884258 0 0.022813879587961806 0.038782306806864876 0 0.021585072121904379 0.038445736046920496 0 0.022145555055722108 0.037749394499884258 0 0.022813879587961806 0.038782306806864876 0 0.021585072121904379 0.038445736046920496 0 0.021606161093612783 0.03921720135201829 0 0.025932459412087706 0.034681848967254063 0 0.02504954167911265 0.034775178910006206 0 0.021585072121904379 0.038445736046920496 0 0.020614785544245274 0.038663710119503231 0 0.021606161093612783 0.03921720135201829 0 0.021585072121904379 0.038445736046920496 0 0.022145555055722108 0.037749394499884258 0 0.020717478240703156 0.037814218854156638 0 0.022145555055722108 0.037749394499884258 0 0.021279814104111325 0.036904334524404794 0 0.020717478240703156 0.037814218854156638 0 0.022435952010776791 0.03676471992959153 0 0.02314454069379325 0.037254194048543215 0 0.022145555055722108 0.037749394499884258 0 0.022435952010776791 0.03676471992959153 0 0.022145555055722108 0.037749394499884258 0 0.021279814104111325 0.036904334524404794 0 0.021279814104111325 0.036904334524404794 0 0.020097261785282271 0.037108539504017893 0 0.020717478240703156 0.037814218854156638 0 0.020029394534446347 0.036534636316820447 0 0.021279814104111325 0.036904334524404794 0 0.020097261785282271 0.037108539504017893 0 0.020029394534446347 0.036534636316820447 0 0.020097261785282271 0.037108539504017893 0 0.01921128431076637 0.036809198552008426 0 0.020097261785282271 0.037108539504017893 0 0.020717478240703156 0.037814218854156638 0 0.019289198942047198 0.037470972700658689 0 0.021585072121904379 0.038445736046920496 0 0.020717478240703156 0.037814218854156638 0 0.020614785544245274 0.038663710119503231 0 0.020614785544245274 0.038663710119503231 0 0.019575090716068024 0.038235229481217554 0 0.019446560587200699 0.039082613491806299 0 0.020717478240703156 0.037814218854156638 0 0.020614785544245274 0.038663710119503231 0 0.019575090716068024 0.038235229481217554 0 0.020717478240703156 0.037814218854156638 0 0.019575090716068024 0.038235229481217554 0 0.019289198942047198 0.037470972700658689 0 0.018718636862885496 0.037908353294815629 0 0.018354756424228031 0.03745162449055061 0 0.019289198942047198 0.037470972700658689 0 0.019575090716068024 0.038235229481217554 0 0.018718636862885496 0.037908353294815629 0 0.019289198942047198 0.037470972700658689 0 0.019575090716068024 0.038235229481217554 0 0.018718636862885496 0.037908353294815629 0 0.01843063106860366 0.038562965573412655 0 0.018718636862885496 0.037908353294815629 0 0.01843063106860366 0.038562965573412655 0 0.017935532822680823 0.037854681235211442 0 0.018718636862885496 0.037908353294815629 0 0.018354756424228031 0.03745162449055061 0 0.017935532822680823 0.037854681235211442 0 0.018354756424228031 0.03745162449055061 0 0.018245824063556976 0.036919120071049 0 0.019289198942047198 0.037470972700658689 0 0.018354756424228031 0.03745162449055061 0 0.018245824063556976 0.036919120071049 0 0.017677888652948184 0.037284401102923123 0 0.018245824063556976 0.036919120071049 0 0.019289198942047198 0.037470972700658689 0 0.01921128431076637 0.036809198552008426 0 0.020097261785282271 0.037108539504017893 0 0.019289198942047198 0.037470972700658689 0 0.01921128431076637 0.036809198552008426 0 0.018355015260204003 0.036369558735625765 0 0.018245824063556976 0.036919120071049 0 0.017576377738262941 0.036273469580291436 0 0.018355015260204003 0.036369558735625765 0 0.018245824063556976 0.036919120071049 0 0.01921128431076637 0.036809198552008426 0 0.022317142691529769 0.035729416635113559 0 0.020934253601539277 0.036407762311678624 0 0.02539027714492003 0.031422949833688596 0 0.024757839163198434 0.032799332430284302 0 0.02387538585337973 0.032323188150791278 0 0.02539027714492003 0.031422949833688596 0 0.02595288161590107 0.032854285645466386 0 0.024757839163198434 0.032799332430284302 0 0.01921671496837422 0.040014056000548581 0 0.018345845290440178 0.039504962247643327 0 0.018049635293315405 0.040578236718736428 0 0.018345845290440178 0.039504962247643327 0 0.01843063106860366 0.038562965573412655 0 0.017435157063741043 0.039055921888021282 0 0.018345845290440178 0.039504962247643327 0 0.01843063106860366 0.038562965573412655 0 0.019446560587200699 0.039082613491806299 0 0.019575090716068024 0.038235229481217554 0 0.01843063106860366 0.038562965573412655 0 0.019446560587200699 0.039082613491806299 0 0.01921671496837422 0.040014056000548581 0 0.018345845290440178 0.039504962247643327 0 0.019446560587200699 0.039082613491806299 0 0.01921671496837422 0.040014056000548581 0 0.019446560587200699 0.039082613491806299 0 0.020390212528172403 0.039598943821387476 0 0.020614785544245274 0.038663710119503231 0 0.019446560587200699 0.039082613491806299 0 0.020390212528172403 0.039598943821387476 0 0.020614785544245274 0.038663710119503231 0 0.020390212528172403 0.039598943821387476 0 0.021606161093612783 0.03921720135201829 0 0.023708248800315048 0.03513591970396307 0 0.02504954167911265 0.034775178910006206 0 0.027026276368790146 0.030647208353533018 0 0.027020290154984809 0.031952643943975192 0 0.028136340757440856 0.031574473105273469 0 0.02539027714492003 0.031422949833688596 0 0.027026276368790146 0.030647208353533018 0 0.027020290154984809 0.031952643943975192 0 0.022317142691529769 0.035729416635113559 0 0.023708248800315048 0.03513591970396307 0 0.02539027714492003 0.031422949833688596 0 0.027020290154984809 0.031952643943975192 0 0.02595288161590107 0.032854285645466386 0 0.027020290154984809 0.031952643943975192 0 0.02758391234133967 0.033157458596857675 0 0.02595288161590107 0.032854285645466386 0 0.027020290154984809 0.031952643943975192 0 0.028184687704982416 0.032209918573600192 0 0.02758391234133967 0.033157458596857675 0 0.027020290154984809 0.031952643943975192 0 0.028184687704982416 0.032209918573600192 0 0.028136340757440856 0.031574473105273469 0 0.028184687704982416 0.032209918573600192 0 0.028860399277192219 0.032325754667726581 0 0.02758391234133967 0.033157458596857675 0 0.028184687704982416 0.032209918573600192 0 0.028610792665698138 0.031784376750476261 0 0.028136340757440856 0.031574473105273469 0 0.028870894301007682 0.032114740396630606 0 0.029092202386945966 0.031594948383056348 0 0.029823347578434325 0.031335273389478051 0 0.028174467519703913 0.030864543477313024 0 0.03023894728277287 0.0313846642960567 0 0.028864544441381101 0.032348737669670641 0 0.028870894301007682 0.032114740396630606 0 0.029823347578434325 0.031335273389478051 0 0.028184687704982416 0.032209918573600192 0 0.028860399277192219 0.032325754667726581 0 0.028870894301007682 0.032114740396630606 0 0.028174467519703913 0.030864543477313024 0 0.028224911575585831 0.031320162656601917 0 0.028610792665698138 0.031784376750476261 0 0.028870894301007682 0.032114740396630606 0 0.029092202386945966 0.031594948383056348 0 0.028184687704982416 0.032209918573600192 0 0.028610792665698138 0.031784376750476261 0 0.028870894301007682 0.032114740396630606 0 0.028610792665698138 0.031784376750476261 0 0.028780213713389367 0.031441344782719441 0 0.029092202386945966 0.031594948383056348 0 0.02920768922746108 0.031301047554866533 0 0.029092202386945966 0.031594948383056348 0 0.029823347578434325 0.031335273389478051 0 0.028780213713389367 0.031441344782719441 0 0.02920768922746108 0.031301047554866533 0 0.029092202386945966 0.031594948383056348 0 0.02920768922746108 0.031301047554866533 0 0.028922404528306498 0.031091517092897161 0 0.02940003189993599 0.03103022131227343 0 0.028780213713389367 0.031441344782719441 0 0.02920768922746108 0.031301047554866533 0 0.028922404528306498 0.031091517092897161 0 0.028780213713389367 0.031441344782719441 0 0.028922404528306498 0.031091517092897161 0 0.028503933485884776 0.031203702754174611 0 0.028503933485884776 0.031203702754174611 0 0.028136340757440856 0.031574473105273469 0 0.028157018140970914 0.030800952866233838 0 0.028780213713389367 0.031441344782719441 0 0.028503933485884776 0.031203702754174611 0 0.028136340757440856 0.031574473105273469 0 0.028610792665698138 0.031784376750476261 0 0.028780213713389367 0.031441344782719441 0 0.028136340757440856 0.031574473105273469 0 0.027026276368790146 0.030647208353533018 0 0.028157018140970914 0.030800952866233838 0 0.02851335384270505 0.03032599531831404 0 0.027026276368790146 0.030647208353533018 0 0.028136340757440856 0.031574473105273469 0 0.028157018140970914 0.030800952866233838 0 0.028157018140970914 0.030800952866233838 0 0.028568733120709917 0.030645909970596536 0 0.02851335384270505 0.03032599531831404 0 0.028503933485884776 0.031203702754174611 0 0.028157018140970914 0.030800952866233838 0 0.028589107503557098 0.030893924863316994 0 0.028157018140970914 0.030800952866233838 0 0.028568733120709917 0.030645909970596536 0 0.028589107503557098 0.030893924863316994 0 0.028568733120709917 0.030645909970596536 0 0.02851335384270505 0.03032599531831404 0 0.028721715142502744 0.030483952973019202 0 0.028967702282222469 0.030582321427891412 0 0.028721715142502744 0.030483952973019202 0 0.029282584618875347 0.03086228064551208 0 0.029145446601632135 0.030541909025228815 0 0.02851335384270505 0.03032599531831404 0 0.028967702282222469 0.030582321427891412 0 0.02851335384270505 0.03032599531831404 0 0.028967702282222469 0.030582321427891412 0 0.028721715142502744 0.030483952973019202 0 0.028721715142502744 0.030483952973019202 0 0.028843705974606594 0.0307765686659573 0 0.029249600368575768 0.030780136147018064 0 0.028568733120709917 0.030645909970596536 0 0.028721715142502744 0.030483952973019202 0 0.028843705974606594 0.0307765686659573 0 0.028568733120709917 0.030645909970596536 0 0.028843705974606594 0.0307765686659573 0 0.028589107503557098 0.030893924863316994 0 0.028922404528306498 0.031091517092897161 0 0.028503933485884776 0.031203702754174611 0 0.028589107503557098 0.030893924863316994 0 0.028922404528306498 0.031091517092897161 0 0.028843705974606594 0.0307765686659573 0 0.028589107503557098 0.030893924863316994 0 0.028922404528306498 0.031091517092897161 0 0.028843705974606594 0.0307765686659573 0 0.029104555132186676 0.030907640310344504 0 0.028922404528306498 0.031091517092897161 0 0.029104555132186676 0.030907640310344504 0 0.02940003189993599 0.03103022131227343 0 0.028843705974606594 0.0307765686659573 0 0.029104555132186676 0.030907640310344504 0 0.029249600368575768 0.030780136147018064 0 0.029104555132186676 0.030907640310344504 0 0.029249600368575768 0.030780136147018064 0 0.02940003189993599 0.03103022131227343 0 0.029698840158385507 0.030980374898336906 0 0.029249600368575768 0.030780136147018064 0 0.0296292577223491 0.03056890009336255 0 0.029698840158385507 0.030980374898336906 0 0.029249600368575768 0.030780136147018064 0 0.02940003189993599 0.03103022131227343 0 0.028787482714012189 0.030530468881452055 0 0.029441472438352032 0.030703163457564148 0 0.029145446601632135 0.030541909025228815 0 0.028967702282222469 0.030582321427891412 0 0.029282584618875347 0.03086228064551208 0 0.028721715142502744 0.030483952973019202 0 0.029249600368575768 0.030780136147018064 0 0.0296292577223491 0.03056890009336255 0 0.0296292577223491 0.03056890009336255 0 0.029832141489483148 0.030849628250058696 0 0.029914365122873366 0.03075427251319297 0 0.029441472438352032 0.030703163457564148 0 0.02984732802390936 0.030847443359834598 0 0.029531052704262782 0.030714418854944112 0 0.029282584618875347 0.03086228064551208 0 0.029792402845642964 0.03096289361747169 0 0.029698840158385507 0.030980374898336906 0 0.029832141489483148 0.030849628250058696 0 0.029833354082312306 0.030974863086974412 0 0.029698840158385507 0.030980374898336906 0 0.0296292577223491 0.03056890009336255 0 0.029832141489483148 0.030849628250058696 0 0.029698840158385507 0.030980374898336906 0 0.029833354082312306 0.030974863086974412 0 0.029802042109221313 0.031108457799585341 0 0.029833354082312306 0.030974863086974412 0 0.029802042109221313 0.031108457799585341 0 0.0297819109800205 0.030962240208934094 0 0.029698840158385507 0.030980374898336906 0 0.029802042109221313 0.031108457799585341 0 0.029823347578434325 0.031335273389478051 0 0.029698840158385507 0.030980374898336906 0 0.02940003189993599 0.03103022131227343 0 0.029823347578434325 0.031335273389478051 0 0.02920768922746108 0.031301047554866533 0 0.02940003189993599 0.03103022131227343 0 0.029823347578434325 0.031335273389478051 0 0.030706329706170408 0.031056641034816486 0 0.029823347578434325 0.031335273389478051 0 0.030149451905223529 0.030824846387074709 0 0.029823347578434325 0.031335273389478051 0 0.029829560682947044 0.030868685130501582 0 0.030149451905223529 0.030824846387074709 0 0.029802042109221313 0.031108457799585341 0 0.029823347578434325 0.031335273389478051 0 0.029829560682947044 0.030868685130501582 0 0.029802042109221313 0.031108457799585341 0 0.029829560682947044 0.030868685130501582 0 0.0297819109800205 0.030962240208934094 0 0.029829560682947044 0.030868685130501582 0 0.029743306118025021 0.030810447180303673 0 0.0297819109800205 0.030962240208934094 0 0.029829560682947044 0.030868685130501582 0 0.02980236441425408 0.030500003600923187 0 0.030047677009976678 0.03043639173167104 0 0.02980236441425408 0.030500003600923187 0 0.029715816879578204 0.030640568239988498 0 0.029668825512784276 0.030417563518650718 0 0.029829560682947044 0.030868685130501582 0 0.02980236441425408 0.030500003600923187 0 0.029715816879578204 0.030640568239988498 0 0.029829560682947044 0.030868685130501582 0 0.029743306118025021 0.030810447180303673 0 0.029715816879578204 0.030640568239988498 0 0.029829560682947044 0.030868685130501582 0 0.030149451905223529 0.030824846387074709 0 0.030047677009976678 0.03043639173167104 0 0.030149451905223529 0.030824846387074709 0 0.030425905189211282 0.030401434629962788 0 0.030047677009976678 0.03043639173167104 0 0.030425905189211282 0.030401434629962788 0 0.030047677009976678 0.03043639173167104 0 0.030052152614296682 0.029909287297237255 0 0.030425905189211282 0.030401434629962788 0 0.030052152614296682 0.029909287297237255 0 0.030644668802427038 0.029669645166905886 0 0.030047677009976678 0.03043639173167104 0 0.030052152614296682 0.029909287297237255 0 0.029793449134705583 0.030187769502770856 0 0.030052152614296682 0.029909287297237255 0 0.029793449134705583 0.030187769502770856 0 0.029805233834429522 0.029841429482969441 0 0.02980236441425408 0.030500003600923187 0 0.030047677009976678 0.03043639173167104 0 0.029793449134705583 0.030187769502770856 0 0.029793449134705583 0.030187769502770856 0 0.029593247415800567 0.03007145371976427 0 0.029668825512784276 0.030417563518650718 0 0.02980236441425408 0.030500003600923187 0 0.029793449134705583 0.030187769502770856 0 0.029668825512784276 0.030417563518650718 0 0.029593247415800567 0.03007145371976427 0 0.029555973269506243 0.029934933373644699 0 0.029805233834429522 0.029841429482969441 0 0.029793449134705583 0.030187769502770856 0 0.029593247415800567 0.03007145371976427 0 0.029805233834429522 0.029841429482969441 0 0.029344583656903001 0.028777604910729428 0 0.029500924799964662 0.028382161376032267 0 0.029500924799964662 0.028382161376032267 0 0.028484751092310606 0.028143426447648844 0 0.029046575793070767 0.027742033231126558 0 0.028572402919469359 0.02800486472409814 0 0.029102150633056781 0.027983088022970868 0 0.029555973269506243 0.029934933373644699 0 0.029805233834429522 0.029841429482969441 0 0.030135820823060239 0.028932821736269734 0 0.029405614031948059 0.027631560225526826 0 0.027975025553580304 0.028119538645774291 0 0.028293789999597592 0.026614283893152717 0 0.029405614031948059 0.027631560225526826 0 0.029789401057168183 0.028454975328747235 0 0.027975025553580304 0.028119538645774291 0 0.029405614031948059 0.027631560225526826 0 0.030056317398002904 0.027812868200129619 0 0.029870479093983607 0.02683838350694474 0 0.030056317398002904 0.027812868200129619 0 0.030728765709536504 0.027609460125677675 0 0.029870479093983607 0.02683838350694474 0 0.029405614031948059 0.027631560225526826 0 0.029897766276304565 0.028438541585937716 0 0.029789401057168183 0.028454975328747235 0 0.029405614031948059 0.027631560225526826 0 0.030056317398002904 0.027812868200129619 0 0.029897766276304565 0.028438541585937716 0 0.030056317398002904 0.027812868200129619 0 0.029897766276304565 0.028438541585937716 0 0.03047916167321087 0.028660367519510961 0 0.030052152614296682 0.029909287297237255 0 0.030135820823060239 0.028932821736269734 0 0.03033558924557438 0.029286046495740205 0 0.029500924799964662 0.028382161376032267 0 0.030315877788827782 0.028496723744664432 0 0.030052152614296682 0.029909287297237255 0 0.029805233834429522 0.029841429482969441 0 0.030135820823060239 0.028932821736269734 0 0.029897766276304565 0.028438541585937716 0 0.029765871080339058 0.028467845187593141 0 0.03047916167321087 0.028660367519510961 0 0.030135820823060239 0.028932821736269734 0 0.03033558924557438 0.029286046495740205 0 0.03047916167321087 0.028660367519510961 0 0.029529052525419784 0.028374367394394095 0 0.029500924799964662 0.028382161376032267 0 0.03033558924557438 0.029286046495740205 0 0.03047916167321087 0.028660367519510961 0 0.030644668802427038 0.029669645166905886 0 0.030052152614296682 0.029909287297237255 0 0.03033558924557438 0.029286046495740205 0 0.030644668802427038 0.029669645166905886 0 0.031405085119881479 0.02900970818643292 0 0.03047916167321087 0.028660367519510961 0 0.030644668802427038 0.029669645166905886 0 0.031405085119881479 0.02900970818643292 0 0.03047916167321087 0.028660367519510961 0 0.030728765709536504 0.027609460125677675 0 0.028574261654512056 0.029315745850893554 0 0.028342500924657503 0.024664834679822958 0 0.031405085119881479 0.02900970818643292 0 0.030728765709536504 0.027609460125677675 0 0.031662211219649052 0.026989774051906393 0 0.030056317398002904 0.027812868200129619 0 0.03047916167321087 0.028660367519510961 0 0.030728765709536504 0.027609460125677675 0 0.026060060059501469 0.028592386607967302 0 0.02588368829235331 0.028400146555989138 0 0.026141483380909204 0.028432257885915638 0 0.026129695733923704 0.029145715812960785 0 0.025558498792976544 0.025644149535678541 0 0.025748135592366758 0.028528977830694951 0 0.02592391052858976 0.02811726969310991 0 0.025798504900661032 0.027667260613439593 0 0.02592391052858976 0.02811726969310991 0 0.026117684237151315 0.028506493402082632 0 0.026036192653732415 0.027683749890589783 0 0.025970165263318801 0.028770377361122198 0 0.026060060059501469 0.028592386607967302 0 0.02588368829235331 0.028400146555989138 0 0.02592391052858976 0.02811726969310991 0 0.025798504900661032 0.027667260613439593 0 0.026036192653732415 0.027683749890589783 0 0.025970165263318801 0.028770377361122198 0 0.026107395352010482 0.028711041631941124 0 0.026060060059501469 0.028592386607967302 0 0.025748135592366758 0.028528977830694951 0 0.02592391052858976 0.02811726969310991 0 0.026117684237151315 0.028506493402082632 0 0.025748135592366758 0.028528977830694951 0 0.026117684237151315 0.028506493402082632 0 0.025930600023883612 0.028856086009804268 0 0.026086499337048239 0.029080869727237651 0 0.025930600023883612 0.028856086009804268 0 0.02593963465034509 0.029201650533446401 0 0.026129695733923704 0.029145715812960785 0 0.026051591382019835 0.028833848039298556 0 0.025930600023883612 0.028856086009804268 0 0.025757107563963613 0.029106948862635248 0 0.02593963465034509 0.029201650533446401 0 0.026117684237151315 0.028506493402082632 0 0.026086499337048239 0.029080869727237651 0 0.025930600023883612 0.028856086009804268 0 0.025748135592366758 0.028528977830694951 0 0.025930600023883612 0.028856086009804268 0 0.025757107563963613 0.029106948862635248 0 0.030425905189211282 0.030401434629962788 0 0.03097285163942556 0.030277201631955686 0 0.030644668802427038 0.029669645166905886 0 0.028574261654512056 0.029315745850893554 0 0.028389466829318928 0.02943500304894444 0 0.031405085119881479 0.02900970818643292 0 0.03097285163942556 0.030277201631955686 0 0.030644668802427038 0.029669645166905886 0 0.030706329706170408 0.031056641034816486 0 0.030149451905223529 0.030824846387074709 0 0.030425905189211282 0.030401434629962788 0 0.030706329706170408 0.031056641034816486 0 0.030425905189211282 0.030401434629962788 0 0.03097285163942556 0.030277201631955686 0 0.02576499348408751 0.029543151276040146 0 0.025757107563963613 0.029106948862635248 0 0.02593963465034509 0.029201650533446401 0 0.028174467519703913 0.030864543477313024 0 0.028389466829318928 0.02943500304894444 0 0.028174467519703913 0.030864543477313024 0 0.026669070776155327 0.031279879515894622 0 0.02576499348408751 0.029543151276040146 0 0.02593963465034509 0.029201650533446401 0 0.026126356769685284 0.02926314253174481 0 0.026086499337048239 0.029080869727237651 0 0.02593963465034509 0.029201650533446401 0 0.026126356769685284 0.02926314253174481 0 0.026669070776155327 0.031279879515894622 0 0.026353815696668469 0.031345465573891854 0 0.02758391234133967 0.033157458596857675 0 0.02595288161590107 0.032854285645466386 0 0.02621591258340027 0.033938046594904306 0 0.026086499337048239 0.029080869727237651 0 0.026377611852403397 0.02905089866520294 0 0.026189317896897255 0.028833359283790543 0 0.026086499337048239 0.029080869727237651 0 0.026126356769685284 0.02926314253174481 0 0.026377611852403397 0.02905089866520294 0 0.025970165263318801 0.028770377361122198 0 0.026086499337048239 0.029080869727237651 0 0.026189317896897255 0.028833359283790543 0 0.026189317896897255 0.028833359283790543 0 0.026205725931311236 0.028647806358199367 0 0.026383192529603382 0.028708789045226286 0 0.026189317896897255 0.028833359283790543 0 0.026107395352010482 0.028711041631941124 0 0.026205725931311236 0.028647806358199367 0 0.025970165263318801 0.028770377361122198 0 0.026189317896897255 0.028833359283790543 0 0.026107395352010482 0.028711041631941124 0 0.026107395352010482 0.028711041631941124 0 0.026060060059501469 0.028592386607967302 0 0.026205725931311236 0.028647806358199367 0 0.026205725931311236 0.028647806358199367 0 0.026376877452817193 0.028454958139258926 0 0.026141483380909204 0.028432257885915638 0 0.026060060059501469 0.028592386607967302 0 0.026205725931311236 0.028647806358199367 0 0.026141483380909204 0.028432257885915638 0 0.026205725931311236 0.028647806358199367 0 0.026376877452817193 0.028454958139258926 0 0.026383192529603382 0.028708789045226286 0 0.025512313053424423 0.025314214285036545 0 0.026391708684928877 0.029598420490260086 0 0.026377611852403397 0.02905089866520294 0 0.026383192529603382 0.028708789045226286 0 0.026634726942699572 0.028876288335269347 0 0.026377611852403397 0.02905089866520294 0 0.026189317896897255 0.028833359283790543 0 0.026383192529603382 0.028708789045226286 0 0.025844936162191249 0.032775151832812703 0 0.024135387815282683 0.028240542382568599 0 0.025512313053424423 0.025314214285036545 0 0.024135387815282683 0.028240542382568599 0 0.026383192529603382 0.028708789045226286 0 0.026634726942699572 0.028876288335269347 0 0.026632297934393524 0.028552057768229579 0 0.026356496772360717 0.028514986898256461 0 0.026383192529603382 0.028708789045226286 0 0.026632297934393524 0.028552057768229579 0 0.024325251462934471 0.034562148028322165 0 0.024273671182773938 0.034500206034613963 0 0.024370507092114541 0.034440701989709853 0 0.024325251462934471 0.034562148028322165 0 0.024273671182773938 0.034500206034613963 0 0.024216783294676091 0.034525019023968276 0 0.024135387815282683 0.028240542382568599 0 0.021998268685604103 0.029131979446813772 0 0.02413301053835509 0.036515065478170065 0 0.021998268685604103 0.029131979446813772 0 0.02193153815825441 0.02431911817727124 0 0.022600874116714222 0.024282894618891132 0 0.022570851870297826 0.02436472450931684 0 0.024273671182773938 0.034500206034613963 0 0.024190368012718566 0.034425678764951124 0 0.024216783294676091 0.034525019023968276 0 0.024273671182773938 0.034500206034613963 0 0.024370507092114541 0.034440701989709853 0 0.024190368012718566 0.034425678764951124 0 0.024532180398818496 0.034359662350454172 0 0.024325251462934471 0.034562148028322165 0 0.024370507092114541 0.034440701989709853 0 0.024370507092114541 0.034440701989709853 0 0.024352262732389031 0.034384695870919031 0 0.024190368012718566 0.034425678764951124 0 0.024532180398818496 0.034359662350454172 0 0.024352262732389031 0.034384695870919031 0 0.024331914594613393 0.034168295605064437 0 0.024532180398818496 0.034359662350454172 0 0.024370507092114541 0.034440701989709853 0 0.024352262732389031 0.034384695870919031 0 0.024352262732389031 0.034384695870919031 0 0.024190368012718566 0.034425678764951124 0 0.024331914594613393 0.034168295605064437 0 0.024190368012718566 0.034425678764951124 0 0.024331914594613393 0.034168295605064437 0 0.023743048359186232 0.034257081595295807 0 0.024331914594613393 0.034168295605064437 0 0.024841465863551338 0.033775208469893563 0 0.023834969495357468 0.033544664534070415 0 0.024331914594613393 0.034168295605064437 0 0.023834969495357468 0.033544664534070415 0 0.023743048359186232 0.034257081595295807 0 0.024532180398818496 0.034359662350454172 0 0.024331914594613393 0.034168295605064437 0 0.024841465863551338 0.033775208469893563 0 0.025844936162191249 0.032775151832812703 0 0.024843009604873036 0.034393477399606277 0 0.026353815696668469 0.031345465573891854 0 0.025844936162191249 0.032775151832812703 0 0.02621591258340027 0.033938046594904306 0 0.024806236460846891 0.034731663879784824 0 0.024841465863551338 0.033775208469893563 0 0.02595288161590107 0.032854285645466386 0 0.02621591258340027 0.033938046594904306 0 0.024841465863551338 0.033775208469893563 0 0.02595288161590107 0.032854285645466386 0 0.024841465863551338 0.033775208469893563 0 0.024757839163198434 0.032799332430284302 0 0.024757839163198434 0.032799332430284302 0 0.023834969495357468 0.033544664534070415 0 0.02387538585337973 0.032323188150791278 0 0.024841465863551338 0.033775208469893563 0 0.024757839163198434 0.032799332430284302 0 0.023834969495357468 0.033544664534070415 0 0.0361951763273929 0.023930007104589666 0 0.036591502884147073 0.025581252522816296 0 0.035141092268306293 0.026537767020501462 0 0.034637481411859031 0.026426003562330699 0 0.034912443509328407 0.026822456817565874 0 0.035141092268306293 0.026537767020501462 0 0.034912443509328407 0.026822456817565874 0 0.035310287035239397 0.02681655720300857 0 0.035141092268306293 0.026537767020501462 0 0.035310287035239397 0.02681655720300857 0 0.035422893583841902 0.026412034990590205 0 0.035996718076060238 0.024213175885231725 0 0.037219683827438732 0.023683835527347263 0 0.035141092268306293 0.026537767020501462 0 0.035212695970424611 0.026326621158921568 0 0.034956633364887725 0.026237396910932621 0 0.035212695970424611 0.026326621158921568 0 0.034956633364887725 0.026237396910932621 0 0.035314308381586862 0.026089741149860582 0 0.037719761281261241 0.021666367665325661 0 0.037552454940544371 0.022012562053141456 0 0.038597075935530571 0.021466239978269831 0 0.035141092268306293 0.026537767020501462 0 0.035212695970424611 0.026326621158921568 0 0.035422893583841902 0.026412034990590205 0 0.035212695970424611 0.026326621158921568 0 0.035422893583841902 0.026412034990590205 0 0.035314308381586862 0.026089741149860582 0 0.035996718076060238 0.024213175885231725 0 0.0361951763273929 0.023930007104589666 0 0.037552454940544371 0.022012562053141456 0 0.037124660688227451 0.021986344961757994 0 0.036561224294799084 0.022652361171827912 0 0.035141092268306293 0.026537767020501462 0 0.034956633364887725 0.026237396910932621 0 0.034637481411859031 0.026426003562330699 0 0.037719761281261241 0.021666367665325661 0 0.037454621182197015 0.021855630705315987 0 0.037552454940544371 0.022012562053141456 0 0.037719761281261241 0.021666367665325661 0 0.037454621182197015 0.021855630705315987 0 0.037365544204353819 0.021737738965394882 0 0.037454621182197015 0.021855630705315987 0 0.037552454940544371 0.022012562053141456 0 0.037124660688227451 0.021986344961757994 0 0.037454621182197015 0.021855630705315987 0 0.037124660688227451 0.021986344961757994 0 0.037365544204353819 0.021737738965394882 0 0.037124660688227451 0.021986344961757994 0 0.037365544204353819 0.021737738965394882 0 0.037182370918797378 0.021547558288420945 0 0.037124660688227451 0.021986344961757994 0 0.037182370918797378 0.021547558288420945 0 0.036874995154317483 0.021566546171081988 0 0.036506607506618327 0.021795207398598873 0 0.036561224294799084 0.022652361171827912 0 0.035409000454079527 0.021366468106795811 0 0.037124660688227451 0.021986344961757994 0 0.036506607506618327 0.021795207398598873 0 0.036874995154317483 0.021566546171081988 0 0.037124660688227451 0.021986344961757994 0 0.036506607506618327 0.021795207398598873 0 0.036561224294799084 0.022652361171827912 0 0.0361951763273929 0.023930007104589666 0 0.035527885684658318 0.021041397785238232 0 0.034999976433700501 0.021905688356608291 0 0.035000009164450778 0.023889639778597729 0 0.036716057333210386 0.023043838499677855 0 0.034999976433700501 0.021905688356608291 0 0.036716057333210386 0.023043838499677855 0 0.035409000454079527 0.021366468106795811 0 0.035001349416483911 0.023888561230050748 0 0.0361951763273929 0.023930007104589666 0 0.034999970094108483 0.02388974112993366 0 0.036640896891178498 0.02313268044187786 0 0.036257040622408809 0.024622611653172009 0 0.036640896891178498 0.02313268044187786 0 0.036257040622408809 0.024622611653172009 0 0.037653068314495025 0.024434013334268808 0 0.036257040622408809 0.024622611653172009 0 0.036970373627786685 0.026024750717260715 0 0.037653068314495025 0.024434013334268808 0 0.034999970094108483 0.02388974112993366 0 0.036257040622408809 0.024622611653172009 0 0.034999971137076522 0.025657873292262569 0 0.036257040622408809 0.024622611653172009 0 0.034999971137076522 0.025657873292262569 0 0.036970373627786685 0.026024750717260715 0 0.036970373627786685 0.026024750717260715 0 0.037653068314495025 0.024434013334268808 0 0.038651311443038093 0.025755899674409572 0 0.032642057311244699 0.028946890028768973 0 0.03372414154486713 0.028478499451688243 0 0.030136836648391285 0.030824116967600231 0 0.030242409256143504 0.030805666362894134 0 0.030166015671360236 0.030825837349640332 0 0.036591502884147073 0.025581252522816296 0 0.03372414154486713 0.028478499451688243 0 0.034912443509328407 0.026822456817565874 0 0.035310287035239397 0.02681655720300857 0 0.035192856274521504 0.027227303709945205 0 0.030242409256143504 0.030805666362894134 0 0.030259209074764894 0.030804017904225611 0 0.030166015671360236 0.030825837349640332 0 0.03372414154486713 0.028478499451688243 0 0.032060184713507543 0.029385975440212916 0 0.030239756296489187 0.030817038932897677 0 0.030259209074764894 0.030804017904225611 0 0.030166015671360236 0.030825837349640332 0 0.030239756296489187 0.030817038932897677 0 0.030166015671360236 0.030825837349640332 0 0.030094971074685964 0.030867396284815687 0 0.030268336420380598 0.030829230782020323 0 0.030239756296489187 0.030817038932897677 0 0.030094971074685964 0.030867396284815687 0 0.030166015671360236 0.030825837349640332 0 0.030094971074685964 0.030867396284815687 0 0.030070412904299307 0.03084346250392166 0 0.030094971074685964 0.030867396284815687 0 0.030070412904299307 0.03084346250392166 0 0.029984233134938042 0.030853341265373771 0 0.030070412904299307 0.03084346250392166 0 0.029984233134938042 0.030853341265373771 0 0.029996110572845573 0.030838650175848289 0 0.030166015671360236 0.030825837349640332 0 0.030070412904299307 0.03084346250392166 0 0.030063310352850346 0.030831014542945304 0 0.030136836648391285 0.030824116967600231 0 0.030166015671360236 0.030825837349640332 0 0.030063310352850346 0.030831014542945304 0 0.030012314040852445 0.030798102253431506 0 0.030094971074685964 0.030867396284815687 0 0.029792402845642964 0.03096289361747169 0 0.030070212888394492 0.030868013611124651 0 0.02984732802390936 0.030847443359834598 0 0.030094971074685964 0.030867396284815687 0 0.029914365122873366 0.03075427251319297 0 0.029926494671351361 0.030874123800277771 0 0.030094971074685964 0.030867396284815687 0 0.029984233134938042 0.030853341265373771 0 0.029926494671351361 0.030874123800277771 0 0.029832141489483148 0.030849628250058696 0 0.029833354082312306 0.030974863086974412 0 0.029926494671351361 0.030874123800277771 0 0.029832141489483148 0.030849628250058696 0 0.029914365122873366 0.03075427251319297 0 0.029926494671351361 0.030874123800277771 0 0.029833354082312306 0.030974863086974412 0 0.029835203440697636 0.030917120585372972 0 0.0297819109800205 0.030962240208934094 0 0.029833354082312306 0.030974863086974412 0 0.029926494671351361 0.030874123800277771 0 0.029835203440697636 0.030917120585372972 0 0.029926494671351361 0.030874123800277771 0 0.029835203440697636 0.030917120585372972 0 0.029872645564313519 0.03086746821810385 0 0.029984233134938042 0.030853341265373771 0 0.029926494671351361 0.030874123800277771 0 0.029872645564313519 0.03086746821810385 0 0.029872645564313519 0.03086746821810385 0 0.029860756450208553 0.030826397974915341 0 0.029933735030269984 0.030846649240235394 0 0.029984233134938042 0.030853341265373771 0 0.029872645564313519 0.03086746821810385 0 0.029933735030269984 0.030846649240235394 0 0.029872645564313519 0.03086746821810385 0 0.029860756450208553 0.030826397974915341 0 0.029786664830204486 0.030813467871427989 0 0.029860756450208553 0.030826397974915341 0 0.029786664830204486 0.030813467871427989 0 0.029802682300870745 0.030793353244883515 0 0.029786664830204486 0.030813467871427989 0 0.029758087583957721 0.030848044479477501 0 0.029705892584345747 0.03074006970315336 0 0.029872645564313519 0.03086746821810385 0 0.029786664830204486 0.030813467871427989 0 0.029758087583957721 0.030848044479477501 0 0.029835203440697636 0.030917120585372972 0 0.029872645564313519 0.03086746821810385 0 0.029758087583957721 0.030848044479477501 0 0.029758087583957721 0.030848044479477501 0 0.029743306118025021 0.030810447180303673 0 0.029695632308834152 0.0307168805054031 0 0.029758087583957721 0.030848044479477501 0 0.029743306118025021 0.030810447180303673 0 0.0297819109800205 0.030962240208934094 0 0.029835203440697636 0.030917120585372972 0 0.029758087583957721 0.030848044479477501 0 0.0297819109800205 0.030962240208934094 0 0.030136836648391285 0.030824116967600231 0 0.030063310352850346 0.030831014542945304 0 0.030023603444833701 0.030819118729019532 0 0.032642057311244699 0.028946890028768973 0 0.032645287666402747 0.028582241016196989 0 0.029992214280613595 0.030824237016711442 0 0.030063310352850346 0.030831014542945304 0 0.029996110572845573 0.030838650175848289 0 0.029992214280613595 0.030824237016711442 0 0.030063310352850346 0.030831014542945304 0 0.030023603444833701 0.030819118729019532 0 0.030070412904299307 0.03084346250392166 0 0.030063310352850346 0.030831014542945304 0 0.029996110572845573 0.030838650175848289 0 0.029984233134938042 0.030853341265373771 0 0.029996110572845573 0.030838650175848289 0 0.029933735030269984 0.030846649240235394 0 0.029996110572845573 0.030838650175848289 0 0.029933735030269984 0.030846649240235394 0 0.029929623794020446 0.030825402909887164 0 0.029992214280613595 0.030824237016711442 0 0.029996110572845573 0.030838650175848289 0 0.029929623794020446 0.030825402909887164 0 0.029992214280613595 0.030824237016711442 0 0.029929623794020446 0.030825402909887164 0 0.029948967757152709 0.030817910476640356 0 0.029929623794020446 0.030825402909887164 0 0.029948967757152709 0.030817910476640356 0 0.029915212366215301 0.030814909631668858 0 0.029860756450208553 0.030826397974915341 0 0.029929623794020446 0.030825402909887164 0 0.029863676754481872 0.030809662169802566 0 0.029860756450208553 0.030826397974915341 0 0.029933735030269984 0.030846649240235394 0 0.029929623794020446 0.030825402909887164 0 0.029860756450208553 0.030826397974915341 0 0.029863676754481872 0.030809662169802566 0 0.029802682300870745 0.030793353244883515 0 0.029929623794020446 0.030825402909887164 0 0.029863676754481872 0.030809662169802566 0 0.029915212366215301 0.030814909631668858 0 0.029948967757152709 0.030817910476640356 0 0.029915212366215301 0.030814909631668858 0 0.029926694897446111 0.03081563725444517 0 0.029863676754481872 0.030809662169802566 0 0.029915212366215301 0.030814909631668858 0 0.029895392523550376 0.030812661697942039 0 0.029863676754481872 0.030809662169802566 0 0.029895392523550376 0.030812661697942039 0 0.029858448441847318 0.030805203503387758 0 0.029915212366215301 0.030814909631668858 0 0.029895392523550376 0.030812661697942039 0 0.029926694897446111 0.03081563725444517 0 0.029895392523550376 0.030812661697942039 0 0.029926694897446111 0.03081563725444517 0 0.029921153760149914 0.030820308580740398 0 0.032480044215924951 0.028717381322033286 0 0.030756232669498479 0.028368719220643074 0 0.029926694897446111 0.03081563725444517 0 0.029950774768802382 0.030817422018238037 0 0.029921153760149914 0.030820308580740398 0 0.029950774768802382 0.030817422018238037 0 0.030004785087757918 0.030813043717824503 0 0.029921107271310456 0.030840219314294114 0 0.029948967757152709 0.030817910476640356 0 0.029926694897446111 0.03081563725444517 0 0.029950774768802382 0.030817422018238037 0 0.029992214280613595 0.030824237016711442 0 0.029984045949706686 0.030817434581931875 0 0.030023603444833701 0.030819118729019532 0 0.029948967757152709 0.030817910476640356 0 0.029950774768802382 0.030817422018238037 0 0.029984045949706686 0.030817434581931875 0 0.029950774768802382 0.030817422018238037 0 0.029984045949706686 0.030817434581931875 0 0.030004785087757918 0.030813043717824503 0 0.029992214280613595 0.030824237016711442 0 0.029948967757152709 0.030817910476640356 0 0.029984045949706686 0.030817434581931875 0 0.032645287666402747 0.028582241016196989 0 0.032480044215924951 0.028717381322033286 0 0.029984045949706686 0.030817434581931875 0 0.030023603444833701 0.030819118729019532 0 0.030004785087757918 0.030813043717824503 0 0.032480044215924951 0.028717381322033286 0 0.034899215327464601 0.024648925557307095 0 0.035422893583841902 0.026412034990590205 0 0.035449763736416 0.0263162783477532 0 0.035314308381586862 0.026089741149860582 0 0.035449763736416 0.0263162783477532 0 0.035537463214420896 0.025991193121848794 0 0.035314308381586862 0.026089741149860582 0 0.038797886163429399 0.020733062082338806 0 0.039188277269569166 0.021168019182603207 0 0.039350965470478144 0.020043130304332968 0 0.034899215327464601 0.024648925557307095 0 0.037219683827438732 0.023683835527347263 0 0.038797886163429399 0.020733062082338806 0 0.039188277269569166 0.021168019182603207 0 0.038597075935530571 0.021466239978269831 0 0.032393674052239169 0.028066921552960502 0 0.033078871920968554 0.026794580127469731 0 0.032680629987514968 0.026958628674012084 0 0.032912066945996639 0.023671214992318571 0 0.0325937534797167 0.023869206300815491 0 0.032652886192523531 0.024501560185375092 0 0.031258486981083744 0.02652390339997112 0 0.034320800099220949 0.025307830547924594 0 0.030569545675203608 0.027782685598520214 0 0.034899215327464601 0.024648925557307095 0 0.03102220248705103 0.027138948553924416 0 0.030756232669498479 0.028368719220643074 0 0.03102220248705103 0.027138948553924416 0 0.030756232669498479 0.028368719220643074 0 0.034899215327464601 0.024648925557307095 0 0.029950774768802382 0.030817422018238037 0 0.029921107271310456 0.030840219314294114 0 0.029921153760149914 0.030820308580740398 0 0.029895392523550376 0.030812661697942039 0 0.029921153760149914 0.030820308580740398 0 0.029888422719073764 0.030817013980185871 0 0.029921107271310456 0.030840219314294114 0 0.029888422719073764 0.030817013980185871 0 0.029833337589695811 0.030800392449240942 0 0.030000818127858431 0.029757800039729432 0 0.029975822094357629 0.029806595677618106 0 0.029542924207367791 0.029973603327524318 0 0.030756232669498479 0.028368719220643074 0 0.029384580648111187 0.030605605799311882 0 0.029921107271310456 0.030840219314294114 0 0.029833337589695811 0.030800392449240942 0 0.029665938132525105 0.030737464617562084 0 0.029895392523550376 0.030812661697942039 0 0.029858448441847318 0.030805203503387758 0 0.029888422719073764 0.030817013980185871 0 0.029858448441847318 0.030805203503387758 0 0.029888422719073764 0.030817013980185871 0 0.029833337589695811 0.030800392449240942 0 0.029921107271310456 0.030840219314294114 0 0.029921153760149914 0.030820308580740398 0 0.029888422719073764 0.030817013980185871 0 0.029858448441847318 0.030805203503387758 0 0.029810791990101643 0.030789207985056379 0 0.029802682300870745 0.030793353244883515 0 0.029863676754481872 0.030809662169802566 0 0.029858448441847318 0.030805203503387758 0 0.029802682300870745 0.030793353244883515 0 0.029858448441847318 0.030805203503387758 0 0.029810791990101643 0.030789207985056379 0 0.029833337589695811 0.030800392449240942 0 0.029810791990101643 0.030789207985056379 0 0.029791024452499988 0.030781480859195062 0 0.029763094184601747 0.030768372480278607 0 0.029810791990101643 0.030789207985056379 0 0.029802682300870745 0.030793353244883515 0 0.029763094184601747 0.030768372480278607 0 0.029791024452499988 0.030781480859195062 0 0.029833337589695811 0.030800392449240942 0 0.0297591288433013 0.030768967504234419 0 0.029791024452499988 0.030781480859195062 0 0.029763094184601747 0.030768372480278607 0 0.0297591288433013 0.030768967504234419 0 0.029810791990101643 0.030789207985056379 0 0.029791024452499988 0.030781480859195062 0 0.029833337589695811 0.030800392449240942 0 0.03102220248705103 0.027138948553924416 0 0.03140237807043416 0.025571766781790028 0 0.030245389852882436 0.027095918194054044 0 0.029988260004647594 0.027547353096730873 0 0.02960767075438692 0.027425361954167012 0 0.0325937534797167 0.023869206300815491 0 0.032153111537405792 0.024588769969777491 0 0.032652886192523531 0.024501560185375092 0 0.03102220248705103 0.027138948553924416 0 0.029345995585160115 0.028936622286101037 0 0.039350965470478144 0.020043130304332968 0 0.038901480002152003 0.0195798447178979 0 0.038571436159745995 0.020244450673886506 0 0.038797886163429399 0.020733062082338806 0 0.039350965470478144 0.020043130304332968 0 0.038571436159745995 0.020244450673886506 0 0.034899215327464601 0.024648925557307095 0 0.036257017478455 0.021657323968465664 0 0.029715816879578204 0.030640568239988498 0 0.029663057818595302 0.030576857224943757 0 0.029668825512784276 0.030417563518650718 0 0.029715816879578204 0.030640568239988498 0 0.029695632308834152 0.0307168805054031 0 0.029663057818595302 0.030576857224943757 0 0.029743306118025021 0.030810447180303673 0 0.029715816879578204 0.030640568239988498 0 0.029695632308834152 0.0307168805054031 0 0.029758087583957721 0.030848044479477501 0 0.029695632308834152 0.0307168805054031 0 0.029705892584345747 0.03074006970315336 0 0.029695632308834152 0.0307168805054031 0 0.029659346785642981 0.03065141966567447 0 0.029705892584345747 0.03074006970315336 0 0.029695632308834152 0.0307168805054031 0 0.029663057818595302 0.030576857224943757 0 0.029659346785642981 0.03065141966567447 0 0.029663057818595302 0.030576857224943757 0 0.029659346785642981 0.03065141966567447 0 0.029638928124953598 0.030519660558004251 0 0.029659346785642981 0.03065141966567447 0 0.029656921123455509 0.030658956380159769 0 0.029638928124953598 0.030519660558004251 0 0.029659346785642981 0.03065141966567447 0 0.029656921123455509 0.030658956380159769 0 0.029678556947213504 0.030702014716545222 0 0.029656921123455509 0.030658956380159769 0 0.029678556947213504 0.030702014716545222 0 0.029665938132525105 0.030737464617562084 0 0.029678556947213504 0.030702014716545222 0 0.029702707923095911 0.030741244585221979 0 0.029665938132525105 0.030737464617562084 0 0.029678556947213504 0.030702014716545222 0 0.029705892584345747 0.03074006970315336 0 0.029719223682638688 0.030742837454094975 0 0.029659346785642981 0.03065141966567447 0 0.029678556947213504 0.030702014716545222 0 0.029705892584345747 0.03074006970315336 0 0.029786664830204486 0.030813467871427989 0 0.029705892584345747 0.03074006970315336 0 0.029753396785711646 0.030770063093979852 0 0.029705892584345747 0.03074006970315336 0 0.029753396785711646 0.030770063093979852 0 0.029719223682638688 0.030742837454094975 0 0.029753396785711646 0.030770063093979852 0 0.029763094184601747 0.030768372480278607 0 0.029719223682638688 0.030742837454094975 0 0.029786664830204486 0.030813467871427989 0 0.029753396785711646 0.030770063093979852 0 0.029802682300870745 0.030793353244883515 0 0.029753396785711646 0.030770063093979852 0 0.029802682300870745 0.030793353244883515 0 0.029763094184601747 0.030768372480278607 0 0.029763094184601747 0.030768372480278607 0 0.029736048077361694 0.030754984022609927 0 0.029719223682638688 0.030742837454094975 0 0.029833337589695811 0.030800392449240942 0 0.0297591288433013 0.030768967504234419 0 0.029665938132525105 0.030737464617562084 0 0.029763094184601747 0.030768372480278607 0 0.0297591288433013 0.030768967504234419 0 0.029736048077361694 0.030754984022609927 0 0.029736048077361694 0.030754984022609927 0 0.029719223682638688 0.030742837454094975 0 0.029702707923095911 0.030741244585221979 0 0.0297591288433013 0.030768967504234419 0 0.029702707923095911 0.030741244585221979 0 0.029665938132525105 0.030737464617562084 0 0.029678556947213504 0.030702014716545222 0 0.029719223682638688 0.030742837454094975 0 0.029702707923095911 0.030741244585221979 0 0.0297591288433013 0.030768967504234419 0 0.029736048077361694 0.030754984022609927 0 0.029702707923095911 0.030741244585221979 0 0.029975822094357629 0.029806595677618106 0 0.02953618528097738 0.030020079296464604 0 0.029542924207367791 0.029973603327524318 0 0.029656921123455509 0.030658956380159769 0 0.029665938132525105 0.030737464617562084 0 0.029638928124953598 0.030519660558004251 0 0.029593247415800567 0.03007145371976427 0 0.02953618528097738 0.030020079296464604 0 0.029542924207367791 0.029973603327524318 0 0.029758115339115258 0.030021480385097749 0 0.029384580648111187 0.030605605799311882 0 0.029593247415800567 0.03007145371976427 0 0.029555973269506243 0.029934933373644699 0 0.02953618528097738 0.030020079296464604 0 0.029593247415800567 0.03007145371976427 0 0.029665938132525105 0.030737464617562084 0 0.029638928124953598 0.030519660558004251 0 0.029046575793070767 0.027742033231126558 0 0.02960767075438692 0.027425361954167012 0 0.029409643894348185 0.027777213632157023 0 0.029344583656903001 0.028777604910729428 0 0.029345995585160115 0.028936622286101037 0 0.029593247415800567 0.03007145371976427 0 0.029638928124953598 0.030519660558004251 0 0.029668825512784276 0.030417563518650718 0 0.029663057818595302 0.030576857224943757 0 0.029638928124953598 0.030519660558004251 0 0.029668825512784276 0.030417563518650718 0 0.029102150633056781 0.027983088022970868 0 0.029409643894348185 0.027777213632157023 0 0.029730733042379019 0.027974336559817178 0 0.028484751092310606 0.028143426447648844 0 0.028010932734745812 0.027116721208835463 0 0.029046575793070767 0.027742033231126558 0 0.029102150633056781 0.027983088022970868 0 0.029409643894348185 0.027777213632157023 0 0.02960767075438692 0.027425361954167012 0 0.029409643894348185 0.027777213632157023 0 0.029730733042379019 0.027974336559817178 0 0.029988260004647594 0.027547353096730873 0 0.02960767075438692 0.027425361954167012 0 0.029730733042379019 0.027974336559817178 0 0.027975025553580304 0.028119538645774291 0 0.026232338744646703 0.027996896653896559 0 0.026803334701429822 0.026931616521560647 0 0.026310836083142334 0.027982859643622245 0 0.026810967833833153 0.023076430853128351 0 0.026383077742838535 0.027289827422783314 0 0.026803334701429822 0.026931616521560647 0 0.026943817991633472 0.026508829253390619 0 0.026383077742838535 0.027289827422783314 0 0.026624117067798124 0.02516924734867116 0 0.027483527784785893 0.024337934730743079 0 0.028010932734745812 0.027116721208835463 0 0.026544878146064668 0.027411084815180151 0 0.026262819640400118 0.02750233444976111 0 0.026383077742838535 0.027289827422783314 0 0.026803334701429822 0.026931616521560647 0 0.026383077742838535 0.027289827422783314 0 0.025985037930204787 0.02579398796601319 0 0.026624117067798124 0.02516924734867116 0 0.027975025553580304 0.028119538645774291 0 0.027550035300753596 0.026937093268249664 0 0.028293789999597592 0.026614283893152717 0 0.027975025553580304 0.028119538645774291 0 0.026803334701429822 0.026931616521560647 0 0.027550035300753596 0.026937093268249664 0 0.039350965470478144 0.020043130304332968 0 0.039107808412606547 0.019269546483736365 0 0.038901480002152003 0.0195798447178979 0 0.039107808412606547 0.019269546483736365 0 0.038872056519620134 0.019224217345053814 0 0.038901480002152003 0.0195798447178979 0 0.038872056519620134 0.019224217345053814 0 0.038901480002152003 0.0195798447178979 0 0.038648326398958495 0.019154184981216855 0 0.032153111537405792 0.024588769969777491 0 0.03168621790288443 0.02538469870895008 0 0.032408211104725713 0.025349455452396825 0 0.036257017478455 0.021657323968465664 0 0.033463503191015216 0.022903835539263711 0 0.03140237807043416 0.025571766781790028 0 0.028010932734745812 0.027116721208835463 0 0.032153111537405792 0.024588769969777491 0 0.032652886192523531 0.024501560185375092 0 0.032408211104725713 0.025349455452396825 0 0.026262819640400118 0.02750233444976111 0 0.026383077742838535 0.027289827422783314 0 0.024546192605077916 0.027675435906583445 0 0.039350965470478144 0.020043130304332968 0 0.039107808412606547 0.019269546483736365 0 0.039297423486898936 0.019270882826218312 0 0.028010932734745812 0.027116721208835463 0 0.033463503191015216 0.022903835539263711 0 0.036819750758810887 0.02208785122095026 0 0.033463503191015216 0.022903835539263711 0 0.033463503191015216 0.022903835539263711 0 0.031881626080805955 0.022040278992657477 0 0.038978061224051168 0.019205355308720373 0 0.03884447145295581 0.019206214142022254 0 0.038997989695369925 0.019171714871303848 0 0.025985037930204787 0.02579398796601319 0 0.024546192605077916 0.027675435906583445 0 0.025129755489118406 0.024745969347046617 0 0.026383077742838535 0.027289827422783314 0 0.025985037930204787 0.02579398796601319 0 0.024546192605077916 0.027675435906583445 0 0.039050522281392649 0.019248948545557806 0 0.038978061224051168 0.019205355308720373 0 0.03884447145295581 0.019206214142022254 0 0.039107808412606547 0.019269546483736365 0 0.039050522281392649 0.019248948545557806 0 0.038978061224051168 0.019205355308720373 0 0.038746134814252702 0.019086697031519776 0 0.039252503674776396 0.018378790082087103 0 0.038978061224051168 0.019205355308720373 0 0.038975504524407338 0.019202106877127655 0 0.038997989695369925 0.019171714871303848 0 0.038872056519620134 0.019224217345053814 0 0.038648326398958495 0.019154184981216855 0 0.038997989695369925 0.019171714871303848 0 0.038872056519620134 0.019224217345053814 0 0.038975504524407338 0.019202106877127655 0 0.038997989695369925 0.019171714871303848 0 0.039107808412606547 0.019269546483736365 0 0.038978061224051168 0.019205355308720373 0 0.038975504524407338 0.019202106877127655 0 0.039107808412606547 0.019269546483736365 0 0.038872056519620134 0.019224217345053814 0 0.038975504524407338 0.019202106877127655 0 0.038648326398958495 0.019154184981216855 0 0.038240193806574618 0.017554862871645042 0 0.039815860269818266 0.017380175966716059 0 0.03757770528619063 0.019261578868994603 0 0.038648326398958495 0.019154184981216855 0 0.038240193806574618 0.017554862871645042 0 0.03757770528619063 0.019261578868994603 0 0.036810121068526623 0.018064826142152872 0 0.038240193806574618 0.017554862871645042 0 0.03757770528619063 0.019261578868994603 0 0.038648326398958495 0.019154184981216855 0 0.03828165237139973 0.019730177886215113 0 0.038901480002152003 0.0195798447178979 0 0.038648326398958495 0.019154184981216855 0 0.03828165237139973 0.019730177886215113 0 0.038901480002152003 0.0195798447178979 0 0.03828165237139973 0.019730177886215113 0 0.038571436159745995 0.020244450673886506 0 0.038797886163429399 0.020733062082338806 0 0.038571436159745995 0.020244450673886506 0 0.038176181397833041 0.020877595704038809 0 0.038571436159745995 0.020244450673886506 0 0.037822013938172187 0.020294167485417583 0 0.038176181397833041 0.020877595704038809 0 0.03828165237139973 0.019730177886215113 0 0.038571436159745995 0.020244450673886506 0 0.037822013938172187 0.020294167485417583 0 0.03757770528619063 0.019261578868994603 0 0.03828165237139973 0.019730177886215113 0 0.037822013938172187 0.020294167485417583 0 0.03757770528619063 0.019261578868994603 0 0.037002137298046037 0.020343897869754591 0 0.037822013938172187 0.020294167485417583 0 0.037002137298046037 0.020343897869754591 0 0.037822013938172187 0.020294167485417583 0 0.037478211928768476 0.02105092519694542 0 0.037478211928768476 0.02105092519694542 0 0.03785812516649141 0.021372026368742084 0 0.038176181397833041 0.020877595704038809 0 0.037822013938172187 0.020294167485417583 0 0.037478211928768476 0.02105092519694542 0 0.038176181397833041 0.020877595704038809 0 0.037002137298046037 0.020343897869754591 0 0.037478211928768476 0.02105092519694542 0 0.036947230163477375 0.021131790512722952 0 0.037478211928768476 0.02105092519694542 0 0.037182370918797378 0.021547558288420945 0 0.03752209715350617 0.02147426696947145 0 0.037478211928768476 0.02105092519694542 0 0.037182370918797378 0.021547558288420945 0 0.036947230163477375 0.021131790512722952 0 0.037182370918797378 0.021547558288420945 0 0.036874995154317483 0.021566546171081988 0 0.036947230163477375 0.021131790512722952 0 0.037365544204353819 0.021737738965394882 0 0.037182370918797378 0.021547558288420945 0 0.03752209715350617 0.02147426696947145 0 0.037478211928768476 0.02105092519694542 0 0.03752209715350617 0.02147426696947145 0 0.03785812516649141 0.021372026368742084 0 0.037719761281261241 0.021666367665325661 0 0.037365544204353819 0.021737738965394882 0 0.03752209715350617 0.02147426696947145 0 0.037719761281261241 0.021666367665325661 0 0.03752209715350617 0.02147426696947145 0 0.03785812516649141 0.021372026368742084 0 0.03785812516649141 0.021372026368742084 0 0.038597075935530571 0.021466239978269831 0 0.038176181397833041 0.020877595704038809 0 0.037719761281261241 0.021666367665325661 0 0.03785812516649141 0.021372026368742084 0 0.038597075935530571 0.021466239978269831 0 0.038797886163429399 0.020733062082338806 0 0.038597075935530571 0.021466239978269831 0 0.038176181397833041 0.020877595704038809 0 0.034999976433700501 0.021905688356608291 0 0.035409000454079527 0.021366468106795811 0 0.034999974217239001 0.019922118785857843 0 0.035409000454079527 0.021366468106795811 0 0.036177690910096358 0.021177643956584846 0 0.03605764121472399 0.020489316623151024 0 0.036506607506618327 0.021795207398598873 0 0.036614871250394795 0.021367211981218982 0 0.036177690910096358 0.021177643956584846 0 0.036506607506618327 0.021795207398598873 0 0.035409000454079527 0.021366468106795811 0 0.036177690910096358 0.021177643956584846 0 0.036506607506618327 0.021795207398598873 0 0.036874995154317483 0.021566546171081988 0 0.036614871250394795 0.021367211981218982 0 0.036874995154317483 0.021566546171081988 0 0.036614871250394795 0.021367211981218982 0 0.036947230163477375 0.021131790512722952 0 0.037002137298046037 0.020343897869754591 0 0.0365740269212914 0.0208317642978973 0 0.036947230163477375 0.021131790512722952 0 0.036614871250394795 0.021367211981218982 0 0.0365740269212914 0.0208317642978973 0 0.036947230163477375 0.021131790512722952 0 0.036614871250394795 0.021367211981218982 0 0.0365740269212914 0.0208317642978973 0 0.036177690910096358 0.021177643956584846 0 0.0365740269212914 0.0208317642978973 0 0.036177690910096358 0.021177643956584846 0 0.03605764121472399 0.020489316623151024 0 0.037002137298046037 0.020343897869754591 0 0.03605764121472399 0.020489316623151024 0 0.036256088531240557 0.019355865236080363 0 0.037002137298046037 0.020343897869754591 0 0.0365740269212914 0.0208317642978973 0 0.03605764121472399 0.020489316623151024 0 0.03605764121472399 0.020489316623151024 0 0.034999974217239001 0.019922118785857843 0 0.036256088531240557 0.019355865236080363 0 0.035409000454079527 0.021366468106795811 0 0.03605764121472399 0.020489316623151024 0 0.034999974217239001 0.019922118785857843 0 0.034999974217239001 0.019922118785857843 0 0.036256088531240557 0.019355865236080363 0 0.034999919942996567 0.017938510702176273 0 0.03757770528619063 0.019261578868994603 0 0.036256088531240557 0.019355865236080363 0 0.036810121068526623 0.018064826142152872 0 0.03757770528619063 0.019261578868994603 0 0.037002137298046037 0.020343897869754591 0 0.036256088531240557 0.019355865236080363 0 0.036810121068526623 0.018064826142152872 0 0.034999919942996567 0.017938510702176273 0 0.036333982758652843 0.016771349318790839 0 0.036256088531240557 0.019355865236080363 0 0.036810121068526623 0.018064826142152872 0 0.034999919942996567 0.017938510702176273 0 0.034999919942996567 0.017938510702176273 0 0.036333982758652843 0.016771349318790839 0 0.034999932369766347 0.015954765808122471 0 0.036810121068526623 0.018064826142152872 0 0.036333982758652843 0.016771349318790839 0 0.037268157578660518 0.017091592640878325 0 0.036333982758652843 0.016771349318790839 0 0.036430951502404767 0.015538166819045381 0 0.03763047897606131 0.01604225265720512 0 0.036333982758652843 0.016771349318790839 0 0.036430951502404767 0.015538166819045381 0 0.034999932369766347 0.015954765808122471 0 0.038240193806574618 0.017554862871645042 0 0.038971486639644247 0.016226189240318087 0 0.039815860269818266 0.017380175966716059 0 0.038240193806574618 0.017554862871645042 0 0.03763047897606131 0.01604225265720512 0 0.038971486639644247 0.016226189240318087 0 0.036810121068526623 0.018064826142152872 0 0.038240193806574618 0.017554862871645042 0 0.037268157578660518 0.017091592640878325 0 0.038240193806574618 0.017554862871645042 0 0.037268157578660518 0.017091592640878325 0 0.03763047897606131 0.01604225265720512 0 0.036333982758652843 0.016771349318790839 0 0.037268157578660518 0.017091592640878325 0 0.03763047897606131 0.01604225265720512 0 0.036430951502404767 0.015538166819045381 0 0.03763047897606131 0.01604225265720512 0 0.037612432835440898 0.014830433547942294 0 0.03763047897606131 0.01604225265720512 0 0.038971486639644247 0.016226189240318087 0 0.038784159979493943 0.01491063107368773 0 0.038971486639644247 0.016226189240318087 0 0.038784159979493943 0.01491063107368773 0 0.03941837875311336 0.015598990075681864 0 0.038784159979493943 0.01491063107368773 0 0.037612432835440898 0.014830433547942294 0 0.038030502497683201 0.013660313491991876 0 0.03763047897606131 0.01604225265720512 0 0.038784159979493943 0.01491063107368773 0 0.037612432835440898 0.014830433547942294 0 0.037612432835440898 0.014830433547942294 0 0.038030502497683201 0.013660313491991876 0 0.0366500620766739 0.01417822564453604 0 0.038030502497683201 0.013660313491991876 0 0.039217226691831211 0.012588900053351946 0 0.039651336208282102 0.014076728240446593 0 0.038784159979493943 0.01491063107368773 0 0.038030502497683201 0.013660313491991876 0 0.039651336208282102 0.014076728240446593 0 0.036430951502404767 0.015538166819045381 0 0.034999932369766347 0.015954765808122471 0 0.034999937919028709 0.013971043002101885 0 0.036430951502404767 0.015538166819045381 0 0.0366500620766739 0.01417822564453604 0 0.034999937919028709 0.013971043002101885 0 0.036430951502404767 0.015538166819045381 0 0.037612432835440898 0.014830433547942294 0 0.0366500620766739 0.01417822564453604 0 0.038030502497683201 0.013660313491991876 0 0.0366500620766739 0.01417822564453604 0 0.03648445187794061 0.012677574164699184 0 0.0366500620766739 0.01417822564453604 0 0.034999937919028709 0.013971043002101885 0 0.03648445187794061 0.012677574164699184 0 0.034999937919028709 0.013971043002101885 0 0.03499993467199719 0.011987299530534625 0 0.03648445187794061 0.012677574164699184 0 0.035958986082843779 0.011050129613831082 0 0.03499993467199719 0.011987299530534625 0 0.034999944537320554 0.010003594853884322 0 0.035958986082843779 0.011050129613831082 0 0.03499993467199719 0.011987299530534625 0 0.03648445187794061 0.012677574164699184 0 0.035958986082843779 0.011050129613831082 0 0.036981481288920058 0.011564190564258918 0 0.03648445187794061 0.012677574164699184 0 0.035958986082843779 0.011050129613831082 0 0.036981481288920058 0.011564190564258918 0 0.037016070681388659 0.010349273643386342 0 0.036981481288920058 0.011564190564258918 0 0.03648445187794061 0.012677574164699184 0 0.037758519561652382 0.012332487109396986 0 0.038030502497683201 0.013660313491991876 0 0.03648445187794061 0.012677574164699184 0 0.037758519561652382 0.012332487109396986 0 0.038030502497683201 0.013660313491991876 0 0.037758519561652382 0.012332487109396986 0 0.039217226691831211 0.012588900053351946 0 0.037758519561652382 0.012332487109396986 0 0.038109505091354336 0.011172483506257408 0 0.039217226691831211 0.012588900053351946 0 0.038109505091354336 0.011172483506257408 0 0.039406613077115897 0.011078347752761798 0 0.039217226691831211 0.012588900053351946 0 0.036981481288920058 0.011564190564258918 0 0.037758519561652382 0.012332487109396986 0 0.038109505091354336 0.011172483506257408 0 0.036981481288920058 0.011564190564258918 0 0.038109505091354336 0.011172483506257408 0 0.037016070681388659 0.010349273643386342 0 0.038109505091354336 0.011172483506257408 0 0.038003006147750776 0.009825959668422304 0 0.037016070681388659 0.010349273643386342 0 0.038085792711732729 0.0098858393912711947 0 0.038850005388572875 0.010647919578175395 0 0.038003006147750776 0.009825959668422304 0 0.0383863219224687 0.0098926568594595605 0 0.038481786642798922 0.010249980153798095 0 0.038109505091354336 0.011172483506257408 0 0.038003006147750776 0.009825959668422304 0 0.039406613077115897 0.011078347752761798 0 0.038003006147750776 0.009825959668422304 0 0.0383863219224687 0.0098926568594595605 0 0.038263169177545235 0.009690392277829217 0 0.038404458900340374 0.0096080263711228377 0 0.03816437600095867 0.0093498726485696428 0 0.038568532013293563 0.0096096856207310132 0 0.03816437600095867 0.0093498726485696428 0 0.037316015682076299 0.0091471068165233892 0 0.038442158177812824 0.0087570589362517756 0 0.038263837851940409 0.0093573395600391115 0 0.038737195260670952 0.0093944644387530928 0 0.03816437600095867 0.0093498726485696428 0 0.039308852820776875 0.0091389778238793722 0 0.038442158177812824 0.0087570589362517756 0 0.038404458900340374 0.0096080263711228377 0 0.038263169177545235 0.009690392277829217 0 0.03816437600095867 0.0093498726485696428 0 0.0383863219224687 0.0098926568594595605 0 0.038404458900340374 0.0096080263711228377 0 0.038263169177545235 0.009690392277829217 0 0.038003006147750776 0.009825959668422304 0 0.038263169177545235 0.009690392277829217 0 0.03816437600095867 0.0093498726485696428 0 0.038003006147750776 0.009825959668422304 0 0.037316015682076299 0.0091471068165233892 0 0.037016070681388659 0.010349273643386342 0 0.037386771340229809 0.0091064921957599645 0 0.03853180259030322 0.0085492412943279066 0 0.038003006147750776 0.009825959668422304 0 0.03816437600095867 0.0093498726485696428 0 0.037316015682076299 0.0091471068165233892 0 0.037316015682076299 0.0091471068165233892 0 0.036102663127975956 0.0093745112861021319 0 0.037016070681388659 0.010349273643386342 0 0.037316015682076299 0.0091471068165233892 0 0.036102663127975956 0.0093745112861021319 0 0.036550980972661143 0.008070228249126855 0 0.036102663127975956 0.0093745112861021319 0 0.034999944537320554 0.010003594853884322 0 0.034999935585943408 0.0080198641915030736 0 0.035958986082843779 0.011050129613831082 0 0.036102663127975956 0.0093745112861021319 0 0.034999944537320554 0.010003594853884322 0 0.035958986082843779 0.011050129613831082 0 0.036102663127975956 0.0093745112861021319 0 0.037016070681388659 0.010349273643386342 0 0.035998153934710446 0.012250733927052303 0 0.039501960925126998 0.0095377027397371538 0 0.03927598576231326 0.010225809407845806 0 0.039610560661851209 0.010075754169287798 0 0.039038326414018679 0.0098883919131846111 0 0.035998153934710446 0.012250733927052303 0 0.02957396106516175 0.017892494995752205 0 0.036749909119182515 0.010781607549098847 0 0.040412731127073588 0.0092315620141841491 0 0.038569481001884391 0.0096997800221467912 0 0.038541453025288462 0.0097674057827609618 0 0.038655768800009385 0.0097247774786462151 0 0.042146914998485052 0.0090100324623095772 0 0.040616824303154185 0.0090569028651572153 0 0.041352496981286485 0.0085451726123910096 0 0.031153818877954591 0.013284376356046949 0 0.031190927625243951 0.013079343250075304 0 0.031221569475514473 0.013190660336316945 0 0.035998153934710446 0.012250733927052303 0 0.036749909119182515 0.010781607549098847 0 0.031190927625243951 0.013079343250075304 0 0.031221569475514473 0.013190660336316945 0 0.031217869068240426 0.013078253382157259 0 0.036749909119182515 0.010781607549098847 0 0.033684607196759697 0.011335876860760676 0 0.038569481001884391 0.0096997800221467912 0 0.038655768800009385 0.0097247774786462151 0 0.038661258027418523 0.0097161731980177617 0 0.040412731127073588 0.0092315620141841491 0 0.038737195260670952 0.0093944644387530928 0 0.038655768800009385 0.0097247774786462151 0 0.038568532013293563 0.0096096856207310132 0 0.038661258027418523 0.0097161731980177617 0 0.040616824303154185 0.0090569028651572153 0 0.039308852820776875 0.0091389778238793722 0 0.03997603061640026 0.0086459346444667101 0 0.038152000203620536 0.0096719216606072859 0 0.039501960925126998 0.0095377027397371538 0 0.038404458900340374 0.0096080263711228377 0 0.038568532013293563 0.0096096856207310132 0 0.038661258027418523 0.0097161731980177617 0 0.038660973268442013 0.0099905216793410093 0 0.038876580508860815 0.010209924292304225 0 0.038481786642798922 0.010249980153798095 0 0.038404458900340374 0.0096080263711228377 0 0.038660973268442013 0.0099905216793410093 0 0.039038326414018679 0.0098883919131846111 0 0.0383863219224687 0.0098926568594595605 0 0.038404458900340374 0.0096080263711228377 0 0.038660973268442013 0.0099905216793410093 0 0.0383863219224687 0.0098926568594595605 0 0.038660973268442013 0.0099905216793410093 0 0.038481786642798922 0.010249980153798095 0 0.03927598576231326 0.010225809407845806 0 0.039038326414018679 0.0098883919131846111 0 0.038876580508860815 0.010209924292304225 0 0.038660973268442013 0.0099905216793410093 0 0.039038326414018679 0.0098883919131846111 0 0.038876580508860815 0.010209924292304225 0 0.03927598576231326 0.010225809407845806 0 0.038876580508860815 0.010209924292304225 0 0.038910842519922467 0.010706003467892094 0 0.039406613077115897 0.011078347752761798 0 0.039217226691831211 0.012588900053351946 0 0.040722186670631384 0.012305931691253803 0 0.038876580508860815 0.010209924292304225 0 0.038481786642798922 0.010249980153798095 0 0.038910842519922467 0.010706003467892094 0 0.038850005388572875 0.010647919578175395 0 0.040294033158932409 0.011388119404313878 0 0.039217226691831211 0.012588900053351946 0 0.040722186670631384 0.012305931691253803 0 0.040687985120906663 0.013491843730807661 0 0.040722186670631384 0.012305931691253803 0 0.042012664801472317 0.013514258657596602 0 0.040687985120906663 0.013491843730807661 0 0.038910842519922467 0.010706003467892094 0 0.039493608901625482 0.010592575364397037 0 0.039343088078651806 0.011158800667720034 0 0.040294033158932409 0.011388119404313878 0 0.037341644393281692 0.014218919758827098 0 0.036714892779477204 0.012689380067111107 0 0.037341644393281692 0.014218919758827098 0 0.03927598576231326 0.010225809407845806 0 0.039610560661851209 0.010075754169287798 0 0.039493608901625482 0.010592575364397037 0 0.03927598576231326 0.010225809407845806 0 0.038910842519922467 0.010706003467892094 0 0.039493608901625482 0.010592575364397037 0 0.035998153934710446 0.012250733927052303 0 0.036714892779477204 0.012689380067111107 0 0.033621243308191419 0.015983396758141807 0 0.033537300169088506 0.014881828438781977 0 0.032881696607120849 0.015845140360289167 0 0.033621243308191419 0.015983396758141807 0 0.033886413046039135 0.015078171100166324 0 0.033537300169088506 0.014881828438781977 0 0.033537300169088506 0.014881828438781977 0 0.03416006158177004 0.014200251308888303 0 0.034068192543394354 0.014124633389401493 0 0.031167429204496701 0.017531067952021168 0 0.034486135796270037 0.015683288375628972 0 0.029097799790056934 0.01967122235974211 0 0.028759010118937615 0.018772627798575792 0 0.030303341082547005 0.018016775407619933 0 0.033886413046039135 0.015078171100166324 0 0.033537300169088506 0.014881828438781977 0 0.03416006158177004 0.014200251308888303 0 0.027711410231708582 0.019799719658486755 0 0.028094284505847375 0.020315642533203837 0 0.027757312718783345 0.019352869384246636 0 0.027372904522300699 0.019496540949146896 0 0.033509176919284268 0.017915407635304074 0 0.027870527354477415 0.019388132907874386 0 0.027711410231708582 0.019799719658486755 0 0.026946118869161824 0.019791945090443686 0 0.028759010118937615 0.018772627798575792 0 0.030303341082547005 0.018016775407619933 0 0.030563187676389655 0.017624219964535358 0 0.027870527354477415 0.019388132907874386 0 0.027711410231708582 0.019799719658486755 0 0.027757312718783345 0.019352869384246636 0 0.027711410231708582 0.019799719658486755 0 0.028094284505847375 0.020315642533203837 0 0.027429166157487146 0.020296307422247997 0 0.027711410231708582 0.019799719658486755 0 0.026946118869161824 0.019791945090443686 0 0.027429166157487146 0.020296307422247997 0 0.037341644393281692 0.014218919758827098 0 0.034486135796270037 0.015683288375628972 0 0.036326276437153991 0.014761770729261457 0 0.037172295553776602 0.015489053252138807 0 0.036138720119461884 0.017104933867948455 0 0.041874307085004663 0.014012368746202035 0 0.041254570409164922 0.014004700909105407 0 0.041010245094048992 0.014602333167630897 0 0.042012664801472317 0.013514258657596602 0 0.041874307085004663 0.014012368746202035 0 0.041254570409164922 0.014004700909105407 0 0.041171295268715755 0.014706414044312863 0 0.041192340747973677 0.01461107615620969 0 0.040714568648466856 0.014957771124831159 0 0.035900636721265193 0.017753770632104548 0 0.036877044807754167 0.016111127391576833 0 0.026716344395697159 0.02001254338957285 0 0.026946118869161824 0.019791945090443686 0 0.027429166157487146 0.020296307422247997 0 0.036326276437153991 0.014761770729261457 0 0.036138720119461884 0.017104933867948455 0 0.035573504706168983 0.017472263478717855 0 0.034486135796270037 0.015683288375628972 0 0.033509176919284268 0.017915407635304074 0 0.037341644393281692 0.014218919758827098 0 0.036877044807754167 0.016111127391576833 0 0.033509176919284268 0.017915407635304074 0 0.036877044807754167 0.016111127391576833 0 0.03531448375859176 0.017041424091071497 0 0.035629057484198944 0.016519057207301908 0 0.035407471854374553 0.016669518246750819 0 0.035900636721265193 0.017753770632104548 0 0.033509176919284268 0.017915407635304074 0 0.038496240683667825 0.019651104708183622 0 0.038797437634897833 0.019411040574925899 0 0.038669891176011655 0.019417138195686245 0 0.035900636721265193 0.017753770632104548 0 0.031979575788463735 0.021187290654007245 0 0.027429166157487146 0.020296307422247997 0 0.027877364695695999 0.022040646655922896 0 0.026032239278688588 0.021925735875822486 0 0.026716344395697159 0.02001254338957285 0 0.027429166157487146 0.020296307422247997 0 0.026032239278688588 0.021925735875822486 0 0.036877044807754167 0.016111127391576833 0 0.041445152085187391 0.01434172452812452 0 0.027829211902484101 0.019625406394562978 0 0.027856177455848181 0.019972425151039797 0 0.027686508546439496 0.018665512809607269 0 0.027602220935005833 0.018474720529868139 0 0.027424892171398561 0.018391980597691936 0 0.028094284505847375 0.020315642533203837 0 0.027429166157487146 0.020296307422247997 0 0.027877364695695999 0.022040646655922896 0 0.039217226691831211 0.012588900053351946 0 0.039651336208282102 0.014076728240446593 0 0.040687985120906663 0.013491843730807661 0 0.039651336208282102 0.014076728240446593 0 0.040687985120906663 0.013491843730807661 0 0.041010245094048992 0.014602333167630897 0 0.042012664801472317 0.013514258657596602 0 0.040687985120906663 0.013491843730807661 0 0.041254570409164922 0.014004700909105407 0 0.040687985120906663 0.013491843730807661 0 0.041254570409164922 0.014004700909105407 0 0.041010245094048992 0.014602333167630897 0 0.041171295268715755 0.014706414044312863 0 0.040714568648466856 0.014957771124831159 0 0.040680594834558416 0.015739885750563048 0 0.035900636721265193 0.017753770632104548 0 0.040369420753170161 0.017290587155134502 0 0.040714568648466856 0.014957771124831159 0 0.040088956298318927 0.015239146682821485 0 0.040680594834558416 0.015739885750563048 0 0.041445152085187391 0.01434172452812452 0 0.04000327827598936 0.015305200944453418 0 0.038784159979493943 0.01491063107368773 0 0.040088956298318927 0.015239146682821485 0 0.03941837875311336 0.015598990075681864 0 0.039651336208282102 0.014076728240446593 0 0.041010245094048992 0.014602333167630897 0 0.040088956298318927 0.015239146682821485 0 0.038784159979493943 0.01491063107368773 0 0.039651336208282102 0.014076728240446593 0 0.040088956298318927 0.015239146682821485 0 0.039809640646949314 0.016017509785044733 0 0.040680594834558416 0.015739885750563048 0 0.039815860269818266 0.017380175966716059 0 0.038971486639644247 0.016226189240318087 0 0.03941837875311336 0.015598990075681864 0 0.039809640646949314 0.016017509785044733 0 0.040088956298318927 0.015239146682821485 0 0.03941837875311336 0.015598990075681864 0 0.039809640646949314 0.016017509785044733 0 0.040088956298318927 0.015239146682821485 0 0.039809640646949314 0.016017509785044733 0 0.040680594834558416 0.015739885750563048 0 0.038797437634897833 0.019411040574925899 0 0.03884447145295581 0.019206214142022254 0 0.038669891176011655 0.019417138195686245 0 0.031881626080805955 0.022040278992657477 0 0.031979575788463735 0.021187290654007245 0 0.038797437634897833 0.019411040574925899 0 0.03884447145295581 0.019206214142022254 0 0.038997989695369925 0.019171714871303848 0 0.025129755489118406 0.024745969347046617 0 0.026032239278688588 0.021925735875822486 0 0.026275023128661004 0.024151962645496999 0 0.040369420753170161 0.017290587155134502 0 0.039252503674776396 0.018378790082087103 0 0.038971486639644247 0.016226189240318087 0 0.039809640646949314 0.016017509785044733 0 0.039815860269818266 0.017380175966716059 0 0.027602220935005833 0.018474720529868139 0 0.027538528708415347 0.018452906493421701 0 0.027424892171398561 0.018391980597691936 0 0.026032239278688588 0.021925735875822486 0 0.026892423918614319 0.023404882045509699 0 0.026275023128661004 0.024151962645496999 0 0.027877364695695999 0.022040646655922896 0 0.026032239278688588 0.021925735875822486 0 0.026892423918614319 0.023404882045509699 0 0.027877364695695999 0.022040646655922896 0 0.026892423918614319 0.023404882045509699 0 0.027360636279603091 0.024289001199956167 0 0.026892423918614319 0.023404882045509699 0 0.027360636279603091 0.024289001199956167 0 0.027012369825042046 0.02430588228644472 0 0.026892423918614319 0.023404882045509699 0 0.026275023128661004 0.024151962645496999 0 0.027012369825042046 0.02430588228644472 0 0.025985037930204787 0.02579398796601319 0 0.026275023128661004 0.024151962645496999 0 0.026624117067798124 0.02516924734867116 0 0.025985037930204787 0.02579398796601319 0 0.025129755489118406 0.024745969347046617 0 0.026275023128661004 0.024151962645496999 0 0.026275023128661004 0.024151962645496999 0 0.026624117067798124 0.02516924734867116 0 0.027012369825042046 0.02430588228644472 0 0.026810967833833153 0.023076430853128351 0 0.026930338463593564 0.023198250669148775 0 0.026624117067798124 0.02516924734867116 0 0.027483527784785893 0.024337934730743079 0 0.027012369825042046 0.02430588228644472 0 0.026803334701429822 0.026931616521560647 0 0.027550035300753596 0.026937093268249664 0 0.026943817991633472 0.026508829253390619 0 0.026810967833833153 0.023076430853128351 0 0.027935305354941618 0.0225195927246679 0 0.027550035300753596 0.026937093268249664 0 0.026943817991633472 0.026508829253390619 0 0.028293789999597592 0.026614283893152717 0 0.027553152270550184 0.018468333340737646 0 0.027538528708415347 0.018452906493421701 0 0.027501915203347823 0.018465685349613237 0 0.027602220935005833 0.018474720529868139 0 0.027553152270550184 0.018468333340737646 0 0.027538528708415347 0.018452906493421701 0 0.027856177455848181 0.019972425151039797 0 0.026810967833833153 0.023076430853128351 0 0.027538528708415347 0.018452906493421701 0 0.027501915203347823 0.018465685349613237 0 0.027424892171398561 0.018391980597691936 0 0.027935305354941618 0.0225195927246679 0 0.028919977521954923 0.022560512810824544 0 0.027501915203347823 0.018465685349613237 0 0.027479594089705059 0.018466749110986173 0 0.027501838299278929 0.01853042567223125 0 0.027501915203347823 0.018465685349613237 0 0.027424892171398561 0.018391980597691936 0 0.027479594089705059 0.018466749110986173 0 0.027424892171398561 0.018391980597691936 0 0.027479594089705059 0.018466749110986173 0 0.027527948787170475 0.018463040488783236 0 0.027424892171398561 0.018391980597691936 0 0.027527948787170475 0.018463040488783236 0 0.027542202391503064 0.018392169586420652 0 0.027479594089705059 0.018466749110986173 0 0.027501838299278929 0.01853042567223125 0 0.027527948787170475 0.018463040488783236 0 0.029405614031948059 0.027631560225526826 0 0.028293789999597592 0.026614283893152717 0 0.029870479093983607 0.02683838350694474 0 0.028919977521954923 0.022560512810824544 0 0.028342500924657503 0.024664834679822958 0 0.027501838299278929 0.01853042567223125 0 0.027608500971654241 0.018597369153594074 0 0.027576546167984949 0.018512060840699066 0 0.030728765709536504 0.027609460125677675 0 0.029870479093983607 0.02683838350694474 0 0.031662211219649052 0.026989774051906393 0 0.027608500971654241 0.018597369153594074 0 0.027576546167984949 0.018512060840699066 0 0.027605406433433653 0.018450940482710187 0 0.027501838299278929 0.01853042567223125 0 0.027576546167984949 0.018512060840699066 0 0.027527948787170475 0.018463040488783236 0 0.025558498792976544 0.025644149535678541 0 0.025609967846500565 0.025652647076197518 0 0.025690819677119826 0.025043892069311253 0 0.026416778346751664 0.020648905477273122 0 0.026236105163410926 0.019644368197850291 0 0.025690819677119826 0.025043892069311253 0 0.027215463328316623 0.025142883826385676 0 0.026416778346751664 0.020648905477273122 0 0.023972311561985361 0.022813992396129516 0 0.024476550828160519 0.022126413696453576 0 0.025039842504145541 0.022883326658589161 0 0.025558498792976544 0.025644149535678541 0 0.025541059691373151 0.020446719175318911 0 0.023972311561985361 0.022813992396129516 0 0.024125176788403577 0.021826408868860697 0 0.023759810567322476 0.021570097747889119 0 0.028342500924657503 0.024664834679822958 0 0.025868778038700718 0.019210815226448699 0 0.028342500924657503 0.024664834679822958 0 0.025558498792976544 0.025644149535678541 0 0.023972311561985361 0.022813992396129516 0 0.024476550828160519 0.022126413696453576 0 0.024125176788403577 0.021826408868860697 0 0.024476550828160519 0.022126413696453576 0 0.024125176788403577 0.021826408868860697 0 0.024409465269558204 0.021442746628094245 0 0.024125176788403577 0.021826408868860697 0 0.024409465269558204 0.021442746628094245 0 0.024009251878638376 0.021187208050593577 0 0.024125176788403577 0.021826408868860697 0 0.023759810567322476 0.021570097747889119 0 0.024009251878638376 0.021187208050593577 0 0.025541059691373151 0.020446719175318911 0 0.025868778038700718 0.019210815226448699 0 0.023759810567322476 0.021570097747889119 0 0.023717243179109761 0.021293274303196479 0 0.024009251878638376 0.021187208050593577 0 0.023717243179109761 0.021293274303196479 0 0.024009251878638376 0.021187208050593577 0 0.023565868601877243 0.020349795486332881 0 0.024409465269558204 0.021442746628094245 0 0.024210084222569941 0.020827342067392878 0 0.024752121642387742 0.020994570547995473 0 0.024409465269558204 0.021442746628094245 0 0.024009251878638376 0.021187208050593577 0 0.024210084222569941 0.020827342067392878 0 0.027527948787170475 0.018463040488783236 0 0.027564159490796609 0.018433105309501416 0 0.027542202391503064 0.018392169586420652 0 0.027576546167984949 0.018512060840699066 0 0.027527948787170475 0.018463040488783236 0 0.027570084597845129 0.018466506736625591 0 0.027527948787170475 0.018463040488783236 0 0.027570084597845129 0.018466506736625591 0 0.027564159490796609 0.018433105309501416 0 0.027576546167984949 0.018512060840699066 0 0.027605406433433653 0.018450940482710187 0 0.027570084597845129 0.018466506736625591 0 0.027605406433433653 0.018450940482710187 0 0.027564159490796609 0.018433105309501416 0 0.027582152534405772 0.018384220694201415 0 0.027605406433433653 0.018450940482710187 0 0.027570084597845129 0.018466506736625591 0 0.027564159490796609 0.018433105309501416 0 0.027564159490796609 0.018433105309501416 0 0.027542202391503064 0.018392169586420652 0 0.027582152534405772 0.018384220694201415 0 0.027105492206745241 0.018436175723378696 0 0.025733472447854552 0.019575488090605823 0 0.026470020763903899 0.018250931071249914 0 0.025908614496515832 0.018310320970775666 0 0.025991121451197488 0.01873299110899249 0 0.026470020763903899 0.018250931071249914 0 0.026579002720375361 0.01878240213596476 0 0.025991121451197488 0.01873299110899249 0 0.024210084222569941 0.020827342067392878 0 0.024362516664519145 0.020098427556155631 0 0.024752121642387742 0.020994570547995473 0 0.025868778038700718 0.019210815226448699 0 0.025733472447854552 0.019575488090605823 0 0.023565868601877243 0.020349795486332881 0 0.024210084222569941 0.020827342067392878 0 0.024362516664519145 0.020098427556155631 0 0.024009251878638376 0.021187208050593577 0 0.023565868601877243 0.020349795486332881 0 0.024210084222569941 0.020827342067392878 0 0.025908614496515832 0.018310320970775666 0 0.02526135111720057 0.01843938484313272 0 0.025991121451197488 0.01873299110899249 0 0.025733472447854552 0.019575488090605823 0 0.024976645376262631 0.019351727981495394 0 0.02526135111720057 0.01843938484313272 0 0.025566309512814373 0.019026811540899184 0 0.025008547141828576 0.019227183535753291 0 0.02526135111720057 0.01843938484313272 0 0.025566309512814373 0.019026811540899184 0 0.025991121451197488 0.01873299110899249 0 0.025566309512814373 0.019026811540899184 0 0.026173420731843994 0.019298080153758869 0 0.025603980346576412 0.019500271723087551 0 0.025566309512814373 0.019026811540899184 0 0.025008547141828576 0.019227183535753291 0 0.025603980346576412 0.019500271723087551 0 0.026579002720375361 0.01878240213596476 0 0.025991121451197488 0.01873299110899249 0 0.026173420731843994 0.019298080153758869 0 0.025566309512814373 0.019026811540899184 0 0.025991121451197488 0.01873299110899249 0 0.026173420731843994 0.019298080153758869 0 0.026579002720375361 0.01878240213596476 0 0.026173420731843994 0.019298080153758869 0 0.026722320182888802 0.01923589710483423 0 0.026579002720375361 0.01878240213596476 0 0.026722320182888802 0.01923589710483423 0 0.027048640157754423 0.018908878183723193 0 0.026722320182888802 0.01923589710483423 0 0.027048640157754423 0.018908878183723193 0 0.027206278285369225 0.019372885317298784 0 0.027048640157754423 0.018908878183723193 0 0.027358239602224478 0.019137567124432223 0 0.027206278285369225 0.019372885317298784 0 0.027686508546439496 0.018665512809607269 0 0.027757312718783345 0.019352869384246636 0 0.027455674048495592 0.018938376413620672 0 0.027358239602224478 0.019137567124432223 0 0.027757312718783345 0.019352869384246636 0 0.027206278285369225 0.019372885317298784 0 0.027358239602224478 0.019137567124432223 0 0.027757312718783345 0.019352869384246636 0 0.027455674048495592 0.018938376413620672 0 0.027829211902484101 0.019625406394562978 0 0.027787591628201876 0.019404388011533286 0 0.027048640157754423 0.018908878183723193 0 0.027455674048495592 0.018938376413620672 0 0.027359956136981192 0.018666535800084975 0 0.027048640157754423 0.018908878183723193 0 0.027358239602224478 0.019137567124432223 0 0.027455674048495592 0.018938376413620672 0 0.027686508546439496 0.018665512809607269 0 0.027455674048495592 0.018938376413620672 0 0.027359956136981192 0.018666535800084975 0 0.027686508546439496 0.018665512809607269 0 0.027424892171398561 0.018391980597691936 0 0.027359956136981192 0.018666535800084975 0 0.027327208544895166 0.018353101916989148 0 0.027105492206745241 0.018436175723378696 0 0.027424892171398561 0.018391980597691936 0 0.027359956136981192 0.018666535800084975 0 0.026987503253351412 0.01853621829777086 0 0.027424892171398561 0.018391980597691936 0 0.026470020763903899 0.018250931071249914 0 0.026987503253351412 0.01853621829777086 0 0.026579002720375361 0.01878240213596476 0 0.027048640157754423 0.018908878183723193 0 0.026987503253351412 0.01853621829777086 0 0.026470020763903899 0.018250931071249914 0 0.026579002720375361 0.01878240213596476 0 0.026987503253351412 0.01853621829777086 0 0.027048640157754423 0.018908878183723193 0 0.027359956136981192 0.018666535800084975 0 0.026987503253351412 0.01853621829777086 0 0.021822623324024248 0.019337574492418391 0 0.020656183499460714 0.016764446387697234 0 0.020131164969324059 0.017506246214040014 0 0.02085264770611096 0.01655530732737236 0 0.020034628979786435 0.016743599203281199 0 0.020131164969324059 0.017506246214040014 0 0.02085264770611096 0.01655530732737236 0 0.020860277021610231 0.017943675986249522 0 0.021822623324024248 0.019337574492418391 0 0.021198406736672164 0.022973107796073224 0 0.02193153815825441 0.02431911817727124 0 0.021949666288833252 0.023834953801797159 0 0.022600874116714222 0.024282894618891132 0 0.02085264770611096 0.01655530732737236 0 0.020034628979786435 0.016743599203281199 0 0.019891252101273044 0.016006179637422686 0 0.024135387815282683 0.028240542382568599 0 0.021822623324024248 0.019337574492418391 0 0.022783220104954646 0.023499843249136811 0 0.024601549024026094 0.02256411169094329 0 0.023607663729432425 0.021923428581958379 0 0.022783220104954646 0.023499843249136811 0 0.024559809144141499 0.023619339301068264 0 0.024601549024026094 0.02256411169094329 0 0.020971565226234203 0.016815060063599535 0 0.021528860405677901 0.017151684418450486 0 0.020860277021610231 0.017943675986249522 0 0.021822623324024248 0.019337574492418391 0 0.022507310867008853 0.019492555457385572 0 0.022783220104954646 0.023499843249136811 0 0.023607663729432425 0.021923428581958379 0 0.022608975641920596 0.021279799109600612 0 0.021528860405677901 0.017151684418450486 0 0.022126470438142466 0.017511862593602358 0 0.021616994571578386 0.017967147951530663 0 0.022507310867008853 0.019492555457385572 0 0.023846227854984182 0.019898764463488646 0 0.025512313053424423 0.025314214285036545 0 0.023846227854984182 0.019898764463488646 0 0.026115390387313631 0.022963488887445236 0 0.025958686190190258 0.021037671674457172 0 0.025513722381498797 0.022040139117269927 0 0.026115390387313631 0.022963488887445236 0 0.025513722381498797 0.022040139117269927 0 0.025039842504145541 0.022883326658589161 0 0.025512313053424423 0.025314214285036545 0 0.025609967846500565 0.025652647076197518 0 0.024476550828160519 0.022126413696453576 0 0.025039842504145541 0.022883326658589161 0 0.024910812246340109 0.021722598922600853 0 0.025513722381498797 0.022040139117269927 0 0.025039842504145541 0.022883326658589161 0 0.024910812246340109 0.021722598922600853 0 0.024409465269558204 0.021442746628094245 0 0.024910812246340109 0.021722598922600853 0 0.024752121642387742 0.020994570547995473 0 0.024476550828160519 0.022126413696453576 0 0.024409465269558204 0.021442746628094245 0 0.024910812246340109 0.021722598922600853 0 0.025958686190190258 0.021037671674457172 0 0.025513722381498797 0.022040139117269927 0 0.025250277033118249 0.021262805328967554 0 0.025513722381498797 0.022040139117269927 0 0.024910812246340109 0.021722598922600853 0 0.025250277033118249 0.021262805328967554 0 0.025958686190190258 0.021037671674457172 0 0.025250277033118249 0.021262805328967554 0 0.025123465346942441 0.020524326908372935 0 0.024910812246340109 0.021722598922600853 0 0.025250277033118249 0.021262805328967554 0 0.024752121642387742 0.020994570547995473 0 0.025250277033118249 0.021262805328967554 0 0.024752121642387742 0.020994570547995473 0 0.025123465346942441 0.020524326908372935 0 0.024362516664519145 0.020098427556155631 0 0.025123465346942441 0.020524326908372935 0 0.025742808147795712 0.019666093735676453 0 0.024976645376262631 0.019351727981495394 0 0.023914124149117172 0.018810416856462446 0 0.024362516664519145 0.020098427556155631 0 0.024752121642387742 0.020994570547995473 0 0.025123465346942441 0.020524326908372935 0 0.023846227854984182 0.019898764463488646 0 0.025770112730977117 0.020951215921933834 0 0.025008547141828576 0.019227183535753291 0 0.024136283133545312 0.018762593030743378 0 0.024631242691912674 0.019662857672187638 0 0.02526135111720057 0.01843938484313272 0 0.025008547141828576 0.019227183535753291 0 0.024136283133545312 0.018762593030743378 0 0.023914124149117172 0.018810416856462446 0 0.021425891029924444 0.018695800895989607 0 0.022218031780420335 0.018498043088116169 0 0.021616994571578386 0.017967147951530663 0 0.021344290189241697 0.018780222464075246 0 0.023195710602941441 0.01816332257144514 0 0.021952846240469663 0.018528300085994664 0 0.022454666835516803 0.019382162829165089 0 0.023846227854984182 0.019898764463488646 0 0.023914124149117172 0.018810416856462446 0 0.022126470438142466 0.017511862593602358 0 0.022218031780420335 0.018498043088116169 0 0.021616994571578386 0.017967147951530663 0 0.025826597337509034 0.020965657425473818 0 0.025123465346942441 0.020524326908372935 0 0.025742808147795712 0.019666093735676453 0 0.021528860405677901 0.017151684418450486 0 0.021616994571578386 0.017967147951530663 0 0.020860277021610231 0.017943675986249522 0 0.021616994571578386 0.017967147951530663 0 0.021344290189241697 0.018780222464075246 0 0.020860277021610231 0.017943675986249522 0 0.021344290189241697 0.018780222464075246 0 0.02047630930392192 0.018456805263671612 0 0.020511903066110615 0.019061392112259046 0 0.02047630930392192 0.018456805263671612 0 0.020511903066110615 0.019061392112259046 0 0.019502107007519063 0.019034197327869432 0 0.021344290189241697 0.018780222464075246 0 0.02047630930392192 0.018456805263671612 0 0.020860277021610231 0.017943675986249522 0 0.021425891029924444 0.018695800895989607 0 0.020691902057765107 0.018995282151843276 0 0.020131164969324059 0.017506246214040014 0 0.02047630930392192 0.018456805263671612 0 0.019775813818049787 0.01826070440413893 0 0.020131164969324059 0.017506246214040014 0 0.02047630930392192 0.018456805263671612 0 0.020860277021610231 0.017943675986249522 0 0.021976954744972209 0.020821832640648831 0 0.018736484577421924 0.020020733659428067 0 0.020943591878874391 0.020517510870152463 0 0.02132045651882436 0.02138985464826787 0 0.019477845441859959 0.020429624896307987 0 0.020943591878874391 0.020517510870152463 0 0.020983541024295671 0.019828154511712423 0 0.019477845441859959 0.020429624896307987 0 0.02138662277398197 0.020747195196704458 0 0.020943591878874391 0.020517510870152463 0 0.02132045651882436 0.02138985464826787 0 0.02138662277398197 0.020747195196704458 0 0.020943591878874391 0.020517510870152463 0 0.021486671069064631 0.020340949484914182 0 0.020943591878874391 0.020517510870152463 0 0.020983541024295671 0.019828154511712423 0 0.021486671069064631 0.020340949484914182 0 0.020511903066110615 0.019061392112259046 0 0.020983541024295671 0.019828154511712423 0 0.019477845441859959 0.020429624896307987 0 0.020511903066110615 0.019061392112259046 0 0.020983541024295671 0.019828154511712423 0 0.021586374137959545 0.019374627074554396 0 0.020983541024295671 0.019828154511712423 0 0.021586374137959545 0.019374627074554396 0 0.021984200019903043 0.020009819591228654 0 0.021952846240469663 0.018528300085994664 0 0.020511903066110615 0.019061392112259046 0 0.021586374137959545 0.019374627074554396 0 0.021952846240469663 0.018528300085994664 0 0.021586374137959545 0.019374627074554396 0 0.022454666835516803 0.019382162829165089 0 0.021586374137959545 0.019374627074554396 0 0.021984200019903043 0.020009819591228654 0 0.022454666835516803 0.019382162829165089 0 0.021984200019903043 0.020009819591228654 0 0.022620347097974062 0.020182769925916368 0 0.022454666835516803 0.019382162829165089 0 0.021984200019903043 0.020009819591228654 0 0.021938599003390929 0.020586561127005285 0 0.022346504306748328 0.020495612709217754 0 0.021984200019903043 0.020009819591228654 0 0.022346504306748328 0.020495612709217754 0 0.022620347097974062 0.020182769925916368 0 0.020983541024295671 0.019828154511712423 0 0.021984200019903043 0.020009819591228654 0 0.021486671069064631 0.020340949484914182 0 0.021984200019903043 0.020009819591228654 0 0.021486671069064631 0.020340949484914182 0 0.021938599003390929 0.020586561127005285 0 0.02138662277398197 0.020747195196704458 0 0.021486671069064631 0.020340949484914182 0 0.021938599003390929 0.020586561127005285 0 0.02138662277398197 0.020747195196704458 0 0.021938599003390929 0.020586561127005285 0 0.021873964467861964 0.020944876554681083 0 0.021938599003390929 0.020586561127005285 0 0.022246819732253537 0.020781668842028263 0 0.021873964467861964 0.020944876554681083 0 0.021938599003390929 0.020586561127005285 0 0.022246819732253537 0.020781668842028263 0 0.022346504306748328 0.020495612709217754 0 0.022246819732253537 0.020781668842028263 0 0.022346504306748328 0.020495612709217754 0 0.022701247766026132 0.020816409576636288 0 0.023306465346044823 0.020062434091259483 0 0.023076406596195798 0.020923764411599991 0 0.022701247766026132 0.020816409576636288 0 0.022346504306748328 0.020495612709217754 0 0.022620347097974062 0.020182769925916368 0 0.022701247766026132 0.020816409576636288 0 0.023306465346044823 0.020062434091259483 0 0.022620347097974062 0.020182769925916368 0 0.022701247766026132 0.020816409576636288 0 0.023914124149117172 0.018810416856462446 0 0.023683887737863649 0.020040175999535923 0 0.023306465346044823 0.020062434091259483 0 0.022620347097974062 0.020182769925916368 0 0.022454666835516803 0.019382162829165089 0 0.023195710602941441 0.01816332257144514 0 0.023306465346044823 0.020062434091259483 0 0.022454666835516803 0.019382162829165089 0 0.025008547141828576 0.019227183535753291 0 0.024631242691912674 0.019662857672187638 0 0.025223563076281878 0.019935300337316338 0 0.024136283133545312 0.018762593030743378 0 0.024192581299212774 0.020139530204151521 0 0.024631242691912674 0.019662857672187638 0 0.024192581299212774 0.020139530204151521 0 0.024631242691912674 0.019662857672187638 0 0.024652913002552321 0.020153100465625802 0 0.024631242691912674 0.019662857672187638 0 0.024652913002552321 0.020153100465625802 0 0.025223563076281878 0.019935300337316338 0 0.024652913002552321 0.020153100465625802 0 0.025223563076281878 0.019935300337316338 0 0.025019024558014587 0.020468538138818101 0 0.024192581299212774 0.020139530204151521 0 0.024652913002552321 0.020153100465625802 0 0.024227823656167487 0.020646901443086025 0 0.024652913002552321 0.020153100465625802 0 0.024227823656167487 0.020646901443086025 0 0.025019024558014587 0.020468538138818101 0 0.024227823656167487 0.020646901443086025 0 0.025019024558014587 0.020468538138818101 0 0.025086280194120653 0.021033726987014067 0 0.024227823656167487 0.020646901443086025 0 0.023676621956754559 0.021533361752024097 0 0.023529494514227006 0.021467563264379843 0 0.024190412016785651 0.02069719980361116 0 0.024351327854845971 0.021396525319387981 0 0.024192581299212774 0.020139530204151521 0 0.024227823656167487 0.020646901443086025 0 0.023529494514227006 0.021467563264379843 0 0.024227823656167487 0.020646901443086025 0 0.024999646873781749 0.021626340392157883 0 0.025086280194120653 0.021033726987014067 0 0.023676621956754559 0.021533361752024097 0 0.023529494514227006 0.021467563264379843 0 0.023683819956207063 0.021327844441060541 0 0.023529494514227006 0.021467563264379843 0 0.02305240995354953 0.021740626761947698 0 0.023683819956207063 0.021327844441060541 0 0.023529494514227006 0.021467563264379843 0 0.02305240995354953 0.021740626761947698 0 0.022792544361601351 0.021323696160583619 0 0.023306465346044823 0.020062434091259483 0 0.023529494514227006 0.021467563264379843 0 0.023076406596195798 0.020923764411599991 0 0.023683887737863649 0.020040175999535923 0 0.023595198252948958 0.021490323367093722 0 0.023529494514227006 0.021467563264379843 0 0.022792544361601351 0.021323696160583619 0 0.023076406596195798 0.020923764411599991 0 0.022792544361601351 0.021323696160583619 0 0.022701247766026132 0.020816409576636288 0 0.022297038016025981 0.021044278255540772 0 0.022792544361601351 0.021323696160583619 0 0.023076406596195798 0.020923764411599991 0 0.022701247766026132 0.020816409576636288 0 0.02305240995354953 0.021740626761947698 0 0.022143229092570795 0.021280917365922615 0 0.021370426991894589 0.021359847134108954 0 0.022297038016025981 0.021044278255540772 0 0.021873964467861964 0.020944876554681083 0 0.022143229092570795 0.021280917365922615 0 0.022246819732253537 0.020781668842028263 0 0.022701247766026132 0.020816409576636288 0 0.022297038016025981 0.021044278255540772 0 0.022246819732253537 0.020781668842028263 0 0.022297038016025981 0.021044278255540772 0 0.021873964467861964 0.020944876554681083 0 0.022143229092570795 0.021280917365922615 0 0.021370426991894589 0.021359847134108954 0 0.021436018410896682 0.02118713129840365 0 0.021873964467861964 0.020944876554681083 0 0.022143229092570795 0.021280917365922615 0 0.021436018410896682 0.02118713129840365 0 0.02138662277398197 0.020747195196704458 0 0.021873964467861964 0.020944876554681083 0 0.021436018410896682 0.02118713129840365 0 0.02305240995354953 0.021740626761947698 0 0.022792544361601351 0.021323696160583619 0 0.022143229092570795 0.021280917365922615 0 0.022792544361601351 0.021323696160583619 0 0.022297038016025981 0.021044278255540772 0 0.022143229092570795 0.021280917365922615 0 0.023922086021486922 0.021731006736762194 0 0.021976954744972209 0.020821832640648831 0 0.024434080962766523 0.021482398283057407 0 0.024630915269131526 0.021431046012366988 0 0.024608042890519603 0.021297759962218641 0 0.024434080962766523 0.021482398283057407 0 0.024630915269131526 0.021431046012366988 0 0.024679531917001007 0.021571190490700373 0 0.024434080962766523 0.021482398283057407 0 0.024608042890519603 0.021297759962218641 0 0.024489408489777612 0.021299366486389072 0 0.024630915269131526 0.021431046012366988 0 0.024679190919548288 0.021338079509222081 0 0.024608042890519603 0.021297759962218641 0 0.021889599047441491 0.021282225422364881 0 0.021976954744972209 0.020821832640648831 0 0.024630915269131526 0.021431046012366988 0 0.024772462816327157 0.021407652475789178 0 0.024679531917001007 0.021571190490700373 0 0.024630915269131526 0.021431046012366988 0 0.024679190919548288 0.021338079509222081 0 0.024772462816327157 0.021407652475789178 0 0.024679190919548288 0.021338079509222081 0 0.024772462816327157 0.021407652475789178 0 0.024742113068058742 0.021281008668933749 0 0.021889599047441491 0.021282225422364881 0 0.021990941993834182 0.019765405310402513 0 0.01921757458305226 0.02076317030329311 0 0.01946911166754877 0.020294756648128701 0 0.018993605375684789 0.020357762800666056 0 0.02138662277398197 0.020747195196704458 0 0.02132045651882436 0.02138985464826787 0 0.021436018410896682 0.02118713129840365 0 0.021976954744972209 0.020821832640648831 0 0.021849719737763038 0.020998933860602642 0 0.027301150198822961 0.019863101504745812 0 0.026643201408160656 0.019719449851131336 0 0.02631019598683847 0.020746077820201082 0 0.027301150198822961 0.019863101504745812 0 0.02631019598683847 0.020746077820201082 0 0.027916590765121953 0.021239644802617225 0 0.031167429204496701 0.017531067952021168 0 0.02957396106516175 0.017892494995752205 0 0.029097799790056934 0.01967122235974211 0 0.027301150198822961 0.019863101504745812 0 0.027916590765121953 0.021239644802617225 0 0.027870527354477415 0.019388132907874386 0 0.027757312718783345 0.019352869384246636 0 0.027301150198822961 0.019863101504745812 0 0.029097799790056934 0.01967122235974211 0 0.028759010118937615 0.018772627798575792 0 0.027301150198822961 0.019863101504745812 0 0.027372904522300699 0.019496540949146896 0 0.027719148389413351 0.019598218731179885 0 0.027757312718783345 0.019352869384246636 0 0.027206278285369225 0.019372885317298784 0 0.027301150198822961 0.019863101504745812 0 0.027206278285369225 0.019372885317298784 0 0.027301150198822961 0.019863101504745812 0 0.026643201408160656 0.019719449851131336 0 0.026722320182888802 0.01923589710483423 0 0.027206278285369225 0.019372885317298784 0 0.026643201408160656 0.019719449851131336 0 0.026173420731843994 0.019298080153758869 0 0.026722320182888802 0.01923589710483423 0 0.026643201408160656 0.019719449851131336 0 0.026173420731843994 0.019298080153758869 0 0.026643201408160656 0.019719449851131336 0 0.026048695037629542 0.020034345048438994 0 0.026173420731843994 0.019298080153758869 0 0.025603980346576412 0.019500271723087551 0 0.026048695037629542 0.020034345048438994 0 0.025008547141828576 0.019227183535753291 0 0.025603980346576412 0.019500271723087551 0 0.025223563076281878 0.019935300337316338 0 0.025603980346576412 0.019500271723087551 0 0.025223563076281878 0.019935300337316338 0 0.026048695037629542 0.020034345048438994 0 0.025223563076281878 0.019935300337316338 0 0.025594079143111875 0.020371314199192348 0 0.026048695037629542 0.020034345048438994 0 0.025223563076281878 0.019935300337316338 0 0.025594079143111875 0.020371314199192348 0 0.025019024558014587 0.020468538138818101 0 0.025594079143111875 0.020371314199192348 0 0.025019024558014587 0.020468538138818101 0 0.02558862457201139 0.020893246673507226 0 0.026643201408160656 0.019719449851131336 0 0.026048695037629542 0.020034345048438994 0 0.02631019598683847 0.020746077820201082 0 0.025594079143111875 0.020371314199192348 0 0.02631019598683847 0.020746077820201082 0 0.02558862457201139 0.020893246673507226 0 0.025594079143111875 0.020371314199192348 0 0.026048695037629542 0.020034345048438994 0 0.02631019598683847 0.020746077820201082 0 0.026227594553495364 0.021246577300267942 0 0.02558862457201139 0.020893246673507226 0 0.025487791707343044 0.021415837356359237 0 0.02631019598683847 0.020746077820201082 0 0.026227594553495364 0.021246577300267942 0 0.02558862457201139 0.020893246673507226 0 0.025019024558014587 0.020468538138818101 0 0.025086280194120653 0.021033726987014067 0 0.02558862457201139 0.020893246673507226 0 0.025086280194120653 0.021033726987014067 0 0.02558862457201139 0.020893246673507226 0 0.025487791707343044 0.021415837356359237 0 0.024999646873781749 0.021626340392157883 0 0.025086280194120653 0.021033726987014067 0 0.025487791707343044 0.021415837356359237 0 0.024999646873781749 0.021626340392157883 0 0.025487791707343044 0.021415837356359237 0 0.0255009473778414 0.021853227284756142 0 0.025487791707343044 0.021415837356359237 0 0.0255009473778414 0.021853227284756142 0 0.025916190973382994 0.021791025484877616 0 0.026227594553495364 0.021246577300267942 0 0.025487791707343044 0.021415837356359237 0 0.025916190973382994 0.021791025484877616 0 0.026227594553495364 0.021246577300267942 0 0.025916190973382994 0.021791025484877616 0 0.026680777915478123 0.021682033105443577 0 0.02631019598683847 0.020746077820201082 0 0.026227594553495364 0.021246577300267942 0 0.027224965024687138 0.020902964109203479 0 0.026227594553495364 0.021246577300267942 0 0.026680777915478123 0.021682033105443577 0 0.027224965024687138 0.020902964109203479 0 0.025682630691307173 0.021462716625507645 0 0.02957396106516175 0.017892494995752205 0 0.031153818877954591 0.013284376356046949 0 0.031288894217566088 0.013352575705162066 0 0.031221569475514473 0.013190660336316945 0 0.031288894217566088 0.013352575705162066 0 0.031221569475514473 0.013190660336316945 0 0.031287769717342422 0.01315500402208093 0 0.031221569475514473 0.013190660336316945 0 0.031287769717342422 0.01315500402208093 0 0.031217869068240426 0.013078253382157259 0 0.028998329764605597 0.017298396309306126 0 0.02957396106516175 0.017892494995752205 0 0.031420611044731643 0.013099484584082294 0 0.031288894217566088 0.013352575705162066 0 0.031287769717342422 0.01315500402208093 0 0.031420611044731643 0.013099484584082294 0 0.031287769717342422 0.01315500402208093 0 0.03129679933996142 0.013063692204586527 0 0.031287769717342422 0.01315500402208093 0 0.03129679933996142 0.013063692204586527 0 0.031217869068240426 0.013078253382157259 0 0.031222683047791307 0.012997294857849674 0 0.031328395226893097 0.01296348866613284 0 0.031085649954526985 0.012751496715654858 0 0.036749909119182515 0.010781607549098847 0 0.036828988285148113 0.010124494629298261 0 0.031182403180287154 0.013088323717712999 0 0.031222683047791307 0.012997294857849674 0 0.031085649954526985 0.012751496715654858 0 0.031182403180287154 0.013088323717712999 0 0.031217869068240426 0.013078253382157259 0 0.031222683047791307 0.012997294857849674 0 0.03129679933996142 0.013063692204586527 0 0.031217869068240426 0.013078253382157259 0 0.031222683047791307 0.012997294857849674 0 0.03129679933996142 0.013063692204586527 0 0.031222683047791307 0.012997294857849674 0 0.031328395226893097 0.01296348866613284 0 0.031420611044731643 0.013099484584082294 0 0.03129679933996142 0.013063692204586527 0 0.031328395226893097 0.01296348866613284 0 0.031328395226893097 0.01296348866613284 0 0.031085649954526985 0.012751496715654858 0 0.031515630874282663 0.012819228784766551 0 0.031085649954526985 0.012751496715654858 0 0.031515630874282663 0.012819228784766551 0 0.031451531507150306 0.012256834719371864 0 0.031515630874282663 0.012819228784766551 0 0.031369356368576851 0.012964962891323348 0 0.031402497064942698 0.013140434114567678 0 0.031515630874282663 0.012819228784766551 0 0.031400696742620859 0.012862132907958915 0 0.031369356368576851 0.012964962891323348 0 0.031420611044731643 0.013099484584082294 0 0.031515630874282663 0.012819228784766551 0 0.031400696742620859 0.012862132907958915 0 0.031420611044731643 0.013099484584082294 0 0.031328395226893097 0.01296348866613284 0 0.031515630874282663 0.012819228784766551 0 0.028998329764605597 0.017298396309306126 0 0.028956857852139133 0.017458938790996647 0 0.025916190973382994 0.021791025484877616 0 0.025711809203122268 0.0220759755578613 0 0.026110294451539048 0.022348033661586945 0 0.025916190973382994 0.021791025484877616 0 0.026680777915478123 0.021682033105443577 0 0.026110294451539048 0.022348033661586945 0 0.024351327854845971 0.021396525319387981 0 0.02420678390665543 0.022237014602979117 0 0.025711809203122268 0.0220759755578613 0 0.025456647986956172 0.022290143255702312 0 0.026110294451539048 0.022348033661586945 0 0.024999646873781749 0.021626340392157883 0 0.0255009473778414 0.021853227284756142 0 0.025456647986956172 0.022290143255702312 0 0.0255009473778414 0.021853227284756142 0 0.025711809203122268 0.0220759755578613 0 0.025456647986956172 0.022290143255702312 0 0.0255009473778414 0.021853227284756142 0 0.025916190973382994 0.021791025484877616 0 0.025711809203122268 0.0220759755578613 0 0.02420678390665543 0.022237014602979117 0 0.027161772394890368 0.018610478802757659 0 0.023429780007203475 0.021149869360141123 0 0.023134495260874258 0.020277854870615751 0 0.023758858601573986 0.020441102154588497 0 0.025456647986956172 0.022290143255702312 0 0.026110294451539048 0.022348033661586945 0 0.025723293714143159 0.022850642844082274 0 0.028956857852139133 0.017458938790996647 0 0.027161772394890368 0.018610478802757659 0 0.031400696742620859 0.012862132907958915 0 0.031369356368576851 0.012964962891323348 0 0.031072202358339941 0.01311055926022066 0 0.031369356368576851 0.012964962891323348 0 0.031264447625235128 0.013099686512351692 0 0.031072202358339941 0.01311055926022066 0 0.031369356368576851 0.012964962891323348 0 0.031264447625235128 0.013099686512351692 0 0.031402497064942698 0.013140434114567678 0 0.031264447625235128 0.013099686512351692 0 0.031169185716549509 0.013154974262576693 0 0.031220982331414883 0.013225251769394727 0 0.031264447625235128 0.013099686512351692 0 0.031169185716549509 0.013154974262576693 0 0.031072202358339941 0.01311055926022066 0 0.031169185716549509 0.013154974262576693 0 0.031088626040602651 0.013186417507469834 0 0.031120613724347487 0.013227281551554735 0 0.031264447625235128 0.013099686512351692 0 0.031220982331414883 0.013225251769394727 0 0.031402497064942698 0.013140434114567678 0 0.023134495260874258 0.020277854870615751 0 0.023386094294345131 0.019868056355414984 0 0.023758858601573986 0.020441102154588497 0 0.031072202358339941 0.01311055926022066 0 0.031088626040602651 0.013186417507469834 0 0.030991201692383136 0.013238619004951952 0 0.027161772394890368 0.018610478802757659 0 0.024381628277321953 0.016542928061909875 0 0.031169185716549509 0.013154974262576693 0 0.031072202358339941 0.01311055926022066 0 0.031088626040602651 0.013186417507469834 0 0.024381628277321953 0.016542928061909875 0 0.025846421971579152 0.014842348697998001 0 0.030991201692383136 0.013238619004951952 0 0.031120613724347487 0.013227281551554735 0 0.031148085040944261 0.013336953429183576 0 0.022049395048928052 0.017110536249219568 0 0.021753893656227149 0.017578738619504933 0 0.020457962121336711 0.0156502289463035 0 0.022049395048928052 0.017110536249219568 0 0.021717736423844794 0.017611250767696814 0 0.022810318231075873 0.018014675753171241 0 0.023364823295701338 0.017385549904630121 0 0.024381628277321953 0.016542928061909875 0 0.031088626040602651 0.013186417507469834 0 0.030991201692383136 0.013238619004951952 0 0.031120613724347487 0.013227281551554735 0 0.031220982331414883 0.013225251769394727 0 0.031120613724347487 0.013227281551554735 0 0.031148085040944261 0.013336953429183576 0 0.031220982331414883 0.013225251769394727 0 0.031254337105560963 0.013309393683263674 0 0.031148085040944261 0.013336953429183576 0 0.031169185716549509 0.013154974262576693 0 0.031220982331414883 0.013225251769394727 0 0.031120613724347487 0.013227281551554735 0 0.031763519570409043 0.010818288599754575 0 0.032057104967346574 0.011733678177092519 0 0.032493670657827899 0.010035805392306979 0 0.031700796760544964 0.012388214960532542 0 0.032128098303833855 0.011757781191512962 0 0.031220982331414883 0.013225251769394727 0 0.031402497064942698 0.013140434114567678 0 0.031254337105560963 0.013309393683263674 0 0.031763519570409043 0.010818288599754575 0 0.031448717054669055 0.0097662868844856192 0 0.032493670657827899 0.010035805392306979 0 0.031763519570409043 0.010818288599754575 0 0.031081166452593192 0.011657093556497184 0 0.031448717054669055 0.0097662868844856192 0 0.037027187433914678 0.0086472918511782734 0 0.037314294489373914 0.0076120195775861276 0 0.042519031939168429 0.0050204573613938036 0 0.04292779484378037 0.0058464963097576584 0 0.041930838966021747 0.0055415288318697376 0 0.042519031939168429 0.0050204573613938036 0 0.04292779484378037 0.0058464963097576584 0 0.04310824398558237 0.0046057234432980033 0 0.04263068031955812 0.0074008756302968003 0 0.04292779484378037 0.0058464963097576584 0 0.042101316591127133 0.0065948594349421394 0 0.036828988285148113 0.010124494629298261 0 0.037027187433914678 0.0086472918511782734 0 0.031085649954526985 0.012751496715654858 0 0.031081166452593192 0.011657093556497184 0 0.031451531507150306 0.012256834719371864 0 0.031515630874282663 0.012819228784766551 0 0.031451531507150306 0.012256834719371864 0 0.032057104967346574 0.011733678177092519 0 0.031565486345342675 0.012776417225203814 0 0.031700796760544964 0.012388214960532542 0 0.031763519570409043 0.010818288599754575 0 0.031081166452593192 0.011657093556497184 0 0.032057104967346574 0.011733678177092519 0 0.031081166452593192 0.011657093556497184 0 0.031451531507150306 0.012256834719371864 0 0.032057104967346574 0.011733678177092519 0 0.020867388173496527 0.014100951052091514 0 0.020738849781949186 0.014242251975895752 0 0.020949145377691956 0.014343547484627493 0 0.020867388173496527 0.014100951052091514 0 0.020738849781949186 0.014242251975895752 0 0.020694133334810929 0.013954401622837136 0 0.022671544361911149 0.017654887386515057 0 0.022042680921275308 0.017612053075820002 0 0.024742113068058742 0.021281008668933749 0 0.024641802674893944 0.021153574476120745 0 0.024869777441561724 0.021200958502477545 0 0.024634440796993961 0.021168064731824688 0 0.024641802674893944 0.021153574476120745 0 0.024429380376959416 0.021076174912876434 0 0.02562946008608771 0.021338357787977942 0 0.021990941993834182 0.019765405310402513 0 0.024634440796993961 0.021168064731824688 0 0.024429380376959416 0.021076174912876434 0 0.024416259372129306 0.021094120375327492 0 0.024772462816327157 0.021407652475789178 0 0.024742113068058742 0.021281008668933749 0 0.024869777441561724 0.021200958502477545 0 0.024679190919548288 0.021338079509222081 0 0.024742113068058742 0.021281008668933749 0 0.024641802674893944 0.021153574476120745 0 0.024641802674893944 0.021153574476120745 0 0.02462615191261722 0.021154137333850614 0 0.024614310928951541 0.021163903014512663 0 0.024634440796993961 0.021168064731824688 0 0.024641802674893944 0.021153574476120745 0 0.02462615191261722 0.021154137333850614 0 0.024679190919548288 0.021338079509222081 0 0.024641802674893944 0.021153574476120745 0 0.024608042890519603 0.021297759962218641 0 0.024641802674893944 0.021153574476120745 0 0.024608042890519603 0.021297759962218641 0 0.024614310928951541 0.021163903014512663 0 0.024608042890519603 0.021297759962218641 0 0.024614310928951541 0.021163903014512663 0 0.024489408489777612 0.021299366486389072 0 0.024634440796993961 0.021168064731824688 0 0.02462615191261722 0.021154137333850614 0 0.024567272784001736 0.02106729274441041 0 0.02462615191261722 0.021154137333850614 0 0.024614310928951541 0.021163903014512663 0 0.024567272784001736 0.02106729274441041 0 0.022671544361911149 0.017654887386515057 0 0.023046398106307684 0.018366558671363279 0 0.025007827526882763 0.021898810721210572 0 0.023046398106307684 0.018366558671363279 0 0.020738849781949186 0.014242251975895752 0 0.020533958231642214 0.014157142723646175 0 0.020694133334810929 0.013954401622837136 0 0.024614310928951541 0.021163903014512663 0 0.024747879462858825 0.020280771498740108 0 0.024422019106984667 0.020981548120920269 0 0.024653354118071073 0.020104978366309281 0 0.024019065495142471 0.02084730376080151 0 0.022874821604969689 0.019320885804675766 0 0.024653354118071073 0.020104978366309281 0 0.024747879462858825 0.020280771498740108 0 0.024452339436898757 0.020611410352269148 0 0.02362213316957441 0.018713064752047457 0 0.023046398106307684 0.018366558671363279 0 0.024019065495142471 0.02084730376080151 0 0.024452339436898757 0.020611410352269148 0 0.024422019106984667 0.020981548120920269 0 0.024653354118071073 0.020104978366309281 0 0.024019065495142471 0.02084730376080151 0 0.024452339436898757 0.020611410352269148 0 0.024747879462858825 0.020280771498740108 0 0.024452339436898757 0.020611410352269148 0 0.024422019106984667 0.020981548120920269 0 0.023922086021486922 0.021731006736762194 0 0.023542917563024544 0.021270882986130765 0 0.024614310928951541 0.021163903014512663 0 0.024422019106984667 0.020981548120920269 0 0.024489408489777612 0.021299366486389072 0 0.024434080962766523 0.021482398283057407 0 0.024208170622762093 0.021270016567482026 0 0.023683819956207063 0.021327844441060541 0 0.024422019106984667 0.020981548120920269 0 0.024489408489777612 0.021299366486389072 0 0.024208170622762093 0.021270016567482026 0 0.024434080962766523 0.021482398283057407 0 0.024489408489777612 0.021299366486389072 0 0.024208170622762093 0.021270016567482026 0 0.024422019106984667 0.020981548120920269 0 0.024208170622762093 0.021270016567482026 0 0.02399645031322805 0.021072082466796281 0 0.024019065495142471 0.02084730376080151 0 0.024422019106984667 0.020981548120920269 0 0.02399645031322805 0.021072082466796281 0 0.024208170622762093 0.021270016567482026 0 0.02399645031322805 0.021072082466796281 0 0.023683819956207063 0.021327844441060541 0 0.023676621956754559 0.021533361752024097 0 0.023429780007203475 0.021149869360141123 0 0.023683819956207063 0.021327844441060541 0 0.02399645031322805 0.021072082466796281 0 0.023683819956207063 0.021327844441060541 0 0.023754098567781389 0.020952586532996406 0 0.023429780007203475 0.021149869360141123 0 0.023683819956207063 0.021327844441060541 0 0.023754098567781389 0.020952586532996406 0 0.024019065495142471 0.02084730376080151 0 0.023754098567781389 0.020952586532996406 0 0.023758858601573986 0.020441102154588497 0 0.023429780007203475 0.021149869360141123 0 0.023754098567781389 0.020952586532996406 0 0.023758858601573986 0.020441102154588497 0 0.024019065495142471 0.02084730376080151 0 0.02399645031322805 0.021072082466796281 0 0.023754098567781389 0.020952586532996406 0 0.02392604008409455 0.020708181493097309 0 0.023338621709173626 0.020043749072526297 0 0.022874821604969689 0.019320885804675766 0 0.022810318231075873 0.018014675753171241 0 0.024149618245432703 0.017607860487425454 0 0.021717736423844794 0.017611250767696814 0 0.022874821604969689 0.019320885804675766 0 0.022810318231075873 0.018014675753171241 0 0.024381628277321953 0.016542928061909875 0 0.023338621709173626 0.020043749072526297 0 0.022155347610618631 0.015308189365647241 0 0.021775478903507107 0.015155156957161678 0 0.022049395048928052 0.017110536249219568 0 0.024149618245432703 0.017607860487425454 0 0.023201950178837975 0.014970050639087636 0 0.022049395048928052 0.017110536249219568 0 0.022810318231075873 0.018014675753171241 0 0.024149618245432703 0.017607860487425454 0 0.020413348053040702 0.013860645759962627 0 0.020591559446247177 0.013735348485012875 0 0.020308251178804373 0.013555690149947017 0 0.020533958231642214 0.014157142723646175 0 0.020413348053040702 0.013860645759962627 0 0.020694133334810929 0.013954401622837136 0 0.023046398106307684 0.018366558671363279 0 0.022155347610618631 0.015308189365647241 0 0.024653354118071073 0.020104978366309281 0 0.022874821604969689 0.019320885804675766 0 0.024149618245432703 0.017607860487425454 0 0.024653354118071073 0.020104978366309281 0 0.024928864848120982 0.020242180208605361 0 0.024149618245432703 0.017607860487425454 0 0.020413348053040702 0.013860645759962627 0 0.020694133334810929 0.013954401622837136 0 0.020591559446247177 0.013735348485012875 0 0.020694133334810929 0.013954401622837136 0 0.020591559446247177 0.013735348485012875 0 0.020788996120705928 0.013683559980022249 0 0.020694133334810929 0.013954401622837136 0 0.020788996120705928 0.013683559980022249 0 0.020896975718352123 0.013907254419628789 0 0.020867388173496527 0.014100951052091514 0 0.020694133334810929 0.013954401622837136 0 0.020896975718352123 0.013907254419628789 0 0.020774684455820216 0.013444835017348507 0 0.020808123401789693 0.013211222675470178 0 0.020963017023209206 0.013512613724841565 0 0.020774684455820216 0.013444835017348507 0 0.020661489851587576 0.01334090442788468 0 0.020808123401789693 0.013211222675470178 0 0.020774684455820216 0.013444835017348507 0 0.020788996120705928 0.013683559980022249 0 0.020963017023209206 0.013512613724841565 0 0.020774684455820216 0.013444835017348507 0 0.020788996120705928 0.013683559980022249 0 0.020614774756469251 0.013513344591832442 0 0.020591559446247177 0.013735348485012875 0 0.020788996120705928 0.013683559980022249 0 0.020614774756469251 0.013513344591832442 0 0.020774684455820216 0.013444835017348507 0 0.020614774756469251 0.013513344591832442 0 0.020661489851587576 0.01334090442788468 0 0.020614774756469251 0.013513344591832442 0 0.020661489851587576 0.01334090442788468 0 0.020517846460732774 0.013354032394893554 0 0.020614774756469251 0.013513344591832442 0 0.020517846460732774 0.013354032394893554 0 0.020308251178804373 0.013555690149947017 0 0.020517846460732774 0.013354032394893554 0 0.020308251178804373 0.013555690149947017 0 0.020400956740373847 0.013212122154461187 0 0.020591559446247177 0.013735348485012875 0 0.020614774756469251 0.013513344591832442 0 0.020308251178804373 0.013555690149947017 0 0.021775478903507107 0.015155156957161678 0 0.022437979201822039 0.008471965251143623 0 0.020308251178804373 0.013555690149947017 0 0.020400956740373847 0.013212122154461187 0 0.020206558338745385 0.013238461890235467 0 0.022333286472345396 0.0076608798359883764 0 0.023025965041364622 0.0074741126784556196 0 0.023172489825734954 0.0077997335680015665 0 0.021113576635855419 0.010519850189125671 0 0.022437979201822039 0.008471965251143623 0 0.022333286472345396 0.0076608798359883764 0 0.022098090671680667 0.0081782089993691475 0 0.023172489825734954 0.0077997335680015665 0 0.023161790736476093 -0.0020509723782913447 0 0.022811052807406165 -0.0021953617768814223 0 0.023341502196010517 -0.0022071051214426914 0 0.023161790736476093 -0.0020509723782913447 0 0.022811052807406165 -0.0021953617768814223 0 0.023032597087392786 -0.0019500568913353316 0 0.022599760480034242 0.0031228409885885058 0 0.022424976949648338 0.0017587614684764553 0 0.020517846460732774 0.013354032394893554 0 0.020400956740373847 0.013212122154461187 0 0.02058285772607818 0.01319079590750525 0 0.021113576635855419 0.010519850189125671 0 0.021230644764070432 0.0095260989812251951 0 0.022333286472345396 0.0076608798359883764 0 0.022098090671680667 0.0081782089993691475 0 0.021614250715824925 0.0078496090434694715 0 0.021230644764070432 0.0095260989812251951 0 0.020659926973317644 0.010709911777669751 0 0.021230644764070432 0.0095260989812251951 0 0.020706404584184015 0.0077742633842651995 0 0.020661489851587576 0.01334090442788468 0 0.02058285772607818 0.01319079590750525 0 0.020808123401789693 0.013211222675470178 0 0.020661489851587576 0.01334090442788468 0 0.020517846460732774 0.013354032394893554 0 0.02058285772607818 0.01319079590750525 0 0.022811052807406165 -0.0021953617768814223 0 0.022228521631536872 -0.0021472420823723925 0 0.022675502161079313 -0.001848655041222468 0 0.022098090671680667 0.0081782089993691475 0 0.021614250715824925 0.0078496090434694715 0 0.020952210176178571 0.008614893921917232 0 0.022599760480034242 0.0031228409885885058 0 0.021554394410321615 0.0032241456339711151 0 0.021614250715824925 0.0078496090434694715 0 0.020453742204782219 0.0082252271439508078 0 0.020952210176178571 0.008614893921917232 0 0.020453742204782219 0.0082252271439508078 0 0.020952210176178571 0.008614893921917232 0 0.019806688690006815 0.0090231617292618332 0 0.021486917665743604 0.0080539367310562462 0 0.020453742204782219 0.0082252271439508078 0 0.020583827952233531 0.0079924349456649748 0 0.032826757068926307 0.0079899211107158884 0 0.032011023536088888 0.0075446286806327284 0 0.032196976584826204 0.0088394407066528114 0 0.029802089573388115 0.0034735890541375994 0 0.036721626322757647 0.0033121719711697245 0 0.02347296202026871 -0.0013722298438377353 0 0.023546103483494073 -0.001394378274186589 0 0.023419319896655192 -0.001457857031476431 0 0.032826757068926307 0.0079899211107158884 0 0.032441499062910807 0.0074487702327012449 0 0.032011023536088888 0.0075446286806327284 0 0.027197177318483534 0.0061406784877203486 0 0.025842704483028181 0.0042943184414095583 0 0.027505643454058835 0.00393101353100742 0 0.028107143807685819 0.0097656194779341399 0 0.029802089573388115 0.0034735890541375994 0 0.029802089573388115 0.0034735890541375994 0 0.023617411397107289 0.0038877715472539717 0 0.029802089573388115 0.0034735890541375994 0 0.03405398742066975 0.00047687900770753327 0 0.034550221489858056 0.0035386967418691243 0 0.033534617416651431 0.003762602655658029 0 0.033857111645018166 0.0025901650957261507 0 0.036721626322757647 0.0033121719711697245 0 0.03405398742066975 0.00047687900770753327 0 0.038223218097003041 -0.00028149497304364411 0 0.038230269809613006 -0.00030132889964086242 0 0.038193580259426659 -0.00031376684568518929 0 0.038223218097003041 -0.00028149497304364411 0 0.038193580259426659 -0.00031376684568518929 0 0.038180557184124483 -0.00026246287452475885 0 0.043237489764508613 0.0042658383438345651 0 0.041547549620999678 0.0024158382964127685 0 0.043329600848028928 0.0035110301362026837 0 0.043008833216398271 0.0040933547147954611 0 0.042068036760775293 0.0037650578409034632 0 0.036721626322757647 0.0033121719711697245 0 0.041547549620999678 0.0024158382964127685 0 0.038193580259426659 -0.00031376684568518929 0 0.038170418155086067 -0.00033798385481035052 0 0.038180557184124483 -0.00026246287452475885 0 0.043008833216398271 0.0040933547147954611 0 0.042487261083397093 0.0043935513081319634 0 0.04215802804591294 0.003736672269055242 0 0.043008833216398271 0.0040933547147954611 0 0.042487261083397093 0.0043935513081319634 0 0.04310824398558237 0.0046057234432980033 0 0.042519031939168429 0.0050204573613938036 0 0.042487261083397093 0.0043935513081319634 0 0.04310824398558237 0.0046057234432980033 0 0.031448717054669055 0.0097662868844856192 0 0.032196976584826204 0.0088394407066528114 0 0.032493670657827899 0.010035805392306979 0 0.036721626322757647 0.0033121719711697245 0 0.037314294489373914 0.0076120195775861276 0 0.043329600848028928 0.0035110301362026837 0 0.043008833216398271 0.0040933547147954611 0 0.04310824398558237 0.0046057234432980033 0 0.028107143807685819 0.0097656194779341399 0 0.032128098303833855 0.011757781191512962 0 0.032826757068926307 0.0079899211107158884 0 0.032196976584826204 0.0088394407066528114 0 0.032493670657827899 0.010035805392306979 0 0.032011023536088888 0.0075446286806327284 0 0.031448717054669055 0.0097662868844856192 0 0.032196976584826204 0.0088394407066528114 0 0.03118027038958265 0.013340289649998152 0 0.031254337105560963 0.013309393683263674 0 0.031148085040944261 0.013336953429183576 0 0.028107143807685819 0.0097656194779341399 0 0.025846421971579152 0.014842348697998001 0 0.020457962121336711 0.0156502289463035 0 0.021651233702732788 0.015348213084265592 0 0.020903467063186736 0.013669160950684668 0 0.023201950178837975 0.014970050639087636 0 0.021651233702732788 0.015348213084265592 0 0.020903467063186736 0.013669160950684668 0 0.022049395048928052 0.017110536249219568 0 0.020457962121336711 0.0156502289463035 0 0.021651233702732788 0.015348213084265592 0 0.022049395048928052 0.017110536249219568 0 0.023201950178837975 0.014970050639087636 0 0.021651233702732788 0.015348213084265592 0 0.023201950178837975 0.014970050639087636 0 0.020903467063186736 0.013669160950684668 0 0.022195904292936358 0.012411108669990307 0 0.019151681133233775 0.013732475439523231 0 0.020457962121336711 0.0156502289463035 0 0.020903467063186736 0.013669160950684668 0 0.020903467063186736 0.013669160950684668 0 0.019249330689117508 0.013050642724136067 0 0.022195904292936358 0.012411108669990307 0 0.019151681133233775 0.013732475439523231 0 0.020903467063186736 0.013669160950684668 0 0.019249330689117508 0.013050642724136067 0 0.028107143807685819 0.0097656194779341399 0 0.023617411397107289 0.0038877715472539717 0 0.023256757958298565 -0.0015156670876649296 0 0.023420704658902489 -0.0017717884810917043 0 0.023452807697453386 -0.0018555607987423041 0 0.023256757958298565 -0.0015156670876649296 0 0.023411367486915843 -0.0016911738165328717 0 0.023489748291919257 -0.0016590469368148095 0 0.023617411397107289 0.0038877715472539717 0 0.022437979201822039 0.008471965251143623 0 0.023256757958298565 -0.0015156670876649296 0 0.023411367486915843 -0.0016911738165328717 0 0.023420704658902489 -0.0017717884810917043 0 0.023617411397107289 0.0038877715472539717 0 0.023553243560440945 -0.0040073223311736942 0 0.023411367486915843 -0.0016911738165328717 0 0.023446429174692585 -0.001798583849351662 0 0.023489748291919257 -0.0016590469368148095 0 0.023411367486915843 -0.0016911738165328717 0 0.023446429174692585 -0.001798583849351662 0 0.023420704658902489 -0.0017717884810917043 0 0.023256757958298565 -0.0015156670876649296 0 0.023659778945346686 -0.0015538675268249561 0 0.023489748291919257 -0.0016590469368148095 0 0.023659778945346686 -0.0015538675268249561 0 0.023489748291919257 -0.0016590469368148095 0 0.023581596457673132 -0.0017140095835646418 0 0.023446429174692585 -0.001798583849351662 0 0.023489748291919257 -0.0016590469368148095 0 0.023489660041938882 -0.0017816580377477413 0 0.023489748291919257 -0.0016590469368148095 0 0.023489660041938882 -0.0017816580377477413 0 0.023581596457673132 -0.0017140095835646418 0 0.023581596457673132 -0.0017140095835646418 0 0.023625160729481582 -0.0017248180356855389 0 0.023439056073713348 -0.0019750570353172722 0 0.023659778945346686 -0.0015538675268249561 0 0.023581596457673132 -0.0017140095835646418 0 0.023608077978954232 -0.0017166091305993189 0 0.022437979201822039 0.008471965251143623 0 0.022424976949648338 0.0017587614684764553 0 0.022632584277058977 0.001602067897332441 0 0.022424976949648338 0.0017587614684764553 0 0.023161790736476093 -0.0020509723782913447 0 0.023341502196010517 -0.0022071051214426914 0 0.023439056073713348 -0.0019750570353172722 0 0.022424976949648338 0.0017587614684764553 0 0.022530274733607601 -0.0020007078468694153 0 0.023446429174692585 -0.001798583849351662 0 0.023489660041938882 -0.0017816580377477413 0 0.023439056073713348 -0.0019750570353172722 0 0.023446429174692585 -0.001798583849351662 0 0.023439056073713348 -0.0019750570353172722 0 0.023441979818455371 -0.0018995472005432655 0 0.023489660041938882 -0.0017816580377477413 0 0.023581596457673132 -0.0017140095835646418 0 0.023439056073713348 -0.0019750570353172722 0 0.023439056073713348 -0.0019750570353172722 0 0.023445627750120459 -0.0019067000934447824 0 0.023318900999837747 -0.0019168996251716713 0 0.023439056073713348 -0.0019750570353172722 0 0.023441979818455371 -0.0018995472005432655 0 0.023445627750120459 -0.0019067000934447824 0 0.023161790736476093 -0.0020509723782913447 0 0.023439056073713348 -0.0019750570353172722 0 0.023318900999837747 -0.0019168996251716713 0 0.023420704658902489 -0.0017717884810917043 0 0.023452807697453386 -0.0018555607987423041 0 0.023441979818455371 -0.0018995472005432655 0 0.023446429174692585 -0.001798583849351662 0 0.023420704658902489 -0.0017717884810917043 0 0.023441979818455371 -0.0018995472005432655 0 0.023452807697453386 -0.0018555607987423041 0 0.023441979818455371 -0.0018995472005432655 0 0.023445627750120459 -0.0019067000934447824 0 0.023452807697453386 -0.0018555607987423041 0 0.023439630488261566 -0.0019184858100013038 0 0.023445627750120459 -0.0019067000934447824 0 0.023452807697453386 -0.0018555607987423041 0 0.023439630488261566 -0.0019184858100013038 0 0.023419319896655192 -0.001457857031476431 0 0.038252388997134089 -0.00047555156747987781 0 0.038197407134691379 -0.00046030353255193085 0 0.038177674752700834 -0.00031558428205823023 0 0.030256268607245011 -0.0010837431569653243 0 0.03405398742066975 0.00047687900770753327 0 0.03405398742066975 0.00047687900770753327 0 0.038890667487144932 -5.3862169324399276e-05 0 0.038197407134691379 -0.00046030353255193085 0 0.038177674752700834 -0.00031558428205823023 0 0.038177207636006599 -0.00039508542289552306 0 0.023546103483494073 -0.001394378274186589 0 0.023452807697453386 -0.0018555607987423041 0 0.023419319896655192 -0.001457857031476431 0 0.038230269809613006 -0.00030132889964086242 0 0.038193580259426659 -0.00031376684568518929 0 0.038177207636006599 -0.00039508542289552306 0 0.038193580259426659 -0.00031376684568518929 0 0.038177207636006599 -0.00039508542289552306 0 0.038170418155086067 -0.00033798385481035052 0 0.038177207636006599 -0.00039508542289552306 0 0.038139518195770411 -0.00047461604245060051 0 0.038152484332650408 -0.00041118452719245824 0 0.038177207636006599 -0.00039508542289552306 0 0.038152484332650408 -0.00041118452719245824 0 0.038170418155086067 -0.00033798385481035052 0 0.038197407134691379 -0.00046030353255193085 0 0.038177207636006599 -0.00039508542289552306 0 0.038139518195770411 -0.00047461604245060051 0 0.038139518195770411 -0.00047461604245060051 0 0.038152484332650408 -0.00041118452719245824 0 0.038166502778699235 -0.00044074067109005138 0 0.038152094680355464 -0.00037005885202144161 0 0.038152484332650408 -0.00041118452719245824 0 0.038166502778699235 -0.00044074067109005138 0 0.038152094680355464 -0.00037005885202144161 0 0.038152484332650408 -0.00041118452719245824 0 0.038170418155086067 -0.00033798385481035052 0 0.038152094680355464 -0.00037005885202144161 0 0.038137351817495634 -0.00036524192532515128 0 0.038166502778699235 -0.00044074067109005138 0 0.038137351817495634 -0.00036524192532515128 0 0.038089038668282997 -0.00037324272890446963 0 0.038166502778699235 -0.00044074067109005138 0 0.038152094680355464 -0.00037005885202144161 0 0.038137351817495634 -0.00036524192532515128 0 0.03813682468998459 -0.00023743578361591137 0 0.038152094680355464 -0.00037005885202144161 0 0.038170418155086067 -0.00033798385481035052 0 0.03813682468998459 -0.00023743578361591137 0 0.038170418155086067 -0.00033798385481035052 0 0.038180557184124483 -0.00026246287452475885 0 0.03813682468998459 -0.00023743578361591137 0 0.041547549620999678 0.0024158382964127685 0 0.041481063110805828 0.0036660778309340488 0 0.04215802804591294 0.003736672269055242 0 0.041314048748204921 0.0038276393694671369 0 0.041899472840629164 0.0042618613459162414 0 0.041547549620999678 0.0024158382964127685 0 0.03933429006141289 0.0011151918186534807 0 0.042567790130108356 0.0032855045215662159 0 0.041094613555312409 0.0027679040885735906 0 0.041515211685977133 0.0035235388123104751 0 0.041094613555312409 0.0027679040885735906 0 0.041515211685977133 0.0035235388123104751 0 0.04042332603643093 0.0038201338011548043 0 0.041314048748204921 0.0038276393694671369 0 0.040808582551813001 0.0045154699038182271 0 0.04042332603643093 0.0038201338011548043 0 0.041481063110805828 0.0036660778309340488 0 0.040486451772520138 0.0038294365780234645 0 0.041314048748204921 0.0038276393694671369 0 0.041419029508258307 0.0045873706950236995 0 0.041899472840629164 0.0042618613459162414 0 0.041314048748204921 0.0038276393694671369 0 0.041419029508258307 0.0045873706950236995 0 0.040808582551813001 0.0045154699038182271 0 0.041419029508258307 0.0045873706950236995 0 0.041899472840629164 0.0042618613459162414 0 0.042090945468996839 0.0047783739876171598 0 0.042487261083397093 0.0043935513081319634 0 0.041899472840629164 0.0042618613459162414 0 0.042090945468996839 0.0047783739876171598 0 0.042519031939168429 0.0050204573613938036 0 0.042487261083397093 0.0043935513081319634 0 0.042090945468996839 0.0047783739876171598 0 0.042487261083397093 0.0043935513081319634 0 0.04215802804591294 0.003736672269055242 0 0.041899472840629164 0.0042618613459162414 0 0.039624494289621358 0.0041705019197466149 0 0.038781625401991406 0.0037795629517644994 0 0.039058922517540708 0.0049198259952194885 0 0.039624494289621358 0.0041705019197466149 0 0.04042332603643093 0.0038201338011548043 0 0.03961757653723947 0.0032478884059986232 0 0.039624494289621358 0.0041705019197466149 0 0.03961757653723947 0.0032478884059986232 0 0.038781625401991406 0.0037795629517644994 0 0.040808582551813001 0.0045154699038182271 0 0.04042332603643093 0.0038201338011548043 0 0.040199076506760516 0.0049509699950622248 0 0.039624494289621358 0.0041705019197466149 0 0.04042332603643093 0.0038201338011548043 0 0.040199076506760516 0.0049509699950622248 0 0.041094613555312409 0.0027679040885735906 0 0.04042332603643093 0.0038201338011548043 0 0.03961757653723947 0.0032478884059986232 0 0.041094613555312409 0.0027679040885735906 0 0.03961757653723947 0.0032478884059986232 0 0.039607613908640267 0.0021673366716470003 0 0.03961757653723947 0.0032478884059986232 0 0.039607613908640267 0.0021673366716470003 0 0.038162092604162819 0.0028688464483992812 0 0.03813682468998459 -0.00023743578361591137 0 0.037986868437839626 -0.00014646467494401313 0 0.038089038668282997 -0.00037324272890446963 0 0.038137351817495634 -0.00036524192532515128 0 0.03813682468998459 -0.00023743578361591137 0 0.038089038668282997 -0.00037324272890446963 0 0.03933429006141289 0.0011151918186534807 0 0.038840819024477349 0.0010341896840061746 0 0.037986868437839626 -0.00014646467494401313 0 0.037933714502849797 -0.00040437419102714808 0 0.037574160419559216 8.8751258683059959e-06 0 0.037986868437839626 -0.00014646467494401313 0 0.038089038668282997 -0.00037324272890446963 0 0.037933714502849797 -0.00040437419102714808 0 0.037933714502849797 -0.00040437419102714808 0 0.037574160419559216 8.8751258683059959e-06 0 0.037606493489853968 -0.00050415915712092598 0 0.037574160419559216 8.8751258683059959e-06 0 0.037606493489853968 -0.00050415915712092598 0 0.037104746373977281 -0.00051153074663273194 0 0.037574160419559216 8.8751258683059959e-06 0 0.036575960766374663 0.00014043505797041922 0 0.037104746373977281 -0.00051153074663273194 0 0.03780763587515331 0.00074487411512184735 0 0.036547279064760199 0.00045544561872330822 0 0.038134115616935665 0.0014990825305472525 0 0.036543156494425008 0.0025407198903115561 0 0.038162092604162819 0.0028688464483992812 0 0.038134115616935665 0.0014990825305472525 0 0.036598937378917534 0.00079723833722893393 0 0.036543156494425008 0.0025407198903115561 0 0.039607613908640267 0.0021673366716470003 0 0.038134115616935665 0.0014990825305472525 0 0.038162092604162819 0.0028688464483992812 0 0.038840819024477349 0.0010341896840061746 0 0.03780763587515331 0.00074487411512184735 0 0.034999967440624884 8.5233573654396963e-05 0 0.036598937378917534 0.00079723833722893393 0 0.034999948467102075 0.0020689060908462846 0 0.035000234085757843 8.5073793571666215e-05 0 0.036547279064760199 0.00045544561872330822 0 0.036598937378917534 0.00079723833722893393 0 0.034999948467102075 0.0020689060908462846 0 0.036543156494425008 0.0025407198903115561 0 0.034999948467102075 0.0020689060908462846 0 0.036543156494425008 0.0025407198903115561 0 0.034999954017718403 0.0040525569276537504 0 0.036543156494425008 0.0025407198903115561 0 0.036237016800868764 0.0042860076579369251 0 0.037138571610777209 0.0033817800537297191 0 0.036543156494425008 0.0025407198903115561 0 0.036237016800868764 0.0042860076579369251 0 0.034999954017718403 0.0040525569276537504 0 0.03961757653723947 0.0032478884059986232 0 0.038162092604162819 0.0028688464483992812 0 0.038781625401991406 0.0037795629517644994 0 0.036543156494425008 0.0025407198903115561 0 0.038162092604162819 0.0028688464483992812 0 0.037138571610777209 0.0033817800537297191 0 0.038162092604162819 0.0028688464483992812 0 0.037138571610777209 0.0033817800537297191 0 0.037788798568345355 0.0043303759103699062 0 0.036237016800868764 0.0042860076579369251 0 0.037138571610777209 0.0033817800537297191 0 0.037788798568345355 0.0043303759103699062 0 0.038162092604162819 0.0028688464483992812 0 0.037788798568345355 0.0043303759103699062 0 0.038781625401991406 0.0037795629517644994 0 0.037788798568345355 0.0043303759103699062 0 0.038781625401991406 0.0037795629517644994 0 0.039058922517540708 0.0049198259952194885 0 0.038203718444351158 0.0054109297964219181 0 0.038915065084403982 0.0060065864384618957 0 0.039058922517540708 0.0049198259952194885 0 0.037788798568345355 0.0043303759103699062 0 0.038203718444351158 0.0054109297964219181 0 0.039058922517540708 0.0049198259952194885 0 0.037788798568345355 0.0043303759103699062 0 0.038203718444351158 0.0054109297964219181 0 0.036847357438038249 0.0056853076345923896 0 0.038203718444351158 0.0054109297964219181 0 0.037943922760443415 0.0063386135738021324 0 0.036847357438038249 0.0056853076345923896 0 0.037943922760443415 0.0063386135738021324 0 0.036847357438038249 0.0056853076345923896 0 0.037228226795402691 0.0070730578815668532 0 0.038203718444351158 0.0054109297964219181 0 0.037943922760443415 0.0063386135738021324 0 0.038915065084403982 0.0060065864384618957 0 0.037943922760443415 0.0063386135738021324 0 0.038915065084403982 0.0060065864384618957 0 0.038802984774182876 0.0068633537590398639 0 0.036237016800868764 0.0042860076579369251 0 0.036847357438038249 0.0056853076345923896 0 0.034999965454061886 0.0060361838916560256 0 0.036237016800868764 0.0042860076579369251 0 0.034999954017718403 0.0040525569276537504 0 0.034999965454061886 0.0060361838916560256 0 0.036237016800868764 0.0042860076579369251 0 0.037788798568345355 0.0043303759103699062 0 0.036847357438038249 0.0056853076345923896 0 0.036847357438038249 0.0056853076345923896 0 0.036095564002106506 0.0068911316427708522 0 0.037228226795402691 0.0070730578815668532 0 0.036847357438038249 0.0056853076345923896 0 0.034999965454061886 0.0060361838916560256 0 0.036095564002106506 0.0068911316427708522 0 0.034999965454061886 0.0060361838916560256 0 0.036095564002106506 0.0068911316427708522 0 0.034999935585943408 0.0080198641915030736 0 0.036095564002106506 0.0068911316427708522 0 0.036550980972661143 0.008070228249126855 0 0.037228226795402691 0.0070730578815668532 0 0.036095564002106506 0.0068911316427708522 0 0.036550980972661143 0.008070228249126855 0 0.034999935585943408 0.0080198641915030736 0 0.036102663127975956 0.0093745112861021319 0 0.036550980972661143 0.008070228249126855 0 0.034999935585943408 0.0080198641915030736 0 0.038236598386000804 0.0073509495763813808 0 0.038802984774182876 0.0068633537590398639 0 0.039083635943226974 0.0074448506849317435 0 0.037943922760443415 0.0063386135738021324 0 0.038236598386000804 0.0073509495763813808 0 0.038802984774182876 0.0068633537590398639 0 0.038236598386000804 0.0073509495763813808 0 0.037228226795402691 0.0070730578815668532 0 0.037618679128905555 0.0080485743213511811 0 0.037943922760443415 0.0063386135738021324 0 0.038236598386000804 0.0073509495763813808 0 0.037228226795402691 0.0070730578815668532 0 0.037316015682076299 0.0091471068165233892 0 0.036550980972661143 0.008070228249126855 0 0.037618679128905555 0.0080485743213511811 0 0.036550980972661143 0.008070228249126855 0 0.037228226795402691 0.0070730578815668532 0 0.037618679128905555 0.0080485743213511811 0 0.037316015682076299 0.0091471068165233892 0 0.037618679128905555 0.0080485743213511811 0 0.038687553470972649 0.0083389768829578766 0 0.038236598386000804 0.0073509495763813808 0 0.037618679128905555 0.0080485743213511811 0 0.038687553470972649 0.0083389768829578766 0 0.038236598386000804 0.0073509495763813808 0 0.038687553470972649 0.0083389768829578766 0 0.039083635943226974 0.0074448506849317435 0 0.039308852820776875 0.0091389778238793722 0 0.038442158177812824 0.0087570589362517756 0 0.039459363262806586 0.0081290890610205505 0 0.038687553470972649 0.0083389768829578766 0 0.039918068978517803 0.0076251400638377171 0 0.039083635943226974 0.0074448506849317435 0 0.03853180259030322 0.0085492412943279066 0 0.039694954871261311 0.0078772160501714549 0 0.039918068978517803 0.0076251400638377171 0 0.039083635943226974 0.0074448506849317435 0 0.039702049412787439 0.0067189620372891763 0 0.038802984774182876 0.0068633537590398639 0 0.039083635943226974 0.0074448506849317435 0 0.039702049412787439 0.0067189620372891763 0 0.039702049412787439 0.0067189620372891763 0 0.041066099156001394 0.0070150793315805976 0 0.040571930729491931 0.0060350450832385247 0 0.039694954871261311 0.0078772160501714549 0 0.040890616018739619 0.0072021318986522156 0 0.039918068978517803 0.0076251400638377171 0 0.039702049412787439 0.0067189620372891763 0 0.041066099156001394 0.0070150793315805976 0 0.039308852820776875 0.0091389778238793722 0 0.039459363262806586 0.0081290890610205505 0 0.03997603061640026 0.0086459346444667101 0 0.039459363262806586 0.0081290890610205505 0 0.040548555706917587 0.008253777234149105 0 0.040657604475349711 0.0073980526014636224 0 0.039459363262806586 0.0081290890610205505 0 0.03997603061640026 0.0086459346444667101 0 0.040548555706917587 0.008253777234149105 0 0.040616824303154185 0.0090569028651572153 0 0.03997603061640026 0.0086459346444667101 0 0.040548555706917587 0.008253777234149105 0 0.040616824303154185 0.0090569028651572153 0 0.040548555706917587 0.008253777234149105 0 0.041352496981286485 0.0085451726123910096 0 0.040548555706917587 0.008253777234149105 0 0.041352496981286485 0.0085451726123910096 0 0.04161693205545914 0.0076189478128495559 0 0.042146914998485052 0.0090100324623095772 0 0.041352496981286485 0.0085451726123910096 0 0.04161693205545914 0.0076189478128495559 0 0.042146914998485052 0.0090100324623095772 0 0.04263068031955812 0.0074008756302968003 0 0.04161693205545914 0.0076189478128495559 0 0.04161693205545914 0.0076189478128495559 0 0.040657604475349711 0.0073980526014636224 0 0.042101316591127133 0.0065948594349421394 0 0.040890616018739619 0.0072021318986522156 0 0.042026661493826278 0.0066416924465145469 0 0.04263068031955812 0.0074008756302968003 0 0.04161693205545914 0.0076189478128495559 0 0.042101316591127133 0.0065948594349421394 0 0.041066099156001394 0.0070150793315805976 0 0.041357651676983256 0.0061220191685006529 0 0.042101316591127133 0.0065948594349421394 0 0.040548555706917587 0.008253777234149105 0 0.04161693205545914 0.0076189478128495559 0 0.040657604475349711 0.0073980526014636224 0 0.041066099156001394 0.0070150793315805976 0 0.041357651676983256 0.0061220191685006529 0 0.040571930729491931 0.0060350450832385247 0 0.041357651676983256 0.0061220191685006529 0 0.041930838966021747 0.0055415288318697376 0 0.041062895863978321 0.0053532518377096888 0 0.041357651676983256 0.0061220191685006529 0 0.041062895863978321 0.0053532518377096888 0 0.040571930729491931 0.0060350450832385247 0 0.04292779484378037 0.0058464963097576584 0 0.042101316591127133 0.0065948594349421394 0 0.041930838966021747 0.0055415288318697376 0 0.041357651676983256 0.0061220191685006529 0 0.042101316591127133 0.0065948594349421394 0 0.041930838966021747 0.0055415288318697376 0 0.041419029508258307 0.0045873706950236995 0 0.041930838966021747 0.0055415288318697376 0 0.042090945468996839 0.0047783739876171598 0 0.042519031939168429 0.0050204573613938036 0 0.041930838966021747 0.0055415288318697376 0 0.042090945468996839 0.0047783739876171598 0 0.041419029508258307 0.0045873706950236995 0 0.041930838966021747 0.0055415288318697376 0 0.041062895863978321 0.0053532518377096888 0 0.041419029508258307 0.0045873706950236995 0 0.040808582551813001 0.0045154699038182271 0 0.041062895863978321 0.0053532518377096888 0 0.041062895863978321 0.0053532518377096888 0 0.040199076506760516 0.0049509699950622248 0 0.040571930729491931 0.0060350450832385247 0 0.040199076506760516 0.0049509699950622248 0 0.039716378363832419 0.0057752214692260405 0 0.040571930729491931 0.0060350450832385247 0 0.040808582551813001 0.0045154699038182271 0 0.041062895863978321 0.0053532518377096888 0 0.040199076506760516 0.0049509699950622248 0 0.039624494289621358 0.0041705019197466149 0 0.040199076506760516 0.0049509699950622248 0 0.039058922517540708 0.0049198259952194885 0 0.040199076506760516 0.0049509699950622248 0 0.039058922517540708 0.0049198259952194885 0 0.039716378363832419 0.0057752214692260405 0 0.038915065084403982 0.0060065864384618957 0 0.039058922517540708 0.0049198259952194885 0 0.039716378363832419 0.0057752214692260405 0 0.038915065084403982 0.0060065864384618957 0 0.039702049412787439 0.0067189620372891763 0 0.039716378363832419 0.0057752214692260405 0 0.038915065084403982 0.0060065864384618957 0 0.038802984774182876 0.0068633537590398639 0 0.039702049412787439 0.0067189620372891763 0 0.039702049412787439 0.0067189620372891763 0 0.039716378363832419 0.0057752214692260405 0 0.040571930729491931 0.0060350450832385247 0 0.014841290332487619 0.01517947481193563 0 0.014995874055794819 0.015057629383572101 0 0.015006532235391352 0.015226458355423182 0 0.014995874055794819 0.015057629383572101 0 0.015006532235391352 0.015226458355423182 0 0.015174074874628182 0.015046946507338232 0 0.015175292598280675 0.01544563097367665 0 0.016429103633536338 0.015706303944695233 0 0.014995874055794819 0.015057629383572101 0 0.015096423516253709 0.014948555531627791 0 0.014852536381715775 0.014887619016269006 0 0.014995874055794819 0.015057629383572101 0 0.015096423516253709 0.014948555531627791 0 0.015174074874628182 0.015046946507338232 0 0.012487509511140572 0.013924229877526848 0 0.011053471815120326 0.015490293805112914 0 0.014841290332487619 0.01517947481193563 0 0.014995874055794819 0.015057629383572101 0 0.014852536381715775 0.014887619016269006 0 0.0099395516380357748 0.0132184667480305 0 0.0098917055225739622 0.012805004228661397 0 0.010001099735206048 0.012609079886846425 0 0.0098917055225739622 0.012805004228661397 0 0.0096708906096008469 0.013421778657777647 0 0.0093801734376796949 0.013342646852677538 0 0.0098917055225739622 0.012805004228661397 0 0.0076756428654606301 0.011885630311785042 0 0.0077842790583343242 0.014401820382835131 0 0.0099395516380357748 0.0132184667480305 0 0.0098917055225739622 0.012805004228661397 0 0.0096708906096008469 0.013421778657777647 0 0.009711169491290245 0.012838728507127646 0 0.0089782800497855437 0.014043156563949617 0 0.0099395516380357748 0.0132184667480305 0 0.0096708906096008469 0.013421778657777647 0 0.0099103138637078921 0.013594898926804632 0 0.0096708906096008469 0.013421778657777647 0 0.0099103138637078921 0.013594898926804632 0 0.0095375003881169804 0.013898793689524356 0 0.015266312501355772 0.014814628744714339 0 0.015736375111339726 0.014787125728505159 0 0.018552209314748769 0.014953887387513352 0 0.018528275089553306 0.014942533317884915 0 0.018537787847742886 0.014910129794633034 0 0.018552209314748769 0.014953887387513352 0 0.018525482358203005 0.015028181234991323 0 0.018531307494577841 0.015168058417317156 0 0.015266312501355772 0.014814628744714339 0 0.017757483223017831 0.015459055730395252 0 0.01480908011569583 0.015504386305041581 0 0.015006532235391352 0.015226458355423182 0 0.015280733246400592 0.01510179478840289 0 0.014841290332487619 0.01517947481193563 0 0.01480908011569583 0.015504386305041581 0 0.015006532235391352 0.015226458355423182 0 0.012487509511140572 0.013924229877526848 0 0.015266312501355772 0.014814628744714339 0 0.018552209314748769 0.014953887387513352 0 0.018525482358203005 0.015028181234991323 0 0.018528275089553306 0.014942533317884915 0 0.018525482358203005 0.015028181234991323 0 0.018526735167036436 0.015158480164160314 0 0.018531307494577841 0.015168058417317156 0 0.018525482358203005 0.015028181234991323 0 0.018526735167036436 0.015158480164160314 0 0.018482159889770578 0.01487951321278182 0 0.018526735167036436 0.015158480164160314 0 0.018380630833372574 0.015077730460105208 0 0.018482159889770578 0.01487951321278182 0 0.018526735167036436 0.015158480164160314 0 0.018380630833372574 0.015077730460105208 0 0.018468333629738293 0.015347429197007677 0 0.018972204451474371 0.015475738941354332 0 0.017305150845326647 0.016637170633655517 0 0.018338513557040251 0.01553928837193258 0 0.018468333629738293 0.015347429197007677 0 0.018556734966625389 0.015439349293141672 0 0.018380630833372574 0.015077730460105208 0 0.018338513557040251 0.01553928837193258 0 0.018468333629738293 0.015347429197007677 0 0.018338513557040251 0.01553928837193258 0 0.018556734966625389 0.015439349293141672 0 0.018616465467076199 0.015425390228185796 0 0.015006532235391352 0.015226458355423182 0 0.015280733246400592 0.01510179478840289 0 0.015222329339022856 0.015024678741302986 0 0.017757483223017831 0.015459055730395252 0 0.016429103633536338 0.015706303944695233 0 0.018526735167036436 0.015158480164160314 0 0.018680983856692198 0.01535570363726906 0 0.018548571480994733 0.015331564350371333 0 0.018251513091006984 0.015430045619445809 0 0.017757483223017831 0.015459055730395252 0 0.018526735167036436 0.015158480164160314 0 0.018468333629738293 0.015347429197007677 0 0.018548571480994733 0.015331564350371333 0 0.018468333629738293 0.015347429197007677 0 0.018548571480994733 0.015331564350371333 0 0.018556734966625389 0.015439349293141672 0 0.018680983856692198 0.01535570363726906 0 0.018548571480994733 0.015331564350371333 0 0.018556734966625389 0.015439349293141672 0 0.018612554480481311 0.01537755269480082 0 0.018556734966625389 0.015439349293141672 0 0.018616465467076199 0.015425390228185796 0 0.017757483223017831 0.015459055730395252 0 0.01829909065922743 0.015230131183583207 0 0.018612554480481311 0.01537755269480082 0 0.018616465467076199 0.015425390228185796 0 0.018631009725462024 0.015402328019951285 0 0.017305150845326647 0.016637170633655517 0 0.016429103633536338 0.015706303944695233 0 0.015849268339672876 0.019739202510694626 0 0.016010697587354766 0.019732141170808831 0 0.015944625144529257 0.019704534656398348 0 0.016101756416770623 0.016569884533385006 0 0.016550776808554834 0.016682011804759943 0 0.016348842548597833 0.016888558647998715 0 0.015639299791299466 0.016872158278899794 0 0.016429103633536338 0.015706303944695233 0 0.015639299791299466 0.016872158278899794 0 0.017305150845326647 0.016637170633655517 0 0.016010697587354766 0.019732141170808831 0 0.015944625144529257 0.019704534656398348 0 0.015992570728500327 0.019652246566691692 0 0.016010697587354766 0.019732141170808831 0 0.015992570728500327 0.019652246566691692 0 0.01615050280406365 0.019624679206647438 0 0.015944625144529257 0.019704534656398348 0 0.015992570728500327 0.019652246566691692 0 0.015931025606008276 0.019618980675157535 0 0.015992570728500327 0.019652246566691692 0 0.01615050280406365 0.019624679206647438 0 0.015989984810529961 0.01959306703462654 0 0.017305150845326647 0.016637170633655517 0 0.017397833779423007 0.018414623553441475 0 0.015992570728500327 0.019652246566691692 0 0.015989984810529961 0.01959306703462654 0 0.015931025606008276 0.019618980675157535 0 0.018338513557040251 0.01553928837193258 0 0.019473973598930806 0.015838960348661162 0 0.018611529978522272 0.016836451949665987 0 0.018338513557040251 0.01553928837193258 0 0.018611529978522272 0.016836451949665987 0 0.018025618553588103 0.016243197486896475 0 0.01615050280406365 0.019624679206647438 0 0.015993799282470265 0.019513662445336744 0 0.016091785793802663 0.019457879047386384 0 0.01615050280406365 0.019624679206647438 0 0.016353712037293942 0.019503016069705739 0 0.016091785793802663 0.019457879047386384 0 0.01615050280406365 0.019624679206647438 0 0.015989984810529961 0.01959306703462654 0 0.015993799282470265 0.019513662445336744 0 0.015989984810529961 0.01959306703462654 0 0.015927298365398024 0.019566731827449908 0 0.015931025606008276 0.019618980675157535 0 0.015989984810529961 0.01959306703462654 0 0.015993799282470265 0.019513662445336744 0 0.015927298365398024 0.019566731827449908 0 0.015993799282470265 0.019513662445336744 0 0.015927298365398024 0.019566731827449908 0 0.015864629160048143 0.019483873826086972 0 0.015927298365398024 0.019566731827449908 0 0.015866410794697978 0.019624643345919162 0 0.015864629160048143 0.019483873826086972 0 0.0140189349869267 0.01899758559859081 0 0.015843837346307125 0.019733115342133116 0 0.015523527307623568 0.019881256560545853 0 0.015538805970832199 0.019899496467654154 0 0.015590315966192578 0.019715269915645577 0 0.015927298365398024 0.019566731827449908 0 0.015931025606008276 0.019618980675157535 0 0.015866410794697978 0.019624643345919162 0 0.015944625144529257 0.019704534656398348 0 0.015931025606008276 0.019618980675157535 0 0.015866410794697978 0.019624643345919162 0 0.0080457832395738598 0.018118518415874831 0 0.0080588636006700392 0.018123850542082182 0 0.0080603699992601013 0.018151683617418563 0 0.012459232385793152 0.018911017186606146 0 0.0140189349869267 0.01899758559859081 0 0.013654627627552556 0.016979553052789153 0 0.013808328046826187 0.017219660135538457 0 0.013823129529024383 0.017027951453518399 0 0.0140189349869267 0.01899758559859081 0 0.011053471815120326 0.015490293805112914 0 0.016296597065110684 0.019989796497122046 0 0.0140189349869267 0.01899758559859081 0 0.015849268339672876 0.019739202510694626 0 0.015944625144529257 0.019704534656398348 0 0.015364420191278271 0.019109667487849136 0 0.015639299791299466 0.016872158278899794 0 0.011053471815120326 0.015490293805112914 0 0.015639299791299466 0.016872158278899794 0 0.0140189349869267 0.01899758559859081 0 0.0098917055225739622 0.012805004228661397 0 0.010001099735206048 0.012609079886846425 0 0.0076756428654606301 0.011885630311785042 0 0.0080457832395738598 0.018118518415874831 0 0.0080603699992601013 0.018151683617418563 0 0.0079793402774406136 0.018119889752323329 0 0.0080603699992601013 0.018151683617418563 0 0.0079793402774406136 0.018119889752323329 0 0.0079544406965228812 0.018121426409569125 0 0.011053471815120326 0.015490293805112914 0 0.0082265739724479703 0.015038603106204298 0 0.015523527307623568 0.019881256560545853 0 0.01539558638669245 0.019726592435241171 0 0.015590315966192578 0.019715269915645577 0 0.012459232385793152 0.018911017186606146 0 0.0093656031940965827 0.018433907030602794 0 0.011884978253605504 0.019514415477028955 0 0.011360339838331878 0.019079975078623038 0 0.011397799650516908 0.018996541763199488 0 0.012459232385793152 0.018911017186606146 0 0.01385587308416523 0.019618693642345655 0 0.0080457832395738598 0.018118518415874831 0 0.0079793402774406136 0.018119889752323329 0 0.0079518765720652286 0.018128234847832492 0 0.0079793402774406136 0.018119889752323329 0 0.0079466005855912993 0.018121498807810461 0 0.0079544406965228812 0.018121426409569125 0 0.0079793402774406136 0.018119889752323329 0 0.0079466005855912993 0.018121498807810461 0 0.0079518765720652286 0.018128234847832492 0 0.0079466005855912993 0.018121498807810461 0 0.0079518765720652286 0.018128234847832492 0 0.0079473872694081106 0.018167252003856132 0 0.0079466005855912993 0.018121498807810461 0 0.0079515820798374964 0.018080456430401008 0 0.008029914645966087 0.018161641418087925 0 0.0024984227050387771 0.014749317987816521 0 0.0047708922827124443 0.018598289244694786 0 0.0024984227050387771 0.014749317987816521 0 0.0082265739724479703 0.015038603106204298 0 -0.0063824996713313011 0.013625695756051869 0 -0.0062570572932030225 0.012449257900738418 0 -0.0064503009873228606 0.012132165019460005 0 0.0079466005855912993 0.018121498807810461 0 0.0079515820798374964 0.018080456430401008 0 0.0079544406965228812 0.018121426409569125 0 0.0024984227050387771 0.014749317987816521 0 -0.00072315442361266117 0.012489392782303889 0 0.0052410492373812841 0.011285538369523524 0 0.0076756428654606301 0.011885630311785042 0 0.0053217179289108763 0.013350299448664855 0 -0.0056923170732562671 0.01310302451181395 0 -0.0056339032589094729 0.012920355637260768 0 -0.005485079948820905 0.013067790783580509 0 -0.0032091944104566763 0.014798537844630033 0 -0.0020576498062445762 0.015257765733387009 0 -0.0056923170732562671 0.01310302451181395 0 -0.0055485342931980161 0.013260360984185527 0 -0.005485079948820905 0.013067790783580509 0 -0.0056923170732562671 0.01310302451181395 0 -0.0055485342931980161 0.013260360984185527 0 -0.0055238517830297536 0.01331030034080182 0 -0.0023026483607353457 0.014956141441118573 0 -0.0020576498062445762 0.015257765733387009 0 0.0023354720236613588 0.016860727079900457 0 0.0026431455789155318 0.017174746056799597 0 0.0019717825785462448 0.017358534213922232 0 0.0011054035338928271 0.016535070729340167 0 0.0019717825785462448 0.017358534213922232 0 0.0011542618649150957 0.017689673803174391 0 0.0011054035338928271 0.016535070729340167 0 0.0023354720236613588 0.016860727079900457 0 0.0019717825785462448 0.017358534213922232 0 0.0024984227050387771 0.014749317987816521 0 -0.0032091944104566763 0.014798537844630033 0 -0.0063824996713313011 0.013625695756051869 0 -0.0044297095207318608 0.014187648542691646 0 -0.0053259015970435449 0.013266115601027889 0 -0.0063824996713313011 0.013625695756051869 0 -0.0053259015970435449 0.013266115601027889 0 -0.0062570572932030225 0.012449257900738418 0 -0.0058918852078389964 0.012753119360037497 0 -0.0060897812649483574 0.012595888671983895 0 -0.0059820023249439174 0.012737931587339603 0 -0.0059920314899218965 0.012293727833595376 0 -0.0062570572932030225 0.012449257900738418 0 -0.0056923170732562671 0.01310302451181395 0 -0.0059820023249439174 0.012737931587339603 0 -0.0056339032589094729 0.012920355637260768 0 -0.0059820023249439174 0.012737931587339603 0 -0.005651433984264603 0.012581485012297017 0 -0.0056339032589094729 0.012920355637260768 0 -0.0032091944104566763 0.014798537844630033 0 -0.0058918852078389964 0.012753119360037497 0 -0.0059820023249439174 0.012737931587339603 0 -0.005651433984264603 0.012581485012297017 0 -0.0059920314899218965 0.012293727833595376 0 -0.005651433984264603 0.012581485012297017 0 -0.0056339032589094729 0.012920355637260768 0 -0.0053402620242208954 0.012920814370431515 0 -0.005651433984264603 0.012581485012297017 0 -0.005629533057858958 0.012159182186633722 0 -0.0053956369051982728 0.012499490185101037 0 -0.005651433984264603 0.012581485012297017 0 -0.005629533057858958 0.012159182186633722 0 -0.0059920314899218965 0.012293727833595376 0 -0.005629533057858958 0.012159182186633722 0 -0.0059920314899218965 0.012293727833595376 0 -0.0058629931952221531 0.01170475321805926 0 -0.0059920314899218965 0.012293727833595376 0 -0.0063001307337317977 0.011893767752392171 0 -0.0058629931952221531 0.01170475321805926 0 -0.0059920314899218965 0.012293727833595376 0 -0.0062570572932030225 0.012449257900738418 0 -0.0064503009873228606 0.012132165019460005 0 -0.0059920314899218965 0.012293727833595376 0 -0.0063001307337317977 0.011893767752392171 0 -0.0064503009873228606 0.012132165019460005 0 -0.0063001307337317977 0.011893767752392171 0 -0.0064503009873228606 0.012132165019460005 0 -0.006393951022413258 0.01157547174377439 0 -0.0062707174268347805 0.010720635081499988 0 -0.001159768192508268 0.012534964177724926 0 -0.0063054785861834462 0.011350114921223401 0 -0.0067516091393526757 0.011195180989033994 0 -0.006790712050762684 0.010711721132073937 0 -0.0063001307337317977 0.011893767752392171 0 -0.0063054785861834462 0.011350114921223401 0 -0.0067516091393526757 0.011195180989033994 0 -0.0063054785861834462 0.011350114921223401 0 -0.0058629931952221531 0.01170475321805926 0 -0.0059143855814901211 0.010984405895934097 0 -0.0063001307337317977 0.011893767752392171 0 -0.0063054785861834462 0.011350114921223401 0 -0.0058629931952221531 0.01170475321805926 0 -0.005629533057858958 0.012159182186633722 0 -0.0058629931952221531 0.01170475321805926 0 -0.0049003310607991764 0.011079988244888194 0 -0.0055867620600977587 0.012039392784852053 0 -0.0053654791043855976 0.011184434129417551 0 -0.0058629931952221531 0.01170475321805926 0 -0.0049003310607991764 0.011079988244888194 0 -0.0059143855814901211 0.010984405895934097 0 0.0076756428654606301 0.011885630311785042 0 0.0063406223246294455 0.014343683149994076 0 0.0077842790583343242 0.014401820382835131 0 0.0076756428654606301 0.011885630311785042 0 0.0053217179289108763 0.013350299448664855 0 0.0063406223246294455 0.014343683149994076 0 -0.00072315442361266117 0.012489392782303889 0 -0.001159768192508268 0.012534964177724926 0 0.0063406223246294455 0.014343683149994076 0 0.0077842790583343242 0.014401820382835131 0 0.0056739938467678802 0.015951752210090368 0 0.0053217179289108763 0.013350299448664855 0 0.0063406223246294455 0.014343683149994076 0 0.0053928771636763016 0.015390011819995454 0 0.0063406223246294455 0.014343683149994076 0 0.0053928771636763016 0.015390011819995454 0 0.0056739938467678802 0.015951752210090368 0 0.0093801734376796949 0.013342646852677538 0 0.0092957067786706444 0.013686416190967115 0 0.0089016766699135733 0.01370369018042338 0 0.0089782800497855437 0.014043156563949617 0 0.0047921907112571174 0.012865847814204046 0 0.0096708906096008469 0.013421778657777647 0 0.0093801734376796949 0.013342646852677538 0 0.0092957067786706444 0.013686416190967115 0 0.0092957067786706444 0.013686416190967115 0 0.0091853501354572011 0.014198541742515008 0 0.0095375003881169804 0.013898793689524356 0 0.0096708906096008469 0.013421778657777647 0 0.0092957067786706444 0.013686416190967115 0 0.0095375003881169804 0.013898793689524356 0 0.0092957067786706444 0.013686416190967115 0 0.0089016766699135733 0.01370369018042338 0 0.0091853501354572011 0.014198541742515008 0 0.0047921907112571174 0.012865847814204046 0 0.01116099861331757 0.012119734065803418 0 0.0094848061275036328 0.01200305305104991 0 0.0097695873038646814 0.011784320435017996 0 0.008390171677552136 0.0095693696242621883 0 -0.00015218953436233168 0.012983140395102174 0 -0.00076555553861751334 0.011736920672344662 0 -0.00020574491997990085 0.011304587327919119 0 -0.001159768192508268 0.012534964177724926 0 -0.00030178823240725142 0.011435767691263771 0 -0.001159768192508268 0.012534964177724926 0 0.0047921907112571174 0.012865847814204046 0 0.0047921907112571174 0.012865847814204046 0 -0.00030178823240725142 0.011435767691263771 0 0.0097695873038646814 0.011784320435017996 0 0.008390171677552136 0.0095693696242621883 0 0.0097910852769781953 0.0085889695756366062 0 -0.00030178823240725142 0.011435767691263771 0 0.0028363604162595629 0.0084506805856394418 0 0.01116099861331757 0.012119734065803418 0 0.0097382215928776966 0.0089822280406443942 0 0.01855981786866355 0.014666842949827494 0 0.018522617620188392 0.014685777887886655 0 0.018536633638916184 0.014796500536580688 0 0.01116099861331757 0.012119734065803418 0 0.014137094545931837 0.014454919778563733 0 -0.0049003310607991764 0.011079988244888194 0 -0.0059143855814901211 0.010984405895934097 0 -0.0056976431237825203 0.0097524632376716908 0 -0.0049003310607991764 0.011079988244888194 0 -0.0056976431237825203 0.0097524632376716908 0 -0.0043201967405133365 0.0095246946846010653 0 -0.006790712050762684 0.010711721132073937 0 -0.0059143855814901211 0.010984405895934097 0 -0.0056976431237825203 0.0097524632376716908 0 -0.00030178823240725142 0.011435767691263771 0 -0.0059112661237099859 0.0095236097539548974 0 -0.0063054785861834462 0.011350114921223401 0 -0.006790712050762684 0.010711721132073937 0 -0.0059143855814901211 0.010984405895934097 0 -0.0048110128310059905 0.0092251577559409378 0 -0.0045391636695644678 0.0089615712010405225 0 -0.0048796597701677097 0.0086659864934674931 0 -0.0045391636695644678 0.0089615712010405225 0 -0.004607558039086343 0.0086520504124100797 0 -0.0048796597701677097 0.0086659864934674931 0 -0.0056976431237825203 0.0097524632376716908 0 -0.0043201967405133365 0.0095246946846010653 0 -0.0042693180659806058 0.0087947648375069215 0 -0.0045391636695644678 0.0089615712010405225 0 -0.0043937667208591357 0.0085895465999845533 0 -0.0042693180659806058 0.0087947648375069215 0 -0.0059112661237099859 0.0095236097539548974 0 -0.0040739035994933528 0.008695489097652602 0 -0.0045391636695644678 0.0089615712010405225 0 -0.0043937667208591357 0.0085895465999845533 0 -0.004607558039086343 0.0086520504124100797 0 -0.0043937667208591357 0.0085895465999845533 0 -0.004607558039086343 0.0086520504124100797 0 -0.004622591554748175 0.0083129340794235711 0 -0.004607558039086343 0.0086520504124100797 0 -0.004622591554748175 0.0083129340794235711 0 -0.0048796597701677097 0.0086659864934674931 0 -0.004622591554748175 0.0083129340794235711 0 -0.0045375543873248563 0.0078333929213365693 0 -0.0049432185951506624 0.007977257916003927 0 -0.004622591554748175 0.0083129340794235711 0 -0.0048796597701677097 0.0086659864934674931 0 -0.0049432185951506624 0.007977257916003927 0 -0.0043937667208591357 0.0085895465999845533 0 -0.0042963498457791625 0.008076234669416895 0 -0.0040225792303058309 0.0084948674918236145 0 -0.0043937667208591357 0.0085895465999845533 0 -0.004622591554748175 0.0083129340794235711 0 -0.0042963498457791625 0.008076234669416895 0 -0.004622591554748175 0.0083129340794235711 0 -0.0042963498457791625 0.008076234669416895 0 -0.0045375543873248563 0.0078333929213365693 0 0.01116099861331757 0.012119734065803418 0 0.01504605625364955 0.0092741894001359508 0 0.01855981786866355 0.014666842949827494 0 0.018508512663018981 0.014522547522115823 0 0.018522617620188392 0.014685777887886655 0 0.008820481520012918 0.009279480545327878 0 0.0096033279080820679 0.0085069351066321304 0 0.008032953779813088 0.0076327941339912391 0 0.0096033279080820679 0.0085069351066321304 0 0.0093253565302668495 0.0074212780256003421 0 0.008032953779813088 0.0076327941339912391 0 0.008390171677552136 0.0095693696242621883 0 0.0096033279080820679 0.0085069351066321304 0 0.0097910852769781953 0.0085889695756366062 0 0.0096033279080820679 0.0085069351066321304 0 0.0097910852769781953 0.0085889695756366062 0 0.0093253565302668495 0.0074212780256003421 0 0.0093253565302668495 0.0074212780256003421 0 0.008032953779813088 0.0076327941339912391 0 0.009612024322236068 0.0062420758541777196 0 0.0097910852769781953 0.0085889695756366062 0 0.0093253565302668495 0.0074212780256003421 0 0.0096270257659890664 0.0062464436325992212 0 0.0093253565302668495 0.0074212780256003421 0 0.009612024322236068 0.0062420758541777196 0 0.0096270257659890664 0.0062464436325992212 0 0.0028363604162595629 0.0084506805856394418 0 0.0023203445027894518 0.0070403722430738567 0 0.010424395109847204 0.0055448812481964822 0 0.009612024322236068 0.0062420758541777196 0 0.010220077269299917 0.0063831161409689269 0 0.010424395109847204 0.0055448812481964822 0 0.010767756920419681 0.0062385438561432145 0 0.010220077269299917 0.0063831161409689269 0 0.01504605625364955 0.0092741894001359508 0 0.0078604647729526803 0.005926305425341013 0 0.01504605625364955 0.0092741894001359508 0 0.016505002447612972 0.0072145263988673599 0 0.022308776040957403 0.0095121209908984213 0 0.021170715056448235 0.0093689823800174807 0 0.021845338618675856 0.0085665031443150838 0 0.021170715056448235 0.0093689823800174807 0 0.020255241322076574 0.0091193412389105593 0 0.020725436715702549 0.0083908629300784941 0 0.021170715056448235 0.0093689823800174807 0 0.020725436715702549 0.0083908629300784941 0 0.021845338618675856 0.0085665031443150838 0 0.021170715056448235 0.0093689823800174807 0 0.021463695721282771 0.010450577644799584 0 0.020172932444024648 0.010137897772675658 0 0.01504605625364955 0.0092741894001359508 0 0.020809270840763731 0.012793034111680915 0 0.018508512663018981 0.014522547522115823 0 0.018522617620188392 0.014685777887886655 0 0.018487715839185515 0.014703269907655053 0 0.022308776040957403 0.0095121209908984213 0 0.021170715056448235 0.0093689823800174807 0 0.021463695721282771 0.010450577644799584 0 0.018522617620188392 0.014685777887886655 0 0.018536633638916184 0.014796500536580688 0 0.01851783590591459 0.014795441730912722 0 0.018522617620188392 0.014685777887886655 0 0.018487715839185515 0.014703269907655053 0 0.01851783590591459 0.014795441730912722 0 0.018487715839185515 0.014703269907655053 0 0.018512461746334235 0.01484607863375381 0 0.01851783590591459 0.014795441730912722 0 0.020809270840763731 0.012793034111680915 0 0.019409045016896029 0.013207715971870562 0 0.018487715839185515 0.014703269907655053 0 0.018512461746334235 0.01484607863375381 0 0.018482159889770578 0.01487951321278182 0 0.018512461746334235 0.01484607863375381 0 0.018537787847742886 0.014910129794633034 0 0.01851783590591459 0.014795441730912722 0 0.018525482358203005 0.015028181234991323 0 0.018528275089553306 0.014942533317884915 0 0.018482159889770578 0.01487951321278182 0 0.018512461746334235 0.01484607863375381 0 0.018528275089553306 0.014942533317884915 0 0.018482159889770578 0.01487951321278182 0 0.018512461746334235 0.01484607863375381 0 0.018528275089553306 0.014942533317884915 0 0.018537787847742886 0.014910129794633034 0 0.018538888430800135 0.014934383892519868 0 0.018537787847742886 0.014910129794633034 0 0.018536633638916184 0.014796500536580688 0 0.015266312501355772 0.014814628744714339 0 0.014137094545931837 0.014454919778563733 0 0.018537787847742886 0.014910129794633034 0 0.018536633638916184 0.014796500536580688 0 0.01851783590591459 0.014795441730912722 0 0.019688120567220298 0.012827869679746966 0 0.019366868818387548 0.01126103613767061 0 0.020624416915521974 0.011512943253572602 0 0.019688120567220298 0.012827869679746966 0 0.019366868818387548 0.01126103613767061 0 0.018998287598373388 0.012150760650346839 0 0.019040398622463525 0.013964395739444486 0 0.019409045016896029 0.013207715971870562 0 0.021463695721282771 0.010450577644799584 0 0.020624416915521974 0.011512943253572602 0 0.020172932444024648 0.010137897772675658 0 0.019366868818387548 0.01126103613767061 0 0.020624416915521974 0.011512943253572602 0 0.020172932444024648 0.010137897772675658 0 0.019366868818387548 0.01126103613767061 0 0.020172932444024648 0.010137897772675658 0 0.018581187680787498 0.010070203751036927 0 0.020172932444024648 0.010137897772675658 0 0.019382876994705492 0.0092362009853509206 0 0.018581187680787498 0.010070203751036927 0 0.021170715056448235 0.0093689823800174807 0 0.020172932444024648 0.010137897772675658 0 0.020255241322076574 0.0091193412389105593 0 0.020172932444024648 0.010137897772675658 0 0.020255241322076574 0.0091193412389105593 0 0.019382876994705492 0.0092362009853509206 0 0.020255241322076574 0.0091193412389105593 0 0.019382876994705492 0.0092362009853509206 0 0.019615163670105958 0.0083044279701694149 0 0.019382876994705492 0.0092362009853509206 0 0.018581187680787498 0.010070203751036927 0 0.018547719472518077 0.0086343081612538473 0 0.018581187680787498 0.010070203751036927 0 0.018024228452827147 0.009391697181626902 0 0.017675875589083307 0.009929962834940716 0 0.018024228452827147 0.009391697181626902 0 0.017822641656125588 0.0087359584417504594 0 0.018547719472518077 0.0086343081612538473 0 0.018581187680787498 0.010070203751036927 0 0.018024228452827147 0.009391697181626902 0 0.018547719472518077 0.0086343081612538473 0 0.017822641656125588 0.0087359584417504594 0 0.017241386593793661 0.0089345225340076075 0 0.017530335956053713 0.0093176955273683512 0 0.017241386593793661 0.0089345225340076075 0 0.017530335956053713 0.0093176955273683512 0 0.017234991512720347 0.0092254286594326638 0 0.018024228452827147 0.009391697181626902 0 0.017822641656125588 0.0087359584417504594 0 0.017530335956053713 0.0093176955273683512 0 0.017393596181976039 0.00854222525252195 0 0.018631588403630342 0.01057498446151494 0 0.017665483458868113 0.0087356153179844395 0 0.017307226493761148 0.0089222091700570366 0 0.017533014312507627 0.0081218092512712683 0 0.017307226493761148 0.0089222091700570366 0 0.017234991512720347 0.0092254286594326638 0 0.016858461871748071 0.0095310497914823274 0 0.017665483458868113 0.0087356153179844395 0 0.017307226493761148 0.0089222091700570366 0 0.017770175464609021 0.009150998435066237 0 0.017241386593793661 0.0089345225340076075 0 0.017307226493761148 0.0089222091700570366 0 0.017234991512720347 0.0092254286594326638 0 0.018631588403630342 0.01057498446151494 0 0.016982600175310773 0.0099960429414757933 0 0.017234991512720347 0.0092254286594326638 0 0.016858461871748071 0.0095310497914823274 0 0.017208238472219875 0.0095843062278900028 0 0.016807361767645124 0.0095977644080724265 0 0.017208238472219875 0.0095843062278900028 0 0.017051336696777025 0.010175914640376113 0 0.017208238472219875 0.0095843062278900028 0 0.017675875589083307 0.009929962834940716 0 0.017051336696777025 0.010175914640376113 0 0.018024228452827147 0.009391697181626902 0 0.017530335956053713 0.0093176955273683512 0 0.017675875589083307 0.009929962834940716 0 0.017530335956053713 0.0093176955273683512 0 0.017234991512720347 0.0092254286594326638 0 0.017208238472219875 0.0095843062278900028 0 0.017530335956053713 0.0093176955273683512 0 0.017208238472219875 0.0095843062278900028 0 0.017675875589083307 0.009929962834940716 0 0.017051336696777025 0.010175914640376113 0 0.01707192351856926 0.010748722181231322 0 0.017746668589503235 0.010685771239407692 0 0.017675875589083307 0.009929962834940716 0 0.017051336696777025 0.010175914640376113 0 0.017746668589503235 0.010685771239407692 0 0.016807361767645124 0.0095977644080724265 0 0.017051336696777025 0.010175914640376113 0 0.016531439640238257 0.010507856354122659 0 0.018631588403630342 0.01057498446151494 0 0.018980434005019229 0.012143583010376354 0 0.017051336696777025 0.010175914640376113 0 0.01707192351856926 0.010748722181231322 0 0.016531439640238257 0.010507856354122659 0 0.01707192351856926 0.010748722181231322 0 0.017746668589503235 0.010685771239407692 0 0.016878738399853481 0.011475148736569761 0 0.01707192351856926 0.010748722181231322 0 0.016531439640238257 0.010507856354122659 0 0.016878738399853481 0.011475148736569761 0 0.017540586063684901 0.010990775997759824 0 0.015975726395654508 0.011909148793657147 0 0.017130363584086969 0.011323942804937598 0 0.017239214525040139 0.012209595256917324 0 0.015915784409703562 0.012481614778868472 0 0.017130363584086969 0.011323942804937598 0 0.017239214525040139 0.012209595256917324 0 0.018059918192351327 0.012055677781346773 0 0.019366868818387548 0.01126103613767061 0 0.018059918192351327 0.012055677781346773 0 0.018998287598373388 0.012150760650346839 0 0.019366868818387548 0.01126103613767061 0 0.018581187680787498 0.010070203751036927 0 0.018059918192351327 0.012055677781346773 0 0.018581187680787498 0.010070203751036927 0 0.017675875589083307 0.009929962834940716 0 0.017746668589503235 0.010685771239407692 0 0.018498121107224229 0.010116554119947949 0 0.017540586063684901 0.010990775997759824 0 0.018581187680787498 0.010070203751036927 0 0.017130363584086969 0.011323942804937598 0 0.018059918192351327 0.012055677781346773 0 0.020808123401789693 0.013211222675470178 0 0.021025758404290301 0.013212549273766635 0 0.020963017023209206 0.013512613724841565 0 0.020659926973317644 0.010709911777669751 0 0.020280572623182124 0.010601973434479625 0 0.020453742204782219 0.0082252271439508078 0 0.020583827952233531 0.0079924349456649748 0 0.019591014929540126 0.0080107960579938325 0 0.020453742204782219 0.0082252271439508078 0 0.019788498608799231 0.0084618971964367084 0 0.019806688690006815 0.0090231617292618332 0 0.020453742204782219 0.0082252271439508078 0 0.019788498608799231 0.0084618971964367084 0 0.019591014929540126 0.0080107960579938325 0 0.019788498608799231 0.0084618971964367084 0 0.019080208866142746 0.0085998667343412313 0 0.019591014929540126 0.0080107960579938325 0 0.019788498608799231 0.0084618971964367084 0 0.019080208866142746 0.0085998667343412313 0 0.019806688690006815 0.0090231617292618332 0 0.019080208866142746 0.0085998667343412313 0 0.019591014929540126 0.0080107960579938325 0 0.018559865657786289 0.0080725612660873022 0 0.020280572623182124 0.010601973434479625 0 0.020093948159607567 0.010644745714007586 0 0.021025758404290301 0.013212549273766635 0 0.021247850117063583 0.013199683185344349 0 0.021185723191540582 0.013461001423052945 0 0.019080208866142746 0.0085998667343412313 0 0.018559865657786289 0.0080725612660873022 0 0.018032358319926424 0.0086488145150802314 0 0.019080208866142746 0.0085998667343412313 0 0.018032358319926424 0.0086488145150802314 0 0.018600293611539052 0.0093991791518088959 0 0.017665483458868113 0.0087356153179844395 0 0.018032358319926424 0.0086488145150802314 0 0.017770175464609021 0.009150998435066237 0 0.017665483458868113 0.0087356153179844395 0 0.017533014312507627 0.0081218092512712683 0 0.018032358319926424 0.0086488145150802314 0 0.021475087873269755 0.013184177765351588 0 0.021247850117063583 0.013199683185344349 0 0.021429913560818924 0.013425180060013428 0 0.018631588403630342 0.01057498446151494 0 0.020093948159607567 0.010644745714007586 0 0.017533014312507627 0.0081218092512712683 0 0.018559865657786289 0.0080725612660873022 0 0.018032358319926424 0.0086488145150802314 0 0.016531439640238257 0.010507856354122659 0 0.016266411149346693 0.011384403701616449 0 0.016878738399853481 0.011475148736569761 0 0.021429913560818924 0.013425180060013428 0 0.021185723191540582 0.013461001423052945 0 0.021387191734524205 0.013686584676207909 0 0.018980434005019229 0.012143583010376354 0 0.018946155774233017 0.012334620215438621 0 0.021185723191540582 0.013461001423052945 0 0.02108480056800718 0.013779845689583674 0 0.021387191734524205 0.013686584676207909 0 0.021247850117063583 0.013199683185344349 0 0.021429913560818924 0.013425180060013428 0 0.021185723191540582 0.013461001423052945 0 0.021025758404290301 0.013212549273766635 0 0.021185723191540582 0.013461001423052945 0 0.020963017023209206 0.013512613724841565 0 0.021185723191540582 0.013461001423052945 0 0.020963017023209206 0.013512613724841565 0 0.02108480056800718 0.013779845689583674 0 0.020963017023209206 0.013512613724841565 0 0.020944030713983607 0.013721666818778467 0 0.02108480056800718 0.013779845689583674 0 0.020788996120705928 0.013683559980022249 0 0.020963017023209206 0.013512613724841565 0 0.020944030713983607 0.013721666818778467 0 0.020896975718352123 0.013907254419628789 0 0.021042334458777609 0.014042529821772922 0 0.02108480056800718 0.013779845689583674 0 0.020867388173496527 0.014100951052091514 0 0.020896975718352123 0.013907254419628789 0 0.021042334458777609 0.014042529821772922 0 0.020896975718352123 0.013907254419628789 0 0.020944030713983607 0.013721666818778467 0 0.02108480056800718 0.013779845689583674 0 0.020788996120705928 0.013683559980022249 0 0.020896975718352123 0.013907254419628789 0 0.020944030713983607 0.013721666818778467 0 0.020849188350512044 0.013588725939870755 0 0.021029376104610049 0.014011192160269807 0 0.020725556735933598 0.014220509000940998 0 0.02108480056800718 0.013779845689583674 0 0.021052443075615414 0.014087498768878489 0 0.020725556735933598 0.014220509000940998 0 0.021052443075615414 0.014087498768878489 0 0.021024588684084671 0.014395856357770841 0 0.017716558843632175 0.013884707484604021 0 0.020761531365044435 0.014912630148037932 0 0.02108480056800718 0.013779845689583674 0 0.021052443075615414 0.014087498768878489 0 0.021332239024750135 0.01402504187103925 0 0.021052443075615414 0.014087498768878489 0 0.021332239024750135 0.01402504187103925 0 0.021024588684084671 0.014395856357770841 0 0.02108480056800718 0.013779845689583674 0 0.021332239024750135 0.01402504187103925 0 0.021387191734524205 0.013686584676207909 0 0.017716558843632175 0.013884707484604021 0 0.015975726395654508 0.011909148793657147 0 0.014705026649585919 0.013581241754112367 0 0.015915784409703562 0.012481614778868472 0 0.015735154489566566 0.013347214043813869 0 0.017716558843632175 0.013884707484604021 0 0.018946155774233017 0.012334620215438621 0 0.016004363836495682 0.012274978711085306 0 0.016266411149346693 0.011384403701616449 0 0.016878738399853481 0.011475148736569761 0 0.014705026649585919 0.013581241754112367 0 0.01554495172436491 0.013947486962081007 0 0.015735154489566566 0.013347214043813869 0 0.014705026649585919 0.013581241754112367 0 0.01554495172436491 0.013947486962081007 0 0.015034935399321835 0.014332541883730817 0 0.01554495172436491 0.013947486962081007 0 0.015034935399321835 0.014332541883730817 0 0.015757326989523739 0.014680046486970902 0 0.015034935399321835 0.014332541883730817 0 0.015115968575742126 0.014966473252244868 0 0.014386635108742439 0.01461188315326842 0 0.015034935399321835 0.014332541883730817 0 0.015115968575742126 0.014966473252244868 0 0.015757326989523739 0.014680046486970902 0 0.015619719952779686 0.015215453549521734 0 0.015262419576100483 0.015792871394245993 0 0.015115968575742126 0.014966473252244868 0 0.015619719952779686 0.015215453549521734 0 0.015115968575742126 0.014966473252244868 0 0.015757326989523739 0.014680046486970902 0 0.015619719952779686 0.015215453549521734 0 0.015262419576100483 0.015792871394245993 0 0.016020911851578029 0.01545895082695397 0 0.015262419576100483 0.015792871394245993 0 0.015115968575742126 0.014966473252244868 0 0.014710048852103559 0.015247116382608381 0 0.015262419576100483 0.015792871394245993 0 0.014710048852103559 0.015247116382608381 0 0.014077701474976669 0.015617429906233268 0 0.014710048852103559 0.015247116382608381 0 0.014077701474976669 0.015617429906233268 0 0.014386635108742439 0.01461188315326842 0 0.015216169115598845 0.01586754886693531 0 0.01710706062677772 0.015685983729119307 0 0.015115968575742126 0.014966473252244868 0 0.014710048852103559 0.015247116382608381 0 0.014386635108742439 0.01461188315326842 0 0.01710706062677772 0.015685983729119307 0 0.016790825182644849 0.015056995480374431 0 0.01710706062677772 0.015685983729119307 0 0.017244652726636917 0.018502571051280937 0 0.014705026649585919 0.013581241754112367 0 0.015034935399321835 0.014332541883730817 0 0.014386635108742439 0.01461188315326842 0 0.019084756625925944 0.015970600831448214 0 0.019330915416591685 0.015303892456758592 0 0.01981159466037645 0.015424465022839616 0 0.017716558843632175 0.013884707484604021 0 0.016790825182644849 0.015056995480374431 0 0.01981159466037645 0.015424465022839616 0 0.020073252396979172 0.01501856910095711 0 0.02051380922868443 0.014825931940733542 0 0.019330915416591685 0.015303892456758592 0 0.01981159466037645 0.015424465022839616 0 0.020073252396979172 0.01501856910095711 0 0.020725556735933598 0.014220509000940998 0 0.021024588684084671 0.014395856357770841 0 0.02051380922868443 0.014825931940733542 0 0.020761531365044435 0.014912630148037932 0 0.020399708676473245 0.014868871812486211 0 0.020188549102849253 0.018124162087301748 0 0.017244652726636917 0.018502571051280937 0 0.017003809094861405 0.017495241558937721 0 0.020020872440553665 0.017895467385615944 0 0.017270385453347224 0.016692405881698947 0 0.01710706062677772 0.015685983729119307 0 0.020188549102849253 0.018124162087301748 0 0.019561495950927238 0.014606808604673793 0 0.019330915416591685 0.015303892456758592 0 0.020073252396979172 0.01501856910095711 0 0.019561495950927238 0.014606808604673793 0 0.020073252396979172 0.01501856910095711 0 0.020478901256456395 0.014756481968980707 0 0.020073252396979172 0.01501856910095711 0 0.02051380922868443 0.014825931940733542 0 0.020478901256456395 0.014756481968980707 0 0.02051380922868443 0.014825931940733542 0 0.020478901256456395 0.014756481968980707 0 0.020416721647098363 0.014842675203793804 0 0.02015256590196406 0.018401484206123378 0 0.022664927593894612 0.018733807660916001 0 0.022342252867775709 0.019360886683538348 0 0.020188549102849253 0.018124162087301748 0 0.021990941993834182 0.019765405310402513 0 0.018727874538524598 0.021187546259155459 0 0.018981180870797063 0.021217775304594195 0 0.018854822397523306 0.020901590906451623 0 0.020188549102849253 0.018124162087301748 0 0.022042680921275308 0.017612053075820002 0 0.021990941993834182 0.019765405310402513 0 0.022042680921275308 0.017612053075820002 0 0.020849188350512044 0.013588725939870755 0 0.022042680921275308 0.017612053075820002 0 0.020725556735933598 0.014220509000940998 0 0.02051380922868443 0.014825931940733542 0 0.020416721647098363 0.014842675203793804 0 0.020867388173496527 0.014100951052091514 0 0.021042334458777609 0.014042529821772922 0 0.020949145377691956 0.014343547484627493 0 0.017145390009033357 0.013800592444047145 0 0.01628255919094173 0.016167329980003604 0 0.017116346112970842 0.015294822715101315 0 0.017145390009033357 0.013800592444047145 0 0.018369197429193157 0.014642030316359751 0 0.018491689157443102 0.013056393267418864 0 0.017145390009033357 0.013800592444047145 0 0.018369197429193157 0.014642030316359751 0 0.017116346112970842 0.015294822715101315 0 0.018338513557040251 0.01553928837193258 0 0.017587907552298943 0.015786518967017823 0 0.018025618553588103 0.016243197486896475 0 0.019040398622463525 0.013964395739444486 0 0.017930604136406163 0.01524871643536934 0 0.018380630833372574 0.015077730460105208 0 0.018338513557040251 0.01553928837193258 0 0.017587907552298943 0.015786518967017823 0 0.019688120567220298 0.012827869679746966 0 0.018998287598373388 0.012150760650346839 0 0.018491689157443102 0.013056393267418864 0 0.019688120567220298 0.012827869679746966 0 0.018369197429193157 0.014642030316359751 0 0.018491689157443102 0.013056393267418864 0 0.018059918192351327 0.012055677781346773 0 0.018998287598373388 0.012150760650346839 0 0.018491689157443102 0.013056393267418864 0 0.017239214525040139 0.012209595256917324 0 0.018059918192351327 0.012055677781346773 0 0.017609999475414077 0.013308228595563047 0 0.017994884084398487 0.012170923042084433 0 0.017396784763876044 0.013547117670025572 0 0.018059918192351327 0.012055677781346773 0 0.017145390009033357 0.013800592444047145 0 0.018491689157443102 0.013056393267418864 0 0.017239214525040139 0.012209595256917324 0 0.016790775354315734 0.012815471513063715 0 0.015915784409703562 0.012481614778868472 0 0.017239214525040139 0.012209595256917324 0 0.017609999475414077 0.013308228595563047 0 0.016790775354315734 0.012815471513063715 0 0.016790775354315734 0.012815471513063715 0 0.016290403879292231 0.013139187769684379 0 0.016771365116790348 0.0133474300402748 0 0.016790775354315734 0.012815471513063715 0 0.015915784409703562 0.012481614778868472 0 0.016290403879292231 0.013139187769684379 0 0.015915784409703562 0.012481614778868472 0 0.016290403879292231 0.013139187769684379 0 0.015735154489566566 0.013347214043813869 0 0.016290403879292231 0.013139187769684379 0 0.016245028721449405 0.013707403227567796 0 0.016771365116790348 0.0133474300402748 0 0.016290403879292231 0.013139187769684379 0 0.015735154489566566 0.013347214043813869 0 0.016245028721449405 0.013707403227567796 0 0.01554495172436491 0.013947486962081007 0 0.016245028721449405 0.013707403227567796 0 0.016088153617574947 0.014260774958664103 0 0.01554495172436491 0.013947486962081007 0 0.015735154489566566 0.013347214043813869 0 0.016245028721449405 0.013707403227567796 0 0.017609999475414077 0.013308228595563047 0 0.016943778811468989 0.013887300589489828 0 0.017151658535219994 0.014554731130386956 0 0.017396784763876044 0.013547117670025572 0 0.016724861654842431 0.015385289904315768 0 0.017609999475414077 0.013308228595563047 0 0.016771365116790348 0.0133474300402748 0 0.016943778811468989 0.013887300589489828 0 0.017609999475414077 0.013308228595563047 0 0.016790775354315734 0.012815471513063715 0 0.016771365116790348 0.0133474300402748 0 0.016245028721449405 0.013707403227567796 0 0.016943778811468989 0.013887300589489828 0 0.016526800531172708 0.014245051173684102 0 0.016245028721449405 0.013707403227567796 0 0.016771365116790348 0.0133474300402748 0 0.016943778811468989 0.013887300589489828 0 0.016943778811468989 0.013887300589489828 0 0.01684383504063339 0.014338739261827693 0 0.017151658535219994 0.014554731130386956 0 0.016943778811468989 0.013887300589489828 0 0.016526800531172708 0.014245051173684102 0 0.01684383504063339 0.014338739261827693 0 0.01684383504063339 0.014338739261827693 0 0.016699723028256355 0.014585443402235285 0 0.017151658535219994 0.014554731130386956 0 0.016526800531172708 0.014245051173684102 0 0.01684383504063339 0.014338739261827693 0 0.016699723028256355 0.014585443402235285 0 0.016699723028256355 0.014585443402235285 0 0.017151658535219994 0.014554731130386956 0 0.016610375880557599 0.015066587814629584 0 0.016699723028256355 0.014585443402235285 0 0.016321211504355268 0.014676649252429652 0 0.016610375880557599 0.015066587814629584 0 0.016526800531172708 0.014245051173684102 0 0.016699723028256355 0.014585443402235285 0 0.016321211504355268 0.014676649252429652 0 0.016492865340311549 0.016745016116821439 0 0.01628255919094173 0.016167329980003604 0 0.017116346112970842 0.015294822715101315 0 0.01554495172436491 0.013947486962081007 0 0.016088153617574947 0.014260774958664103 0 0.015757326989523739 0.014680046486970902 0 0.016526800531172708 0.014245051173684102 0 0.016088153617574947 0.014260774958664103 0 0.016321211504355268 0.014676649252429652 0 0.016245028721449405 0.013707403227567796 0 0.016526800531172708 0.014245051173684102 0 0.016088153617574947 0.014260774958664103 0 0.016321211504355268 0.014676649252429652 0 0.016127407189459077 0.015100769822202181 0 0.016610375880557599 0.015066587814629584 0 0.016088153617574947 0.014260774958664103 0 0.016321211504355268 0.014676649252429652 0 0.015757326989523739 0.014680046486970902 0 0.016321211504355268 0.014676649252429652 0 0.015757326989523739 0.014680046486970902 0 0.016127407189459077 0.015100769822202181 0 0.015262419576100483 0.015792871394245993 0 0.01618391036698498 0.015683988189870528 0 0.016020911851578029 0.01545895082695397 0 0.015262419576100483 0.015792871394245993 0 0.01618391036698498 0.015683988189870528 0 0.016524996850372817 0.015947327564905925 0 0.015619719952779686 0.015215453549521734 0 0.015757326989523739 0.014680046486970902 0 0.016127407189459077 0.015100769822202181 0 0.015619719952779686 0.015215453549521734 0 0.016127407189459077 0.015100769822202181 0 0.016020911851578029 0.01545895082695397 0 0.016127407189459077 0.015100769822202181 0 0.016383000742150121 0.015450149687599713 0 0.016610375880557599 0.015066587814629584 0 0.016127407189459077 0.015100769822202181 0 0.016383000742150121 0.015450149687599713 0 0.016020911851578029 0.01545895082695397 0 0.016383000742150121 0.015450149687599713 0 0.01618391036698498 0.015683988189870528 0 0.016632273616269816 0.01583144695413749 0 0.01618391036698498 0.015683988189870528 0 0.016632273616269816 0.01583144695413749 0 0.016524996850372817 0.015947327564905925 0 0.016383000742150121 0.015450149687599713 0 0.01618391036698498 0.015683988189870528 0 0.016020911851578029 0.01545895082695397 0 0.016492865340311549 0.016745016116821439 0 0.01628255919094173 0.016167329980003604 0 0.015953719455815748 0.017953607736367925 0 0.017151658535219994 0.014554731130386956 0 0.016610375880557599 0.015066587814629584 0 0.016632273616269816 0.01583144695413749 0 0.016724861654842431 0.015385289904315768 0 0.016320350316649589 0.016668670805705905 0 0.016383000742150121 0.015450149687599713 0 0.016610375880557599 0.015066587814629584 0 0.016632273616269816 0.01583144695413749 0 0.015953719455815748 0.017953607736367925 0 0.016578084879911505 0.017619538383645481 0 0.016349869656710762 0.018097947139799748 0 0.016492865340311549 0.016745016116821439 0 0.015953719455815748 0.017953607736367925 0 0.016578084879911505 0.017619538383645481 0 0.016578084879911505 0.017619538383645481 0 0.016948814393660871 0.01728179959817807 0 0.017101420109392119 0.017883891252070277 0 0.016492865340311549 0.016745016116821439 0 0.016948814393660871 0.01728179959817807 0 0.017550458212124392 0.016854224045006555 0 0.017550458212124392 0.016854224045006555 0 0.017784926700466955 0.01800390768827214 0 0.017101420109392119 0.017883891252070277 0 0.016948814393660871 0.01728179959817807 0 0.017550458212124392 0.016854224045006555 0 0.017101420109392119 0.017883891252070277 0 0.016492865340311549 0.016745016116821439 0 0.016578084879911505 0.017619538383645481 0 0.016948814393660871 0.01728179959817807 0 0.017930604136406163 0.01524871643536934 0 0.016559238195630026 0.016660552887818571 0 0.018369197429193157 0.014642030316359751 0 0.016492865340311549 0.016745016116821439 0 0.017116346112970842 0.015294822715101315 0 0.017587907552298943 0.015786518967017823 0 0.016492865340311549 0.016745016116821439 0 0.017550458212124392 0.016854224045006555 0 0.017587907552298943 0.015786518967017823 0 0.018025618553588103 0.016243197486896475 0 0.017550458212124392 0.016854224045006555 0 0.018611529978522272 0.016836451949665987 0 0.018025618553588103 0.016243197486896475 0 0.017550458212124392 0.016854224045006555 0 0.018611529978522272 0.016836451949665987 0 0.017550458212124392 0.016854224045006555 0 0.017784926700466955 0.01800390768827214 0 0.017397833779423007 0.018414623553441475 0 0.017059285192369027 0.018724183220663847 0 0.016353712037293942 0.019503016069705739 0 0.01633304118972238 0.01925450229191172 0 0.016177715343302437 0.019353375759827131 0 0.01633304118972238 0.01925450229191172 0 0.016658923060142841 0.019202031151771236 0 0.016457918600992404 0.019186428110183926 0 0.016353712037293942 0.019503016069705739 0 0.01633304118972238 0.01925450229191172 0 0.016658923060142841 0.019202031151771236 0 0.017784926700466955 0.01800390768827214 0 0.016658923060142841 0.019202031151771236 0 0.017101420109392119 0.017883891252070277 0 0.016658923060142841 0.019202031151771236 0 0.017101420109392119 0.017883891252070277 0 0.016594327971602051 0.018362698987274852 0 0.017059285192369027 0.018724183220663847 0 0.016678268597728495 0.019186772142519064 0 0.016578084879911505 0.017619538383645481 0 0.017101420109392119 0.017883891252070277 0 0.016594327971602051 0.018362698987274852 0 0.016594327971602051 0.018362698987274852 0 0.016349869656710762 0.018097947139799748 0 0.016272295143769499 0.018406863238771883 0 0.016578084879911505 0.017619538383645481 0 0.016594327971602051 0.018362698987274852 0 0.016349869656710762 0.018097947139799748 0 0.015953719455815748 0.017953607736367925 0 0.016349869656710762 0.018097947139799748 0 0.016272295143769499 0.018406863238771883 0 0.015953719455815748 0.017953607736367925 0 0.016272295143769499 0.018406863238771883 0 0.01609970959914913 0.018576835073441371 0 0.016272295143769499 0.018406863238771883 0 0.01624136562775353 0.018791437268633093 0 0.016413847920319788 0.018964676495259944 0 0.016272295143769499 0.018406863238771883 0 0.01609970959914913 0.018576835073441371 0 0.01624136562775353 0.018791437268633093 0 0.01609970959914913 0.018576835073441371 0 0.01624136562775353 0.018791437268633093 0 0.016146904305219006 0.018884725124010047 0 0.016594327971602051 0.018362698987274852 0 0.016272295143769499 0.018406863238771883 0 0.016413847920319788 0.018964676495259944 0 0.016040422467730422 0.016010385472647368 0 0.016524996850372817 0.015947327564905925 0 0.016247776131715502 0.016156198761173763 0 0.016632273616269816 0.01583144695413749 0 0.016524996850372817 0.015947327564905925 0 0.016382764156078422 0.016474274770026418 0 0.016247776131715502 0.016156198761173763 0 0.016382764156078422 0.016474274770026418 0 0.0159806662720616 0.016208457158817052 0 0.015953719455815748 0.017953607736367925 0 0.01609970959914913 0.018576835073441371 0 0.016040620088026526 0.01910068264306411 0 0.016320350316649589 0.016668670805705905 0 0.016625879344839212 0.018801677726399155 0 0.016524996850372817 0.015947327564905925 0 0.016247776131715502 0.016156198761173763 0 0.016382764156078422 0.016474274770026418 0 0.015216169115598845 0.01586754886693531 0 0.016641508451564375 0.015975204134526161 0 0.01609970959914913 0.018576835073441371 0 0.016040620088026526 0.01910068264306411 0 0.016146904305219006 0.018884725124010047 0 0.016625879344839212 0.018801677726399155 0 0.01650515826760687 0.018832552462011889 0 0.016040620088026526 0.01910068264306411 0 0.016146904305219006 0.018884725124010047 0 0.016220708542957402 0.019044466633927993 0 0.016146904305219006 0.018884725124010047 0 0.016220708542957402 0.019044466633927993 0 0.01631364336063295 0.019027457074268402 0 0.016040620088026526 0.01910068264306411 0 0.016220708542957402 0.019044466633927993 0 0.016302984541771655 0.019162912099228397 0 0.016220708542957402 0.019044466633927993 0 0.016302984541771655 0.019162912099228397 0 0.01631364336063295 0.019027457074268402 0 0.016354450830362157 0.019187485871843549 0 0.016302984541771655 0.019162912099228397 0 0.016510049407730387 0.019253582143141823 0 0.016354450830362157 0.019187485871843549 0 0.016678915437117657 0.019309587847397312 0 0.016510049407730387 0.019253582143141823 0 0.016302984541771655 0.019162912099228397 0 0.016462475567241692 0.019207504669496465 0 0.016510049407730387 0.019253582143141823 0 0.016625879344839212 0.018801677726399155 0 0.016766364324206175 0.01970679566914563 0 0.016757859630067578 0.020382036515251854 0 0.016942708446101643 0.019902038739959303 0 0.017219237044060722 0.020228531345166278 0 0.016658923060142841 0.019202031151771236 0 0.016594327971602051 0.018362698987274852 0 0.016413847920319788 0.018964676495259944 0 0.016658923060142841 0.019202031151771236 0 0.016413847920319788 0.018964676495259944 0 0.016462475567241692 0.019207504669496465 0 0.016302984541771655 0.019162912099228397 0 0.01631364336063295 0.019027457074268402 0 0.016462475567241692 0.019207504669496465 0 0.016413847920319788 0.018964676495259944 0 0.01631364336063295 0.019027457074268402 0 0.016462475567241692 0.019207504669496465 0 0.01624136562775353 0.018791437268633093 0 0.016413847920319788 0.018964676495259944 0 0.01631364336063295 0.019027457074268402 0 0.01624136562775353 0.018791437268633093 0 0.016146904305219006 0.018884725124010047 0 0.01631364336063295 0.019027457074268402 0 0.016658923060142841 0.019202031151771236 0 0.016462475567241692 0.019207504669496465 0 0.016562546182958285 0.019235722520722916 0 0.016462475567241692 0.019207504669496465 0 0.016562546182958285 0.019235722520722916 0 0.016585706972753092 0.019262850827945408 0 0.016462475567241692 0.019207504669496465 0 0.016585706972753092 0.019262850827945408 0 0.016510049407730387 0.019253582143141823 0 0.016562546182958285 0.019235722520722916 0 0.016585706972753092 0.019262850827945408 0 0.016539027961969929 0.019189486268594357 0 0.016585706972753092 0.019262850827945408 0 0.016539027961969929 0.019189486268594357 0 0.016597588173421572 0.019134962643342201 0 0.016678915437117657 0.019309587847397312 0 0.016510049407730387 0.019253582143141823 0 0.016646263150158016 0.019287556597102712 0 0.016585706972753092 0.019262850827945408 0 0.016510049407730387 0.019253582143141823 0 0.016646263150158016 0.019287556597102712 0 0.016585706972753092 0.019262850827945408 0 0.016646263150158016 0.019287556597102712 0 0.016734057837793449 0.019223078562943727 0 0.016678915437117657 0.019309587847397312 0 0.016646263150158016 0.019287556597102712 0 0.017109762639444467 0.01935849467513107 0 0.016734057837793449 0.019223078562943727 0 0.017109762639444467 0.01935849467513107 0 0.016867916303824754 0.018949648398535628 0 0.016734057837793449 0.019223078562943727 0 0.016597588173421572 0.019134962643342201 0 0.016867916303824754 0.018949648398535628 0 0.016646263150158016 0.019287556597102712 0 0.016734057837793449 0.019223078562943727 0 0.017109762639444467 0.01935849467513107 0 0.016597588173421572 0.019134962643342201 0 0.016461695262048385 0.019083472017044568 0 0.016610626077658987 0.018896332381834937 0 0.016585706972753092 0.019262850827945408 0 0.016734057837793449 0.019223078562943727 0 0.016597588173421572 0.019134962643342201 0 0.016461695262048385 0.019083472017044568 0 0.016307129866716463 0.019032868561659373 0 0.016457918600992404 0.019186428110183926 0 0.016539027961969929 0.019189486268594357 0 0.016461695262048385 0.019083472017044568 0 0.016457918600992404 0.019186428110183926 0 0.016539027961969929 0.019189486268594357 0 0.016597588173421572 0.019134962643342201 0 0.016461695262048385 0.019083472017044568 0 0.016461695262048385 0.019083472017044568 0 0.016307129866716463 0.019032868561659373 0 0.016428293491261126 0.018917167350984095 0 0.016307129866716463 0.019032868561659373 0 0.016261886103004396 0.019153659987690818 0 0.016098915219148354 0.019055691789428439 0 0.016307129866716463 0.019032868561659373 0 0.016261886103004396 0.019153659987690818 0 0.016457918600992404 0.019186428110183926 0 0.01633304118972238 0.01925450229191172 0 0.016261886103004396 0.019153659987690818 0 0.016119335341471981 0.019237171005512057 0 0.01633304118972238 0.01925450229191172 0 0.016261886103004396 0.019153659987690818 0 0.016457918600992404 0.019186428110183926 0 0.016658923060142841 0.019202031151771236 0 0.016562546182958285 0.019235722520722916 0 0.016457918600992404 0.019186428110183926 0 0.016562546182958285 0.019235722520722916 0 0.016539027961969929 0.019189486268594357 0 0.016457918600992404 0.019186428110183926 0 0.01946911166754877 0.020294756648128701 0 0.018993605375684789 0.020357762800666056 0 0.018673531575353421 0.019783469477025677 0 0.018584946014515494 0.020348622102261897 0 0.018993605375684789 0.020357762800666056 0 0.018673531575353421 0.019783469477025677 0 0.018584946014515494 0.020348622102261897 0 0.018993605375684789 0.020357762800666056 0 0.01892008971804891 0.020627834643808868 0 0.01921757458305226 0.02076317030329311 0 0.01892008971804891 0.020627834643808868 0 0.018854822397523306 0.020901590906451623 0 0.01921757458305226 0.02076317030329311 0 0.018993605375684789 0.020357762800666056 0 0.01892008971804891 0.020627834643808868 0 0.01921757458305226 0.02076317030329311 0 0.018981180870797063 0.021217775304594195 0 0.018854822397523306 0.020901590906451623 0 0.018727874538524598 0.021187546259155459 0 0.018647691817436005 0.020902086503921759 0 0.018408234120854444 0.020842259183634533 0 0.018647691817436005 0.020902086503921759 0 0.018654991018079232 0.020672994082816476 0 0.018408234120854444 0.020842259183634533 0 0.018727874538524598 0.021187546259155459 0 0.018854822397523306 0.020901590906451623 0 0.018647691817436005 0.020902086503921759 0 0.018854822397523306 0.020901590906451623 0 0.018647691817436005 0.020902086503921759 0 0.018654991018079232 0.020672994082816476 0 0.018584946014515494 0.020348622102261897 0 0.01892008971804891 0.020627834643808868 0 0.018654991018079232 0.020672994082816476 0 0.01892008971804891 0.020627834643808868 0 0.018854822397523306 0.020901590906451623 0 0.018654991018079232 0.020672994082816476 0 0.018584946014515494 0.020348622102261897 0 0.018654991018079232 0.020672994082816476 0 0.018369841868343069 0.02060912462140467 0 0.018654991018079232 0.020672994082816476 0 0.018369841868343069 0.02060912462140467 0 0.018408234120854444 0.020842259183634533 0 0.018727874538524598 0.021187546259155459 0 0.018408234120854444 0.020842259183634533 0 0.018065286010957179 0.020911655560585198 0 0.018408234120854444 0.020842259183634533 0 0.018116614696634038 0.020762804551262934 0 0.018065286010957179 0.020911655560585198 0 0.01720034030979295 0.01977699282135937 0 0.017244652726636917 0.018502571051280937 0 0.018369841868343069 0.02060912462140467 0 0.018408234120854444 0.020842259183634533 0 0.018116614696634038 0.020762804551262934 0 0.018369841868343069 0.02060912462140467 0 0.018116614696634038 0.020762804551262934 0 0.018087196423576233 0.020504290884919327 0 0.018087196423576233 0.020504290884919327 0 0.018263136658204865 0.020344998990666364 0 0.017997719629840696 0.02026255361414216 0 0.018369841868343069 0.02060912462140467 0 0.018087196423576233 0.020504290884919327 0 0.018263136658204865 0.020344998990666364 0 0.018584946014515494 0.020348622102261897 0 0.018369841868343069 0.02060912462140467 0 0.018263136658204865 0.020344998990666364 0 0.018584946014515494 0.020348622102261897 0 0.018263136658204865 0.020344998990666364 0 0.018172756145860253 0.020000028864151149 0 0.018263136658204865 0.020344998990666364 0 0.017997719629840696 0.02026255361414216 0 0.018172756145860253 0.020000028864151149 0 0.017997719629840696 0.02026255361414216 0 0.017810461936224202 0.020010946095772881 0 0.018172756145860253 0.020000028864151149 0 0.017997719629840696 0.02026255361414216 0 0.017589125583911635 0.020197891167685004 0 0.017810461936224202 0.020010946095772881 0 0.017589125583911635 0.020197891167685004 0 0.017804075992646631 0.020451468367223426 0 0.017413097532865292 0.020656894979567193 0 0.017997719629840696 0.02026255361414216 0 0.017589125583911635 0.020197891167685004 0 0.017804075992646631 0.020451468367223426 0 0.018087196423576233 0.020504290884919327 0 0.017997719629840696 0.02026255361414216 0 0.017804075992646631 0.020451468367223426 0 0.017244652726636917 0.018502571051280937 0 0.016613466356739579 0.018385383419048846 0 0.018087196423576233 0.020504290884919327 0 0.017804075992646631 0.020451468367223426 0 0.017922286772109365 0.020644833497171479 0 0.015762363312852488 0.016008997099723685 0 0.015740168504041151 0.016091278713116393 0 0.0159806662720616 0.016208457158817052 0 0.016040422467730422 0.016010385472647368 0 0.015762363312852488 0.016008997099723685 0 0.0159806662720616 0.016208457158817052 0 0.018116614696634038 0.020762804551262934 0 0.018087196423576233 0.020504290884919327 0 0.017922286772109365 0.020644833497171479 0 0.017804075992646631 0.020451468367223426 0 0.017922286772109365 0.020644833497171479 0 0.017413097532865292 0.020656894979567193 0 0.017922286772109365 0.020644833497171479 0 0.018062025833841148 0.020915684310588642 0 0.017413097532865292 0.020656894979567193 0 0.018116614696634038 0.020762804551262934 0 0.017922286772109365 0.020644833497171479 0 0.018062025833841148 0.020915684310588642 0 0.016040422467730422 0.016010385472647368 0 0.016247776131715502 0.016156198761173763 0 0.0159806662720616 0.016208457158817052 0 0.016625879344839212 0.018801677726399155 0 0.016613466356739579 0.018385383419048846 0 0.016757859630067578 0.020382036515251854 0 0.017413097532865292 0.020656894979567193 0 0.017219237044060722 0.020228531345166278 0 0.017589125583911635 0.020197891167685004 0 0.017413097532865292 0.020656894979567193 0 0.017219237044060722 0.020228531345166278 0 0.017589125583911635 0.020197891167685004 0 0.017219237044060722 0.020228531345166278 0 0.01741994299473679 0.01990652722831034 0 0.01741994299473679 0.01990652722831034 0 0.017109762639444467 0.01935849467513107 0 0.017765457721382761 0.019708702471156476 0 0.016942708446101643 0.019902038739959303 0 0.017219237044060722 0.020228531345166278 0 0.01741994299473679 0.01990652722831034 0 0.016942708446101643 0.019902038739959303 0 0.01741994299473679 0.01990652722831034 0 0.017109762639444467 0.01935849467513107 0 0.016766364324206175 0.01970679566914563 0 0.01706523694061679 0.019296220389151915 0 0.017109762639444467 0.01935849467513107 0 0.017976054847670807 0.019357850599692125 0 0.01755273981382879 0.018987448915713349 0 0.017109762639444467 0.01935849467513107 0 0.017976054847670807 0.019357850599692125 0 0.017765457721382761 0.019708702471156476 0 0.017976054847670807 0.019357850599692125 0 0.017765457721382761 0.019708702471156476 0 0.018172756145860253 0.020000028864151149 0 0.017589125583911635 0.020197891167685004 0 0.01741994299473679 0.01990652722831034 0 0.017810461936224202 0.020010946095772881 0 0.01741994299473679 0.01990652722831034 0 0.017765457721382761 0.019708702471156476 0 0.017810461936224202 0.020010946095772881 0 0.017765457721382761 0.019708702471156476 0 0.017810461936224202 0.020010946095772881 0 0.018172756145860253 0.020000028864151149 0 0.018584946014515494 0.020348622102261897 0 0.018172756145860253 0.020000028864151149 0 0.018673531575353421 0.019783469477025677 0 0.017976054847670807 0.019357850599692125 0 0.018172756145860253 0.020000028864151149 0 0.018673531575353421 0.019783469477025677 0 0.017976054847670807 0.019357850599692125 0 0.018719125536665493 0.019190905402399875 0 0.019477845441859959 0.020429624896307987 0 0.018163046519033322 0.019442633738343547 0 0.018736484577421924 0.020020733659428067 0 0.017976054847670807 0.019357850599692125 0 0.018719125536665493 0.019190905402399875 0 0.018165164788526034 0.019005452064982477 0 0.018719125536665493 0.019190905402399875 0 0.019477845441859959 0.020429624896307987 0 0.019502107007519063 0.019034197327869432 0 0.020511903066110615 0.019061392112259046 0 0.019477845441859959 0.020429624896307987 0 0.019502107007519063 0.019034197327869432 0 0.019775813818049787 0.01826070440413893 0 0.019183272936623467 0.018594559077909273 0 0.019306318119106658 0.017171954723986145 0 0.020131164969324059 0.017506246214040014 0 0.019775813818049787 0.01826070440413893 0 0.019306318119106658 0.017171954723986145 0 0.02047630930392192 0.018456805263671612 0 0.019775813818049787 0.01826070440413893 0 0.019502107007519063 0.019034197327869432 0 0.018719125536665493 0.019190905402399875 0 0.019502107007519063 0.019034197327869432 0 0.019183272936623467 0.018594559077909273 0 0.019775813818049787 0.01826070440413893 0 0.019502107007519063 0.019034197327869432 0 0.019183272936623467 0.018594559077909273 0 0.018719125536665493 0.019190905402399875 0 0.019183272936623467 0.018594559077909273 0 0.018392846351658124 0.018710922571023903 0 0.018719125536665493 0.019190905402399875 0 0.018392846351658124 0.018710922571023903 0 0.018165164788526034 0.019005452064982477 0 0.018392846351658124 0.018710922571023903 0 0.018246255340937063 0.018814840367922834 0 0.018165164788526034 0.019005452064982477 0 0.018385949534802385 0.019111051465009538 0 0.018281135739349166 0.017451569369867397 0 0.019183272936623467 0.018594559077909273 0 0.018392846351658124 0.018710922571023903 0 0.019306318119106658 0.017171954723986145 0 0.018392846351658124 0.018710922571023903 0 0.0181613800599182 0.019303243279392375 0 0.018246255340937063 0.018814840367922834 0 0.018392846351658124 0.018710922571023903 0 0.0181613800599182 0.019303243279392375 0 0.017678749779436745 0.01963299104316496 0 0.018190659067002041 0.018845405862562076 0 0.018025725284222454 0.018996324913178552 0 0.018405599993377476 0.0193129502266201 0 0.018246255340937063 0.018814840367922834 0 0.018760769333044422 0.019448624758383465 0 0.018405599993377476 0.0193129502266201 0 0.018760769333044422 0.019448624758383465 0 0.018440375865900513 0.019670758955682724 0 0.0181613800599182 0.019303243279392375 0 0.018405599993377476 0.0193129502266201 0 0.018440375865900513 0.019670758955682724 0 0.0181613800599182 0.019303243279392375 0 0.018405599993377476 0.0193129502266201 0 0.018246255340937063 0.018814840367922834 0 0.017976054847670807 0.019357850599692125 0 0.018165164788526034 0.019005452064982477 0 0.01755273981382879 0.018987448915713349 0 0.018246255340937063 0.018814840367922834 0 0.018165164788526034 0.019005452064982477 0 0.01755273981382879 0.018987448915713349 0 0.018246255340937063 0.018814840367922834 0 0.01755273981382879 0.018987448915713349 0 0.017255927000284579 0.018539343844291005 0 0.017109762639444467 0.01935849467513107 0 0.01755273981382879 0.018987448915713349 0 0.016867916303824754 0.018949648398535628 0 0.01755273981382879 0.018987448915713349 0 0.017255927000284579 0.018539343844291005 0 0.016867916303824754 0.018949648398535628 0 0.018760769333044422 0.019448624758383465 0 0.018658202422345803 0.020077640110941729 0 0.018880688825571184 0.019959173664677719 0 0.018760769333044422 0.019448624758383465 0 0.018658202422345803 0.020077640110941729 0 0.018440375865900513 0.019670758955682724 0 0.018658202422345803 0.020077640110941729 0 0.018877276572514312 0.020301866339709387 0 0.018692973398256207 0.020506416737683473 0 0.018658202422345803 0.020077640110941729 0 0.018499454908018402 0.020270186453288375 0 0.018692973398256207 0.020506416737683473 0 0.018658202422345803 0.020077640110941729 0 0.018423454463508467 0.020033921797638559 0 0.018499454908018402 0.020270186453288375 0 0.018423454463508467 0.020033921797638559 0 0.018499454908018402 0.020270186453288375 0 0.018294123020668306 0.020246326112149601 0 0.018499454908018402 0.020270186453288375 0 0.018294123020668306 0.020246326112149601 0 0.018367978132028978 0.020450483755213439 0 0.018165583831299403 0.020092145614309952 0 0.018597579987806416 0.021876550557984775 0 0.018423454463508467 0.020033921797638559 0 0.018294123020668306 0.020246326112149601 0 0.018170566210287172 0.019862023085362748 0 0.018423454463508467 0.020033921797638559 0 0.018440375865900513 0.019670758955682724 0 0.018170566210287172 0.019862023085362748 0 0.0181613800599182 0.019303243279392375 0 0.018440375865900513 0.019670758955682724 0 0.018170566210287172 0.019862023085362748 0 0.018658202422345803 0.020077640110941729 0 0.018423454463508467 0.020033921797638559 0 0.018440375865900513 0.019670758955682724 0 0.0181613800599182 0.019303243279392375 0 0.018170566210287172 0.019862023085362748 0 0.017678749779436745 0.01963299104316496 0 0.018170566210287172 0.019862023085362748 0 0.017856846305038494 0.020240332549199779 0 0.017678749779436745 0.01963299104316496 0 0.018294123020668306 0.020246326112149601 0 0.018170566210287172 0.019862023085362748 0 0.017856846305038494 0.020240332549199779 0 0.018294123020668306 0.020246326112149601 0 0.017856846305038494 0.020240332549199779 0 0.01798110093614546 0.020576109210721033 0 0.018281135739349166 0.017451569369867397 0 0.021198406736672164 0.022973107796073224 0 0.017856846305038494 0.020240332549199779 0 0.017678749779436745 0.01963299104316496 0 0.017420673376712797 0.020487970054146917 0 0.020034628979786435 0.016743599203281199 0 0.019306318119106658 0.017171954723986145 0 0.019891252101273044 0.016006179637422686 0 0.017856846305038494 0.020240332549199779 0 0.017549803477144531 0.020567917646658954 0 0.017420673376712797 0.020487970054146917 0 0.020131164969324059 0.017506246214040014 0 0.020034628979786435 0.016743599203281199 0 0.019306318119106658 0.017171954723986145 0 0.016488479039350072 0.018763867479887522 0 0.016431620825529011 0.018653166143054595 0 0.016724805264536985 0.01854051169873772 0 0.016488479039350072 0.018763867479887522 0 0.016431620825529011 0.018653166143054595 0 0.016301370560100677 0.018780374294467477 0 0.016202416900261123 0.018663114339321937 0 0.016301370560100677 0.018780374294467477 0 0.01612113966568238 0.018760884236236543 0 0.016431620825529011 0.018653166143054595 0 0.016310225290898751 0.018651635273878066 0 0.016301370560100677 0.018780374294467477 0 0.016301370560100677 0.018780374294467477 0 0.01612113966568238 0.018760884236236543 0 0.016193753317974756 0.018905735683224199 0 0.016310225290898751 0.018651635273878066 0 0.016202416900261123 0.018663114339321937 0 0.016301370560100677 0.018780374294467477 0 0.016301370560100677 0.018780374294467477 0 0.016309964602339171 0.018907722066448664 0 0.016428293491261126 0.018917167350984095 0 0.016301370560100677 0.018780374294467477 0 0.016309964602339171 0.018907722066448664 0 0.016193753317974756 0.018905735683224199 0 0.016307129866716463 0.019032868561659373 0 0.016309964602339171 0.018907722066448664 0 0.016193753317974756 0.018905735683224199 0 0.016307129866716463 0.019032868561659373 0 0.016309964602339171 0.018907722066448664 0 0.016428293491261126 0.018917167350984095 0 0.016488479039350072 0.018763867479887522 0 0.016301370560100677 0.018780374294467477 0 0.016428293491261126 0.018917167350984095 0 0.016488479039350072 0.018763867479887522 0 0.016428293491261126 0.018917167350984095 0 0.016610626077658987 0.018896332381834937 0 0.016461695262048385 0.019083472017044568 0 0.016428293491261126 0.018917167350984095 0 0.016610626077658987 0.018896332381834937 0 0.016610626077658987 0.018896332381834937 0 0.016867916303824754 0.018949648398535628 0 0.016724805264536985 0.01854051169873772 0 0.016597588173421572 0.019134962643342201 0 0.016610626077658987 0.018896332381834937 0 0.016867916303824754 0.018949648398535628 0 0.017255927000284579 0.018539343844291005 0 0.016867916303824754 0.018949648398535628 0 0.016724805264536985 0.01854051169873772 0 0.018760769333044422 0.019448624758383465 0 0.019061770581836258 0.019869396186820758 0 0.018880688825571184 0.019959173664677719 0 0.018025725284222454 0.018996324913178552 0 0.017798073630832086 0.019147576973775175 0 0.016488479039350072 0.018763867479887522 0 0.016610626077658987 0.018896332381834937 0 0.016724805264536985 0.01854051169873772 0 0.019061770581836258 0.019869396186820758 0 0.019075959826202648 0.02018134652218016 0 0.019193188973191708 0.02019023400981599 0 0.019061770581836258 0.019869396186820758 0 0.019193188973191708 0.02019023400981599 0 0.019256286100332566 0.02017228397440202 0 0.017798073630832086 0.019147576973775175 0 0.018246401621015311 0.019693740694536083 0 0.019061770581836258 0.019869396186820758 0 0.018880688825571184 0.019959173664677719 0 0.019075959826202648 0.02018134652218016 0 0.018880688825571184 0.019959173664677719 0 0.018877276572514312 0.020301866339709387 0 0.019075959826202648 0.02018134652218016 0 0.018658202422345803 0.020077640110941729 0 0.018880688825571184 0.019959173664677719 0 0.018877276572514312 0.020301866339709387 0 0.019075959826202648 0.02018134652218016 0 0.019113432964495868 0.020405554645875578 0 0.019272293230905079 0.020346988473941213 0 0.019075959826202648 0.02018134652218016 0 0.019272293230905079 0.020346988473941213 0 0.019193188973191708 0.02019023400981599 0 0.018877276572514312 0.020301866339709387 0 0.019075959826202648 0.02018134652218016 0 0.019113432964495868 0.020405554645875578 0 0.018877276572514312 0.020301866339709387 0 0.019113432964495868 0.020405554645875578 0 0.018908751519248777 0.020699224191768267 0 0.019272293230905079 0.020346988473941213 0 0.019220451441751808 0.020307857000308498 0 0.019308746567742452 0.020552134689058567 0 0.016073689002108 0.028120767653296661 0 0.016117578093668896 0.027956799793200919 0 0.019113432964495868 0.020405554645875578 0 0.019272293230905079 0.020346988473941213 0 0.019308746567742452 0.020552134689058567 0 0.019272293230905079 0.020346988473941213 0 0.01926811998218873 0.020284116541620406 0 0.019259040611620162 0.02032036432406813 0 0.019272293230905079 0.020346988473941213 0 0.019193188973191708 0.02019023400981599 0 0.01926811998218873 0.020284116541620406 0 0.019193188973191708 0.02019023400981599 0 0.01926811998218873 0.020284116541620406 0 0.019261690956936195 0.020236370253083745 0 0.016431620825529011 0.018653166143054595 0 0.016724805264536985 0.01854051169873772 0 0.016423294219265409 0.018546601190403265 0 0.019061770581836258 0.019869396186820758 0 0.019301462832970063 0.020218105974746686 0 0.019256286100332566 0.02017228397440202 0 0.019193188973191708 0.02019023400981599 0 0.019261690956936195 0.020236370253083745 0 0.019256286100332566 0.02017228397440202 0 0.01926811998218873 0.020284116541620406 0 0.019268917867298174 0.020297630160197342 0 0.019261690956936195 0.020236370253083745 0 0.019268917867298174 0.020297630160197342 0 0.019245318681888154 0.020350855010638467 0 0.019259040611620162 0.02032036432406813 0 0.01926811998218873 0.020284116541620406 0 0.019268917867298174 0.020297630160197342 0 0.019259040611620162 0.02032036432406813 0 0.018246401621015311 0.019693740694536083 0 0.019020276616388367 0.020039135336844704 0 0.019268917867298174 0.020297630160197342 0 0.019271566915893597 0.020251891409184604 0 0.019245318681888154 0.020350855010638467 0 0.019268917867298174 0.020297630160197342 0 0.019261690956936195 0.020236370253083745 0 0.019271566915893597 0.020251891409184604 0 0.019261690956936195 0.020236370253083745 0 0.019271566915893597 0.020251891409184604 0 0.019256286100332566 0.02017228397440202 0 0.018246401621015311 0.019693740694536083 0 0.018791119067878635 0.019816940373188433 0 0.016431620825529011 0.018653166143054595 0 0.016423294219265409 0.018546601190403265 0 0.016350090431998799 0.018603197245411172 0 0.018246401621015311 0.019693740694536083 0 0.017879024770973952 0.019609551228055352 0 0.016423294219265409 0.018546601190403265 0 0.016350090431998799 0.018603197245411172 0 0.016233647943691643 0.01856055361719422 0 0.019302130651107356 0.020321839968943163 0 0.019245318681888154 0.020350855010638467 0 0.019133551132317472 0.020445982620333834 0 0.016310225290898751 0.018651635273878066 0 0.016202416900261123 0.018663114339321937 0 0.016233647943691643 0.01856055361719422 0 0.016310225290898751 0.018651635273878066 0 0.016350090431998799 0.018603197245411172 0 0.016233647943691643 0.01856055361719422 0 0.016431620825529011 0.018653166143054595 0 0.016310225290898751 0.018651635273878066 0 0.016350090431998799 0.018603197245411172 0 0.019245318681888154 0.020350855010638467 0 0.019133551132317472 0.020445982620333834 0 0.019259040611620162 0.02032036432406813 0 0.019272293230905079 0.020346988473941213 0 0.019259040611620162 0.02032036432406813 0 0.019220451441751808 0.020307857000308498 0 0.019133551132317472 0.020445982620333834 0 0.019259040611620162 0.02032036432406813 0 0.019220451441751808 0.020307857000308498 0 0.012917804972938832 0.035342858686164491 0 0.012741285448948004 0.035390383608592521 0 0.0127447871038158 0.035332055390159184 0 0.016073689002108 0.028120767653296661 0 0.015121553494829926 0.02549505295834251 0 0.01261764282498865 0.03532721407712397 0 0.012741285448948004 0.035390383608592521 0 0.0127447871038158 0.035332055390159184 0 0.01261764282498865 0.03532721407712397 0 0.012741285448948004 0.035390383608592521 0 0.012610695260575977 0.035378350682796135 0 0.015121553494829926 0.02549505295834251 0 0.012715812757900293 0.034453346473099153 0 0.016031786348063164 0.018571791563056071 0 0.015833540192386877 0.01869819761400348 0 0.015972616367208328 0.018775033345737373 0 0.015121553494829926 0.02549505295834251 0 0.015591988926489277 0.02250512171857047 0 0.014213563372597238 0.027444928347374904 0 0.013948706829409305 0.027455174131552063 0 0.014018840231024525 0.027566125592277065 0 0.017879024770973952 0.019609551228055352 0 0.015121553494829926 0.02549505295834251 0 0.019133551132317472 0.020445982620333834 0 0.019220451441751808 0.020307857000308498 0 0.018848845622470228 0.020470660064566281 0 0.016202416900261123 0.018663114339321937 0 0.016233647943691643 0.01856055361719422 0 0.016031786348063164 0.018571791563056071 0 0.016202416900261123 0.018663114339321937 0 0.016031786348063164 0.018571791563056071 0 0.01612113966568238 0.018760884236236543 0 0.011307922410808992 0.035593337568318742 0 0.010600262138641315 0.035011496904570234 0 0.01148983036737361 0.035144858561111769 0 0.011667941109337027 0.035458525334289996 0 0.011307922410808992 0.035593337568318742 0 0.01148983036737361 0.035144858561111769 0 0.012099765055528917 0.035394029520878632 0 0.011667941109337027 0.035458525334289996 0 0.01148983036737361 0.035144858561111769 0 0.012277548977695608 0.035560602781091973 0 0.012715812757900293 0.034453346473099153 0 0.012099765055528917 0.035394029520878632 0 0.011667941109337027 0.035458525334289996 0 0.011836595894130593 0.035729927292197913 0 0.011667941109337027 0.035458525334289996 0 0.011836595894130593 0.035729927292197913 0 0.011307922410808992 0.035593337568318742 0 0.012715812757900293 0.034453346473099153 0 0.011121540827894393 0.035618273499550941 0 0.012715812757900293 0.034453346473099153 0 0.0125518313644539 0.026271717325427768 0 0.013948706829409305 0.027455174131552063 0 0.013829333660276454 0.027666001934547067 0 0.014018840231024525 0.027566125592277065 0 0.011894019293628391 0.035602150545270279 0 0.011307922410808992 0.035593337568318742 0 0.011129990114465719 0.036160468437534295 0 0.011307922410808992 0.035593337568318742 0 0.011129990114465719 0.036160468437534295 0 0.0105682653653278 0.036088913963335356 0 0.011894019293628391 0.035602150545270279 0 0.011129990114465719 0.036160468437534295 0 0.011527131605764591 0.036377795199126706 0 0.011129990114465719 0.036160468437534295 0 0.011197395991100357 0.03661562263515452 0 0.010811581919234614 0.036439904567629126 0 0.011129990114465719 0.036160468437534295 0 0.011527131605764591 0.036377795199126706 0 0.011197395991100357 0.03661562263515452 0 0.0125518313644539 0.026271717325427768 0 0.0096777895640655399 0.028131825441706591 0 0.0092322450806087263 0.023940754585427593 0 0.0094128875106390918 0.023698207338370528 0 0.0096944475602287559 0.02362849173637082 0 0.0125518313644539 0.026271717325427768 0 0.015591988926489277 0.02250512171857047 0 0.015620636526348305 0.018828285945143939 0 0.015833540192386877 0.01869819761400348 0 0.015848576376476627 0.018951536696982456 0 0.015620636526348305 0.018828285945143939 0 0.015848576376476627 0.018951536696982456 0 0.015505992202510937 0.01901851866842777 0 0.0125518313644539 0.026271717325427768 0 0.012790285773532804 0.020040821168960592 0 0.0092322450806087263 0.023940754585427593 0 0.0094128875106390918 0.023698207338370528 0 0.0096525229729969679 0.022859861022860126 0 0.0094128875106390918 0.023698207338370528 0 0.0096786280454596967 0.023607911039417111 0 0.0096525229729969679 0.022859861022860126 0 0.010038242624752287 0.026814239732690252 0 0.0096777895640655399 0.028131825441706591 0 0.016031786348063164 0.018571791563056071 0 0.01612113966568238 0.018760884236236543 0 0.015972616367208328 0.018775033345737373 0 0.01612113966568238 0.018760884236236543 0 0.015972616367208328 0.018775033345737373 0 0.016029069193210864 0.018891939197045435 0 0.015833540192386877 0.01869819761400348 0 0.015972616367208328 0.018775033345737373 0 0.015848576376476627 0.018951536696982456 0 0.015848576376476627 0.018951536696982456 0 0.016029069193210864 0.018891939197045435 0 0.016098915219148354 0.019055691789428439 0 0.015972616367208328 0.018775033345737373 0 0.015848576376476627 0.018951536696982456 0 0.016029069193210864 0.018891939197045435 0 0.016029069193210864 0.018891939197045435 0 0.016193753317974756 0.018905735683224199 0 0.016098915219148354 0.019055691789428439 0 0.01612113966568238 0.018760884236236543 0 0.016029069193210864 0.018891939197045435 0 0.016193753317974756 0.018905735683224199 0 0.016307129866716463 0.019032868561659373 0 0.016193753317974756 0.018905735683224199 0 0.016098915219148354 0.019055691789428439 0 0.016261886103004396 0.019153659987690818 0 0.016098915219148354 0.019055691789428439 0 0.016119335341471981 0.019237171005512057 0 0.016098915219148354 0.019055691789428439 0 0.016119335341471981 0.019237171005512057 0 0.015958300583229622 0.019182310980910045 0 0.016119335341471981 0.019237171005512057 0 0.015958300583229622 0.019182310980910045 0 0.016014429167875554 0.019330837840257024 0 0.015848576376476627 0.018951536696982456 0 0.015958300583229622 0.019182310980910045 0 0.015760113848000728 0.019166053388372978 0 0.015848576376476627 0.018951536696982456 0 0.016098915219148354 0.019055691789428439 0 0.015958300583229622 0.019182310980910045 0 0.015848576376476627 0.018951536696982456 0 0.015760113848000728 0.019166053388372978 0 0.015505992202510937 0.01901851866842777 0 0.015760113848000728 0.019166053388372978 0 0.015505992202510937 0.01901851866842777 0 0.015342318313782572 0.019272127482724943 0 0.012790285773532804 0.020040821168960592 0 0.012782178503291483 0.02080958727774105 0 0.015760113848000728 0.019166053388372978 0 0.015671109313425816 0.019471463035229935 0 0.015342318313782572 0.019272127482724943 0 0.015958300583229622 0.019182310980910045 0 0.015760113848000728 0.019166053388372978 0 0.015836351417145001 0.019329507138075248 0 0.015763107841372592 0.019186576183563564 0 0.015744708558999468 0.019360060200508733 0 0.015671109313425816 0.019471463035229935 0 0.015442115788265676 0.019539339040492005 0 0.015590315966192578 0.019715269915645577 0 0.015671109313425816 0.019471463035229935 0 0.015442115788265676 0.019539339040492005 0 0.015342318313782572 0.019272127482724943 0 0.015442115788265676 0.019539339040492005 0 0.01539558638669245 0.019726592435241171 0 0.015590315966192578 0.019715269915645577 0 0.015744708558999468 0.019360060200508733 0 0.015843837346307125 0.019733115342133116 0 0.015993799282470265 0.019513662445336744 0 0.015864629160048143 0.019483873826086972 0 0.015957761452475999 0.01942527870721843 0 0.015836351417145001 0.019329507138075248 0 0.015864629160048143 0.019483873826086972 0 0.015957761452475999 0.01942527870721843 0 0.015957761452475999 0.01942527870721843 0 0.016091785793802663 0.019457879047386384 0 0.016014429167875554 0.019330837840257024 0 0.015993799282470265 0.019513662445336744 0 0.015957761452475999 0.01942527870721843 0 0.016091785793802663 0.019457879047386384 0 0.016353712037293942 0.019503016069705739 0 0.016091785793802663 0.019457879047386384 0 0.016177715343302437 0.019353375759827131 0 0.016091785793802663 0.019457879047386384 0 0.016177715343302437 0.019353375759827131 0 0.016014429167875554 0.019330837840257024 0 0.01633304118972238 0.01925450229191172 0 0.016119335341471981 0.019237171005512057 0 0.016177715343302437 0.019353375759827131 0 0.016119335341471981 0.019237171005512057 0 0.016177715343302437 0.019353375759827131 0 0.016014429167875554 0.019330837840257024 0 0.015836351417145001 0.019329507138075248 0 0.015957761452475999 0.01942527870721843 0 0.016014429167875554 0.019330837840257024 0 0.015958300583229622 0.019182310980910045 0 0.015836351417145001 0.019329507138075248 0 0.016014429167875554 0.019330837840257024 0 0.0012217563093915964 0.018845148943901536 0 0.0020423433688216476 0.01818730840031281 0 0.0023922251634923655 0.019316742674626304 0 0.0045446019969650935 0.017918838166209414 0 0.0047708922827124443 0.018598289244694786 0 0.0027008866611463282 0.018411119755119127 0 0.0020423433688216476 0.01818730840031281 0 0.0023922251634923655 0.019316742674626304 0 0.0019717825785462448 0.017358534213922232 0 0.0020423433688216476 0.01818730840031281 0 0.0024833768723875886 0.017804135347422662 0 0.0027008866611463282 0.018411119755119127 0 0.0020423433688216476 0.01818730840031281 0 0.0024833768723875886 0.017804135347422662 0 0.0026431455789155318 0.017174746056799597 0 0.0019717825785462448 0.017358534213922232 0 0.0024833768723875886 0.017804135347422662 0 0.0012217563093915964 0.018845148943901536 0 0.0020423433688216476 0.01818730840031281 0 0.0011542618649150957 0.017689673803174391 0 0.0019717825785462448 0.017358534213922232 0 0.0020423433688216476 0.01818730840031281 0 0.0011542618649150957 0.017689673803174391 0 0.008029914645966087 0.018161641418087925 0 0.0079473872694081106 0.018167252003856132 0 0.0079752262327843632 0.018225606196853535 0 0.0079466005855912993 0.018121498807810461 0 0.008029914645966087 0.018161641418087925 0 0.0079473872694081106 0.018167252003856132 0 0.0079473872694081106 0.018167252003856132 0 0.0079752262327843632 0.018225606196853535 0 0.0079205889814522867 0.018221173599326079 0 0.0079752262327843632 0.018225606196853535 0 0.00795187898286321 0.018272641771469211 0 0.0080109805215460503 0.018353189035186752 0 0.00795187898286321 0.018272641771469211 0 0.0079205889814522867 0.018221173599326079 0 0.0078652540364184693 0.018287680042877237 0 0.0079752262327843632 0.018225606196853535 0 0.00795187898286321 0.018272641771469211 0 0.0079205889814522867 0.018221173599326079 0 0.008029914645966087 0.018161641418087925 0 0.0079752262327843632 0.018225606196853535 0 0.0080109805215460503 0.018353189035186752 0 0.0093656031940965827 0.018433907030602794 0 0.0089430572878290201 0.018677870618318552 0 0.0079518765720652286 0.018128234847832492 0 0.0079473872694081106 0.018167252003856132 0 0.0079205889814522867 0.018221173599326079 0 0.01385587308416523 0.019618693642345655 0 0.011009694015581505 0.019302216601329327 0 0.011360339838331878 0.019079975078623038 0 0.011397799650516908 0.018996541763199488 0 0.010867267738782464 0.018621976071407049 0 0.011397799650516908 0.018996541763199488 0 0.010943335807092862 0.018453810174714282 0 0.010867267738782464 0.018621976071407049 0 0.015442115788265676 0.019539339040492005 0 0.01539558638669245 0.019726592435241171 0 0.015207056047935246 0.019523293170615744 0 0.0079518765720652286 0.018128234847832492 0 0.0079205889814522867 0.018221173599326079 0 0.0079181972493994387 0.018230149700339711 0 0.0087790128263171337 0.018614937124866449 0 0.0089430572878290201 0.018677870618318552 0 0.015442115788265676 0.019539339040492005 0 0.015207056047935246 0.019523293170615744 0 0.015342318313782572 0.019272127482724943 0 0.011009694015581505 0.019302216601329327 0 0.0089430572878290201 0.018677870618318552 0 0.0079366566076102922 0.018560361849255282 0 0.0079572208647059467 0.018518227261336208 0 0.0080905591245855734 0.018628308964109622 0 0.0089430572878290201 0.018677870618318552 0 0.0077519867065943366 0.018420794119474199 0 0.0081211150131180188 0.018515698744989258 0 0.008029914645966087 0.018161641418087925 0 0.0080109805215460503 0.018353189035186752 0 0.0079366566076102922 0.018560361849255282 0 0.0080905591245855734 0.018628308964109622 0 0.0079991865631954522 0.018673401888241504 0 0.0078652540364184693 0.018287680042877237 0 0.0080109805215460503 0.018353189035186752 0 0.0080905591245855734 0.018628308964109622 0 0.00795187898286321 0.018272641771469211 0 0.0078652540364184693 0.018287680042877237 0 0.0080109805215460503 0.018353189035186752 0 0.011009694015581505 0.019302216601329327 0 0.0095045752279255234 0.020106235798661363 0 0.0081211150131180188 0.018515698744989258 0 0.0080109805215460503 0.018353189035186752 0 0.0080905591245855734 0.018628308964109622 0 0.0080905591245855734 0.018628308964109622 0 0.0079991865631954522 0.018673401888241504 0 0.0081163272526432566 0.018957123615609528 0 0.0095045752279255234 0.020106235798661363 0 0.0059203782113695248 0.022647213184637104 0 0.010994319992824188 0.021553512276386941 0 0.01092641219459093 0.022178078901180554 0 0.011473182107874852 0.022235749682086834 0 0.011009694015581505 0.019302216601329327 0 0.012782178503291483 0.02080958727774105 0 0.010491216011641257 0.020863015531034066 0 0.010994319992824188 0.021553512276386941 0 0.010069723927016098 0.021855485552842911 0 0.010994319992824188 0.021553512276386941 0 0.010069723927016098 0.021855485552842911 0 0.01092641219459093 0.022178078901180554 0 0.010069723927016098 0.021855485552842911 0 0.01092641219459093 0.022178078901180554 0 0.010594144834319613 0.022930776968587807 0 0.0096525229729969679 0.022859861022860126 0 0.010069723927016098 0.021855485552842911 0 0.010594144834319613 0.022930776968587807 0 0.007217434430610189 0.023810364640592007 0 0.010413651914657662 0.02522843607447027 0 0.0089476335696048008 0.028148057637639175 0 0.0089477034884435664 0.028027545473356192 0 0.0091741254429890135 0.028049420518363538 0 0.01092641219459093 0.022178078901180554 0 0.011475307887032242 0.022306892681026952 0 0.010594144834319613 0.022930776968587807 0 0.01092641219459093 0.022178078901180554 0 0.011475307887032242 0.022306892681026952 0 0.011473182107874852 0.022235749682086834 0 0.0048384577587794282 0.025690345376559207 0 0.0048747574555304523 0.025684309522176554 0 0.004826631745000318 0.025724684968256497 0 0.007217434430610189 0.023810364640592007 0 0.0080429481720601329 0.031955506893629297 0 0.0048384577587794282 0.025690345376559207 0 0.0048420063241714512 0.025664666147235424 0 0.004826631745000318 0.025724684968256497 0 0.0048384577587794282 0.025690345376559207 0 0.0047834956155915253 0.025606324900001524 0 0.004880722784096651 0.025617241760218488 0 0.0054464323769871387 0.025749724608714598 0 0.0059203782113695248 0.022647213184637104 0 0.0048384577587794282 0.025690345376559207 0 0.0048420063241714512 0.025664666147235424 0 0.0048437087478265806 0.025660485873679251 0 0.007217434430610189 0.023810364640592007 0 0.0059203782113695248 0.022647213184637104 0 0.0012217563093915964 0.018845148943901536 0 0.0012976955814377065 0.019995832221042648 0 0.0023922251634923655 0.019316742674626304 0 0.0059203782113695248 0.022647213184637104 0 0.003400604958755426 0.022783999425003462 0 0.0045446019969650935 0.017918838166209414 0 0.0059203782113695248 0.022647213184637104 0 0.0081211150131180188 0.018515698744989258 0 0.0080905591245855734 0.018628308964109622 0 0.0081163272526432566 0.018957123615609528 0 0.0047834956155915253 0.025606324900001524 0 0.0048595537123292841 0.025518208167427857 0 0.004880722784096651 0.025617241760218488 0 0.0048595537123292841 0.025518208167427857 0 0.004880722784096651 0.025617241760218488 0 0.0049449098034978272 0.025535961508602188 0 0.004880722784096651 0.025617241760218488 0 0.0048747574555304523 0.025684309522176554 0 0.0049690892335576562 0.025660413960593837 0 0.0048384577587794282 0.025690345376559207 0 0.004880722784096651 0.025617241760218488 0 0.0048747574555304523 0.025684309522176554 0 0.007935330790679037 0.034756375863068442 0 0.0080634682511368187 0.034334571950748224 0 0.0074524428007277758 0.034412116555939218 0 0.0061592519938048311 0.030160204776045228 0 0.0080429481720601329 0.031955506893629297 0 0.007935330790679037 0.034756375863068442 0 0.0084072209286501134 0.034622645027865773 0 0.0080634682511368187 0.034334571950748224 0 0.0084072209286501134 0.034622645027865773 0 0.0084638483606757527 0.03419262067662239 0 0.0080634682511368187 0.034334571950748224 0 0.0084638483606757527 0.03419262067662239 0 0.0080634682511368187 0.034334571950748224 0 0.0082516201763980033 0.034103493707161786 0 0.0080429481720601329 0.031955506893629297 0 0.0091735653783152835 0.036025924190351284 0 0.0080634682511368187 0.034334571950748224 0 0.0082516201763980033 0.034103493707161786 0 0.0072423927406746096 0.03402972312507109 0 0.011197395991100357 0.03661562263515452 0 0.010413070673232857 0.036863782968185835 0 0.010811581919234614 0.036439904567629126 0 0.0094200664727275927 0.027933639873456761 0 0.0091741254429890135 0.028049420518363538 0 0.0091737081485239215 0.027976970224194545 0 0.0096786280454596967 0.023607911039417111 0 0.0096525229729969679 0.022859861022860126 0 0.010594144834319613 0.022930776968587807 0 0.0096777895640655399 0.028131825441706591 0 0.010413651914657662 0.02522843607447027 0 0.0096777895640655399 0.028131825441706591 0 0.0099692445496925384 0.032647558176689087 0 0.0089477034884435664 0.028027545473356192 0 0.0091741254429890135 0.028049420518363538 0 0.0091737081485239215 0.027976970224194545 0 0.0080429481720601329 0.031955506893629297 0 0.0099692445496925384 0.032647558176689087 0 0.0096320269087141093 0.037042530560365786 0 0.0095396555890731923 0.036072220041448076 0 0.010413070673232857 0.036863782968185835 0 0.0095396555890731923 0.036072220041448076 0 0.010413070673232857 0.036863782968185835 0 0.0105682653653278 0.036088913963335356 0 0.010413070673232857 0.036863782968185835 0 0.0105682653653278 0.036088913963335356 0 0.010811581919234614 0.036439904567629126 0 0.011129990114465719 0.036160468437534295 0 0.0105682653653278 0.036088913963335356 0 0.010811581919234614 0.036439904567629126 0 0.011307922410808992 0.035593337568318742 0 0.0105682653653278 0.036088913963335356 0 0.01011829071118665 0.035455691585659081 0 0.0095396555890731923 0.036072220041448076 0 0.0105682653653278 0.036088913963335356 0 0.01011829071118665 0.035455691585659081 0 0.0095396555890731923 0.036072220041448076 0 0.01011829071118665 0.035455691585659081 0 0.0092600712481153355 0.034523379690424273 0 0.01011829071118665 0.035455691585659081 0 0.010600262138641315 0.035011496904570234 0 0.0092600712481153355 0.034523379690424273 0 0.011307922410808992 0.035593337568318742 0 0.01011829071118665 0.035455691585659081 0 0.010600262138641315 0.035011496904570234 0 0.0082516201763980033 0.034103493707161786 0 0.0092600712481153355 0.034523379690424273 0 0.0077289842077610466 0.033506345390933535 0 0.0084638483606757527 0.03419262067662239 0 0.0082516201763980033 0.034103493707161786 0 0.0092600712481153355 0.034523379690424273 0 0.0091735653783152835 0.036025924190351284 0 0.0091638688988524668 0.034102107326411571 0 0.0092600712481153355 0.034523379690424273 0 0.0093200936452774771 0.034251606729898805 0 0.0077289842077610466 0.033506345390933535 0 0.0093200936452774771 0.034251606729898805 0 0.008950869360351053 0.034087840562735679 0 0.0077289842077610466 0.033506345390933535 0 0.0093200936452774771 0.034251606729898805 0 0.008950869360351053 0.034087840562735679 0 0.0095403564613020797 0.03403582392129903 0 0.0092600712481153355 0.034523379690424273 0 0.0093200936452774771 0.034251606729898805 0 0.010273133189747609 0.034483685506503763 0 0.0093200936452774771 0.034251606729898805 0 0.0095403564613020797 0.03403582392129903 0 0.010160032887437746 0.034206597906011778 0 0.0081769757956006248 0.032957005811107415 0 0.0083626147994953492 0.032318225309013127 0 0.0095403564613020797 0.03403582392129903 0 0.010090920411208197 0.033823952195076369 0 0.0098253586033667691 0.033299680747087765 0 0.0095403564613020797 0.03403582392129903 0 0.010090920411208197 0.033823952195076369 0 0.010160032887437746 0.034206597906011778 0 0.0072224493194513071 0.030441955310788599 0 0.0070663809288580076 0.029475018494131189 0 0.0065438500931136378 0.029831179342101437 0 0.0083626147994953492 0.032318225309013127 0 0.008430857339165574 0.031155036120968094 0 0.010991661812636246 0.034372228557629836 0 0.011504746728892151 0.034507442626646997 0 0.011104434821273356 0.034196199605923648 0 0.010746512986055905 0.033993045208866902 0 0.010991661812636246 0.034372228557629836 0 0.011104434821273356 0.034196199605923648 0 0.010746512986055905 0.033993045208866902 0 0.010160032887437746 0.034206597906011778 0 0.010991661812636246 0.034372228557629836 0 0.010090920411208197 0.033823952195076369 0 0.010746512986055905 0.033993045208866902 0 0.010160032887437746 0.034206597906011778 0 0.010160032887437746 0.034206597906011778 0 0.010991661812636246 0.034372228557629836 0 0.010273133189747609 0.034483685506503763 0 0.010991661812636246 0.034372228557629836 0 0.010273133189747609 0.034483685506503763 0 0.011257898202197069 0.034764930793654954 0 0.0093200936452774771 0.034251606729898805 0 0.010160032887437746 0.034206597906011778 0 0.010273133189747609 0.034483685506503763 0 0.010600262138641315 0.035011496904570234 0 0.0092600712481153355 0.034523379690424273 0 0.010273133189747609 0.034483685506503763 0 0.010600262138641315 0.035011496904570234 0 0.010273133189747609 0.034483685506503763 0 0.011257898202197069 0.034764930793654954 0 0.01148983036737361 0.035144858561111769 0 0.011880984089190064 0.035092331997271388 0 0.011257898202197069 0.034764930793654954 0 0.010600262138641315 0.035011496904570234 0 0.01148983036737361 0.035144858561111769 0 0.011257898202197069 0.034764930793654954 0 0.012099765055528917 0.035394029520878632 0 0.01148983036737361 0.035144858561111769 0 0.011880984089190064 0.035092331997271388 0 0.011880984089190064 0.035092331997271388 0 0.012514658362858391 0.035221741626477225 0 0.011928263070575741 0.03491173744012302 0 0.011880984089190064 0.035092331997271388 0 0.011257898202197069 0.034764930793654954 0 0.011928263070575741 0.03491173744012302 0 0.0127447871038158 0.035332055390159184 0 0.012514658362858391 0.035221741626477225 0 0.012927223837183968 0.035283055414089236 0 0.012277548977695608 0.035560602781091973 0 0.012532541599824793 0.035119408431210281 0 0.01261764282498865 0.03532721407712397 0 0.0127447871038158 0.035332055390159184 0 0.012514658362858391 0.035221741626477225 0 0.012099765055528917 0.035394029520878632 0 0.011880984089190064 0.035092331997271388 0 0.012514658362858391 0.035221741626477225 0 0.012514658362858391 0.035221741626477225 0 0.012359444211247215 0.035012181584928401 0 0.011928263070575741 0.03491173744012302 0 0.012514658362858391 0.035221741626477225 0 0.01276144971166359 0.035200373720161784 0 0.012927223837183968 0.035283055414089236 0 0.01276144971166359 0.035200373720161784 0 0.012997191298912272 0.03534325973910183 0 0.013026131491588851 0.035329383975109145 0 0.01276144971166359 0.035200373720161784 0 0.012359444211247215 0.035012181584928401 0 0.012471696152772377 0.034999326974752901 0 0.012514658362858391 0.035221741626477225 0 0.01276144971166359 0.035200373720161784 0 0.012359444211247215 0.035012181584928401 0 0.012359444211247215 0.035012181584928401 0 0.012471696152772377 0.034999326974752901 0 0.01198594924537315 0.03482205334425393 0 0.01276144971166359 0.035200373720161784 0 0.012471696152772377 0.034999326974752901 0 0.012997191298912272 0.03534325973910183 0 0.012471696152772377 0.034999326974752901 0 0.012997191298912272 0.03534325973910183 0 0.013226896937195493 0.035635909246861441 0 0.011257898202197069 0.034764930793654954 0 0.011512937201197075 0.03465775864020304 0 0.011928263070575741 0.03491173744012302 0 0.010991661812636246 0.034372228557629836 0 0.011257898202197069 0.034764930793654954 0 0.011512937201197075 0.03465775864020304 0 0.012359444211247215 0.035012181584928401 0 0.011928263070575741 0.03491173744012302 0 0.01198594924537315 0.03482205334425393 0 0.011512937201197075 0.03465775864020304 0 0.011928263070575741 0.03491173744012302 0 0.01198594924537315 0.03482205334425393 0 0.01198594924537315 0.03482205334425393 0 0.011504746728892151 0.034507442626646997 0 0.01203009861141833 0.034820110703530291 0 0.012471696152772377 0.034999326974752901 0 0.01198594924537315 0.03482205334425393 0 0.01203009861141833 0.034820110703530291 0 0.010991661812636246 0.034372228557629836 0 0.011512937201197075 0.03465775864020304 0 0.011504746728892151 0.034507442626646997 0 0.011512937201197075 0.03465775864020304 0 0.01198594924537315 0.03482205334425393 0 0.011504746728892151 0.034507442626646997 0 0.011504746728892151 0.034507442626646997 0 0.011678804510009072 0.034584429061032762 0 0.011297607557933364 0.034275675367046815 0 0.011678804510009072 0.034584429061032762 0 0.01203009861141833 0.034820110703530291 0 0.012461448852946365 0.035086418534428718 0 0.011504746728892151 0.034507442626646997 0 0.011678804510009072 0.034584429061032762 0 0.01203009861141833 0.034820110703530291 0 0.012415503854383855 0.03509957423425264 0 0.01211100556137169 0.035165351408833014 0 0.011678804510009072 0.034584429061032762 0 0.012461448852946365 0.035086418534428718 0 0.011481108519947691 0.034198639916351546 0 0.011678804510009072 0.034584429061032762 0 0.011481108519947691 0.034198639916351546 0 0.011297607557933364 0.034275675367046815 0 0.012521163113998084 0.035113415486927209 0 0.012778126400661506 0.035572963861945077 0 0.012471696152772377 0.034999326974752901 0 0.012369133292812633 0.035475862073083106 0 0.012461448852946365 0.035086418534428718 0 0.012471696152772377 0.034999326974752901 0 0.01203009861141833 0.034820110703530291 0 0.012461448852946365 0.035086418534428718 0 0.012369133292812633 0.035475862073083106 0 0.012461448852946365 0.035086418534428718 0 0.012543600612551661 0.036055374650297532 0 0.012461448852946365 0.035086418534428718 0 0.012543600612551661 0.036055374650297532 0 0.012745759262349178 0.036122996327877965 0 0.012369133292812633 0.035475862073083106 0 0.012543600612551661 0.036055374650297532 0 0.012596534388857827 0.036361230922218678 0 0.012543600612551661 0.036055374650297532 0 0.012706160779801539 0.036425360366847764 0 0.012596534388857827 0.036361230922218678 0 0.012543600612551661 0.036055374650297532 0 0.012706160779801539 0.036425360366847764 0 0.012621070850763009 0.036270510632161766 0 0.012706160779801539 0.036425360366847764 0 0.012621070850763009 0.036270510632161766 0 0.012734719164550028 0.036307772144674809 0 0.01211100556137169 0.035165351408833014 0 0.011802561776286049 0.035443830286916084 0 0.012543600612551661 0.036055374650297532 0 0.012745759262349178 0.036122996327877965 0 0.012621070850763009 0.036270510632161766 0 0.012745759262349178 0.036122996327877965 0 0.012621070850763009 0.036270510632161766 0 0.012320226826080164 0.036232122038279233 0 0.011481108519947691 0.034198639916351546 0 0.011243374024035146 0.034663455130028539 0 0.011402823125110963 0.034402510301846309 0 0.011481108519947691 0.034198639916351546 0 0.011402823125110963 0.034402510301846309 0 0.011297607557933364 0.034275675367046815 0 0.011402823125110963 0.034402510301846309 0 0.011861212516799982 0.034813767413570521 0 0.011660788335431006 0.034347710622408323 0 0.011402823125110963 0.034402510301846309 0 0.011660788335431006 0.034347710622408323 0 0.011348579751208425 0.03427721225795128 0 0.011243374024035146 0.034663455130028539 0 0.011402823125110963 0.034402510301846309 0 0.011861212516799982 0.034813767413570521 0 0.0073522644814955533 0.029821487964217148 0 0.0064208379047540638 0.029930527995712282 0 0.006929876756243152 0.031423847922280035 0 0.0073522644814955533 0.029821487964217148 0 0.0064208379047540638 0.029930527995712282 0 0.0068337991677484928 0.02946287708121181 0 0.0066140672205897639 0.028316997121882025 0 0.0065608705253135694 0.028502141006249267 0 0.0069710171607825838 0.028731913652327551 0 0.0062890304561090214 0.028763998276252981 0 0.0088423260724252821 0.031613442693507049 0 0.0095960337370087998 0.032574759581492939 0 0.0088423260724252821 0.031613442693507049 0 0.0063368678902968904 0.028290930877898024 0 0.0065608705253135694 0.028502141006249267 0 0.0063856341391618464 0.028637379891216751 0 0.0066140672205897639 0.028316997121882025 0 0.0063368678902968904 0.028290930877898024 0 0.0065608705253135694 0.028502141006249267 0 0.0063856341391618464 0.028637379891216751 0 0.0069710171607825838 0.028731913652327551 0 0.006570370784860881 0.029144084027231315 0 0.0065608705253135694 0.028502141006249267 0 0.0063856341391618464 0.028637379891216751 0 0.0069710171607825838 0.028731913652327551 0 0.0088423260724252821 0.031613442693507049 0 0.011090790408300671 0.034053138528934289 0 0.010106774678902848 0.032160498557074618 0 0.0098253586033667691 0.033299680747087765 0 0.010405056672623141 0.033035337792075785 0 0.0088423260724252821 0.031613442693507049 0 0.008430857339165574 0.031155036120968094 0 0.0069710171607825838 0.028731913652327551 0 0.006570370784860881 0.029144084027231315 0 0.0070663809288580076 0.029475018494131189 0 0.006570370784860881 0.029144084027231315 0 0.0070663809288580076 0.029475018494131189 0 0.0065438500931136378 0.029831179342101437 0 0.010090920411208197 0.033823952195076369 0 0.0098253586033667691 0.033299680747087765 0 0.010405056672623141 0.033035337792075785 0 0.010090920411208197 0.033823952195076369 0 0.010746512986055905 0.033993045208866902 0 0.010405056672623141 0.033035337792075785 0 0.010746512986055905 0.033993045208866902 0 0.011104434821273356 0.034196199605923648 0 0.011315912616846243 0.034187065122293962 0 0.010734425870860424 0.033813794815331331 0 0.011090790408300671 0.034053138528934289 0 0.011504746728892151 0.034507442626646997 0 0.011104434821273356 0.034196199605923648 0 0.011297607557933364 0.034275675367046815 0 0.011402823125110963 0.034402510301846309 0 0.011297607557933364 0.034275675367046815 0 0.011348579751208425 0.03427721225795128 0 0.011104434821273356 0.034196199605923648 0 0.011297607557933364 0.034275675367046815 0 0.011348579751208425 0.03427721225795128 0 0.011104434821273356 0.034196199605923648 0 0.011315912616846243 0.034187065122293962 0 0.011348579751208425 0.03427721225795128 0 0.011660788335431006 0.034347710622408323 0 0.011315912616846243 0.034187065122293962 0 0.011348579751208425 0.03427721225795128 0 0.019881786205125325 0.037565127807743327 0 0.020934253601539277 0.036407762311678624 0 0.022557638792269196 0.033138558080131233 0 0.023834969495357468 0.033544664534070415 0 0.02387538585337973 0.032323188150791278 0 0.022557638792269196 0.033138558080131233 0 0.023000079687735993 0.034175460535998688 0 0.022132219869978837 0.034102364383527282 0 0.023000079687735993 0.034175460535998688 0 0.023834969495357468 0.033544664534070415 0 0.023743048359186232 0.034257081595295807 0 0.022557638792269196 0.033138558080131233 0 0.023000079687735993 0.034175460535998688 0 0.023834969495357468 0.033544664534070415 0 0.024190368012718566 0.034425678764951124 0 0.023743048359186232 0.034257081595295807 0 0.02361626285873588 0.034878799178181333 0 0.023000079687735993 0.034175460535998688 0 0.023743048359186232 0.034257081595295807 0 0.02361626285873588 0.034878799178181333 0 0.024190368012718566 0.034425678764951124 0 0.02361626285873588 0.034878799178181333 0 0.023684523600302054 0.035536028583212337 0 0.02361626285873588 0.034878799178181333 0 0.023423451244798867 0.035516066376704396 0 0.022436478308888966 0.034943764885990519 0 0.021127156955886101 0.027238797560169777 0 0.021998268685604103 0.029131979446813772 0 0.020215836501935251 0.02714470564565629 0 0.023175471362719184 0.029004122098635465 0 0.023807938680968383 0.02737332647128967 0 0.02361626285873588 0.034878799178181333 0 0.023423451244798867 0.035516066376704396 0 0.023684523600302054 0.035536028583212337 0 0.021127156955886101 0.027238797560169777 0 0.021198406736672164 0.022973107796073224 0 0.021198406736672164 0.022973107796073224 0 0.021998268685604103 0.029131979446813772 0 0.020126029193728086 0.027340420906776308 0 0.019937856929820884 0.027335199443783258 0 0.019892444691402961 0.027229752358275561 0 0.021127156955886101 0.027238797560169777 0 0.02197243424336515 0.031916838288155898 0 0.017856846305038494 0.020240332549199779 0 0.017549803477144531 0.020567917646658954 0 0.01798110093614546 0.020576109210721033 0 0.021127156955886101 0.027238797560169777 0 0.018687486933458154 0.023987697353984393 0 0.019937856929820884 0.027335199443783258 0 0.019892444691402961 0.027229752358275561 0 0.019772477988158572 0.02731003020311927 0 0.023000079687735993 0.034175460535998688 0 0.022436478308888966 0.034943764885990519 0 0.022132219869978837 0.034102364383527282 0 0.023000079687735993 0.034175460535998688 0 0.02361626285873588 0.034878799178181333 0 0.022436478308888966 0.034943764885990519 0 0.017069265407519955 0.021949427896088648 0 0.016643693382314979 0.020637647313474641 0 0.01730666459141366 0.021184493817705773 0 0.02197243424336515 0.031916838288155898 0 0.018226857993202877 0.029000346556139412 0 0.018226857993202877 0.029000346556139412 0 0.018597579987806416 0.021876550557984775 0 0.019892444691402961 0.027229752358275561 0 0.019689341262912167 0.027133414995987887 0 0.019772477988158572 0.02731003020311927 0 0.022436478308888966 0.034943764885990519 0 0.021418103641551788 0.034352641410176979 0 0.022132219869978837 0.034102364383527282 0 0.018687486933458154 0.023987697353984393 0 0.018597579987806416 0.021876550557984775 0 0.018294123020668306 0.020246326112149601 0 0.01798110093614546 0.020576109210721033 0 0.018425593917999757 0.020602022910221139 0 0.018597579987806416 0.021876550557984775 0 0.018037531313196745 0.020524456028206586 0 0.016643693382314979 0.020637647313474641 0 0.01781801837356126 0.020687754954008694 0 0.01730666459141366 0.021184493817705773 0 0.018499454908018402 0.020270186453288375 0 0.018367978132028978 0.020450483755213439 0 0.018692973398256207 0.020506416737683473 0 0.01781801837356126 0.020687754954008694 0 0.01730666459141366 0.021184493817705773 0 0.017683750136246453 0.021473213544428972 0 0.017069265407519955 0.021949427896088648 0 0.01730666459141366 0.021184493817705773 0 0.017683750136246453 0.021473213544428972 0 0.017069265407519955 0.021949427896088648 0 0.017683750136246453 0.021473213544428972 0 0.017570728932457525 0.022292249075014554 0 0.018226857993202877 0.029000346556139412 0 0.015263795554461133 0.032240790987696541 0 0.01249507512019064 0.035309024576534065 0 0.012392744427611681 0.035383746932303631 0 0.012505327105208302 0.035832351321463021 0 0.016767060433591417 0.041354421791539961 0 0.014920509692527348 0.041060017576097931 0 0.015530115879232457 0.040183611052602215 0 0.016767060433591417 0.041354421791539961 0 0.015387443682761731 0.042171035803078551 0 0.014920509692527348 0.041060017576097931 0 0.016900339921631504 0.031426229039868366 0 0.017650265890425097 0.031915811685351257 0 0.017174737780008338 0.032229881398177632 0 0.018226857993202877 0.029000346556139412 0 0.016804602509381886 0.035799727230406295 0 0.015263795554461133 0.032240790987696541 0 0.016804602509381886 0.035799727230406295 0 0.021418103641551788 0.034352641410176979 0 0.021248520803806688 0.033909621949780255 0 0.022132219869978837 0.034102364383527282 0 0.022557638792269196 0.033138558080131233 0 0.021248520803806688 0.033909621949780255 0 0.022132219869978837 0.034102364383527282 0 0.019881786205125325 0.037565127807743327 0 0.016804602509381886 0.035799727230406295 0 0.016804602509381886 0.035799727230406295 0 0.013524688292838833 0.038920689609725057 0 0.012505327105208302 0.035832351321463021 0 0.012969898711827724 0.03558940142471103 0 0.013026317501595075 0.036010068888655954 0 0.012969898711827724 0.03558940142471103 0 0.01309522856214169 0.03551832189058797 0 0.013026317501595075 0.036010068888655954 0 0.012969898711827724 0.03558940142471103 0 0.012971443811277244 0.03525876602791804 0 0.013055647775339392 0.035336954581684982 0 0.012969898711827724 0.03558940142471103 0 0.013055647775339392 0.035336954581684982 0 0.01309522856214169 0.03551832189058797 0 0.015263795554461133 0.032240790987696541 0 0.012135586048502168 0.036430370089652789 0 0.01249507512019064 0.035309024576534065 0 0.012505327105208302 0.035832351321463021 0 0.012969898711827724 0.03558940142471103 0 0.012798215916427408 0.035369360982608795 0 0.012969898711827724 0.03558940142471103 0 0.012971443811277244 0.03525876602791804 0 0.017683750136246453 0.021473213544428972 0 0.017570728932457525 0.022292249075014554 0 0.018757530399252851 0.021319694929368631 0 0.015263795554461133 0.032240790987696541 0 0.015997416036442964 0.027843732359460319 0 0.01781801837356126 0.020687754954008694 0 0.018757530399252851 0.021319694929368631 0 0.018908751519248777 0.020699224191768267 0 0.018877276572514312 0.020301866339709387 0 0.018692973398256207 0.020506416737683473 0 0.018908751519248777 0.020699224191768267 0 0.018037531313196745 0.020524456028206586 0 0.018958956796309278 0.020692725271438082 0 0.01781801837356126 0.020687754954008694 0 0.017683750136246453 0.021473213544428972 0 0.018757530399252851 0.021319694929368631 0 0.015997416036442964 0.027843732359460319 0 0.016117578093668896 0.027956799793200919 0 0.018757530399252851 0.021319694929368631 0 0.018908751519248777 0.020699224191768267 0 0.019308746567742452 0.020552134689058567 0 0.019113432964495868 0.020405554645875578 0 0.018908751519248777 0.020699224191768267 0 0.019308746567742452 0.020552134689058567 0 0.012971443811277244 0.03525876602791804 0 0.013055647775339392 0.035336954581684982 0 0.013050724877651855 0.035264088329633618 0 0.013055647775339392 0.035336954581684982 0 0.013050724877651855 0.035264088329633618 0 0.012927223837183968 0.035283055414089236 0 0.012917804972938832 0.035342858686164491 0 0.013050724877651855 0.035264088329633618 0 0.012927223837183968 0.035283055414089236 0 0.012917804972938832 0.035342858686164491 0 0.0127447871038158 0.035332055390159184 0 0.012927223837183968 0.035283055414089236 0 0.013055647775339392 0.035336954581684982 0 0.012927223837183968 0.035283055414089236 0 0.013026131491588851 0.035329383975109145 0 0.01276144971166359 0.035200373720161784 0 0.012927223837183968 0.035283055414089236 0 0.013026131491588851 0.035329383975109145 0 0.013055647775339392 0.035336954581684982 0 0.013026131491588851 0.035329383975109145 0 0.01309522856214169 0.03551832189058797 0 0.01309522856214169 0.03551832189058797 0 0.01323198496890231 0.035800732905535593 0 0.013026317501595075 0.036010068888655954 0 0.013026131491588851 0.035329383975109145 0 0.01309522856214169 0.03551832189058797 0 0.01323198496890231 0.035800732905535593 0 0.012997191298912272 0.03534325973910183 0 0.013026131491588851 0.035329383975109145 0 0.01323198496890231 0.035800732905535593 0 0.013226896937195493 0.035635909246861441 0 0.01323198496890231 0.035800732905535593 0 0.013427665051059622 0.036451197127518653 0 0.012997191298912272 0.03534325973910183 0 0.013226896937195493 0.035635909246861441 0 0.01323198496890231 0.035800732905535593 0 0.01323198496890231 0.035800732905535593 0 0.013427665051059622 0.036451197127518653 0 0.013355477236538817 0.036694330236434779 0 0.012778126400661506 0.035572963861945077 0 0.013036795755793125 0.036391867143118879 0 0.012706160779801539 0.036425360366847764 0 0.012596534388857827 0.036361230922218678 0 0.012883803192678183 0.036639320591240206 0 0.012706160779801539 0.036425360366847764 0 0.012883803192678183 0.036639320591240206 0 0.012999415230260379 0.036533221296755264 0 0.012883803192678183 0.036639320591240206 0 0.013343155309984428 0.037033561797600797 0 0.012999415230260379 0.036533221296755264 0 0.012596534388857827 0.036361230922218678 0 0.012883803192678183 0.036639320591240206 0 0.013343155309984428 0.037033561797600797 0 0.013427665051059622 0.036451197127518653 0 0.013343155309984428 0.037033561797600797 0 0.013355477236538817 0.036694330236434779 0 0.013036795755793125 0.036391867143118879 0 0.013284073705775034 0.036914010644980462 0 0.013343155309984428 0.037033561797600797 0 0.013585013978266803 0.037685072647326567 0 0.013355477236538817 0.036694330236434779 0 0.013343155309984428 0.037033561797600797 0 0.013944366856624044 0.037183312402815229 0 0.013585013978266803 0.037685072647326567 0 0.013944366856624044 0.037183312402815229 0 0.013585013978266803 0.037685072647326567 0 0.015074475528419387 0.037694273929539487 0 0.013585013978266803 0.037685072647326567 0 0.01428755703782802 0.039801383292063452 0 0.015194241885587094 0.038685988264424216 0 0.013585013978266803 0.037685072647326567 0 0.012721040813865969 0.036503210831111382 0 0.013355477236538817 0.036694330236434779 0 0.013539941883339868 0.037745910182763881 0 0.013534781336817682 0.03802713006147853 0 0.01323198496890231 0.035800732905535593 0 0.013355477236538817 0.036694330236434779 0 0.013026317501595075 0.036010068888655954 0 0.012721040813865969 0.036503210831111382 0 0.013355477236538817 0.036694330236434779 0 0.013026317501595075 0.036010068888655954 0 0.012505327105208302 0.035832351321463021 0 0.012721040813865969 0.036503210831111382 0 0.013026317501595075 0.036010068888655954 0 0.016767060433591417 0.041354421791539961 0 0.015530115879232457 0.040183611052602215 0 0.01641052772323906 0.039589444230690295 0 0.013524688292838833 0.038920689609725057 0 0.013534781336817682 0.03802713006147853 0 0.014920509692527348 0.041060017576097931 0 0.01428755703782802 0.039801383292063452 0 0.015530115879232457 0.040183611052602215 0 0.015530115879232457 0.040183611052602215 0 0.01641052772323906 0.039589444230690295 0 0.015194241885587094 0.038685988264424216 0 0.01428755703782802 0.039801383292063452 0 0.015530115879232457 0.040183611052602215 0 0.015194241885587094 0.038685988264424216 0 0.013585013978266803 0.037685072647326567 0 0.015194241885587094 0.038685988264424216 0 0.015074475528419387 0.037694273929539487 0 0.015194241885587094 0.038685988264424216 0 0.015074475528419387 0.037694273929539487 0 0.016150399733738385 0.038654072639579262 0 0.015074475528419387 0.037694273929539487 0 0.016520935438835236 0.03807850600804015 0 0.015789984702726342 0.037474407357466696 0 0.015074475528419387 0.037694273929539487 0 0.016150399733738385 0.038654072639579262 0 0.016520935438835236 0.03807850600804015 0 0.01641052772323906 0.039589444230690295 0 0.015194241885587094 0.038685988264424216 0 0.016150399733738385 0.038654072639579262 0 0.016150399733738385 0.038654072639579262 0 0.016520935438835236 0.03807850600804015 0 0.017435157063741043 0.039055921888021282 0 0.01641052772323906 0.039589444230690295 0 0.016150399733738385 0.038654072639579262 0 0.017435157063741043 0.039055921888021282 0 0.016520935438835236 0.03807850600804015 0 0.017435157063741043 0.039055921888021282 0 0.017472719890804563 0.038163350591620245 0 0.01843063106860366 0.038562965573412655 0 0.017435157063741043 0.039055921888021282 0 0.017472719890804563 0.038163350591620245 0 0.018345845290440178 0.039504962247643327 0 0.0174147786847089 0.039931010166494231 0 0.018049635293315405 0.040578236718736428 0 0.016767060433591417 0.041354421791539961 0 0.01641052772323906 0.039589444230690295 0 0.0174147786847089 0.039931010166494231 0 0.018345845290440178 0.039504962247643327 0 0.017435157063741043 0.039055921888021282 0 0.0174147786847089 0.039931010166494231 0 0.01641052772323906 0.039589444230690295 0 0.017435157063741043 0.039055921888021282 0 0.0174147786847089 0.039931010166494231 0 0.016767060433591417 0.041354421791539961 0 0.0174147786847089 0.039931010166494231 0 0.018049635293315405 0.040578236718736428 0 0.018245824063556976 0.036919120071049 0 0.017359436384071905 0.0368154086557059 0 0.017576377738262941 0.036273469580291436 0 0.017000059071838415 0.036369485086708592 0 0.017359436384071905 0.0368154086557059 0 0.017576377738262941 0.036273469580291436 0 0.017000059071838415 0.036369485086708592 0 0.016395912417094996 0.036557923999475141 0 0.016494328043007118 0.036054494573074851 0 0.017000059071838415 0.036369485086708592 0 0.017093709677637507 0.036097648211417165 0 0.017576377738262941 0.036273469580291436 0 0.017000059071838415 0.036369485086708592 0 0.017359436384071905 0.0368154086557059 0 0.016395912417094996 0.036557923999475141 0 0.017000059071838415 0.036369485086708592 0 0.016494328043007118 0.036054494573074851 0 0.017093709677637507 0.036097648211417165 0 0.017359436384071905 0.0368154086557059 0 0.017034841670740854 0.037370395272571945 0 0.016395912417094996 0.036557923999475141 0 0.018245824063556976 0.036919120071049 0 0.017359436384071905 0.0368154086557059 0 0.017677888652948184 0.037284401102923123 0 0.017677888652948184 0.037284401102923123 0 0.017935532822680823 0.037854681235211442 0 0.017034841670740854 0.037370395272571945 0 0.018354756424228031 0.03745162449055061 0 0.017677888652948184 0.037284401102923123 0 0.017935532822680823 0.037854681235211442 0 0.017359436384071905 0.0368154086557059 0 0.017677888652948184 0.037284401102923123 0 0.017034841670740854 0.037370395272571945 0 0.01843063106860366 0.038562965573412655 0 0.017472719890804563 0.038163350591620245 0 0.017935532822680823 0.037854681235211442 0 0.017472719890804563 0.038163350591620245 0 0.017935532822680823 0.037854681235211442 0 0.017034841670740854 0.037370395272571945 0 0.016520935438835236 0.03807850600804015 0 0.017472719890804563 0.038163350591620245 0 0.017034841670740854 0.037370395272571945 0 0.016520935438835236 0.03807850600804015 0 0.017034841670740854 0.037370395272571945 0 0.015789984702726342 0.037474407357466696 0 0.017034841670740854 0.037370395272571945 0 0.01581438921838264 0.036967644591946798 0 0.016395912417094996 0.036557923999475141 0 0.017034841670740854 0.037370395272571945 0 0.01581438921838264 0.036967644591946798 0 0.015789984702726342 0.037474407357466696 0 0.015074475528419387 0.037694273929539487 0 0.015789984702726342 0.037474407357466696 0 0.014739829636193216 0.036959084848560766 0 0.01581438921838264 0.036967644591946798 0 0.015240821850939805 0.03646307825889767 0 0.014739829636193216 0.036959084848560766 0 0.01581438921838264 0.036967644591946798 0 0.015789984702726342 0.037474407357466696 0 0.014739829636193216 0.036959084848560766 0 0.015240821850939805 0.03646307825889767 0 0.016395912417094996 0.036557923999475141 0 0.015730681314633031 0.036043706906825929 0 0.01581438921838264 0.036967644591946798 0 0.015240821850939805 0.03646307825889767 0 0.016395912417094996 0.036557923999475141 0 0.016395912417094996 0.036557923999475141 0 0.016494328043007118 0.036054494573074851 0 0.015730681314633031 0.036043706906825929 0 0.015240821850939805 0.03646307825889767 0 0.015730681314633031 0.036043706906825929 0 0.014672116906263029 0.035778212198528843 0 0.015730681314633031 0.036043706906825929 0 0.014672116906263029 0.035778212198528843 0 0.015280850079296984 0.035573608003443932 0 0.014672116906263029 0.035778212198528843 0 0.013693643871132711 0.036084059350031998 0 0.013826147155667139 0.035526143217451178 0 0.014672116906263029 0.035778212198528843 0 0.014386427539578788 0.036404659094828283 0 0.013693643871132711 0.036084059350031998 0 0.014386427539578788 0.036404659094828283 0 0.01366477363595313 0.036667270080495078 0 0.013693643871132711 0.036084059350031998 0 0.015240821850939805 0.03646307825889767 0 0.014672116906263029 0.035778212198528843 0 0.014386427539578788 0.036404659094828283 0 0.014386427539578788 0.036404659094828283 0 0.014739829636193216 0.036959084848560766 0 0.01366477363595313 0.036667270080495078 0 0.015240821850939805 0.03646307825889767 0 0.014386427539578788 0.036404659094828283 0 0.014739829636193216 0.036959084848560766 0 0.013944366856624044 0.037183312402815229 0 0.015074475528419387 0.037694273929539487 0 0.014739829636193216 0.036959084848560766 0 0.013944366856624044 0.037183312402815229 0 0.014739829636193216 0.036959084848560766 0 0.01366477363595313 0.036667270080495078 0 0.013343155309984428 0.037033561797600797 0 0.013944366856624044 0.037183312402815229 0 0.01366477363595313 0.036667270080495078 0 0.01366477363595313 0.036667270080495078 0 0.01326086576649621 0.036337201601195371 0 0.012999415230260379 0.036533221296755264 0 0.01366477363595313 0.036667270080495078 0 0.01326086576649621 0.036337201601195371 0 0.013693643871132711 0.036084059350031998 0 0.013343155309984428 0.037033561797600797 0 0.01366477363595313 0.036667270080495078 0 0.012999415230260379 0.036533221296755264 0 0.01326086576649621 0.036337201601195371 0 0.012999415230260379 0.036533221296755264 0 0.012951671814639769 0.036268081458371126 0 0.01326086576649621 0.036337201601195371 0 0.012951671814639769 0.036268081458371126 0 0.013095872119801365 0.036010634725834281 0 0.01326086576649621 0.036337201601195371 0 0.013095872119801365 0.036010634725834281 0 0.013693643871132711 0.036084059350031998 0 0.013095872119801365 0.036010634725834281 0 0.013693643871132711 0.036084059350031998 0 0.01325933970111722 0.035630512990453785 0 0.013693643871132711 0.036084059350031998 0 0.01325933970111722 0.035630512990453785 0 0.013826147155667139 0.035526143217451178 0 0.01325933970111722 0.035630512990453785 0 0.012864680353604668 0.035693755068627611 0 0.012858705770968258 0.035310647583075692 0 0.013095872119801365 0.036010634725834281 0 0.01325933970111722 0.035630512990453785 0 0.012864680353604668 0.035693755068627611 0 0.011611126684889589 0.036239435194776244 0 0.011142255765192788 0.036383084146044062 0 0.0099179295222386298 0.037390323679016041 0 0.0094845267918842666 0.03719789962349377 0 0.0091840655637641204 0.037397887045689568 0 0.01325933970111722 0.035630512990453785 0 0.013398593851832362 0.035138524654130553 0 0.012858705770968258 0.035310647583075692 0 0.01325933970111722 0.035630512990453785 0 0.013398593851832362 0.035138524654130553 0 0.013826147155667139 0.035526143217451178 0 0.013398593851832362 0.035138524654130553 0 0.014162968201768341 0.034932909914679497 0 0.013826147155667139 0.035526143217451178 0 0.0099179295222386298 0.037390323679016041 0 0.010306245688246892 0.036929462216475348 0 0.011004451619321235 0.037257791844364403 0 0.011611126684889589 0.036239435194776244 0 0.012833545150988515 0.036343404805186739 0 0.0099179295222386298 0.037390323679016041 0 0.010306245688246892 0.036929462216475348 0 0.0096635054722138958 0.03681230408743115 0 0.0096635054722138958 0.03681230408743115 0 0.0094845267918842666 0.03719789962349377 0 0.0091228842417132201 0.037222162649910663 0 0.0097120264733986991 0.036784759394983393 0 0.0085652605577021396 0.037495464774014588 0 0.0099179295222386298 0.037390323679016041 0 0.0096635054722138958 0.03681230408743115 0 0.0094845267918842666 0.03719789962349377 0 0.0094168287251664325 0.036279020338015507 0 0.008782724853863921 0.036049339818701981 0 0.0086416683672084094 0.036649189880935108 0 0.0096635054722138958 0.03681230408743115 0 0.0094168287251664325 0.036279020338015507 0 0.0086416683672084094 0.036649189880935108 0 0.0094168287251664325 0.036279020338015507 0 0.0093937738595892637 0.035656803759377222 0 0.010493864546878251 0.036238479719366841 0 0.0094168287251664325 0.036279020338015507 0 0.0093937738595892637 0.035656803759377222 0 0.008782724853863921 0.036049339818701981 0 0.009958784850263443 0.034999965326930955 0 0.0084388028943567801 0.034999976168225096 0 0.0087232720057903879 0.035041626981807107 0 0.0088499792285765769 0.035534404109205255 0 0.0093937738595892637 0.035656803759377222 0 0.008782724853863921 0.036049339818701981 0 0.0093937738595892637 0.035656803759377222 0 0.009958784850263443 0.034999965326930955 0 0.0087232720057903879 0.035041626981807107 0 0.0088499792285765769 0.035534404109205255 0 0.0093937738595892637 0.035656803759377222 0 0.0087232720057903879 0.035041626981807107 0 0.0099591397364372364 0.034999996013961955 0 0.0108029255953183 0.036500403979895291 0 0.011574472929847439 0.034999989835240816 0 0.0093937738595892637 0.035656803759377222 0 0.009958784850263443 0.034999965326930955 0 0.010493864546878251 0.036238479719366841 0 0.0099592516603481049 0.035000117408521512 0 0.010512515537520665 0.036526183908431098 0 0.010306245688246892 0.036929462216475348 0 0.0096635054722138958 0.03681230408743115 0 0.010493864546878251 0.036238479719366841 0 0.0096635054722138958 0.03681230408743115 0 0.0094168287251664325 0.036279020338015507 0 0.010493864546878251 0.036238479719366841 0 0.0108029255953183 0.036500403979895291 0 0.012543941109137036 0.036401254409120239 0 0.011638883402065642 0.037991163367740978 0 0.0108029255953183 0.036500403979895291 0 0.011574472929847439 0.034999989835240816 0 0.012543941109137036 0.036401254409120239 0 0.011574472929847439 0.034999989835240816 0 0.012543941109137036 0.036401254409120239 0 0.013189804735942041 0.034999990023404814 0 0.014324826807408091 0.035143930957493415 0 0.015280850079296984 0.035573608003443932 0 0.015396709088713158 0.035018109435869506 0 0.012543941109137036 0.036401254409120239 0 0.011638883402065642 0.037991163367740978 0 0.013598658631297679 0.037635262971838369 0 0.012833545150988515 0.036343404805186739 0 0.014491508898597474 0.036394086174755202 0 0.010306245688246892 0.036929462216475348 0 0.010493864546878251 0.036238479719366841 0 0.011004451619321235 0.037257791844364403 0 0.010512515537520665 0.036526183908431098 0 0.012833545150988515 0.036343404805186739 0 0.014888667353420469 0.035385131957437088 0 0.012833545150988515 0.036343404805186739 0 0.014672116906263029 0.035778212198528843 0 0.014162968201768341 0.034932909914679497 0 0.013826147155667139 0.035526143217451178 0 0.014672116906263029 0.035778212198528843 0 0.014324826807408091 0.035143930957493415 0 0.015280850079296984 0.035573608003443932 0 0.015280850079296984 0.035573608003443932 0 0.016019986090376984 0.03552368327889123 0 0.015396709088713158 0.035018109435869506 0 0.015730681314633031 0.036043706906825929 0 0.015280850079296984 0.035573608003443932 0 0.016019986090376984 0.03552368327889123 0 0.016494328043007118 0.036054494573074851 0 0.015730681314633031 0.036043706906825929 0 0.016019986090376984 0.03552368327889123 0 0.016494328043007118 0.036054494573074851 0 0.016019986090376984 0.03552368327889123 0 0.016671618361367827 0.035679938234097243 0 0.016019986090376984 0.03552368327889123 0 0.015396709088713158 0.035018109435869506 0 0.016685039740860826 0.035317673239128343 0 0.015396709088713158 0.035018109435869506 0 0.016775978613127938 0.035095137790303425 0 0.016685039740860826 0.035317673239128343 0 0.014491508898597474 0.036394086174755202 0 0.016282248680212181 0.035994786515394679 0 0.016019986090376984 0.03552368327889123 0 0.016685039740860826 0.035317673239128343 0 0.016671618361367827 0.035679938234097243 0 0.012543941109137036 0.036401254409120239 0 0.013598658631297679 0.037635262971838369 0 0.014460928976841741 0.036269782228327406 0 0.012543941109137036 0.036401254409120239 0 0.013189804735942041 0.034999990023404814 0 0.014460928976841741 0.036269782228327406 0 0.013189804735942041 0.034999990023404814 0 0.014805141560060348 0.034999990649261986 0 0.014460928976841741 0.036269782228327406 0 0.014805141560060348 0.034999990649261986 0 0.014460928976841741 0.036269782228327406 0 0.015985406567589133 0.036139011870362663 0 0.013598658631297679 0.037635262971838369 0 0.014460928976841741 0.036269782228327406 0 0.015560274575662976 0.03727376122284963 0 0.016367083952451456 0.035802130459797507 0 0.016282248680212181 0.035994786515394679 0 0.014460928976841741 0.036269782228327406 0 0.015985406567589133 0.036139011870362663 0 0.015560274575662976 0.03727376122284963 0 0.016864364837674877 0.03537027036269192 0 0.017343397402793937 0.035610096269521087 0 0.016790813439528093 0.035762270168002881 0 0.014805141560060348 0.034999990649261986 0 0.015985406567589133 0.036139011870362663 0 0.01642045081204015 0.034999989863112056 0 0.016367083952451456 0.035802130459797507 0 0.016420617919353408 0.035000055147894685 0 0.01832729809416558 0.034999468254369108 0 0.016422503159295027 0.034999622073239367 0 0.017477840908347426 0.035442263821246829 0 0.016864364837674877 0.03537027036269192 0 0.016422503159295027 0.034999622073239367 0 0.017477840908347426 0.035442263821246829 0 0.016864364837674877 0.03537027036269192 0 0.017477840908347426 0.035442263821246829 0 0.017343397402793937 0.035610096269521087 0 0.017901827762458557 0.035731167135307489 0 0.017477840908347426 0.035442263821246829 0 0.017343397402793937 0.035610096269521087 0 0.017901827762458557 0.035731167135307489 0 0.017343397402793937 0.035610096269521087 0 0.017675522731423393 0.035881974221805862 0 0.017675522731423393 0.035881974221805862 0 0.017088974437135956 0.035554554639595386 0 0.017159075350416556 0.035826508530750749 0 0.017343397402793937 0.035610096269521087 0 0.017675522731423393 0.035881974221805862 0 0.017088974437135956 0.035554554639595386 0 0.017411726991799839 0.035541130116370806 0 0.016282248680212181 0.035994786515394679 0 0.017343397402793937 0.035610096269521087 0 0.017088974437135956 0.035554554639595386 0 0.016806305271740648 0.03527398641247978 0 0.017088974437135956 0.035554554639595386 0 0.016806305271740648 0.03527398641247978 0 0.016685039740860826 0.035317673239128343 0 0.016282248680212181 0.035994786515394679 0 0.01650472854117294 0.035508648654152611 0 0.016685039740860826 0.035317673239128343 0 0.016907189317193524 0.035594628459219846 0 0.016671618361367827 0.035679938234097243 0 0.017088974437135956 0.035554554639595386 0 0.016685039740860826 0.035317673239128343 0 0.016907189317193524 0.035594628459219846 0 0.017088974437135956 0.035554554639595386 0 0.016907189317193524 0.035594628459219846 0 0.017159075350416556 0.035826508530750749 0 0.017159075350416556 0.035826508530750749 0 0.016671618361367827 0.035679938234097243 0 0.017093709677637507 0.036097648211417165 0 0.016907189317193524 0.035594628459219846 0 0.017159075350416556 0.035826508530750749 0 0.016671618361367827 0.035679938234097243 0 0.016494328043007118 0.036054494573074851 0 0.016671618361367827 0.035679938234097243 0 0.017093709677637507 0.036097648211417165 0 0.017159075350416556 0.035826508530750749 0 0.017093709677637507 0.036097648211417165 0 0.017576377738262941 0.036273469580291436 0 0.018355015260204003 0.036369558735625765 0 0.017675522731423393 0.035881974221805862 0 0.017576377738262941 0.036273469580291436 0 0.017675522731423393 0.035881974221805862 0 0.017159075350416556 0.035826508530750749 0 0.017576377738262941 0.036273469580291436 0 0.0089402180102310814 0.030456713336745614 0 0.0098925820259979872 0.032063284304369319 0 0.0089402180102310814 0.030456713336745614 0 0.0061813483626266368 0.02661573274515526 0 0.011915326929194685 0.035587204768566694 0 0.012157295638792219 0.035760312708380128 0 0.012191635261750579 0.035560601137221599 0 0.011915326929194685 0.035587204768566694 0 0.011932173681183595 0.035710721468668993 0 0.012157295638792219 0.035760312708380128 0 0.0089002382293917118 0.033669623900172307 0 0.0087294614136121419 0.033647279126395042 0 0.0087096875881349546 0.033730520629690335 0 0.0089534440790284119 0.033474101969765233 0 0.0089002382293917118 0.033669623900172307 0 0.0087294614136121419 0.033647279126395042 0 0.0089402180102310814 0.030456713336745614 0 0.010810265141654967 0.034968368005941636 0 0.0062675253820878548 0.033320627574895005 0 0.0077431422484697332 0.034862759854179345 0 0.0089402180102310814 0.030456713336745614 0 0.0062675253820878548 0.033320627574895005 0 0.0062675253820878548 0.033320627574895005 0 0.0048873371202553563 0.031504278785758573 0 0.0072511808276708592 0.027150644505002111 0 0.0073655618797023982 0.026695046777325423 0 0.0067148386161004102 0.026727424432464272 0 0.0048873371202553563 0.031504278785758573 0 0.005252167268968308 0.03127219027216014 0 0.0067148386161004102 0.026727424432464272 0 0.0059059793795216021 0.026726562021423459 0 0.0064461010340053602 0.027090203393581331 0 0.0072511808276708592 0.027150644505002111 0 0.0067148386161004102 0.026727424432464272 0 0.0064461010340053602 0.027090203393581331 0 0.0035216156963556937 0.036430527031621113 0 0.0035599408385966758 0.036390615188541496 0 0.0035535715855526217 0.036458783491384414 0 0.0059059793795216021 0.026726562021423459 0 0.0057606683638521177 0.027152183009496261 0 0.0064461010340053602 0.027090203393581331 0 0.0057606683638521177 0.027152183009496261 0 0.0064461010340053602 0.027090203393581331 0 0.0064187179412942934 0.027661111726256928 0 0.0059059793795216021 0.026726562021423459 0 0.0057606683638521177 0.027152183009496261 0 0.0053239022460303638 0.026971249817069207 0 0.0081679736958012849 0.026844843296777023 0 0.0064187179412942934 0.027661111726256928 0 0.0070694181306626882 0.028116356567518947 0 0.0072511808276708592 0.027150644505002111 0 0.0064461010340053602 0.027090203393581331 0 0.0064187179412942934 0.027661111726256928 0 0.0064187179412942934 0.027661111726256928 0 0.0065720841090227064 0.028254049021891686 0 0.0070694181306626882 0.028116356567518947 0 0.0064187179412942934 0.027661111726256928 0 0.0065720841090227064 0.028254049021891686 0 0.0059762214432453522 0.028440206207623994 0 0.0065720841090227064 0.028254049021891686 0 0.0059762214432453522 0.028440206207623994 0 0.0068328539021770855 0.028801278898722561 0 0.0070694181306626882 0.028116356567518947 0 0.0068328539021770855 0.028801278898722561 0 0.0072464651412629663 0.028755371552161919 0 0.0065720841090227064 0.028254049021891686 0 0.0070694181306626882 0.028116356567518947 0 0.0068328539021770855 0.028801278898722561 0 0.0057606683638521177 0.027152183009496261 0 0.0061610299634451259 0.027698475196204917 0 0.0056322359479725522 0.027353564887468432 0 0.0057606683638521177 0.027152183009496261 0 0.0064187179412942934 0.027661111726256928 0 0.0059762214432453522 0.028440206207623994 0 0.0057772177147591775 0.027205712003226863 0 0.0061184874479209058 0.028161612220644814 0 0.0061610299634451259 0.027698475196204917 0 0.0056568618077074678 0.027642015535020131 0 0.0056322359479725522 0.027353564887468432 0 0.0066140672205897639 0.028316997121882025 0 0.0061610299634451259 0.027698475196204917 0 0.0060986083151987579 0.027988654582405466 0 0.0062890304561090214 0.028763998276252981 0 0.0061184874479209058 0.028161612220644814 0 0.0061610299634451259 0.027698475196204917 0 0.0060986083151987579 0.027988654582405466 0 0.0056568618077074678 0.027642015535020131 0 0.0066140672205897639 0.028316997121882025 0 0.0063368678902968904 0.028290930877898024 0 0.0060986083151987579 0.027988654582405466 0 0.0063368678902968904 0.028290930877898024 0 0.0060986083151987579 0.027988654582405466 0 0.0056606417071337883 0.027983055532217544 0 0.0064208379047540638 0.029930527995712282 0 0.0059762214432453522 0.028440206207623994 0 0.0068337991677484928 0.02946287708121181 0 0.0073522644814955533 0.029821487964217148 0 0.0068328539021770855 0.028801278898722561 0 0.0072464651412629663 0.028755371552161919 0 0.0059762214432453522 0.028440206207623994 0 0.0068328539021770855 0.028801278898722561 0 0.0068337991677484928 0.02946287708121181 0 0.0073522644814955533 0.029821487964217148 0 0.0068328539021770855 0.028801278898722561 0 0.0068337991677484928 0.02946287708121181 0 0.0073522644814955533 0.029821487964217148 0 0.0072464651412629663 0.028755371552161919 0 0.0077369421264882427 0.028294326007927372 0 0.011243374024035146 0.034663455130028539 0 0.011861212516799982 0.034813767413570521 0 0.011783973206908134 0.035696845692204902 0 0.0095960337370087998 0.032574759581492939 0 0.0098925820259979872 0.032063284304369319 0 0.011861212516799982 0.034813767413570521 0 0.011857813756554604 0.03570906175910548 0 0.011783973206908134 0.035696845692204902 0 0.011915326929194685 0.035587204768566694 0 0.011857813756554604 0.03570906175910548 0 0.011932173681183595 0.035710721468668993 0 0.0081679736958012849 0.026844843296777023 0 0.0070694181306626882 0.028116356567518947 0 0.0077369421264882427 0.028294326007927372 0 0.0070694181306626882 0.028116356567518947 0 0.0072464651412629663 0.028755371552161919 0 0.0077369421264882427 0.028294326007927372 0 0.011857813756554604 0.03570906175910548 0 0.011783973206908134 0.035696845692204902 0 0.011932173681183595 0.035710721468668993 0 0.011932173681183595 0.035710721468668993 0 0.012123943929849347 0.03587037894058407 0 0.012157295638792219 0.035760312708380128 0 0.011783973206908134 0.035696845692204902 0 0.011932173681183595 0.035710721468668993 0 0.012123943929849347 0.03587037894058407 0 0.012320226826080164 0.036232122038279233 0 0.011783973206908134 0.035696845692204902 0 0.012123943929849347 0.03587037894058407 0 0.011802561776286049 0.035443830286916084 0 0.011793252162567353 0.035682540013420028 0 0.012621070850763009 0.036270510632161766 0 0.012320226826080164 0.036232122038279233 0 0.012383160442150586 0.036036537841307066 0 0.012320226826080164 0.036232122038279233 0 0.012123943929849347 0.03587037894058407 0 0.012383160442150586 0.036036537841307066 0 0.012621070850763009 0.036270510632161766 0 0.012383160442150586 0.036036537841307066 0 0.012563573944631068 0.036142773682792062 0 0.012383160442150586 0.036036537841307066 0 0.012563573944631068 0.036142773682792062 0 0.012449249730428654 0.035909240896669574 0 0.012383160442150586 0.036036537841307066 0 0.012449249730428654 0.035909240896669574 0 0.012157295638792219 0.035760312708380128 0 0.012123943929849347 0.03587037894058407 0 0.012383160442150586 0.036036537841307066 0 0.012157295638792219 0.035760312708380128 0 0.012706160779801539 0.036425360366847764 0 0.012999415230260379 0.036533221296755264 0 0.012734719164550028 0.036307772144674809 0 0.012999415230260379 0.036533221296755264 0 0.012951671814639769 0.036268081458371126 0 0.012734719164550028 0.036307772144674809 0 0.012621070850763009 0.036270510632161766 0 0.012563573944631068 0.036142773682792062 0 0.012734719164550028 0.036307772144674809 0 0.012563573944631068 0.036142773682792062 0 0.012449249730428654 0.035909240896669574 0 0.012688995058789482 0.035958403142457157 0 0.012563573944631068 0.036142773682792062 0 0.012734719164550028 0.036307772144674809 0 0.012688995058789482 0.035958403142457157 0 0.012951671814639769 0.036268081458371126 0 0.012734719164550028 0.036307772144674809 0 0.012688995058789482 0.035958403142457157 0 0.012951671814639769 0.036268081458371126 0 0.013095872119801365 0.036010634725834281 0 0.012688995058789482 0.035958403142457157 0 0.013095872119801365 0.036010634725834281 0 0.012688995058789482 0.035958403142457157 0 0.012864680353604668 0.035693755068627611 0 0.012449249730428654 0.035909240896669574 0 0.012521542030757322 0.035783032461128732 0 0.012688995058789482 0.035958403142457157 0 0.012521542030757322 0.035783032461128732 0 0.012688995058789482 0.035958403142457157 0 0.012549045650664793 0.035598795164710241 0 0.012688995058789482 0.035958403142457157 0 0.012549045650664793 0.035598795164710241 0 0.012864680353604668 0.035693755068627611 0 0.012549045650664793 0.035598795164710241 0 0.012864680353604668 0.035693755068627611 0 0.012858705770968258 0.035310647583075692 0 0.012449249730428654 0.035909240896669574 0 0.012157295638792219 0.035760312708380128 0 0.012285978741103439 0.035718104790369416 0 0.012157295638792219 0.035760312708380128 0 0.012285978741103439 0.035718104790369416 0 0.012191635261750579 0.035560601137221599 0 0.012449249730428654 0.035909240896669574 0 0.012285978741103439 0.035718104790369416 0 0.012378125290854115 0.035645002417618844 0 0.012449249730428654 0.035909240896669574 0 0.012521542030757322 0.035783032461128732 0 0.012378125290854115 0.035645002417618844 0 0.012378125290854115 0.035645002417618844 0 0.012191635261750579 0.035560601137221599 0 0.012429570459086258 0.035484160207342706 0 0.012549045650664793 0.035598795164710241 0 0.012378125290854115 0.035645002417618844 0 0.012429570459086258 0.035484160207342706 0 0.010810265141654967 0.034968368005941636 0 0.0093980894992637693 0.035216549766426526 0 0.012521542030757322 0.035783032461128732 0 0.012549045650664793 0.035598795164710241 0 0.012378125290854115 0.035645002417618844 0 0.0087294614136121419 0.033647279126395042 0 0.0087096875881349546 0.033730520629690335 0 0.0085602058933066088 0.033809782152254261 0 0.012285978741103439 0.035718104790369416 0 0.012378125290854115 0.035645002417618844 0 0.012191635261750579 0.035560601137221599 0 0.0068545062864695683 0.035854458127548366 0 0.0068920138027472634 0.035766303148501391 0 0.0067498608186029796 0.035737433417714778 0 0.0070101246261046069 0.035841442428298551 0 0.0069991393832149421 0.035722089798776155 0 0.0070502504464661627 0.035824007947607782 0 0.0077431422484697332 0.034862759854179345 0 0.0093980894992637693 0.035216549766426526 0 0.0070101246261046069 0.035841442428298551 0 0.0069991393832149421 0.035722089798776155 0 0.0068920138027472634 0.035766303148501391 0 0.0068545062864695683 0.035854458127548366 0 0.0070101246261046069 0.035841442428298551 0 0.0068920138027472634 0.035766303148501391 0 0.0093980894992637693 0.035216549766426526 0 0.010107359183155959 0.036006439637240747 0 0.0093980894992637693 0.035216549766426526 0 0.0089213610015298379 0.03642802408400176 0 0.007035337525620064 0.036382930308800451 0 0.0089213610015298379 0.03642802408400176 0 0.0069991393832149421 0.035722089798776155 0 0.0068920138027472634 0.035766303148501391 0 0.0068539113140089012 0.035681942716046008 0 0.0069991393832149421 0.035722089798776155 0 0.0068539113140089012 0.035681942716046008 0 0.0069556853067278511 0.035626555019788168 0 0.007035337525620064 0.036382930308800451 0 0.0063663774094801576 0.036379100726477973 0 0.0070417434590521969 0.037162973767042896 0 0.0075275026632280247 0.036762364192134793 0 0.0067561766534385316 0.036355995449219636 0 0.0068920138027472634 0.035766303148501391 0 0.0068539113140089012 0.035681942716046008 0 0.0067498608186029796 0.035737433417714778 0 0.0060182840168310258 0.036374489106218315 0 0.0044949687632370684 0.036854779604113687 0 0.0091840655637641204 0.037397887045689568 0 0.0087842098394851579 0.037435712736524643 0 0.0091228842417132201 0.037222162649910663 0 0.0087842098394851579 0.037435712736524643 0 0.0087738180118108813 0.037405659443992975 0 0.0091228842417132201 0.037222162649910663 0 0.011142255765192788 0.036383084146044062 0 0.010107359183155959 0.036006439637240747 0 0.0089213610015298379 0.03642802408400176 0 0.0085652605577021396 0.037495464774014588 0 0.012549045650664793 0.035598795164710241 0 0.012858705770968258 0.035310647583075692 0 0.012467590874211903 0.035407728768522481 0 0.012549045650664793 0.035598795164710241 0 0.012429570459086258 0.035484160207342706 0 0.01249649564523443 0.035473565444152692 0 0.011861907206795275 0.035840294576157561 0 0.010107359183155959 0.036006439637240747 0 0.009402572831250823 0.03539804672125979 0 0.009273049387297538 0.035425484630173067 0 0.0092856369572748079 0.035462923983806273 0 0.010107359183155959 0.036006439637240747 0 0.0089213610015298379 0.03642802408400176 0 0.0073297088521823758 0.037958655941152143 0 0.0076669523706189031 0.037284729284383249 0 0.0084349588609239651 0.037415093865521186 0 0.0070417434590521969 0.037162973767042896 0 0.0073297088521823758 0.037958655941152143 0 0.0076669523706189031 0.037284729284383249 0 0.0070417434590521969 0.037162973767042896 0 0.0075275026632280247 0.036762364192134793 0 0.0076669523706189031 0.037284729284383249 0 0.0075275026632280247 0.036762364192134793 0 0.0080540949437784715 0.037015635883643129 0 0.0079827956694537763 0.036546358777883106 0 0.0075275026632280247 0.036762364192134793 0 0.0076669523706189031 0.037284729284383249 0 0.0080540949437784715 0.037015635883643129 0 0.0096635054722138958 0.03681230408743115 0 0.0084349588609239651 0.037415093865521186 0 0.0086416683672084094 0.036649189880935108 0 0.0076669523706189031 0.037284729284383249 0 0.0084349588609239651 0.037415093865521186 0 0.0080540949437784715 0.037015635883643129 0 0.0080540949437784715 0.037015635883643129 0 0.0086416683672084094 0.036649189880935108 0 0.0079827956694537763 0.036546358777883106 0 0.0084349588609239651 0.037415093865521186 0 0.0080540949437784715 0.037015635883643129 0 0.0086416683672084094 0.036649189880935108 0 0.0094845267918842666 0.03719789962349377 0 0.0091840655637641204 0.037397887045689568 0 0.0091228842417132201 0.037222162649910663 0 0.008782724853863921 0.036049339818701981 0 0.0082044936859693319 0.036099073078614805 0 0.0084644987457480614 0.035684910963126044 0 0.008782724853863921 0.036049339818701981 0 0.0086416683672084094 0.036649189880935108 0 0.0082044936859693319 0.036099073078614805 0 0.0086416683672084094 0.036649189880935108 0 0.0082044936859693319 0.036099073078614805 0 0.0079827956694537763 0.036546358777883106 0 0.0076549315943607622 0.036297719529039922 0 0.0077959170809728208 0.035725738552717108 0 0.0067561766534385316 0.036355995449219636 0 0.0073484798926092693 0.035867013636732226 0 0.005992972946804424 0.036685520124420584 0 0.0063995060429080019 0.03572057381899383 0 0.0075807551170978199 0.035795659462326899 0 0.0063663774094801576 0.036379100726477973 0 0.0075275026632280247 0.036762364192134793 0 0.0076549315943607622 0.036297719529039922 0 0.0067561766534385316 0.036355995449219636 0 0.0082044936859693319 0.036099073078614805 0 0.0076549315943607622 0.036297719529039922 0 0.0077959170809728208 0.035725738552717108 0 0.0082044936859693319 0.036099073078614805 0 0.0076549315943607622 0.036297719529039922 0 0.0079827956694537763 0.036546358777883106 0 0.0075275026632280247 0.036762364192134793 0 0.0076549315943607622 0.036297719529039922 0 0.0079827956694537763 0.036546358777883106 0 0.0069178199621789324 0.035000004095530668 0 0.0073484798926092693 0.035867013636732226 0 0.0084388028943567801 0.034999976168225096 0 0.0069178199621789324 0.035000004095530668 0 0.0073484798926092693 0.035867013636732226 0 0.0063995060429080019 0.03572057381899383 0 0.0073484798926092693 0.035867013636732226 0 0.0084388028943567801 0.034999976168225096 0 0.0087232720057903879 0.035041626981807107 0 0.0077959170809728208 0.035725738552717108 0 0.0087232720057903879 0.035041626981807107 0 0.0084644987457480614 0.035684910963126044 0 0.0075807551170978199 0.035795659462326899 0 0.0086541074461549995 0.035095645828076796 0 0.0082044936859693319 0.036099073078614805 0 0.0077959170809728208 0.035725738552717108 0 0.0084644987457480614 0.035684910963126044 0 0.0088499792285765769 0.035534404109205255 0 0.0087232720057903879 0.035041626981807107 0 0.0084644987457480614 0.035684910963126044 0 0.0088499792285765769 0.035534404109205255 0 0.008782724853863921 0.036049339818701981 0 0.0084644987457480614 0.035684910963126044 0 0.0049300154136340995 0.03644352482676131 0 0.0044694339301124394 0.035738799033042667 0 0.0042197656411304919 0.036799951519683821 0 0.0044027222933270297 0.035795246397217019 0 0.0040908798076811203 0.036627577302798045 0 0.0049037355159997674 0.037234247312470409 0 0.0049300154136340995 0.03644352482676131 0 0.0042197656411304919 0.036799951519683821 0 0.0060182840168310258 0.036374489106218315 0 0.0063663774094801576 0.036379100726477973 0 0.0049037355159997674 0.037234247312470409 0 0.0049300154136340995 0.03644352482676131 0 0.0059142165312688318 0.036646276796841029 0 0.0069178199621789324 0.035000004095530668 0 0.0063995060429080019 0.03572057381899383 0 0.0053973628846409865 0.034999995038638022 0 0.0063663774094801576 0.036379100726477973 0 0.0053972580768300712 0.035000577112453621 0 0.005992972946804424 0.036685520124420584 0 0.0063995060429080019 0.03572057381899383 0 0.0053973628846409865 0.034999995038638022 0 0.0049300154136340995 0.03644352482676131 0 0.0059142165312688318 0.036646276796841029 0 0.0053969366672893147 0.034999947499807796 0 0.0049300154136340995 0.03644352482676131 0 0.0044694339301124394 0.035738799033042667 0 0.0053969366672893147 0.034999947499807796 0 0.0044694339301124394 0.035738799033042667 0 0.0053969366672893147 0.034999947499807796 0 0.0033162511557956729 0.034999960268263894 0 0.0044694339301124394 0.035738799033042667 0 0.0033162511557956729 0.034999960268263894 0 0.0034189500065904539 0.036179321234351816 0 0.0033162511557956729 0.034999960268263894 0 0.0034189500065904539 0.036179321234351816 0 0.0020041386967753964 0.036114573896171245 0 0.0034189500065904539 0.036179321234351816 0 0.0035508651023075676 0.036470491515538862 0 0.0034674401175678422 0.036500661296203211 0 0.0034189500065904539 0.036179321234351816 0 0.0018451497472885725 0.037524008842626043 0 0.0020041386967753964 0.036114573896171245 0 0.0033576032264085939 0.036270508797111578 0 0.0027614982384935281 0.036852367864123416 0 0.0044694339301124394 0.035738799033042667 0 0.0034189500065904539 0.036179321234351816 0 0.0039373516867723347 0.036411435686755492 0 0.0034189500065904539 0.036179321234351816 0 0.0039373516867723347 0.036411435686755492 0 0.0035508651023075676 0.036470491515538862 0 0.0040908798076811203 0.036627577302798045 0 0.0044949687632370684 0.036854779604113687 0 0.0039373516867723347 0.036411435686755492 0 0.0036848795927772612 0.036556543357870737 0 0.0035508651023075676 0.036470491515538862 0 0.0049037355159997674 0.037234247312470409 0 0.0042197656411304919 0.036799951519683821 0 0.0039427818158328755 0.037800415840297037 0 0.0036848795927772612 0.036556543357870737 0 0.0035508651023075676 0.036470491515538862 0 0.0035294462186182514 0.036511024520630958 0 0.0044949687632370684 0.036854779604113687 0 0.0034882638807719434 0.036701376083355691 0 0.0035508651023075676 0.036470491515538862 0 0.0035294462186182514 0.036511024520630958 0 0.0034674401175678422 0.036500661296203211 0 0.0035294462186182514 0.036511024520630958 0 0.0035078828664247704 0.036478039913354222 0 0.0034674401175678422 0.036500661296203211 0 0.0035239198551572041 0.036455531610358957 0 0.0035216156963556937 0.036430527031621113 0 0.0035294462186182514 0.036511024520630958 0 0.0035216156963556937 0.036430527031621113 0 0.0035294462186182514 0.036511024520630958 0 0.0035078828664247704 0.036478039913354222 0 0.0035239198551572041 0.036455531610358957 0 0.003514760196802756 0.036524646136546907 0 0.0035294462186182514 0.036511024520630958 0 0.0062675253820878548 0.033320627574895005 0 0.0044949687632370684 0.036854779604113687 0 0.0067136219209610682 0.035861788557646351 0 0.0068545062864695683 0.035854458127548366 0 0.0067498608186029796 0.035737433417714778 0 0.0035216156963556937 0.036430527031621113 0 0.0035535715855526217 0.036458783491384414 0 0.0035078828664247704 0.036478039913354222 0 0.0016494132691591997 0.038209218503829086 0 0.0027614982384935281 0.036852367864123416 0 0.0035535715855526217 0.036458783491384414 0 0.0035078828664247704 0.036478039913354222 0 0.0034674401175678422 0.036500661296203211 0 0.0018451497472885725 0.037524008842626043 0 0.00052558426974277537 0.037514576843833934 0 0.0010693378645278602 0.036547848655190028 0 0.00037730870872415806 0.038732009391144712 0 0.0018451497472885725 0.037524008842626043 0 0.00052558426974277537 0.037514576843833934 0 0.00037730870872415806 0.038732009391144712 0 0.00052558426974277537 0.037514576843833934 0 -0.00040009398925468985 0.037866938233346852 0 0.0010693378645278602 0.036547848655190028 0 0.0012347993270881586 0.034999917568393213 0 -0.00023809507870780174 0.036606732247035534 0 0.00052558426974277537 0.037514576843833934 0 0.0010693378645278602 0.036547848655190028 0 -0.00023809507870780174 0.036606732247035534 0 0.0018451497472885725 0.037524008842626043 0 0.0020041386967753964 0.036114573896171245 0 0.0010693378645278602 0.036547848655190028 0 0.0033162511557956729 0.034999960268263894 0 0.0020041386967753964 0.036114573896171245 0 0.0012347993270881586 0.034999917568393213 0 0.0020041386967753964 0.036114573896171245 0 0.0010693378645278602 0.036547848655190028 0 0.0012347993270881586 0.034999917568393213 0 0.0012347993270881586 0.034999917568393213 0 -0.00084637795050606138 0.034999947783538668 0 -0.00023809507870780174 0.036606732247035534 0 -0.00084637795050606138 0.034999947783538668 0 -0.0018823111324898611 0.036142810583452638 0 -0.00023809507870780174 0.036606732247035534 0 -0.00084637795050606138 0.034999947783538668 0 -0.0018823111324898611 0.036142810583452638 0 -0.0029275761633113335 0.034999931855875237 0 -0.0018823111324898611 0.036142810583452638 0 -0.00023809507870780174 0.036606732247035534 0 -0.0018316716478938132 0.037559523426260052 0 -0.0029275761633113335 0.034999931855875237 0 -0.0035609330713361033 0.036522614009542272 0 -0.0050087148822656972 0.034999952917738608 0 -0.0018823111324898611 0.036142810583452638 0 -0.0029275761633113335 0.034999931855875237 0 -0.0035609330713361033 0.036522614009542272 0 -0.0018823111324898611 0.036142810583452638 0 -0.0035609330713361033 0.036522614009542272 0 -0.0018316716478938132 0.037559523426260052 0 -0.0035609330713361033 0.036522614009542272 0 -0.0034340440288973782 0.037864637567831899 0 -0.0050559752989181089 0.037592528465686482 0 -0.0035609330713361033 0.036522614009542272 0 -0.0034340440288973782 0.037864637567831899 0 -0.0018316716478938132 0.037559523426260052 0 -0.0034340440288973782 0.037864637567831899 0 -0.0025097609065673956 0.038924694784387502 0 -0.0018316716478938132 0.037559523426260052 0 -0.0034340440288973782 0.037864637567831899 0 -0.0025097609065673956 0.038924694784387502 0 -0.0041897662229358687 0.038710558633030571 0 -0.0034340440288973782 0.037864637567831899 0 -0.0041897662229358687 0.038710558633030571 0 -0.0050559752989181089 0.037592528465686482 0 0.00052558426974277537 0.037514576843833934 0 -0.00023809507870780174 0.036606732247035534 0 -0.00040009398925468985 0.037866938233346852 0 -0.00040009398925468985 0.037866938233346852 0 -0.0018316716478938132 0.037559523426260052 0 -0.0010787312756849058 0.038601837555066403 0 -0.00023809507870780174 0.036606732247035534 0 -0.00040009398925468985 0.037866938233346852 0 -0.0018316716478938132 0.037559523426260052 0 -0.0025097609065673956 0.038924694784387502 0 -0.0018316716478938132 0.037559523426260052 0 -0.0010787312756849058 0.038601837555066403 0 0.00037730870872415806 0.038732009391144712 0 -0.00040009398925468985 0.037866938233346852 0 -0.0010787312756849058 0.038601837555066403 0 0.0035599408385966758 0.036390615188541496 0 0.0035535715855526217 0.036458783491384414 0 0.00361059601325627 0.036353227845406774 0 0.00037730870872415806 0.038732009391144712 0 -0.0010787312756849058 0.038601837555066403 0 -0.0010056908792570171 0.039915030896655532 0 0.005252167268968308 0.03127219027216014 0 0.0022149824714398653 0.034939656704369042 0 0.0016494132691591997 0.038209218503829086 0 0.0022149824714398653 0.034939656704369042 0 0.0059059793795216021 0.026726562021423459 0 0.0051267549655237719 0.026723678868926438 0 0.0053239022460303638 0.026971249817069207 0 0.0051267549655237719 0.026723678868926438 0 0.0050916541627270308 0.027026002670527346 0 0.0053239022460303638 0.026971249817069207 0 0.0050916541627270308 0.027026002670527346 0 0.0053239022460303638 0.026971249817069207 0 0.0052463883499017606 0.027265896226987673 0 0.0053239022460303638 0.026971249817069207 0 0.0052463883499017606 0.027265896226987673 0 0.0056322359479725522 0.027353564887468432 0 0.0057606683638521177 0.027152183009496261 0 0.0053239022460303638 0.026971249817069207 0 0.0056322359479725522 0.027353564887468432 0 0.0022149824714398653 0.034939656704369042 0 0.00082924423753657573 0.033310653384287597 0 0.0051267549655237719 0.026723678868926438 0 0.0047012608229221762 0.027104297863119468 0 0.0041716705021130618 0.026771913037437426 0 0.0047012608229221762 0.027104297863119468 0 0.0041716705021130618 0.026771913037437426 0 0.0044226743177951614 0.027465042564274608 0 0.0050916541627270308 0.027026002670527346 0 0.0052463883499017606 0.027265896226987673 0 0.0047012608229221762 0.027104297863119468 0 0.0051267549655237719 0.026723678868926438 0 0.0050916541627270308 0.027026002670527346 0 0.0047012608229221762 0.027104297863119468 0 -0.0025097609065673956 0.038924694784387502 0 -0.0010787312756849058 0.038601837555066403 0 -0.0010056908792570171 0.039915030896655532 0 -0.0025097609065673956 0.038924694784387502 0 -0.0010056908792570171 0.039915030896655532 0 -0.0025363093770120982 0.040134529269747213 0 -0.0025097609065673956 0.038924694784387502 0 -0.0035354306542756081 0.039532378085024016 0 -0.0025363093770120982 0.040134529269747213 0 -0.0025097609065673956 0.038924694784387502 0 -0.0041897662229358687 0.038710558633030571 0 -0.0035354306542756081 0.039532378085024016 0 -0.0041897662229358687 0.038710558633030571 0 -0.0035354306542756081 0.039532378085024016 0 -0.0043252110016115475 0.039587455902957321 0 -0.0035354306542756081 0.039532378085024016 0 -0.0040792336273355557 0.040295971629715065 0 -0.0043252110016115475 0.039587455902957321 0 -0.0035354306542756081 0.039532378085024016 0 -0.0040792336273355557 0.040295971629715065 0 -0.0025363093770120982 0.040134529269747213 0 0.0032065430764899377 0.026925944805066205 0 0.0041716705021130618 0.026771913037437426 0 0.0036716323987701998 0.027715287762614983 0 -0.00047312796350256495 0.033629232733892067 0 0.00082924423753657573 0.033310653384287597 0 0.0044226743177951614 0.027465042564274608 0 0.0036716323987701998 0.027715287762614983 0 0.0044712504434389951 0.028106095776779368 0 0.0036716323987701998 0.027715287762614983 0 0.0044712504434389951 0.028106095776779368 0 0.0036486253077536541 0.028949397860804072 0 0.0036716323987701998 0.027715287762614983 0 0.0028546640435161696 0.028233677986313106 0 0.0036486253077536541 0.028949397860804072 0 0.0041716705021130618 0.026771913037437426 0 0.0044226743177951614 0.027465042564274608 0 0.0036716323987701998 0.027715287762614983 0 0.0032065430764899377 0.026925944805066205 0 0.0036716323987701998 0.027715287762614983 0 0.002860123205561923 0.027572327279012297 0 0.0036716323987701998 0.027715287762614983 0 0.0028546640435161696 0.028233677986313106 0 0.002860123205561923 0.027572327279012297 0 0.0044712504434389951 0.028106095776779368 0 0.0050316683733609641 0.028109965761962116 0 0.0049121472091744256 0.0287886370694149 0 0.0044712504434389951 0.028106095776779368 0 0.0050316683733609641 0.028109965761962116 0 0.0050890953333270657 0.02762194975080691 0 0.0050316683733609641 0.028109965761962116 0 0.0056606417071337883 0.027983055532217544 0 0.0049121472091744256 0.0287886370694149 0 0.0060986083151987579 0.027988654582405466 0 0.0056606417071337883 0.027983055532217544 0 0.0056568618077074678 0.027642015535020131 0 0.0050316683733609641 0.028109965761962116 0 0.0056606417071337883 0.027983055532217544 0 0.0050890953333270657 0.02762194975080691 0 0.0056606417071337883 0.027983055532217544 0 0.0056568618077074678 0.027642015535020131 0 0.0050890953333270657 0.02762194975080691 0 0.0052463883499017606 0.027265896226987673 0 0.0056568618077074678 0.027642015535020131 0 0.0056322359479725522 0.027353564887468432 0 0.0052463883499017606 0.027265896226987673 0 0.0056568618077074678 0.027642015535020131 0 0.0050890953333270657 0.02762194975080691 0 0.0052463883499017606 0.027265896226987673 0 0.0047012608229221762 0.027104297863119468 0 0.0050890953333270657 0.02762194975080691 0 0.0044226743177951614 0.027465042564274608 0 0.0044712504434389951 0.028106095776779368 0 0.0050890953333270657 0.02762194975080691 0 0.0047012608229221762 0.027104297863119468 0 0.0044226743177951614 0.027465042564274608 0 0.0050890953333270657 0.02762194975080691 0 -0.0030360696408603363 0.028545541358059395 0 -0.003460445639615404 0.034352053390555658 0 0.0018531483512784811 0.027653503853316906 0 0.001310561786113273 0.027960289774402378 0 0.0015449681457825137 0.027309010110226042 0 0.0018531483512784811 0.027653503853316906 0 0.0023326137084835261 0.027125501574073653 0 0.0015449681457825137 0.027309010110226042 0 -0.003460445639615404 0.034352053390555658 0 -0.0076411059204859006 0.037002596377820253 0 -0.0052919429399552438 0.033990182156666521 0 -0.0046479704319130092 0.032289567155845397 0 -0.0064189961133774721 0.032611456142966337 0 -0.007340255106024208 0.027780937962713571 0 -0.0076888805639574054 0.027876518162555687 0 -0.0075058620231072066 0.028181749399704404 0 0.0014820054624475544 0.027968275511569551 0 0.0017780506992799553 0.028013633224070664 0 0.0016606841890793448 0.028369390568306455 0 0.0018531483512784811 0.027653503853316906 0 0.0017780506992799553 0.028013633224070664 0 0.0022908311844947325 0.027838394255713814 0 0.0018531483512784811 0.027653503853316906 0 0.001310561786113273 0.027960289774402378 0 0.0017780506992799553 0.028013633224070664 0 -0.0030360696408603363 0.028545541358059395 0 0.0025901741550971315 0.028457454292567401 0 0.0022908311844947325 0.027838394255713814 0 0.0028546640435161696 0.028233677986313106 0 0.0021153160812157389 0.028472730269176742 0 0.0017780506992799553 0.028013633224070664 0 0.0022908311844947325 0.027838394255713814 0 0.0021153160812157389 0.028472730269176742 0 0.0022908311844947325 0.027838394255713814 0 0.0028546640435161696 0.028233677986313106 0 0.002860123205561923 0.027572327279012297 0 0.0022908311844947325 0.027838394255713814 0 0.002860123205561923 0.027572327279012297 0 0.0023326137084835261 0.027125501574073653 0 0.0018531483512784811 0.027653503853316906 0 0.0022908311844947325 0.027838394255713814 0 0.0023326137084835261 0.027125501574073653 0 -0.0049581307111812509 0.040003918788770486 0 -0.0064851949324226856 0.039920437433012615 0 -0.005258869639082682 0.040281882799012299 0 -0.0056647229025043018 0.040037362412570623 0 -0.0048594212115814703 0.040018075087195543 0 -0.0048594212115814703 0.040018075087195543 0 -0.0061467771532149156 0.039692244217619486 0 -0.0068914762446893102 0.040091355202346371 0 -0.005258869639082682 0.040281882799012299 0 -0.0056647229025043018 0.040037362412570623 0 -0.0062527576871131765 0.040345066986827195 0 -0.0056647229025043018 0.040037362412570623 0 -0.0048594212115814703 0.040018075087195543 0 -0.0060838418990595668 0.039755257481123643 0 0.0032065430764899377 0.026925944805066205 0 0.002860123205561923 0.027572327279012297 0 0.0023326137084835261 0.027125501574073653 0 -0.00047312796350256495 0.033629232733892067 0 -0.0012056575876756832 0.033633704005158124 0 -0.0040792336273355557 0.040295971629715065 0 -0.005258869639082682 0.040281882799012299 0 -0.0048594212115814703 0.040018075087195543 0 -0.0040792336273355557 0.040295971629715065 0 -0.0048594212115814703 0.040018075087195543 0 -0.0043252110016115475 0.039587455902957321 0 -0.0048594212115814703 0.040018075087195543 0 -0.0050604510492892512 0.039123242993713489 0 -0.0057478721763728298 0.039398134854351542 0 -0.0048594212115814703 0.040018075087195543 0 -0.0043252110016115475 0.039587455902957321 0 -0.0050604510492892512 0.039123242993713489 0 -0.0041897662229358687 0.038710558633030571 0 -0.0043252110016115475 0.039587455902957321 0 -0.0050604510492892512 0.039123242993713489 0 -0.0048594212115814703 0.040018075087195543 0 -0.0061467771532149156 0.039692244217619486 0 -0.0057478721763728298 0.039398134854351542 0 -0.0061467771532149156 0.039692244217619486 0 -0.0057478721763728298 0.039398134854351542 0 -0.0063232214773724094 0.039262349868497047 0 -0.0050604510492892512 0.039123242993713489 0 -0.0057478721763728298 0.039398134854351542 0 -0.0060047754161403448 0.038676556941663276 0 -0.0057478721763728298 0.039398134854351542 0 -0.0063232214773724094 0.039262349868497047 0 -0.0060047754161403448 0.038676556941663276 0 -0.0063232214773724094 0.039262349868497047 0 -0.0069019404010224432 0.038992745800866056 0 -0.006845873605764617 0.039580036029633232 0 -0.0063232214773724094 0.039262349868497047 0 -0.0069019404010224432 0.038992745800866056 0 -0.0060047754161403448 0.038676556941663276 0 -0.0069019404010224432 0.038992745800866056 0 -0.007346469580633082 0.039417668802548461 0 -0.0075192518350984507 0.038984036052990063 0 -0.0069019404010224432 0.038992745800866056 0 -0.0075192518350984507 0.038984036052990063 0 -0.0073965106020508859 0.038556734971681071 0 -0.0069019404010224432 0.038992745800866056 0 -0.007346469580633082 0.039417668802548461 0 -0.006845873605764617 0.039580036029633232 0 -0.007251246641817693 0.039657333291243671 0 -0.0068914762446893102 0.040091355202346371 0 -0.0079176190958334357 0.039537746905504101 0 -0.007346469580633082 0.039417668802548461 0 -0.007251246641817693 0.039657333291243671 0 -0.006845873605764617 0.039580036029633232 0 -0.007251246641817693 0.039657333291243671 0 -0.006845873605764617 0.039580036029633232 0 -0.0068914762446893102 0.040091355202346371 0 -0.0061467771532149156 0.039692244217619486 0 -0.006845873605764617 0.039580036029633232 0 -0.0068914762446893102 0.040091355202346371 0 -0.0061467771532149156 0.039692244217619486 0 -0.0063232214773724094 0.039262349868497047 0 -0.006845873605764617 0.039580036029633232 0 -0.0060838418990595668 0.039755257481123643 0 -0.0066240466789875456 0.040179438773427154 0 -0.0073884734163199382 0.04017284739597906 0 -0.0056647229025043018 0.040037362412570623 0 -0.0059493374042355615 0.040000540987783648 0 -0.0060838418990595668 0.039755257481123643 0 -0.0012056575876756832 0.033633704005158124 0 -0.003460445639615404 0.034352053390555658 0 -0.0059493374042355615 0.040000540987783648 0 -0.0060838418990595668 0.039755257481123643 0 -0.006142592099713442 0.040025830217519653 0 -0.0060838418990595668 0.039755257481123643 0 -0.006142592099713442 0.040025830217519653 0 -0.0066240466789875456 0.040179438773427154 0 -0.0060150922834474778 0.040412605313336347 0 -0.003460445639615404 0.034352053390555658 0 -0.0059493374042355615 0.040000540987783648 0 -0.006142592099713442 0.040025830217519653 0 -0.0062527576871131765 0.040345066986827195 0 -0.006142592099713442 0.040025830217519653 0 -0.0063930604162035966 0.040711457467560434 0 -0.0066240466789875456 0.040179438773427154 0 -0.0056647229025043018 0.040037362412570623 0 -0.0059493374042355615 0.040000540987783648 0 -0.0062527576871131765 0.040345066986827195 0 -0.0063930604162035966 0.040711457467560434 0 -0.0073884734163199382 0.04017284739597906 0 -0.0081207882752973026 0.041034331995794128 0 -0.0068914762446893102 0.040091355202346371 0 -0.0079176190958334357 0.039537746905504101 0 -0.0089556532176827807 0.039911599137113084 0 -0.0060838418990595668 0.039755257481123643 0 -0.0073884734163199382 0.04017284739597906 0 -0.0084100031228158973 0.039651630649552572 0 -0.0073884734163199382 0.04017284739597906 0 -0.0084100031228158973 0.039651630649552572 0 -0.0081207882752973026 0.041034331995794128 0 -0.0064851949324226856 0.039920437433012615 0 -0.0086961775822013958 0.03978916337399914 0 -0.0063930604162035966 0.040711457467560434 0 -0.0066240466789875456 0.040179438773427154 0 -0.0073884734163199382 0.04017284739597906 0 -0.0079176190958334357 0.039537746905504101 0 -0.0079402509825132247 0.039056681658948128 0 -0.0085228533650510436 0.03917392662353017 0 -0.0079176190958334357 0.039537746905504101 0 -0.0085228533650510436 0.03917392662353017 0 -0.0089556532176827807 0.039911599137113084 0 -0.007346469580633082 0.039417668802548461 0 -0.007251246641817693 0.039657333291243671 0 -0.0079176190958334357 0.039537746905504101 0 -0.0079176190958334357 0.039537746905504101 0 -0.0076810681958897351 0.039249139532995851 0 -0.0079402509825132247 0.039056681658948128 0 -0.007346469580633082 0.039417668802548461 0 -0.0079176190958334357 0.039537746905504101 0 -0.0076810681958897351 0.039249139532995851 0 -0.007346469580633082 0.039417668802548461 0 -0.0076810681958897351 0.039249139532995851 0 -0.0075192518350984507 0.038984036052990063 0 -0.0076810681958897351 0.039249139532995851 0 -0.0079402509825132247 0.039056681658948128 0 -0.0075192518350984507 0.038984036052990063 0 -0.0079402509825132247 0.039056681658948128 0 -0.0082592554567747743 0.038675580762147499 0 -0.0078525506126849061 0.038599806198761154 0 -0.0075192518350984507 0.038984036052990063 0 -0.0078525506126849061 0.038599806198761154 0 -0.0073965106020508859 0.038556734971681071 0 -0.0079402509825132247 0.039056681658948128 0 -0.0075192518350984507 0.038984036052990063 0 -0.0078525506126849061 0.038599806198761154 0 -0.0079402509825132247 0.039056681658948128 0 -0.0085228533650510436 0.03917392662353017 0 -0.0082592554567747743 0.038675580762147499 0 -0.0085228533650510436 0.03917392662353017 0 -0.0082592554567747743 0.038675580762147499 0 -0.0087485067613870711 0.038683217426087407 0 -0.0083866697419432076 0.038335031929133456 0 -0.0087300884364337472 0.038242501080703574 0 -0.0087485067613870711 0.038683217426087407 0 -0.0082592554567747743 0.038675580762147499 0 -0.0083866697419432076 0.038335031929133456 0 -0.0087485067613870711 0.038683217426087407 0 -0.0082592554567747743 0.038675580762147499 0 -0.0083866697419432076 0.038335031929133456 0 -0.0080542877686847428 0.038223074144472721 0 -0.0083866697419432076 0.038335031929133456 0 -0.0084071112856463834 0.038032835995379856 0 -0.0080542877686847428 0.038223074144472721 0 -0.0083866697419432076 0.038335031929133456 0 -0.0084071112856463834 0.038032835995379856 0 -0.0087300884364337472 0.038242501080703574 0 -0.0084071112856463834 0.038032835995379856 0 -0.008370584216069071 0.037705570668801605 0 -0.0088251051494291719 0.037863914583348576 0 -0.0084071112856463834 0.038032835995379856 0 -0.0087300884364337472 0.038242501080703574 0 -0.0088251051494291719 0.037863914583348576 0 -0.0084071112856463834 0.038032835995379856 0 -0.008370584216069071 0.037705570668801605 0 -0.0080862794147596121 0.037923462897983505 0 -0.0084071112856463834 0.038032835995379856 0 -0.0080862794147596121 0.037923462897983505 0 -0.0080542877686847428 0.038223074144472721 0 -0.008370584216069071 0.037705570668801605 0 -0.0080628374887121851 0.03772315965913723 0 -0.0082275319530322882 0.037500168357860415 0 -0.008370584216069071 0.037705570668801605 0 -0.0080628374887121851 0.03772315965913723 0 -0.0080862794147596121 0.037923462897983505 0 -0.008370584216069071 0.037705570668801605 0 -0.0082275319530322882 0.037500168357860415 0 -0.0087290951618689393 0.037442280174759326 0 -0.008370584216069071 0.037705570668801605 0 -0.0088251051494291719 0.037863914583348576 0 -0.0087290951618689393 0.037442280174759326 0 -0.0076713903867384964 0.03805672068163346 0 -0.0070001808807363432 0.037931053668109158 0 -0.0079517599636902882 0.037433901221989675 0 -0.0070001808807363432 0.037931053668109158 0 -0.008034779149424489 0.037290520762397895 0 -0.0079517599636902882 0.037433901221989675 0 -0.0080628374887121851 0.03772315965913723 0 -0.0076713903867384964 0.03805672068163346 0 -0.0079517599636902882 0.037433901221989675 0 -0.0080628374887121851 0.03772315965913723 0 -0.0082275319530322882 0.037500168357860415 0 -0.0079517599636902882 0.037433901221989675 0 -0.0080862794147596121 0.037923462897983505 0 -0.0076713903867384964 0.03805672068163346 0 -0.0080542877686847428 0.038223074144472721 0 -0.0080628374887121851 0.03772315965913723 0 -0.0080862794147596121 0.037923462897983505 0 -0.0076713903867384964 0.03805672068163346 0 -0.0076713903867384964 0.03805672068163346 0 -0.0078525506126849061 0.038599806198761154 0 -0.0073965106020508859 0.038556734971681071 0 -0.0076713903867384964 0.03805672068163346 0 -0.0080542877686847428 0.038223074144472721 0 -0.0078525506126849061 0.038599806198761154 0 -0.0082592554567747743 0.038675580762147499 0 -0.0080542877686847428 0.038223074144472721 0 -0.0078525506126849061 0.038599806198761154 0 -0.0069019404010224432 0.038992745800866056 0 -0.0073965106020508859 0.038556734971681071 0 -0.0070001808807363432 0.037931053668109158 0 -0.0076713903867384964 0.03805672068163346 0 -0.0073965106020508859 0.038556734971681071 0 -0.0070001808807363432 0.037931053668109158 0 -0.0069609908532584234 0.038131001010266036 0 -0.0061635124027533301 0.038587797147342118 0 -0.0069019404010224432 0.038992745800866056 0 -0.0070001808807363432 0.037931053668109158 0 -0.0060047754161403448 0.038676556941663276 0 -0.0069394871420133362 0.038300078206501428 0 -0.0060047754161403448 0.038676556941663276 0 -0.0060895882468060686 0.037864332212201465 0 -0.0069609908532584234 0.038131001010266036 0 -0.0081045388219358628 0.037628294778909332 0 -0.0070125504178299826 0.037473472269150696 0 -0.0060895882468060686 0.037864332212201465 0 -0.006321810310045594 0.03668572287362399 0 -0.0069394871420133362 0.038300078206501428 0 -0.0070125504178299826 0.037473472269150696 0 -0.0079189673909230169 0.037821070695019866 0 -0.0069394871420133362 0.038300078206501428 0 -0.0070125504178299826 0.037473472269150696 0 -0.0060895882468060686 0.037864332212201465 0 -0.0081045388219358628 0.037628294778909332 0 -0.0090202144044399524 0.036440011570585532 0 -0.0070125504178299826 0.037473472269150696 0 -0.0079189673909230169 0.037821070695019866 0 -0.0078521938445520467 0.036785356482549568 0 -0.0082275319530322882 0.037500168357860415 0 -0.008041539834621806 0.037299164057615346 0 -0.0087290951618689393 0.037442280174759326 0 -0.008041539834621806 0.037299164057615346 0 -0.0090130122426945649 0.037169994096519672 0 -0.0087290951618689393 0.037442280174759326 0 -0.0082275319530322882 0.037500168357860415 0 -0.008041539834621806 0.037299164057615346 0 -0.0079517599636902882 0.037433901221989675 0 -0.0081045388219358628 0.037628294778909332 0 -0.0081072222395313122 0.037604052887980355 0 -0.0041897662229358687 0.038710558633030571 0 -0.0050604510492892512 0.039123242993713489 0 -0.0052839410024883744 0.038390109905848201 0 -0.0041897662229358687 0.038710558633030571 0 -0.0052839410024883744 0.038390109905848201 0 -0.0050559752989181089 0.037592528465686482 0 -0.0052839410024883744 0.038390109905848201 0 -0.0060047754161403448 0.038676556941663276 0 -0.0060895882468060686 0.037864332212201465 0 -0.0050604510492892512 0.039123242993713489 0 -0.0052839410024883744 0.038390109905848201 0 -0.0060047754161403448 0.038676556941663276 0 -0.0052839410024883744 0.038390109905848201 0 -0.0060895882468060686 0.037864332212201465 0 -0.0050559752989181089 0.037592528465686482 0 -0.0060895882468060686 0.037864332212201465 0 -0.0050559752989181089 0.037592528465686482 0 -0.006321810310045594 0.03668572287362399 0 -0.0051625289491125373 0.037536272880625887 0 -0.0063668866792590253 0.036752376426959596 0 -0.0035609330713361033 0.036522614009542272 0 -0.0050559752989181089 0.037592528465686482 0 -0.0052304208119529749 0.036330190171579423 0 -0.0052304208119529749 0.036330190171579423 0 -0.006437682596711021 0.036802876655029626 0 -0.0061263191687387841 0.035705795723308405 0 -0.0050559752989181089 0.037592528465686482 0 -0.0052304208119529749 0.036330190171579423 0 -0.006437682596711021 0.036802876655029626 0 -0.0052304208119529749 0.036330190171579423 0 -0.0061263191687387841 0.035705795723308405 0 -0.0050087148822656972 0.034999952917738608 0 -0.0061263191687387841 0.035705795723308405 0 -0.0050087148822656972 0.034999952917738608 0 -0.0070899572464447839 0.034999946526897883 0 -0.0035609330713361033 0.036522614009542272 0 -0.0052304208119529749 0.036330190171579423 0 -0.0050087148822656972 0.034999952917738608 0 -0.0079189673909230169 0.037821070695019866 0 -0.0078521938445520467 0.036785356482549568 0 -0.0089133707606288189 0.036395458363718373 0 -0.008244754746240094 0.036233595549088872 0 -0.0078521938445520467 0.036785356482549568 0 -0.0077092249536389853 0.035801207928814437 0 -0.008244754746240094 0.036233595549088872 0 -0.0078521938445520467 0.036785356482549568 0 -0.0089133707606288189 0.036395458363718373 0 -0.006321810310045594 0.03668572287362399 0 -0.0078521938445520467 0.036785356482549568 0 -0.0077092249536389853 0.035801207928814437 0 -0.0063668866792590253 0.036752376426959596 0 -0.0077641494144024374 0.035866398921622203 0 -0.006437682596711021 0.036802876655029626 0 -0.0061263191687387841 0.035705795723308405 0 -0.0078199269244755842 0.035923258404812405 0 -0.0070125504178299826 0.037473472269150696 0 -0.006321810310045594 0.03668572287362399 0 -0.0078521938445520467 0.036785356482549568 0 -0.0061263191687387841 0.035705795723308405 0 -0.0070899572464447839 0.034999946526897883 0 -0.0078199269244755842 0.035923258404812405 0 -0.0070899572464447839 0.034999946526897883 0 -0.0078199269244755842 0.035923258404812405 0 -0.0091712529878903472 0.035000012794687348 0 -0.0077641494144024374 0.035866398921622203 0 -0.0091709082910194067 0.035000185587624834 0 -0.008244754746240094 0.036233595549088872 0 -0.0077092249536389853 0.035801207928814437 0 -0.009171072943709899 0.034999726472919851 0 -0.0090202144044399524 0.036440011570585532 0 -0.0099382356456173219 0.03500019143708382 0 -0.009171072943709899 0.034999726472919851 0 -0.0089133707606288189 0.036395458363718373 0 -0.0099383908378013405 0.035000143271252816 0 -0.008244754746240094 0.036233595549088872 0 -0.009171072943709899 0.034999726472919851 0 -0.0089133707606288189 0.036395458363718373 0 -0.0091337415550503346 0.036429324038055391 0 -0.0099850262912063274 0.036127060900566908 0 -0.0099386189201794237 0.03499997649385643 0 -0.0091337415550503346 0.036429324038055391 0 -0.0099850262912063274 0.036127060900566908 0 -0.0094687915708910487 0.037147052985796403 0 -0.010662502650062152 0.036238374292058138 0 -0.009434359693451605 0.036875279322214904 0 -0.0099850262912063274 0.036127060900566908 0 -0.010680470125241771 0.036437459227548229 0 -0.0094687915708910487 0.037147052985796403 0 -0.0099850262912063274 0.036127060900566908 0 -0.010680470125241771 0.036437459227548229 0 -0.010703357224481418 0.035619853484077028 0 -0.010703357224481418 0.035619853484077028 0 -0.0099386189201794237 0.03499997649385643 0 -0.011548317503986664 0.034999937199673585 0 -0.0099850262912063274 0.036127060900566908 0 -0.010703357224481418 0.035619853484077028 0 -0.0099386189201794237 0.03499997649385643 0 -0.011464822410480011 0.035554068175584388 0 -0.011754773792044041 0.035665129792006027 0 -0.012192734262841069 0.035652561209986854 0 -0.010703357224481418 0.035619853484077028 0 -0.011548317503986664 0.034999937199673585 0 -0.011464822410480011 0.035554068175584388 0 -0.010680470125241771 0.036437459227548229 0 -0.011464822410480011 0.035554068175584388 0 -0.011754773792044041 0.035665129792006027 0 -0.010680470125241771 0.036437459227548229 0 -0.010703357224481418 0.035619853484077028 0 -0.011464822410480011 0.035554068175584388 0 -0.011464822410480011 0.035554068175584388 0 -0.012192734262841069 0.035652561209986854 0 -0.012592008117113883 0.035452125523420454 0 -0.011548317503986664 0.034999937199673585 0 -0.011464822410480011 0.035554068175584388 0 -0.013213265788135109 0.035452814776271657 0 -0.011548317503986664 0.034999937199673585 0 -0.013158702838220061 0.035000010864075469 0 -0.013213265788135109 0.035452814776271657 0 -0.01158700052946007 0.035545572510532843 0 -0.012820242491084795 0.035465499396512279 0 -0.011754773792044041 0.035665129792006027 0 -0.012192734262841069 0.035652561209986854 0 -0.011894243697123025 0.036032040695999711 0 -0.012476925554745536 0.035759887108565563 0 -0.012192734262841069 0.035652561209986854 0 -0.012396021077710409 0.036136032078616473 0 -0.012476925554745536 0.035759887108565563 0 -0.012192734262841069 0.035652561209986854 0 -0.012592008117113883 0.035452125523420454 0 -0.012396021077710409 0.036136032078616473 0 -0.01173923153866388 0.036680512134475991 0 -0.01267257718646109 0.036854470530058851 0 -0.012476925554745536 0.035759887108565563 0 -0.012396021077710409 0.036136032078616473 0 -0.012707865883373881 0.035904216086284399 0 -0.012192734262841069 0.035652561209986854 0 -0.012396021077710409 0.036136032078616473 0 -0.011894243697123025 0.036032040695999711 0 -0.012396021077710409 0.036136032078616473 0 -0.011894243697123025 0.036032040695999711 0 -0.01173923153866388 0.036680512134475991 0 -0.010654766463554729 0.036038446656871503 0 -0.011362975195496564 0.036090550461720709 0 -0.01173923153866388 0.036680512134475991 0 -0.010662502650062152 0.036238374292058138 0 -0.011641212294485606 0.03571436060065504 0 -0.010654766463554729 0.036038446656871503 0 -0.011754773792044041 0.035665129792006027 0 -0.011362975195496564 0.036090550461720709 0 -0.011754773792044041 0.035665129792006027 0 -0.011894243697123025 0.036032040695999711 0 -0.011362975195496564 0.036090550461720709 0 -0.011894243697123025 0.036032040695999711 0 -0.011362975195496564 0.036090550461720709 0 -0.01173923153866388 0.036680512134475991 0 -0.010654766463554729 0.036038446656871503 0 -0.01173923153866388 0.036680512134475991 0 -0.010786763982126192 0.037090131234347401 0 -0.01173923153866388 0.036680512134475991 0 -0.011185441278868424 0.037722525769158688 0 -0.010786763982126192 0.037090131234347401 0 -0.01173923153866388 0.036680512134475991 0 -0.012338349356649413 0.037744799005137546 0 -0.011185441278868424 0.037722525769158688 0 -0.01173923153866388 0.036680512134475991 0 -0.012338349356649413 0.037744799005137546 0 -0.01267257718646109 0.036854470530058851 0 -0.012338349356649413 0.037744799005137546 0 -0.011185441278868424 0.037722525769158688 0 -0.011251260849892329 0.038513939652520784 0 -0.011185441278868424 0.037722525769158688 0 -0.010579052501367854 0.038556572504959266 0 -0.011251260849892329 0.038513939652520784 0 -0.011185441278868424 0.037722525769158688 0 -0.010149181169507642 0.037862722730550816 0 -0.010786763982126192 0.037090131234347401 0 -0.011185441278868424 0.037722525769158688 0 -0.010149181169507642 0.037862722730550816 0 -0.010579052501367854 0.038556572504959266 0 -0.010149181169507642 0.037862722730550816 0 -0.0098757377662461333 0.038629424204852873 0 -0.010579052501367854 0.038556572504959266 0 -0.010149181169507642 0.037862722730550816 0 -0.0092905487956936022 0.038309068672175574 0 -0.0098757377662461333 0.038629424204852873 0 -0.0092905487956936022 0.038309068672175574 0 -0.0087300884364337472 0.038242501080703574 0 -0.0087485067613870711 0.038683217426087407 0 -0.0092905487956936022 0.038309068672175574 0 -0.0087300884364337472 0.038242501080703574 0 -0.0088251051494291719 0.037863914583348576 0 -0.0092905487956936022 0.038309068672175574 0 -0.0088251051494291719 0.037863914583348576 0 -0.0093306999906140279 0.037639542570854001 0 -0.0088251051494291719 0.037863914583348576 0 -0.0093306999906140279 0.037639542570854001 0 -0.0087290951618689393 0.037442280174759326 0 -0.010149181169507642 0.037862722730550816 0 -0.0092905487956936022 0.038309068672175574 0 -0.0093306999906140279 0.037639542570854001 0 -0.008041539834621806 0.037299164057615346 0 -0.0090130122426945649 0.037169994096519672 0 -0.0093877382656899089 0.036600981118239624 0 -0.0081045388219358628 0.037628294778909332 0 -0.009434359693451605 0.036875279322214904 0 -0.0082885627637973788 0.037844319123476911 0 -0.0091337415550503346 0.036429324038055391 0 -0.0094687915708910487 0.037147052985796403 0 -0.010149181169507642 0.037862722730550816 0 -0.0093306999906140279 0.037639542570854001 0 -0.0099019820135324288 0.037048484701889525 0 -0.0093306999906140279 0.037639542570854001 0 -0.0090130122426945649 0.037169994096519672 0 -0.0099019820135324288 0.037048484701889525 0 -0.0093306999906140279 0.037639542570854001 0 -0.0090130122426945649 0.037169994096519672 0 -0.0087290951618689393 0.037442280174759326 0 -0.0090130122426945649 0.037169994096519672 0 -0.0093877382656899089 0.036600981118239624 0 -0.0099019820135324288 0.037048484701889525 0 -0.010654766463554729 0.036038446656871503 0 -0.0093877382656899089 0.036600981118239624 0 -0.0099019820135324288 0.037048484701889525 0 -0.010654766463554729 0.036038446656871503 0 -0.010786763982126192 0.037090131234347401 0 -0.0099019820135324288 0.037048484701889525 0 -0.010149181169507642 0.037862722730550816 0 -0.010786763982126192 0.037090131234347401 0 -0.0099019820135324288 0.037048484701889525 0 -0.018709712086892139 0.035207337746555191 0 -0.018406817900148864 0.035283090820727829 0 -0.01866105042232714 0.035424652762230599 0 -0.018067002928586824 0.035872219113513827 0 -0.01646427201561762 0.035845062327804586 0 -0.017358233105898555 0.036626505803108909 0 -0.016708743733887942 0.035958684430479761 0 -0.016397259323284032 0.036860482848600523 0 -0.017358233105898555 0.036626505803108909 0 -0.017267463994835964 0.035794582621355778 0 -0.016708743733887942 0.035958684430479761 0 -0.017080813776532821 0.035146593917662089 0 -0.016729380905568025 0.034999990670732124 0 -0.018689885246279236 0.034999980521826082 0 -0.017267463994835964 0.035794582621355778 0 -0.017080813776532821 0.035146593917662089 0 -0.016708743733887942 0.035958684430479761 0 -0.017267463994835964 0.035794582621355778 0 -0.017080813776532821 0.035146593917662089 0 -0.017949508825592864 0.035758382847743742 0 -0.016912799670784871 0.035159251532542124 0 -0.016089170188525154 0.035221541369473974 0 -0.017080813776532821 0.035146593917662089 0 -0.016708743733887942 0.035958684430479761 0 -0.016025603463443155 0.035226075539024654 0 -0.017080813776532821 0.035146593917662089 0 -0.016729380905568025 0.034999990670732124 0 -0.016003685709236947 0.035233925768144519 0 -0.016708743733887942 0.035958684430479761 0 -0.016025603463443155 0.035226075539024654 0 -0.015813146405319695 0.037004712973595116 0 -0.016025603463443155 0.035226075539024654 0 -0.015813146405319695 0.037004712973595116 0 -0.014967115647370547 0.035308267079137409 0 -0.016729380905568025 0.034999990670732124 0 -0.016003685709236947 0.035233925768144519 0 -0.014768788828982636 0.035000001577854503 0 -0.016089170188525154 0.035221541369473974 0 -0.01460169302759476 0.035278035721662326 0 -0.014836016326922588 0.036609618556800776 0 -0.01460169302759476 0.035278035721662326 0 -0.01646427201561762 0.035845062327804586 0 -0.014836016326922588 0.036609618556800776 0 -0.016708743733887942 0.035958684430479761 0 -0.016397259323284032 0.036860482848600523 0 -0.015813146405319695 0.037004712973595116 0 -0.014836016326922588 0.036609618556800776 0 -0.014458438986730882 0.036628479454004374 0 -0.014287828422564691 0.036454753172154374 0 -0.014106290203553026 0.036443146522729473 0 -0.013889309252664472 0.036228771467384173 0 -0.014287828422564691 0.036454753172154374 0 -0.013889309252664472 0.036228771467384173 0 -0.013723624363349301 0.035398711815679836 0 -0.013398733332648407 0.036331749611910331 0 -0.013889309252664472 0.036228771467384173 0 -0.013617007531670533 0.036662695561884687 0 -0.013398733332648407 0.036331749611910331 0 -0.013305884325323316 0.036859746239970521 0 -0.013617007531670533 0.036662695561884687 0 -0.013398733332648407 0.036331749611910331 0 -0.013536078933723474 0.035921372548754202 0 -0.013889309252664472 0.036228771467384173 0 -0.013398733332648407 0.036331749611910331 0 -0.013536078933723474 0.035921372548754202 0 -0.013118251683321092 0.035933063400488283 0 -0.016003685709236947 0.035233925768144519 0 -0.014927558156058108 0.035318828437923257 0 -0.014768788828982636 0.035000001577854503 0 -0.014927068562305558 0.035319287650970407 0 -0.014768770840098932 0.034999990649789814 0 -0.013213265788135109 0.035452814776271657 0 -0.013536078933723474 0.035921372548754202 0 -0.013889309252664472 0.036228771467384173 0 -0.013723624363349301 0.035398711815679836 0 -0.01460169302759476 0.035278035721662326 0 -0.014768467502571101 0.035000425632573148 0 -0.013536078933723474 0.035921372548754202 0 -0.01324376654474147 0.03567714394015007 0 -0.013118251683321092 0.035933063400488283 0 -0.013536078933723474 0.035921372548754202 0 -0.013723624363349301 0.035398711815679836 0 -0.01324376654474147 0.03567714394015007 0 -0.01324376654474147 0.03567714394015007 0 -0.012592008117113883 0.035452125523420454 0 -0.013118251683321092 0.035933063400488283 0 -0.01460169302759476 0.035278035721662326 0 -0.012820242491084795 0.035465499396512279 0 -0.013723624363349301 0.035398711815679836 0 -0.01324376654474147 0.03567714394015007 0 -0.012592008117113883 0.035452125523420454 0 -0.014768770840098932 0.034999990649789814 0 -0.013158702838220061 0.035000010864075469 0 -0.013213265788135109 0.035452814776271657 0 -0.012476925554745536 0.035759887108565563 0 -0.012592008117113883 0.035452125523420454 0 -0.012707865883373881 0.035904216086284399 0 -0.012592008117113883 0.035452125523420454 0 -0.012707865883373881 0.035904216086284399 0 -0.013118251683321092 0.035933063400488283 0 -0.012396021077710409 0.036136032078616473 0 -0.012707865883373881 0.035904216086284399 0 -0.012949165525304755 0.036295449486944124 0 -0.013398733332648407 0.036331749611910331 0 -0.013118251683321092 0.035933063400488283 0 -0.012949165525304755 0.036295449486944124 0 -0.012707865883373881 0.035904216086284399 0 -0.013118251683321092 0.035933063400488283 0 -0.012949165525304755 0.036295449486944124 0 -0.013398733332648407 0.036331749611910331 0 -0.012949165525304755 0.036295449486944124 0 -0.013305884325323316 0.036859746239970521 0 -0.012396021077710409 0.036136032078616473 0 -0.012949165525304755 0.036295449486944124 0 -0.01267257718646109 0.036854470530058851 0 -0.012949165525304755 0.036295449486944124 0 -0.01267257718646109 0.036854470530058851 0 -0.013305884325323316 0.036859746239970521 0 -0.01267257718646109 0.036854470530058851 0 -0.01305787680024614 0.037441552625744362 0 -0.013305884325323316 0.036859746239970521 0 -0.012338349356649413 0.037744799005137546 0 -0.012796521760615742 0.037766066505503126 0 -0.01305787680024614 0.037441552625744362 0 -0.012338349356649413 0.037744799005137546 0 -0.01267257718646109 0.036854470530058851 0 -0.01305787680024614 0.037441552625744362 0 -0.012338349356649413 0.037744799005137546 0 -0.012796521760615742 0.037766066505503126 0 -0.012832148652411581 0.038118394543813335 0 -0.012796521760615742 0.037766066505503126 0 -0.013117737685010273 0.037811914799674259 0 -0.01305787680024614 0.037441552625744362 0 -0.01305787680024614 0.037441552625744362 0 -0.013472744602882924 0.037366514618829567 0 -0.01346172527878065 0.037660924607023714 0 -0.013117737685010273 0.037811914799674259 0 -0.01346172527878065 0.037660924607023714 0 -0.013374723131955823 0.037862728630440524 0 -0.013117737685010273 0.037811914799674259 0 -0.01305787680024614 0.037441552625744362 0 -0.01346172527878065 0.037660924607023714 0 -0.01346172527878065 0.037660924607023714 0 -0.013619001519533828 0.03768353672644701 0 -0.013691002869699945 0.037748914642609613 0 -0.01346172527878065 0.037660924607023714 0 -0.013619001519533828 0.03768353672644701 0 -0.013629442356679688 0.037534190556619856 0 -0.013472744602882924 0.037366514618829567 0 -0.01346172527878065 0.037660924607023714 0 -0.013629442356679688 0.037534190556619856 0 -0.013472744602882924 0.037366514618829567 0 -0.013629442356679688 0.037534190556619856 0 -0.013869081745193799 0.03720987764557377 0 -0.013889309252664472 0.036228771467384173 0 -0.013617007531670533 0.036662695561884687 0 -0.013869081745193799 0.03720987764557377 0 -0.013902389614274712 0.036255326675406346 0 -0.013973334721389438 0.037021097862804615 0 -0.013472744602882924 0.037366514618829567 0 -0.013305884325323316 0.036859746239970521 0 -0.013869081745193799 0.03720987764557377 0 -0.01305787680024614 0.037441552625744362 0 -0.013472744602882924 0.037366514618829567 0 -0.013305884325323316 0.036859746239970521 0 -0.013305884325323316 0.036859746239970521 0 -0.013617007531670533 0.036662695561884687 0 -0.013869081745193799 0.03720987764557377 0 -0.014106290203553026 0.036443146522729473 0 -0.013889309252664472 0.036228771467384173 0 -0.014218328720661389 0.03679331118729174 0 -0.014705735094654237 0.036506280111429874 0 -0.014559286448519084 0.036544126345936678 0 -0.014673049173272718 0.036803475001035542 0 -0.014283470188005135 0.03641144819919636 0 -0.014550490680975452 0.036798169536405238 0 -0.014218328720661389 0.03679331118729174 0 -0.014283470188005135 0.03641144819919636 0 -0.014106290203553026 0.036443146522729473 0 -0.014218328720661389 0.03679331118729174 0 -0.014836016326922588 0.036609618556800776 0 -0.01459668762256058 0.036764798231484715 0 -0.013629442356679688 0.037534190556619856 0 -0.013869081745193799 0.03720987764557377 0 -0.013521925870961784 0.037764363548024565 0 -0.014218328720661389 0.03679331118729174 0 -0.014529110675771251 0.037014543899106821 0 -0.014408310907308562 0.037187551171927853 0 -0.013973334721389438 0.037021097862804615 0 -0.014914798919000546 0.036923842493822218 0 -0.013619001519533828 0.03768353672644701 0 -0.013629442356679688 0.037534190556619856 0 -0.013521925870961784 0.037764363548024565 0 -0.014529110675771251 0.037014543899106821 0 -0.014665877960504066 0.037216181245989216 0 -0.014408310907308562 0.037187551171927853 0 -0.014550490680975452 0.036798169536405238 0 -0.014218328720661389 0.03679331118729174 0 -0.014529110675771251 0.037014543899106821 0 -0.01459668762256058 0.036764798231484715 0 -0.014764602357100563 0.037080913661267596 0 -0.018626527397128667 0.035714968329636498 0 -0.018797564393481798 0.035982879602818089 0 -0.018876326248502193 0.036164536646568227 0 -0.014673049173272718 0.036803475001035542 0 -0.014777794283534072 0.037093037080001445 0 -0.014857354273391814 0.036879111531323443 0 -0.01675602251588339 0.03627143745136787 0 -0.016856797598597973 0.036962194376823874 0 -0.014777794283534072 0.037093037080001445 0 -0.014857354273391814 0.036879111531323443 0 -0.015056916851203198 0.037288632558015289 0 -0.014550490680975452 0.036798169536405238 0 -0.014529110675771251 0.037014543899106821 0 -0.014777794283534072 0.037093037080001445 0 -0.014529110675771251 0.037014543899106821 0 -0.014777794283534072 0.037093037080001445 0 -0.014665877960504066 0.037216181245989216 0 -0.018626527397128667 0.035714968329636498 0 -0.01866105042232714 0.035424652762230599 0 -0.01889980254734842 0.035483851000392558 0 -0.01646427201561762 0.035845062327804586 0 -0.01675602251588339 0.03627143745136787 0 -0.014705735094654237 0.036506280111429874 0 -0.014673049173272718 0.036803475001035542 0 -0.014857354273391814 0.036879111531323443 0 -0.018406817900148864 0.035283090820727829 0 -0.018626527397128667 0.035714968329636498 0 -0.01866105042232714 0.035424652762230599 0 -0.015189211223213711 0.036557672806884149 0 -0.017348145396462834 0.033941013570547476 0 -0.01477245229681653 0.03747654698232105 0 -0.015028894823611185 0.037512173752152503 0 -0.015091115702496327 0.037736088191146482 0 -0.015969106032483953 0.034831418731670949 0 -0.015806102188571959 0.035327852970210565 0 -0.01512695331392779 0.034552960584058719 0 -0.01477245229681653 0.03747654698232105 0 -0.01492475360843132 0.03739275167573735 0 -0.015028894823611185 0.037512173752152503 0 -0.01492475360843132 0.03739275167573735 0 -0.014839014125252922 0.0372920450439597 0 -0.015056916851203198 0.037288632558015289 0 -0.01477245229681653 0.03747654698232105 0 -0.01492475360843132 0.03739275167573735 0 -0.014839014125252922 0.0372920450439597 0 -0.014777794283534072 0.037093037080001445 0 -0.014839014125252922 0.0372920450439597 0 -0.015056916851203198 0.037288632558015289 0 -0.014777794283534072 0.037093037080001445 0 -0.014839014125252922 0.0372920450439597 0 -0.014665877960504066 0.037216181245989216 0 -0.01477245229681653 0.03747654698232105 0 -0.014839014125252922 0.0372920450439597 0 -0.014665877960504066 0.037216181245989216 0 -0.014914798919000546 0.036923842493822218 0 -0.014671898988113228 0.036009245626628592 0 -0.015189211223213711 0.036557672806884149 0 -0.014914798919000546 0.036923842493822218 0 -0.013521925870961784 0.037764363548024565 0 -0.01353545966494688 0.037358381032138809 0 -0.012971396266143152 0.036725412562447948 0 -0.01477245229681653 0.03747654698232105 0 -0.014665877960504066 0.037216181245989216 0 -0.014408310907308562 0.037187551171927853 0 -0.015806102188571959 0.035327852970210565 0 -0.016475034454670637 0.036102444702523516 0 -0.016332831599713164 0.035263398120943527 0 -0.013588847711742277 0.037693278790838752 0 -0.013521925870961784 0.037764363548024565 0 -0.01353545966494688 0.037358381032138809 0 -0.013619001519533828 0.03768353672644701 0 -0.013588847711742277 0.037693278790838752 0 -0.013521925870961784 0.037764363548024565 0 -0.01353545966494688 0.037358381032138809 0 -0.012971396266143152 0.036725412562447948 0 -0.0137869625838185 0.036916524024913376 0 -0.015969106032483953 0.034831418731670949 0 -0.016332831599713164 0.035263398120943527 0 -0.016176098433839776 0.034435033172442224 0 -0.014671898988113228 0.036009245626628592 0 -0.015309451722661538 0.034510331435791811 0 -0.012971396266143152 0.036725412562447948 0 -0.013431985099364099 0.035915311851172131 0 -0.0137869625838185 0.036916524024913376 0 -0.012971396266143152 0.036725412562447948 0 -0.013431985099364099 0.035915311851172131 0 -0.012679943968645911 0.035395941076081711 0 -0.015969106032483953 0.034831418731670949 0 -0.015806102188571959 0.035327852970210565 0 -0.016332831599713164 0.035263398120943527 0 -0.015768402160573007 0.03453677504244098 0 -0.015309451722661538 0.034510331435791811 0 -0.014087682359530092 0.036138855635797794 0 -0.014632416032622454 0.036963501210737479 0 -0.014738050994428546 0.035384058634438692 0 -0.013431985099364099 0.035915311851172131 0 -0.014087682359530092 0.036138855635797794 0 -0.013910164988607207 0.035345422858264093 0 -0.014087682359530092 0.036138855635797794 0 -0.0137869625838185 0.036916524024913376 0 -0.014632416032622454 0.036963501210737479 0 -0.013431985099364099 0.035915311851172131 0 -0.014087682359530092 0.036138855635797794 0 -0.0137869625838185 0.036916524024913376 0 -0.01353545966494688 0.037358381032138809 0 -0.0137869625838185 0.036916524024913376 0 -0.013691002869699945 0.037748914642609613 0 -0.0137869625838185 0.036916524024913376 0 -0.013691002869699945 0.037748914642609613 0 -0.014632416032622454 0.036963501210737479 0 -0.013588847711742277 0.037693278790838752 0 -0.01353545966494688 0.037358381032138809 0 -0.013691002869699945 0.037748914642609613 0 -0.01346172527878065 0.037660924607023714 0 -0.013691002869699945 0.037748914642609613 0 -0.013374723131955823 0.037862728630440524 0 -0.013619001519533828 0.03768353672644701 0 -0.013588847711742277 0.037693278790838752 0 -0.013691002869699945 0.037748914642609613 0 -0.013691002869699945 0.037748914642609613 0 -0.013374723131955823 0.037862728630440524 0 -0.013165186781112743 0.03832089067911032 0 -0.013374723131955823 0.037862728630440524 0 -0.013165186781112743 0.03832089067911032 0 -0.01314505689776771 0.038011498280323963 0 -0.013117737685010273 0.037811914799674259 0 -0.013374723131955823 0.037862728630440524 0 -0.01314505689776771 0.038011498280323963 0 -0.013710711612717098 0.037728113416572666 0 -0.013433959941017004 0.037146732933666646 0 -0.013165186781112743 0.03832089067911032 0 -0.01314505689776771 0.038011498280323963 0 -0.012832148652411581 0.038118394543813335 0 -0.013117737685010273 0.037811914799674259 0 -0.01314505689776771 0.038011498280323963 0 -0.012832148652411581 0.038118394543813335 0 -0.012796521760615742 0.037766066505503126 0 -0.013117737685010273 0.037811914799674259 0 -0.012832148652411581 0.038118394543813335 0 -0.012492333224162554 0.036249461964044903 0 -0.012736892988419299 0.035977376304179652 0 -0.012718421992728065 0.035764390299258819 0 -0.013433959941017004 0.037146732933666646 0 -0.013504410863001895 0.034449523858457502 0 -0.013165186781112743 0.03832089067911032 0 -0.012832148652411581 0.038118394543813335 0 -0.012676503881941498 0.038666876778104389 0 -0.014632416032622454 0.036963501210737479 0 -0.01554470959094177 0.035234551481233764 0 -0.014738050994428546 0.035384058634438692 0 -0.012832148652411581 0.038118394543813335 0 -0.012676503881941498 0.038666876778104389 0 -0.01234864386536458 0.038369452941802211 0 -0.013433959941017004 0.037146732933666646 0 -0.012553357946727111 0.037552719238113638 0 -0.013504410863001895 0.034449523858457502 0 -0.015134925591767542 0.034949566392006776 0 -0.015472136870268856 0.035214945535181508 0 -0.014738050994428546 0.035384058634438692 0 -0.014781741600443821 0.034423296960021714 0 -0.013504410863001895 0.034449523858457502 0 -0.01189525461115757 0.030017820038532705 0 -0.015472136870268856 0.035214945535181508 0 -0.014781741600443821 0.034423296960021714 0 -0.015780354565595643 0.034602532843593138 0 -0.013153717536018876 0.029960840166597013 0 -0.01189525461115757 0.030017820038532705 0 -0.010628356427415856 0.026230191105557757 0 -0.011384490811315057 0.025527831628553155 0 -0.010192794802644411 0.025321300256717433 0 -0.010628356427415856 0.026230191105557757 0 -0.011384490811315057 0.025527831628553155 0 -0.011511615347408572 0.026527147605427716 0 -0.012588705668253987 0.025742723803897694 0 -0.013025582594917678 0.025823556660558657 0 -0.012313241085865387 0.027093483888335351 0 -0.014781741600443821 0.034423296960021714 0 -0.013738026211363922 0.034213608515823453 0 -0.014158996634073674 0.034814539368969055 0 -0.016543511370264968 0.027379208336230934 0 -0.015602020003849882 0.025955388310984529 0 -0.011384490811315057 0.025527831628553155 0 -0.011511615347408572 0.026527147605427716 0 -0.012588705668253987 0.025742723803897694 0 -0.013153717536018876 0.029960840166597013 0 -0.013914546140771613 0.029232196656460416 0 -0.011511615347408572 0.026527147605427716 0 -0.012588705668253987 0.025742723803897694 0 -0.012313241085865387 0.027093483888335351 0 -0.013738026211363922 0.034213608515823453 0 -0.013633694893427584 0.034744932020103238 0 -0.014158996634073674 0.034814539368969055 0 -0.013633694893427584 0.034744932020103238 0 -0.014158996634073674 0.034814539368969055 0 -0.013910164988607207 0.035345422858264093 0 -0.013633694893427584 0.034744932020103238 0 -0.013910164988607207 0.035345422858264093 0 -0.013359557765463917 0.035172474697383195 0 -0.014738050994428546 0.035384058634438692 0 -0.014781741600443821 0.034423296960021714 0 -0.014158996634073674 0.034814539368969055 0 -0.014738050994428546 0.035384058634438692 0 -0.014158996634073674 0.034814539368969055 0 -0.013910164988607207 0.035345422858264093 0 -0.014087682359530092 0.036138855635797794 0 -0.014738050994428546 0.035384058634438692 0 -0.013910164988607207 0.035345422858264093 0 -0.013431985099364099 0.035915311851172131 0 -0.013359557765463917 0.035172474697383195 0 -0.012679943968645911 0.035395941076081711 0 -0.013431985099364099 0.035915311851172131 0 -0.013910164988607207 0.035345422858264093 0 -0.013359557765463917 0.035172474697383195 0 -0.015309451722661538 0.034510331435791811 0 -0.015095433294041906 0.031201011118121565 0 -0.015382520871579793 0.033046006782915686 0 -0.015196282068314075 0.03209343525079944 0 -0.016140907959338435 0.031604626227856231 0 -0.016894284423200956 0.031387164587531942 0 -0.015095433294041906 0.031201011118121565 0 -0.015309451722661538 0.034510331435791811 0 -0.016894284423200956 0.031387164587531942 0 -0.013633694893427584 0.034744932020103238 0 -0.013359557765463917 0.035172474697383195 0 -0.013151010352261802 0.034510587231040273 0 -0.013359557765463917 0.035172474697383195 0 -0.012679943968645911 0.035395941076081711 0 -0.013151010352261802 0.034510587231040273 0 -0.013738026211363922 0.034213608515823453 0 -0.013633694893427584 0.034744932020103238 0 -0.013151010352261802 0.034510587231040273 0 -0.015415719213473648 0.029552821717152455 0 -0.015568376406318278 0.029488918760032599 0 -0.015517431364673659 0.029574074250565491 0 -0.013914546140771613 0.029232196656460416 0 -0.015095433294041906 0.031201011118121565 0 -0.015095433294041906 0.031201011118121565 0 -0.016543511370264968 0.027379208336230934 0 -0.013914546140771613 0.029232196656460416 0 -0.016543511370264968 0.027379208336230934 0 -0.019363972976453939 0.024067549454210052 0 -0.020169027570009108 0.024653961995056903 0 -0.019635899454172018 0.025238046647799269 0 -0.019363972976453939 0.024067549454210052 0 -0.020169027570009108 0.024653961995056903 0 -0.020443192048079047 0.024257966920892476 0 -0.020169027570009108 0.024653961995056903 0 -0.020443192048079047 0.024257966920892476 0 -0.020480511437597704 0.024425883098258907 0 -0.017005322869419671 0.029288335344929989 0 -0.017019159302600857 0.02927359484702665 0 -0.017007060130816622 0.029251553403973032 0 -0.016894284423200956 0.031387164587531942 0 -0.019063487074358471 0.027849655020559722 0 -0.017019159302600857 0.02927359484702665 0 -0.017024796352564771 0.029256986685066887 0 -0.017007060130816622 0.029251553403973032 0 -0.016543511370264968 0.027379208336230934 0 -0.019063487074358471 0.027849655020559722 0 -0.019096610805363397 0.030512259166555974 0 -0.018682575821577289 0.030738896843119187 0 -0.019359928286080481 0.030865631418177705 0 -0.018609778256598378 0.03040320659812483 0 -0.019096610805363397 0.030512259166555974 0 -0.018682575821577289 0.030738896843119187 0 -0.019063487074358471 0.027849655020559722 0 -0.020841373599008273 0.027671256154224718 0 -0.020448604680111653 0.024253061792530398 0 -0.02094294320879056 0.024746801204645331 0 -0.022274081578828091 0.024664795405827548 0 -0.02094294320879056 0.024746801204645331 0 -0.021341068960939392 0.025210048055366748 0 -0.022274081578828091 0.024664795405827548 0 -0.019063487074358471 0.027849655020559722 0 -0.019054284321279417 0.02734041539700233 0 -0.020448604680111653 0.024253061792530398 0 -0.020480511437597704 0.024425883098258907 0 -0.02094294320879056 0.024746801204645331 0 -0.020169027570009108 0.024653961995056903 0 -0.020558494572088758 0.024771319596614012 0 -0.020518761809513803 0.025145996892903231 0 -0.020480511437597704 0.024425883098258907 0 -0.02094294320879056 0.024746801204645331 0 -0.020558494572088758 0.024771319596614012 0 -0.020169027570009108 0.024653961995056903 0 -0.020480511437597704 0.024425883098258907 0 -0.020558494572088758 0.024771319596614012 0 -0.015969106032483953 0.034831418731670949 0 -0.016190541286911699 0.034416464118745591 0 -0.01512695331392779 0.034552960584058719 0 -0.018609778256598378 0.03040320659812483 0 -0.019096610805363397 0.030512259166555974 0 -0.019235756116156692 0.03009924203507847 0 -0.016894284423200956 0.031387164587531942 0 -0.017348145396462834 0.033941013570547476 0 -0.016190541286911699 0.034416464118745591 0 -0.016120719034354455 0.034030031088559821 0 -0.01512695331392779 0.034552960584058719 0 -0.01167948983212363 0.039493292351003254 0 -0.0093897822978811496 0.036957010481669793 0 -0.0093013655639034333 0.040435050920205377 0 -0.010784423734924961 0.039735539125797317 0 -0.0098667121905456241 0.041330212617148025 0 -0.011314316100988731 0.039505080803481904 0 -0.010784423734924961 0.039735539125797317 0 -0.0098667121905456241 0.041330212617148025 0 -0.0086961775822013958 0.03978916337399914 0 -0.010663943690324574 0.039740336280334555 0 -0.0093013655639034333 0.040435050920205377 0 -0.0084100031228158973 0.039651630649552572 0 -0.010784423734924961 0.039735539125797317 0 -0.0093013655639034333 0.040435050920205377 0 -0.0084100031228158973 0.039651630649552572 0 -0.0081207882752973026 0.041034331995794128 0 -0.0089556532176827807 0.039911599137113084 0 -0.0092474742241718984 0.039086891943583293 0 -0.010045449500776713 0.039199702645450071 0 -0.0085228533650510436 0.03917392662353017 0 -0.0089556532176827807 0.039911599137113084 0 -0.0092474742241718984 0.039086891943583293 0 -0.0085228533650510436 0.03917392662353017 0 -0.0087485067613870711 0.038683217426087407 0 -0.0092474742241718984 0.039086891943583293 0 -0.0092905487956936022 0.038309068672175574 0 -0.0087485067613870711 0.038683217426087407 0 -0.0092474742241718984 0.039086891943583293 0 -0.0092474742241718984 0.039086891943583293 0 -0.0098757377662461333 0.038629424204852873 0 -0.010045449500776713 0.039199702645450071 0 -0.0092905487956936022 0.038309068672175574 0 -0.0092474742241718984 0.039086891943583293 0 -0.0098757377662461333 0.038629424204852873 0 -0.0089556532176827807 0.039911599137113084 0 -0.010045449500776713 0.039199702645450071 0 -0.010784423734924961 0.039735539125797317 0 -0.0098757377662461333 0.038629424204852873 0 -0.010045449500776713 0.039199702645450071 0 -0.010579052501367854 0.038556572504959266 0 -0.010045449500776713 0.039199702645450071 0 -0.010800358123975236 0.039090147994488678 0 -0.010784423734924961 0.039735539125797317 0 -0.010045449500776713 0.039199702645450071 0 -0.010579052501367854 0.038556572504959266 0 -0.010800358123975236 0.039090147994488678 0 -0.010579052501367854 0.038556572504959266 0 -0.011251260849892329 0.038513939652520784 0 -0.010800358123975236 0.039090147994488678 0 -0.012338349356649413 0.037744799005137546 0 -0.011251260849892329 0.038513939652520784 0 -0.011314316100988731 0.039505080803481904 0 -0.011251260849892329 0.038513939652520784 0 -0.011314316100988731 0.039505080803481904 0 -0.010800358123975236 0.039090147994488678 0 -0.011314316100988731 0.039505080803481904 0 -0.010800358123975236 0.039090147994488678 0 -0.010784423734924961 0.039735539125797317 0 -0.012338349356649413 0.037744799005137546 0 -0.011917434330867251 0.03833086774710362 0 -0.01234864386536458 0.038369452941802211 0 -0.012338349356649413 0.037744799005137546 0 -0.012832148652411581 0.038118394543813335 0 -0.01234864386536458 0.038369452941802211 0 -0.01233407044129123 0.037601534262551549 0 -0.01167948983212363 0.039493292351003254 0 -0.01234864386536458 0.038369452941802211 0 -0.012332647500792149 0.038679490328062976 0 -0.012037912032171447 0.038710103599394224 0 -0.012676503881941498 0.038666876778104389 0 -0.01234864386536458 0.038369452941802211 0 -0.012332647500792149 0.038679490328062976 0 -0.011917434330867251 0.03833086774710362 0 -0.012037912032171447 0.038710103599394224 0 -0.011424137155866532 0.038911062109812426 0 -0.011917434330867251 0.03833086774710362 0 -0.01234864386536458 0.038369452941802211 0 -0.012037912032171447 0.038710103599394224 0 -0.012037912032171447 0.038710103599394224 0 -0.01192718472680495 0.039009167676668684 0 -0.011424137155866532 0.038911062109812426 0 -0.012037912032171447 0.038710103599394224 0 -0.01192718472680495 0.039009167676668684 0 -0.012275826660371575 0.038961641482768865 0 -0.010109955235861541 0.033315766455296617 0 -0.010698343987799182 0.033426270811926249 0 -0.01097031531730777 0.03316973334793575 0 -0.010092607183867895 0.033094571560100552 0 -0.011291976513341934 0.03444411576115524 0 -0.010092607183867895 0.033094571560100552 0 -0.0099367988034993037 0.030583985589750649 0 -0.013504410863001895 0.034449523858457502 0 -0.011291976513341934 0.03444411576115524 0 -0.012676503881941498 0.038666876778104389 0 -0.012332647500792149 0.038679490328062976 0 -0.012275826660371575 0.038961641482768865 0 -0.012553357946727111 0.037552719238113638 0 -0.011291976513341934 0.03444411576115524 0 -0.012736892988419299 0.035977376304179652 0 -0.012718421992728065 0.035764390299258819 0 -0.01297534846396369 0.035706196190193572 0 -0.012332647500792149 0.038679490328062976 0 -0.012037912032171447 0.038710103599394224 0 -0.012275826660371575 0.038961641482768865 0 -0.011041703569131209 0.032516921740330287 0 -0.011342991110813199 0.032235729718545991 0 -0.012031607989894303 0.032702730353023429 0 -0.0099367988034993037 0.030583985589750649 0 -0.011291976513341934 0.03444411576115524 0 -0.012392991056313229 0.03206331598705988 0 -0.011342991110813199 0.032235729718545991 0 -0.012031607989894303 0.032702730353023429 0 -0.0099367988034993037 0.030583985589750649 0 -0.01189525461115757 0.030017820038532705 0 -0.0088200535671283421 0.02727745839557906 0 -0.0091472143320867529 0.027343765638445774 0 -0.0088824830960871921 0.027763498348452528 0 -0.010628356427415856 0.026230191105557757 0 -0.010192794802644411 0.025321300256717433 0 -0.0093643561095633539 0.02675314622182233 0 -0.01189525461115757 0.030017820038532705 0 -0.0091338229245356561 0.026769088359593362 0 -0.0088200535671283421 0.02727745839557906 0 -0.0083575116688654246 0.027650296355016861 0 -0.0088824830960871921 0.027763498348452528 0 -0.0081829451771536239 0.027733708013756513 0 -0.0083062275211697144 0.027765467412477284 0 -0.0080412454580356344 0.027952253118789551 0 -0.0099367988034993037 0.030583985589750649 0 -0.0081529852683170385 0.027397654148233089 0 -0.0080412454580356344 0.027952253118789551 0 -0.0078215816928046827 0.02775500530344744 0 -0.0076888805639574054 0.027876518162555687 0 -0.0081829451771536239 0.027733708013756513 0 -0.0080412454580356344 0.027952253118789551 0 -0.0078215816928046827 0.02775500530344744 0 -0.010092607183867895 0.033094571560100552 0 -0.008606922165136718 0.030719261299237147 0 -0.010092607183867895 0.033094571560100552 0 -0.0093897822978811496 0.036957010481669793 0 -0.0097931452358461946 0.03310683045364101 0 -0.0091200125706346561 0.032978504663503425 0 -0.008908522283742561 0.033247020691216614 0 -0.0093897822978811496 0.036957010481669793 0 -0.008606922165136718 0.030719261299237147 0 -0.0093013655639034333 0.040435050920205377 0 -0.0098667121905456241 0.041330212617148025 0 -0.0081207882752973026 0.041034331995794128 0 -0.0093897822978811496 0.036957010481669793 0 -0.0076411059204859006 0.037002596377820253 0 -0.0082016651426713855 0.032949617363754145 0 -0.0064189961133774721 0.032611456142966337 0 -0.0076913651099031781 0.033602951637790049 0 -0.0052919429399552438 0.033990182156666521 0 -0.0064189961133774721 0.032611456142966337 0 -0.0076913651099031781 0.033602951637790049 0 -0.007340255106024208 0.027780937962713571 0 -0.0078233171413075731 0.027716278521997394 0 -0.0076888805639574054 0.027876518162555687 0 -0.0030360696408603363 0.028545541358059395 0 -0.008606922165136718 0.030719261299237147 0 -0.008606922165136718 0.030719261299237147 0 -0.0083379032609687161 0.027741089248471105 0 -0.0076888805639574054 0.027876518162555687 0 -0.0078115299583453712 0.028150097521376573 0 -0.0075058620231072066 0.028181749399704404 0 -0.0078115299583453712 0.028150097521376573 0 -0.0078712366436826837 0.028445864788283412 0 -0.0075058620231072066 0.028181749399704404 0 -0.0078712366436826837 0.028445864788283412 0 -0.0077051083366230918 0.028857616939531709 0 -0.0075058620231072066 0.028181749399704404 0 -0.0034015854065696967 0.029047701861930189 0 -0.0031127221464024748 0.028230116244404746 0 -0.0078115299583453712 0.028150097521376573 0 -0.0081740370847197714 0.028370847697146592 0 -0.0083869141622578778 0.028011741177199598 0 -0.0078712366436826837 0.028445864788283412 0 -0.0081740370847197714 0.028370847697146592 0 -0.0081210796736795685 0.028686965402207016 0 -0.0078115299583453712 0.028150097521376573 0 -0.0078712366436826837 0.028445864788283412 0 -0.0081740370847197714 0.028370847697146592 0 -0.0081740370847197714 0.028370847697146592 0 -0.0083869141622578778 0.028011741177199598 0 -0.0084324158862904876 0.028315207203623738 0 -0.0081529852683170385 0.027397654148233089 0 -0.0078077964789587482 0.028249132911833914 0 -0.0080412454580356344 0.027952253118789551 0 -0.0076888805639574054 0.027876518162555687 0 -0.0078115299583453712 0.028150097521376573 0 -0.0083575116688654246 0.027650296355016861 0 -0.0078115299583453712 0.028150097521376573 0 -0.0083869141622578778 0.028011741177199598 0 -0.0091338229245356561 0.026769088359593362 0 -0.0086102790973366216 0.028268877985117652 0 -0.0083869141622578778 0.028011741177199598 0 -0.0088824830960871921 0.027763498348452528 0 -0.0086264058760914895 0.028186182287551393 0 -0.0083575116688654246 0.027650296355016861 0 -0.0083869141622578778 0.028011741177199598 0 -0.0088824830960871921 0.027763498348452528 0 -0.010628356427415856 0.026230191105557757 0 -0.0093643561095633539 0.02675314622182233 0 -0.010682792132053949 0.027105825367912825 0 -0.0093643561095633539 0.02675314622182233 0 -0.0096296347615167158 0.027684835362362291 0 -0.0086264058760914895 0.028186182287551393 0 -0.0093643561095633539 0.02675314622182233 0 -0.0096296347615167158 0.027684835362362291 0 -0.010682792132053949 0.027105825367912825 0 -0.0096296347615167158 0.027684835362362291 0 -0.0089603203054989394 0.028368846061027915 0 -0.010250712991725459 0.02848840801169826 0 -0.00923229929461198 0.028375506486385857 0 -0.0093739238590214696 0.02835400416357434 0 -0.0089603203054989394 0.028368846061027915 0 -0.0091428828537565583 0.02864663703272027 0 -0.0094136447356634873 0.028299795915054351 0 -0.0096296347615167158 0.027684835362362291 0 -0.0089603203054989394 0.028368846061027915 0 -0.0086264058760914895 0.028186182287551393 0 -0.0089603203054989394 0.028368846061027915 0 -0.0088428985935587179 0.02860382653903306 0 -0.0091428828537565583 0.02864663703272027 0 -0.0083869141622578778 0.028011741177199598 0 -0.0086264058760914895 0.028186182287551393 0 -0.0084324158862904876 0.028315207203623738 0 -0.0089603203054989394 0.028368846061027915 0 -0.008674657046577057 0.028432693251287684 0 -0.0088428985935587179 0.02860382653903306 0 -0.0089603203054989394 0.028368846061027915 0 -0.0086264058760914895 0.028186182287551393 0 -0.008674657046577057 0.028432693251287684 0 -0.008674657046577057 0.028432693251287684 0 -0.0084324158862904876 0.028315207203623738 0 -0.0085028771802072717 0.028655034521425517 0 -0.0081740370847197714 0.028370847697146592 0 -0.0084324158862904876 0.028315207203623738 0 -0.0085028771802072717 0.028655034521425517 0 -0.0086264058760914895 0.028186182287551393 0 -0.008674657046577057 0.028432693251287684 0 -0.0084324158862904876 0.028315207203623738 0 -0.0085028771802072717 0.028655034521425517 0 -0.0088042693355510366 0.028950108243521094 0 -0.0083688793815520548 0.029095745942019132 0 -0.008674657046577057 0.028432693251287684 0 -0.0085028771802072717 0.028655034521425517 0 -0.0088428985935587179 0.02860382653903306 0 -0.0085028771802072717 0.028655034521425517 0 -0.0088428985935587179 0.02860382653903306 0 -0.0088042693355510366 0.028950108243521094 0 -0.0091428828537565583 0.02864663703272027 0 -0.0094136447356634873 0.028299795915054351 0 -0.0096635981322799134 0.028817721951519718 0 -0.0088428985935587179 0.02860382653903306 0 -0.0088042693355510366 0.028950108243521094 0 -0.0091428828537565583 0.02864663703272027 0 -0.0088042693355510366 0.028950108243521094 0 -0.0091428828537565583 0.02864663703272027 0 -0.00924783389307492 0.028941555355123931 0 -0.0091428828537565583 0.02864663703272027 0 -0.00924783389307492 0.028941555355123931 0 -0.0096635981322799134 0.028817721951519718 0 -0.0088042693355510366 0.028950108243521094 0 -0.00924783389307492 0.028941555355123931 0 -0.0093723737400681264 0.029368360447059969 0 -0.0086282525236851502 0.028941182845988549 0 -0.010646610332723834 0.028339713809677768 0 -0.0088042693355510366 0.028950108243521094 0 -0.0089030838506495569 0.02927394477573048 0 -0.0091480372823500057 0.029187115694293171 0 -0.0089030838506495569 0.02927394477573048 0 -0.0083688793815520548 0.029095745942019132 0 -0.0085802826161865201 0.029583814711940767 0 -0.0088042693355510366 0.028950108243521094 0 -0.0089030838506495569 0.02927394477573048 0 -0.0083688793815520548 0.029095745942019132 0 -0.0083688793815520548 0.029095745942019132 0 -0.0077051083366230918 0.028857616939531709 0 -0.0079736116863259026 0.029591844221525037 0 -0.0034015854065696967 0.029047701861930189 0 -0.0039830968797671274 0.030105705966707762 0 0.000831188997304084 0.029277539650472698 0 0.00049655990986897415 0.030154315500224918 0 0.0012327230602395016 0.029869812210093265 0 -0.0078712366436826837 0.028445864788283412 0 -0.0077051083366230918 0.028857616939531709 0 -0.0081210796736795685 0.028686965402207016 0 -0.0083688793815520548 0.029095745942019132 0 -0.0077051083366230918 0.028857616939531709 0 -0.0081210796736795685 0.028686965402207016 0 -0.0085028771802072717 0.028655034521425517 0 -0.0083688793815520548 0.029095745942019132 0 -0.0081210796736795685 0.028686965402207016 0 -0.0081740370847197714 0.028370847697146592 0 -0.0085028771802072717 0.028655034521425517 0 -0.0081210796736795685 0.028686965402207016 0 -0.019746365595683185 0.026731251319876005 0 -0.020418402681430907 0.027807689019611 0 -0.021729009808692194 0.026805580796879402 0 -0.02052793361132391 0.026274310857469053 0 -0.019910790606941557 0.026877942468547227 0 -0.021729009808692194 0.026805580796879402 0 -0.020300467717290809 0.026769919712625104 0 -0.02139998374212106 0.026812651142807998 0 -0.021264957493376792 0.02615595016160227 0 -0.021729009808692194 0.026805580796879402 0 -0.02195887116870926 0.025741310002874863 0 -0.02052793361132391 0.026274310857469053 0 -0.021264957493376792 0.02615595016160227 0 -0.021729009808692194 0.026805580796879402 0 -0.021341068960939392 0.025210048055366748 0 -0.020957880862636481 0.025726106859522518 0 -0.02195887116870926 0.025741310002874863 0 -0.021264957493376792 0.02615595016160227 0 -0.020957880862636481 0.025726106859522518 0 -0.02195887116870926 0.025741310002874863 0 -0.021341068960939392 0.025210048055366748 0 -0.020518761809513803 0.025145996892903231 0 -0.020957880862636481 0.025726106859522518 0 -0.02094294320879056 0.024746801204645331 0 -0.021341068960939392 0.025210048055366748 0 -0.020518761809513803 0.025145996892903231 0 -0.02094294320879056 0.024746801204645331 0 -0.020558494572088758 0.024771319596614012 0 -0.020518761809513803 0.025145996892903231 0 -0.02052793361132391 0.026274310857469053 0 -0.021264957493376792 0.02615595016160227 0 -0.020957880862636481 0.025726106859522518 0 -0.020518761809513803 0.025145996892903231 0 -0.020957880862636481 0.025726106859522518 0 -0.020273545143689536 0.025659435052736237 0 -0.02052793361132391 0.026274310857469053 0 -0.020957880862636481 0.025726106859522518 0 -0.020273545143689536 0.025659435052736237 0 -0.019363972976453939 0.024067549454210052 0 -0.019635899454172018 0.025238046647799269 0 -0.018640516860235851 0.025387805152042506 0 -0.020273545143689536 0.025659435052736237 0 -0.019635899454172018 0.025238046647799269 0 -0.01897245426711305 0.026378855723418273 0 -0.02052793361132391 0.026274310857469053 0 -0.020273545143689536 0.025659435052736237 0 -0.01897245426711305 0.026378855723418273 0 -0.020169027570009108 0.024653961995056903 0 -0.020518761809513803 0.025145996892903231 0 -0.019635899454172018 0.025238046647799269 0 -0.020518761809513803 0.025145996892903231 0 -0.020273545143689536 0.025659435052736237 0 -0.019635899454172018 0.025238046647799269 0 -0.02052793361132391 0.026274310857469053 0 -0.019910790606941557 0.026877942468547227 0 -0.01897245426711305 0.026378855723418273 0 -0.019746365595683185 0.026731251319876005 0 -0.017718070407161574 0.026702158683564577 0 -0.01895004691171244 0.028107339738936043 0 -0.020300467717290809 0.026769919712625104 0 -0.015770693825054947 0.027248020214779442 0 -0.017893027244787509 0.02674059085542797 0 -0.01897245426711305 0.026378855723418273 0 -0.018640516860235851 0.025387805152042506 0 -0.019910790606941557 0.026877942468547227 0 -0.018017452455814108 0.026885957752248214 0 -0.01897245426711305 0.026378855723418273 0 -0.015509934758469622 0.026136405477905782 0 -0.015443976284741857 0.026136382348677819 0 -0.015475966692199285 0.026427884217253478 0 -0.015770693825054947 0.027248020214779442 0 -0.014457871511694342 0.027147252272729759 0 -0.015770693825054947 0.027248020214779442 0 -0.013611271508288527 0.027439860363221966 0 -0.013706387756743812 0.02631695828479937 0 -0.015505426384100809 0.026335179247590511 0 -0.014819344461201067 0.027620105450202829 0 -0.013611271508288527 0.027439860363221966 0 -0.014457871511694342 0.027147252272729759 0 -0.018017452455814108 0.026885957752248214 0 -0.017893027244787509 0.02674059085542797 0 -0.01897245426711305 0.026378855723418273 0 -0.014457871511694342 0.027147252272729759 0 -0.015602020003849882 0.025955388310984529 0 -0.011607604421844718 0.02837731341280501 0 -0.012313241085865387 0.027093483888335351 0 -0.011538408660273733 0.027473948265784618 0 -0.019635899454172018 0.025238046647799269 0 -0.01897245426711305 0.026378855723418273 0 -0.018640516860235851 0.025387805152042506 0 -0.011511615347408572 0.026527147605427716 0 -0.012313241085865387 0.027093483888335351 0 -0.011538408660273733 0.027473948265784618 0 -0.011538408660273733 0.027473948265784618 0 -0.010682792132053949 0.027105825367912825 0 -0.010864807470501069 0.027929384553469258 0 -0.011511615347408572 0.026527147605427716 0 -0.011538408660273733 0.027473948265784618 0 -0.010682792132053949 0.027105825367912825 0 -0.010628356427415856 0.026230191105557757 0 -0.011511615347408572 0.026527147605427716 0 -0.010682792132053949 0.027105825367912825 0 -0.0096296347615167158 0.027684835362362291 0 -0.010682792132053949 0.027105825367912825 0 -0.010864807470501069 0.027929384553469258 0 -0.0096296347615167158 0.027684835362362291 0 -0.010864807470501069 0.027929384553469258 0 -0.010250712991725459 0.02848840801169826 0 -0.011534468728190167 0.028513718554915198 0 -0.010864807470501069 0.027929384553469258 0 -0.010250712991725459 0.02848840801169826 0 -0.013611271508288527 0.027439860363221966 0 -0.0093739238590214696 0.02835400416357434 0 -0.00997886488077253 0.028284075143813314 0 -0.0094136447356634873 0.028299795915054351 0 -0.0096635981322799134 0.028817721951519718 0 -0.011607604421844718 0.02837731341280501 0 -0.011538408660273733 0.027473948265784618 0 -0.010864807470501069 0.027929384553469258 0 -0.011534468728190167 0.028513718554915198 0 -0.011607604421844718 0.02837731341280501 0 -0.010864807470501069 0.027929384553469258 0 -0.015443976284741857 0.026136382348677819 0 -0.015195162800328219 0.026564593045930496 0 -0.015475966692199285 0.026427884217253478 0 -0.013611271508288527 0.027439860363221966 0 -0.012485421872881668 0.027602367136625047 0 -0.015195162800328219 0.026564593045930496 0 -0.015320178647468598 0.026849591856818671 0 -0.015475966692199285 0.026427884217253478 0 -0.010646610332723834 0.028339713809677768 0 -0.012485421872881668 0.027602367136625047 0 -0.014916875956277581 0.027020354053374652 0 -0.015195162800328219 0.026564593045930496 0 -0.015320178647468598 0.026849591856818671 0 -0.00924783389307492 0.028941555355123931 0 -0.0093723737400681264 0.029368360447059969 0 -0.0096635981322799134 0.028817721951519718 0 -0.014916875956277581 0.027020354053374652 0 -0.015320178647468598 0.026849591856818671 0 -0.01529935873504811 0.027288782240859955 0 -0.010646610332723834 0.028339713809677768 0 -0.014617316949579077 0.026351606172756576 0 -0.015320178647468598 0.026849591856818671 0 -0.015696684437959584 0.026988918974697525 0 -0.015475966692199285 0.026427884217253478 0 -0.015320178647468598 0.026849591856818671 0 -0.015696684437959584 0.026988918974697525 0 -0.01529935873504811 0.027288782240859955 0 -0.015629719070813824 0.026948618321136233 0 -0.014617316949579077 0.026351606172756576 0 -0.015770693825054947 0.027248020214779442 0 -0.017360813977563325 0.027336230958047505 0 -0.015696684437959584 0.026988918974697525 0 -0.015475966692199285 0.026427884217253478 0 -0.01589992506218596 0.026565119160048823 0 -0.015509934758469622 0.026136405477905782 0 -0.015475966692199285 0.026427884217253478 0 -0.01589992506218596 0.026565119160048823 0 -0.01895004691171244 0.028107339738936043 0 -0.020150860252395254 0.029472141100333707 0 -0.020418402681430907 0.027807689019611 0 -0.019746365595683185 0.026731251319876005 0 -0.01895004691171244 0.028107339738936043 0 -0.020418402681430907 0.027807689019611 0 -0.017360813977563325 0.027336230958047505 0 -0.019795935364059613 0.027013311119952695 0 -0.015696684437959584 0.026988918974697525 0 -0.01589992506218596 0.026565119160048823 0 -0.016247999555439999 0.026967671936065599 0 -0.022415653854888553 0.026766649718357755 0 -0.022969061802419911 0.02657347053784893 0 -0.022935525411642541 0.026854717817326283 0 -0.019795935364059613 0.027013311119952695 0 -0.022439906055438327 0.027065013700827676 0 -0.022415653854888553 0.026766649718357755 0 -0.022828864406938876 0.026287358897532562 0 -0.022969061802419911 0.02657347053784893 0 -0.020150860252395254 0.029472141100333707 0 -0.020418402681430907 0.027807689019611 0 -0.021657030174752012 0.027602143528358321 0 -0.020418402681430907 0.027807689019611 0 -0.021729009808692194 0.026805580796879402 0 -0.021657030174752012 0.027602143528358321 0 -0.020736947459394563 0.024296347027269672 0 -0.020450272249134753 0.025064261290988321 0 -0.021203030344267015 0.024793956986583279 0 -0.022415653854888553 0.026766649718357755 0 -0.022723069491550077 0.027130128500005329 0 -0.022935525411642541 0.026854717817326283 0 -0.019795935364059613 0.027013311119952695 0 -0.021762304162513433 0.025576918169145313 0 -0.020284629373380384 0.023804534410727916 0 -0.020736947459394563 0.024296347027269672 0 -0.019684868750925 0.02452399836315285 0 -0.019795935364059613 0.027013311119952695 0 -0.016980004627748464 0.023366612677294927 0 -0.015696684437959584 0.026988918974697525 0 -0.016247999555439999 0.026967671936065599 0 -0.015807766301355147 0.027455601573317223 0 -0.017100228659590357 0.020599391584981711 0 -0.017414438882653857 0.022374701033425346 0 -0.018939858413603679 0.021881234137595563 0 -0.020736947459394563 0.024296347027269672 0 -0.019684868750925 0.02452399836315285 0 -0.020450272249134753 0.025064261290988321 0 -0.016980004627748464 0.023366612677294927 0 -0.019789492245429915 0.023543797002566421 0 -0.017100228659590357 0.020599391584981711 0 -0.016029057485263717 0.021978442577617215 0 -0.017414438882653857 0.022374701033425346 0 -0.016708183249153279 0.021068294475823063 0 -0.015598961592183149 0.021280265553031957 0 -0.016029057485263717 0.021978442577617215 0 -0.016980004627748464 0.023366612677294927 0 -0.016416784283685919 0.021201786738426927 0 -0.016980004627748464 0.023366612677294927 0 -0.014617316949579077 0.026351606172756576 0 -0.015696684437959584 0.026988918974697525 0 -0.015807766301355147 0.027455601573317223 0 -0.015420230361764051 0.027179877442311831 0 -0.016708183249153279 0.021068294475823063 0 -0.015692511022714042 0.02033305867881437 0 -0.015598961592183149 0.021280265553031957 0 -0.014617316949579077 0.026351606172756576 0 -0.00817156223442622 0.025643611183268869 0 -0.0091480372823500057 0.029187115694293171 0 -0.0094445256041634368 0.029356738617896529 0 -0.0090469368508549631 0.029622243891128646 0 -0.015692511022714042 0.02033305867881437 0 -0.015598961592183149 0.021280265553031957 0 -0.014591874157680878 0.021062612106835202 0 -0.015598961592183149 0.021280265553031957 0 -0.014992602712120592 0.022499872642358889 0 -0.014591874157680878 0.021062612106835202 0 -0.015598961592183149 0.021280265553031957 0 -0.014992602712120592 0.022499872642358889 0 -0.016029057485263717 0.021978442577617215 0 -0.014992602712120592 0.022499872642358889 0 -0.016029057485263717 0.021978442577617215 0 -0.016164864087709858 0.023153478935914726 0 -0.0085294858048426316 0.024155917408357163 0 -0.0090679841186122358 0.027579242254147505 0 -0.014992602712120592 0.022499872642358889 0 -0.016164864087709858 0.023153478935914726 0 -0.015470971334414151 0.024293878300350815 0 -0.016164864087709858 0.023153478935914726 0 -0.016940061517842928 0.024459302436053154 0 -0.015470971334414151 0.024293878300350815 0 -0.016164864087709858 0.023153478935914726 0 -0.017425630637295964 0.023488402090753122 0 -0.016940061517842928 0.024459302436053154 0 -0.016029057485263717 0.021978442577617215 0 -0.016164864087709858 0.023153478935914726 0 -0.017414438882653857 0.022374701033425346 0 -0.016164864087709858 0.023153478935914726 0 -0.017414438882653857 0.022374701033425346 0 -0.017425630637295964 0.023488402090753122 0 -0.017414438882653857 0.022374701033425346 0 -0.018838907659537874 0.02311720236215371 0 -0.018939858413603679 0.021881234137595563 0 -0.017414438882653857 0.022374701033425346 0 -0.017425630637295964 0.023488402090753122 0 -0.018838907659537874 0.02311720236215371 0 -0.017425630637295964 0.023488402090753122 0 -0.018538741441946269 0.024234122488120607 0 -0.018838907659537874 0.02311720236215371 0 -0.017425630637295964 0.023488402090753122 0 -0.018538741441946269 0.024234122488120607 0 -0.016940061517842928 0.024459302436053154 0 -0.018838907659537874 0.02311720236215371 0 -0.019856523435611718 0.023763794694941495 0 -0.020759921362826176 0.023130336884601643 0 -0.018538741441946269 0.024234122488120607 0 -0.018838907659537874 0.02311720236215371 0 -0.019856523435611718 0.023763794694941495 0 -0.019789492245429915 0.023543797002566421 0 -0.021984637750435972 0.023229792324570116 0 -0.018838907659537874 0.02311720236215371 0 -0.018939858413603679 0.021881234137595563 0 -0.020759921362826176 0.023130336884601643 0 -0.0039830968797671274 0.030105705966707762 0 -0.0024670011746957036 0.029662521860767916 0 0.00049655990986897415 0.030154315500224918 0 0.00031040065205159995 0.030828515733297316 0 0.00069602403579289063 0.030735619004659924 0 -0.0079736116863259026 0.029591844221525037 0 -0.0086044282743705739 0.030049069537040278 0 -0.0081985478579511672 0.030317660729720964 0 0.00049655990986897415 0.030154315500224918 0 0.00069602403579289063 0.030735619004659924 0 0.0009972047703697372 0.030594587938626197 0 0.00049655990986897415 0.030154315500224918 0 0.0009972047703697372 0.030594587938626197 0 0.0012327230602395016 0.029869812210093265 0 -0.0083688793815520548 0.029095745942019132 0 -0.0079736116863259026 0.029591844221525037 0 -0.0085802826161865201 0.029583814711940767 0 -0.0079736116863259026 0.029591844221525037 0 -0.0085802826161865201 0.029583814711940767 0 -0.0086044282743705739 0.030049069537040278 0 -0.0089030838506495569 0.02927394477573048 0 -0.0085802826161865201 0.029583814711940767 0 -0.0090107290653206346 0.029766411360603932 0 -0.0089030838506495569 0.02927394477573048 0 -0.0091480372823500057 0.029187115694293171 0 -0.0090469368508549631 0.029622243891128646 0 -0.0093210890607074211 0.030747295165685952 0 -0.00817156223442622 0.025643611183268869 0 -0.0022573153111314871 0.027138740390876652 0 -0.0017985537538124305 0.025418511562165996 0 -0.00073363304707559009 0.026170004642919124 0 -0.0085294858048426316 0.024155917408357163 0 -0.00817156223442622 0.025643611183268869 0 -0.00817156223442622 0.025643611183268869 0 -0.0044620598306018555 0.028260343334043554 0 -0.0085802826161865201 0.029583814711940767 0 -0.0090107290653206346 0.029766411360603932 0 -0.0086044282743705739 0.030049069537040278 0 -0.0044620598306018555 0.028260343334043554 0 -0.0024670011746957036 0.029662521860767916 0 -0.0010240407558459639 0.027556027898785605 0 -0.00032465880233257117 0.028814435037631477 0 -0.0027160747676355426 0.028850750827362368 0 -0.00073363304707559009 0.026170004642919124 0 -0.0010240407558459639 0.027556027898785605 0 0.00029688643926261218 0.026921501371564453 0 -0.0022573153111314871 0.027138740390876652 0 -0.00073363304707559009 0.026170004642919124 0 -0.0010240407558459639 0.027556027898785605 0 -0.0022573153111314871 0.027138740390876652 0 -0.0010240407558459639 0.027556027898785605 0 -0.0027160747676355426 0.028850750827362368 0 -0.0010240407558459639 0.027556027898785605 0 -0.00032465880233257117 0.028814435037631477 0 0.00029688643926261218 0.026921501371564453 0 2.9904975531806628e-05 0.029401270002295511 0 -0.0024670011746957036 0.029662521860767916 0 -0.00037718110486526088 0.030639440236157563 0 -0.00012363227047809523 0.030098713153448916 0 0.00024569424895926105 0.030376634988371256 0 -0.00037718110486526088 0.030639440236157563 0 0.00024569424895926105 0.030376634988371256 0 0.00013920047926006688 0.030838507001238542 0 0.00031040065205159995 0.030828515733297316 0 0.00069602403579289063 0.030735619004659924 0 0.00069005351062109233 0.031002810721370427 0 -0.0024670011746957036 0.029662521860767916 0 0.00084274008545860289 0.030957291120621327 0 0.00069602403579289063 0.030735619004659924 0 0.00069005351062109233 0.031002810721370427 0 0.00098878234908898483 0.030957681445688431 0 0.00069602403579289063 0.030735619004659924 0 0.00098878234908898483 0.030957681445688431 0 0.0009972047703697372 0.030594587938626197 0 0.00024569424895926105 0.030376634988371256 0 0.00080469287092654993 0.030948824309432119 0 0.00013920047926006688 0.030838507001238542 0 0.00084274008545860289 0.030957291120621327 0 0.00062409309710112352 0.03081337417692346 0 0.00069005351062109233 0.031002810721370427 0 0.00080469287092654993 0.030948824309432119 0 0.00098878234908898483 0.030957681445688431 0 0.00080469287092654993 0.030948824309432119 0 0.0013296670614278909 0.031344711619239234 0 0.00098878234908898483 0.030957681445688431 0 0.00080469287092654993 0.030948824309432119 0 0.0013296670614278909 0.031344711619239234 0 0.0010110859055688576 0.031146818163710503 0 0.0013296670614278909 0.031344711619239234 0 0.0016186826963724087 0.030832207814789177 0 0.0026078221196890639 0.031104619755124224 0 0.0013296670614278909 0.031344711619239234 0 0.0016186826963724087 0.030832207814789177 0 0.00098878234908898483 0.030957681445688431 0 0.0016186826963724087 0.030832207814789177 0 0.00098878234908898483 0.030957681445688431 0 0.0009972047703697372 0.030594587938626197 0 0.0016186826963724087 0.030832207814789177 0 0.0009972047703697372 0.030594587938626197 0 0.0015752432165567504 0.030350851869806902 0 0.0016186826963724087 0.030832207814789177 0 0.0015752432165567504 0.030350851869806902 0 0.0021337442309674846 0.030465664910901906 0 0.0015752432165567504 0.030350851869806902 0 0.0019384189428197185 0.029890468242569274 0 0.0021337442309674846 0.030465664910901906 0 0.0015752432165567504 0.030350851869806902 0 0.0019384189428197185 0.029890468242569274 0 0.0012327230602395016 0.029869812210093265 0 0.0009972047703697372 0.030594587938626197 0 0.0015752432165567504 0.030350851869806902 0 0.0012327230602395016 0.029869812210093265 0 0.0027974966954567083 0.030126494655788358 0 0.0042557449067503438 0.030707682093877885 0 0.0034934230448936 0.02946721790066234 0 0.0019384189428197185 0.029890468242569274 0 0.0027974966954567083 0.030126494655788358 0 0.0021337442309674846 0.030465664910901906 0 0.0027974966954567083 0.030126494655788358 0 0.0021337442309674846 0.030465664910901906 0 0.0029067963863841093 0.030959813282695002 0 0.0016186826963724087 0.030832207814789177 0 0.0021337442309674846 0.030465664910901906 0 0.0029067963863841093 0.030959813282695002 0 0.0017377225938599412 0.030842119190013971 0 0.0029835225730486998 0.030659449139315214 0 0.0030802595690435997 0.030362188133061681 0 0.0041313389444121154 0.031026232908110851 0 0.0046041359237132323 0.030226586625440446 0 0.0027974966954567083 0.030126494655788358 0 0.0029067963863841093 0.030959813282695002 0 0.0042557449067503438 0.030707682093877885 0 0.0029835225730486998 0.030659449139315214 0 0.0044259558145503652 0.030459428158551467 0 0.0030802595690435997 0.030362188133061681 0 0.0026078221196890639 0.031104619755124224 0 0.0041313389444121154 0.031026232908110851 0 0.0026078221196890639 0.031104619755124224 0 0.0030047633375670309 0.031996746777657958 0 0.0041313389444121154 0.031026232908110851 0 0.0016186826963724087 0.030832207814789177 0 0.0030802595690435997 0.030362188133061681 0 0.0026078221196890639 0.031104619755124224 0 0.0013296670614278909 0.031344711619239234 0 0.0026078221196890639 0.031104619755124224 0 0.0030047633375670309 0.031996746777657958 0 0.0013296670614278909 0.031344711619239234 0 0.0030047633375670309 0.031996746777657958 0 0.0020464087334156693 0.033214313301196084 0 0.0030047633375670309 0.031996746777657958 0 0.0044949809997967098 0.032051515336275031 0 0.0033693896862458409 0.033229058074627796 0 0.0030047633375670309 0.031996746777657958 0 0.0044949809997967098 0.032051515336275031 0 0.0041313389444121154 0.031026232908110851 0 0.0044949809997967098 0.032051515336275031 0 0.0041313389444121154 0.031026232908110851 0 0.0058652371726925171 0.031378336451829109 0 0.0044949809997967098 0.032051515336275031 0 0.0058652371726925171 0.031378336451829109 0 0.005796704634683009 0.032651299770522481 0 0.0081769757956006248 0.032957005811107415 0 0.0077695641502158802 0.033586776023385188 0 0.0075152005996171351 0.031705904692259562 0 0.0058652371726925171 0.031378336451829109 0 0.0077289842077610466 0.033506345390933535 0 0.0058652371726925171 0.031378336451829109 0 0.0077289842077610466 0.033506345390933535 0 0.005796704634683009 0.032651299770522481 0 0.0075152005996171351 0.031705904692259562 0 0.0058652371726925171 0.031378336451829109 0 0.0065441415616019271 0.030771619467046235 0 0.0075152005996171351 0.031705904692259562 0 0.0072224493194513071 0.030441955310788599 0 0.0065441415616019271 0.030771619467046235 0 0.0058652371726925171 0.031378336451829109 0 0.0065441415616019271 0.030771619467046235 0 0.0056631830527343989 0.030206881073477243 0 0.0065441415616019271 0.030771619467046235 0 0.0056631830527343989 0.030206881073477243 0 0.0065438500931136378 0.029831179342101437 0 0.0072224493194513071 0.030441955310788599 0 0.0065441415616019271 0.030771619467046235 0 0.0065438500931136378 0.029831179342101437 0 0.0041313389444121154 0.031026232908110851 0 0.0058652371726925171 0.031378336451829109 0 0.0046041359237132323 0.030226586625440446 0 0.0058652371726925171 0.031378336451829109 0 0.0056631830527343989 0.030206881073477243 0 0.0046041359237132323 0.030226586625440446 0 0.0055721231659400169 0.030215485237594108 0 0.0044259558145503652 0.030459428158551467 0 0.0056631830527343989 0.030206881073477243 0 0.0042557449067503438 0.030707682093877885 0 0.004865376978809486 0.029397588511811762 0 0.0042557449067503438 0.030707682093877885 0 0.004865376978809486 0.029397588511811762 0 0.0034934230448936 0.02946721790066234 0 0.004865376978809486 0.029397588511811762 0 0.0041615578550710667 0.028757698384725736 0 0.0052160715011782795 0.028638045958753695 0 0.004865376978809486 0.029397588511811762 0 0.0041615578550710667 0.028757698384725736 0 0.0034934230448936 0.02946721790066234 0 0.0056631830527343989 0.030206881073477243 0 0.0065438500931136378 0.029831179342101437 0 0.0060031573047037087 0.029094102620080817 0 0.006570370784860881 0.029144084027231315 0 0.0065438500931136378 0.029831179342101437 0 0.0060031573047037087 0.029094102620080817 0 0.0056631830527343989 0.030206881073477243 0 0.004865376978809486 0.029397588511811762 0 0.0060031573047037087 0.029094102620080817 0 0.004865376978809486 0.029397588511811762 0 0.0060031573047037087 0.029094102620080817 0 0.0052160715011782795 0.028638045958753695 0 0.0063856341391618464 0.028637379891216751 0 0.006570370784860881 0.029144084027231315 0 0.0060031573047037087 0.029094102620080817 0 0.0060031573047037087 0.029094102620080817 0 0.005777082235750049 0.028068769516625607 0 0.0052160715011782795 0.028638045958753695 0 0.0063856341391618464 0.028637379891216751 0 0.0060031573047037087 0.029094102620080817 0 0.005777082235750049 0.028068769516625607 0 0.0062688100221718057 0.028296463196473273 0 0.005330721717050649 0.028420831460388228 0 0.0063368678902968904 0.028290930877898024 0 0.0063856341391618464 0.028637379891216751 0 0.005777082235750049 0.028068769516625607 0 0.0063368678902968904 0.028290930877898024 0 0.0056606417071337883 0.027983055532217544 0 0.0049121472091744256 0.0287886370694149 0 0.0041615578550710667 0.028757698384725736 0 0.0045351398771824479 0.027989350809794804 0 0.0030550757908972713 0.028230892624064204 0 0.005777082235750049 0.028068769516625607 0 0.0045351398771824479 0.027989350809794804 0 0.0052160715011782795 0.028638045958753695 0 0.0041615578550710667 0.028757698384725736 0 0.0045351398771824479 0.027989350809794804 0 0.0052160715011782795 0.028638045958753695 0 0.0044712504434389951 0.028106095776779368 0 0.0049121472091744256 0.0287886370694149 0 0.0036486253077536541 0.028949397860804072 0 0.005330721717050649 0.028420831460388228 0 0.0040893314427523763 0.028476006967275116 0 0.0028546640435161696 0.028233677986313106 0 0.0036486253077536541 0.028949397860804072 0 0.0025191400106656563 0.028966185053845867 0 0.0040893314427523763 0.028476006967275116 0 0.0027995322634452929 0.028604023497850614 0 0.0027995322634452929 0.028604023497850614 0 0.001789386966283007 0.028790951062704948 0 0.0030550757908972713 0.028230892624064204 0 0.0017132895132310516 0.028804974297758683 0 0.002481282213725791 0.029150299465929015 0 0.0025191400106656563 0.028966185053845867 0 0.0021153160812157389 0.028472730269176742 0 0.0017132895132310516 0.028804974297758683 0 0.0028546640435161696 0.028233677986313106 0 0.0025191400106656563 0.028966185053845867 0 0.0021153160812157389 0.028472730269176742 0 0.0021153160812157389 0.028472730269176742 0 0.0016606841890793448 0.028369390568306455 0 0.0017132895132310516 0.028804974297758683 0 0.0017780506992799553 0.028013633224070664 0 0.0021153160812157389 0.028472730269176742 0 0.0016606841890793448 0.028369390568306455 0 -0.0030360696408603363 0.028545541358059395 0 -0.0031127221464024748 0.028230116244404746 0 0.0014820054624475544 0.027968275511569551 0 0.0016606841890793448 0.028369390568306455 0 0.0012339573970204052 0.028534686582411525 0 0.0016606841890793448 0.028369390568306455 0 0.0012339573970204052 0.028534686582411525 0 0.0017132895132310516 0.028804974297758683 0 0.000831188997304084 0.029277539650472698 0 0.0012339573970204052 0.028534686582411525 0 0.0017132895132310516 0.028804974297758683 0 0.0017132895132310516 0.028804974297758683 0 0.0016037311570249997 0.029394937464771027 0 0.002481282213725791 0.029150299465929015 0 0.000831188997304084 0.029277539650472698 0 0.0017132895132310516 0.028804974297758683 0 0.0016037311570249997 0.029394937464771027 0 0.000831188997304084 0.029277539650472698 0 0.0012327230602395016 0.029869812210093265 0 0.0016037311570249997 0.029394937464771027 0 0.0019384189428197185 0.029890468242569274 0 0.0012327230602395016 0.029869812210093265 0 0.0016037311570249997 0.029394937464771027 0 0.0019384189428197185 0.029890468242569274 0 0.0016037311570249997 0.029394937464771027 0 0.002481282213725791 0.029150299465929015 0 0.0019384189428197185 0.029890468242569274 0 0.0027974966954567083 0.030126494655788358 0 0.002481282213725791 0.029150299465929015 0 0.0027974966954567083 0.030126494655788358 0 0.0034934230448936 0.02946721790066234 0 0.002481282213725791 0.029150299465929015 0 0.0041615578550710667 0.028757698384725736 0 0.0030550757908972713 0.028230892624064204 0 0.0034934230448936 0.02946721790066234 0 0.0030550757908972713 0.028230892624064204 0 0.0034934230448936 0.02946721790066234 0 0.002481282213725791 0.029150299465929015 0 -0.036442712976461185 0.028546818774104785 0 -0.035964818017424245 0.028762420246702867 0 -0.035932398091077837 0.028193733037271147 0 -0.036442712976461185 0.028546818774104785 0 -0.035932398091077837 0.028193733037271147 0 -0.036358202122380848 0.028071295870876815 0 -0.035341639379399624 0.027902705702083759 0 -0.034999967295678162 0.026939354733426398 0 -0.036112709084692544 0.027228178661805651 0 -0.035341639379399624 0.027902705702083759 0 -0.034999967295678162 0.026939354733426398 0 -0.035000051726547 0.02872774376445902 0 -0.035985834144588232 0.027816024001201412 0 -0.035365545901834293 0.028632055006403662 0 -0.035964818017424245 0.028762420246702867 0 -0.035932398091077837 0.028193733037271147 0 -0.03529394769016167 0.028706180830129741 0 -0.035341639379399624 0.027902705702083759 0 -0.036112709084692544 0.027228178661805651 0 -0.03529394769016167 0.028706180830129741 0 -0.035341639379399624 0.027902705702083759 0 -0.03529394769016167 0.028706180830129741 0 -0.035000051726547 0.02872774376445902 0 -0.034999967295678162 0.026939354733426398 0 -0.036112709084692544 0.027228178661805651 0 -0.035694090768547126 0.026177957411897584 0 -0.036112709084692544 0.027228178661805651 0 -0.036164641553283049 0.026204181158049112 0 -0.035694090768547126 0.026177957411897584 0 -0.036112709084692544 0.027228178661805651 0 -0.03676156939687697 0.02588299873763034 0 -0.036164641553283049 0.026204181158049112 0 -0.035985834144588232 0.027816024001201412 0 -0.036454132592470836 0.026189610096961601 0 -0.035932398091077837 0.028193733037271147 0 -0.036358202122380848 0.028071295870876815 0 -0.036375656535957653 0.027568899633043917 0 -0.036112709084692544 0.027228178661805651 0 -0.03676156939687697 0.02588299873763034 0 -0.036895933924449786 0.025850763451451399 0 -0.036442712976461185 0.028546818774104785 0 -0.036358202122380848 0.028071295870876815 0 -0.036662623013330606 0.028171468765311479 0 -0.036358202122380848 0.028071295870876815 0 -0.036531136965622851 0.027867906995019794 0 -0.036375656535957653 0.027568899633043917 0 -0.036531136965622851 0.027867906995019794 0 -0.036834601666293799 0.02779677909638139 0 -0.036662623013330606 0.028171468765311479 0 -0.036834601666293799 0.02779677909638139 0 -0.036662623013330606 0.028171468765311479 0 -0.03710317840176753 0.028242842840989307 0 -0.036662623013330606 0.028171468765311479 0 -0.03710317840176753 0.028242842840989307 0 -0.036811298332067761 0.028442388749820659 0 -0.036358202122380848 0.028071295870876815 0 -0.036531136965622851 0.027867906995019794 0 -0.036662623013330606 0.028171468765311479 0 -0.037262192946135073 0.027865374161220816 0 -0.03710317840176753 0.028242842840989307 0 -0.037612823007530154 0.028158696293338011 0 -0.036834601666293799 0.02779677909638139 0 -0.037262192946135073 0.027865374161220816 0 -0.03710317840176753 0.028242842840989307 0 -0.03710317840176753 0.028242842840989307 0 -0.036950755255677946 0.028817836955329371 0 -0.037612823007530154 0.028158696293338011 0 -0.036951448124740237 0.028826952480579 0 -0.037321967937638249 0.028502071114944984 0 -0.036950755255677946 0.028817836955329371 0 -0.037015596999528062 0.028854511478189973 0 -0.037041270027324061 0.028919088738360094 0 -0.036442712976461185 0.028546818774104785 0 -0.036950755255677946 0.028817836955329371 0 -0.036387452220906863 0.029413348853393716 0 -0.036442712976461185 0.028546818774104785 0 -0.036662623013330606 0.028171468765311479 0 -0.036811298332067761 0.028442388749820659 0 -0.03710317840176753 0.028242842840989307 0 -0.036811298332067761 0.028442388749820659 0 -0.036950755255677946 0.028817836955329371 0 -0.036442712976461185 0.028546818774104785 0 -0.036811298332067761 0.028442388749820659 0 -0.036950755255677946 0.028817836955329371 0 -0.036950755255677946 0.028817836955329371 0 -0.037073705937435621 0.028899247340996762 0 -0.036387452220906863 0.029413348853393716 0 -0.037186684321257525 0.029492659738214945 0 -0.036395353626249197 0.029449297370807752 0 -0.037491844964139001 0.030077846992570344 0 -0.037139481356486564 0.030448988321579044 0 -0.036387452220906863 0.029413348853393716 0 -0.036950755255677946 0.028817836955329371 0 -0.037073705937435621 0.028899247340996762 0 -0.037015596999528062 0.028854511478189973 0 -0.037491844964139001 0.030077846992570344 0 -0.037481870772498989 0.030467168453566097 0 -0.037684011012664241 0.030545253635934209 0 -0.037481870772498989 0.030467168453566097 0 -0.037139481356486564 0.030448988321579044 0 -0.03763498380073025 0.030925337682476468 0 -0.037491844964139001 0.030077846992570344 0 -0.037481870772498989 0.030467168453566097 0 -0.037139481356486564 0.030448988321579044 0 -0.037481870772498989 0.030467168453566097 0 -0.03763498380073025 0.030925337682476468 0 -0.037684011012664241 0.030545253635934209 0 -0.036126243428376635 0.030620251538857089 0 -0.036387452220906863 0.029413348853393716 0 -0.035622533249581485 0.029528576040974593 0 -0.037139481356486564 0.030448988321579044 0 -0.036126243428376635 0.030620251538857089 0 -0.036387452220906863 0.029413348853393716 0 -0.036442712976461185 0.028546818774104785 0 -0.035964818017424245 0.028762420246702867 0 -0.036387452220906863 0.029413348853393716 0 -0.036387452220906863 0.029413348853393716 0 -0.035819498576804852 0.029101314113988482 0 -0.035622533249581485 0.029528576040974593 0 -0.035964818017424245 0.028762420246702867 0 -0.036387452220906863 0.029413348853393716 0 -0.035819498576804852 0.029101314113988482 0 -0.03529394769016167 0.028706180830129741 0 -0.035000051726547 0.02872774376445902 0 -0.035622533249581485 0.029528576040974593 0 -0.03529394769016167 0.028706180830129741 0 -0.035819498576804852 0.029101314113988482 0 -0.035622533249581485 0.029528576040974593 0 -0.035964818017424245 0.028762420246702867 0 -0.03529394769016167 0.028706180830129741 0 -0.035819498576804852 0.029101314113988482 0 -0.035000051726547 0.02872774376445902 0 -0.035622533249581485 0.029528576040974593 0 -0.034999626081010836 0.030514658559841375 0 -0.036126243428376635 0.030620251538857089 0 -0.035622533249581485 0.029528576040974593 0 -0.034999626081010836 0.030514658559841375 0 -0.034999626081010836 0.030514658559841375 0 -0.035257912778839551 0.032628278913983726 0 -0.034999268776371495 0.032304351039466113 0 -0.036126243428376635 0.030620251538857089 0 -0.034999626081010836 0.030514658559841375 0 -0.035257912778839551 0.032628278913983726 0 -0.036126243428376635 0.030620251538857089 0 -0.035257912778839551 0.032628278913983726 0 -0.036914218641092629 0.031566809493168112 0 -0.034431282794802356 0.034230846469456247 0 -0.034959108554126463 0.033559994525422014 0 -0.034591109783653456 0.033522024580503483 0 -0.035223940999673603 0.032667395411828615 0 -0.035720531044237114 0.032498655805377426 0 -0.034959108554126463 0.033559994525422014 0 -0.035257912778839551 0.032628278913983726 0 -0.034591109783653456 0.033522024580503483 0 -0.034959108554126463 0.033559994525422014 0 -0.035257912778839551 0.032628278913983726 0 -0.035141673001554019 0.033379597909170437 0 -0.035257912778839551 0.032628278913983726 0 -0.034999268776371495 0.032304351039466113 0 -0.035141673001554019 0.033379597909170437 0 -0.033356129648506309 0.035415937696039561 0 -0.035000086970536894 0.034997090164027224 0 -0.031010945957271888 0.034998890867034067 0 -0.034999268776371495 0.032304351039466113 0 -0.035141673001554019 0.033379597909170437 0 -0.034999885216540835 0.034088046082960004 0 -0.035141673001554019 0.033379597909170437 0 -0.034818591920065006 0.033394283123406927 0 -0.034999885216540835 0.034088046082960004 0 -0.034959108554126463 0.033559994525422014 0 -0.035141673001554019 0.033379597909170437 0 -0.034818591920065006 0.033394283123406927 0 -0.034431282794802356 0.034230846469456247 0 -0.034959108554126463 0.033559994525422014 0 -0.034818591920065006 0.033394283123406927 0 -0.033990727991969866 0.034444493565988214 0 -0.03499949575730802 0.03409010428261864 0 -0.033356129648506309 0.035415937696039561 0 -0.035000086970536894 0.034997090164027224 0 -0.034998454499382395 0.034095279724602169 0 -0.033356129648506309 0.035415937696039561 0 -0.031010945957271888 0.034998890867034067 0 -0.031841461440527088 0.035050321530278671 0 -0.031010945957271888 0.034998890867034067 0 -0.031841461440527088 0.035050321530278671 0 -0.030601203470571835 0.035911762428484345 0 -0.033990727991969866 0.034444493565988214 0 -0.032132155110616789 0.034932568295722784 0 -0.034431282794802356 0.034230846469456247 0 -0.034818591920065006 0.033394283123406927 0 -0.031841461440527088 0.035050321530278671 0 -0.034431282794802356 0.034230846469456247 0 -0.031841461440527088 0.035050321530278671 0 -0.031189522829144126 0.036351502272385421 0 -0.031841461440527088 0.035050321530278671 0 -0.031189522829144126 0.036351502272385421 0 -0.030601203470571835 0.035911762428484345 0 -0.034431282794802356 0.034230846469456247 0 -0.035443722045797418 0.033664347847552338 0 -0.034591109783653456 0.033522024580503483 0 -0.034280381467241876 0.034363850021859293 0 -0.033347785127218914 0.034925262454017052 0 -0.037139481356486564 0.030448988321579044 0 -0.036126243428376635 0.030620251538857089 0 -0.036914218641092629 0.031566809493168112 0 -0.035720531044237114 0.032498655805377426 0 -0.036523471804075315 0.03186711298539624 0 -0.037139481356486564 0.030448988321579044 0 -0.036914218641092629 0.031566809493168112 0 -0.03763498380073025 0.030925337682476468 0 -0.035443722045797418 0.033664347847552338 0 -0.034591109783653456 0.033522024580503483 0 -0.03539573536743626 0.032778787101181033 0 -0.035443722045797418 0.033664347847552338 0 -0.03539573536743626 0.032778787101181033 0 -0.036020654838007996 0.032878941192007509 0 -0.03539573536743626 0.032778787101181033 0 -0.036020654838007996 0.032878941192007509 0 -0.036461331326973004 0.03196764085605152 0 -0.036523471804075315 0.03186711298539624 0 -0.037171218937619821 0.031373573530935964 0 -0.036844789858889469 0.033081709476028627 0 -0.037534547730080525 0.032210473078563867 0 -0.036461331326973004 0.03196764085605152 0 -0.036020654838007996 0.032878941192007509 0 -0.036844789858889469 0.033081709476028627 0 -0.036461331326973004 0.03196764085605152 0 -0.030481888805205904 0.036093652750318041 0 -0.030625299283053485 0.036061747785340832 0 -0.030545865355441494 0.036107731966006605 0 -0.033347785127218914 0.034925262454017052 0 -0.033563652717136454 0.034593599273526961 0 -0.031189522829144126 0.036351502272385421 0 -0.030625299283053485 0.036061747785340832 0 -0.030601203470571835 0.035911762428484345 0 -0.031189522829144126 0.036351502272385421 0 -0.030481888805205904 0.036093652750318041 0 -0.030625299283053485 0.036061747785340832 0 -0.035443722045797418 0.033664347847552338 0 -0.036020654838007996 0.032878941192007509 0 -0.036844789858889469 0.033081709476028627 0 -0.031010945957271888 0.034998890867034067 0 -0.02957812834351484 0.035622814526801105 0 -0.028062592773244965 0.0349998577604601 0 -0.030625299283053485 0.036061747785340832 0 -0.030601203470571835 0.035911762428484345 0 -0.030545865355441494 0.036107731966006605 0 -0.030465760963463071 0.036018784722475515 0 -0.029766513568031044 0.036312574242491159 0 -0.030601203470571835 0.035911762428484345 0 -0.028798029006293732 0.036589522942835316 0 -0.02957812834351484 0.035622814526801105 0 -0.028798029006293732 0.036589522942835316 0 -0.02957812834351484 0.035622814526801105 0 -0.028198301196879643 0.035897667159909462 0 -0.02957812834351484 0.035622814526801105 0 -0.028062592773244965 0.0349998577604601 0 -0.028198301196879643 0.035897667159909462 0 -0.031010945957271888 0.034998890867034067 0 -0.030601203470571835 0.035911762428484345 0 -0.02957812834351484 0.035622814526801105 0 -0.026992044502301849 0.035811758810086719 0 -0.028062592773244965 0.0349998577604601 0 -0.025886185877669037 0.034999915782880787 0 -0.026992044502301849 0.035811758810086719 0 -0.028062592773244965 0.0349998577604601 0 -0.028198301196879643 0.035897667159909462 0 -0.030545865355441494 0.036107731966006605 0 -0.030773597830732091 0.036202587301584654 0 -0.030678156225988677 0.036068064576513972 0 -0.026992044502301849 0.035811758810086719 0 -0.028198301196879643 0.035897667159909462 0 -0.027682312362861797 0.036495426245473236 0 -0.029766513568031044 0.036312574242491159 0 -0.028571890773479446 0.036363327742995596 0 -0.028798029006293732 0.036589522942835316 0 -0.027682312362861797 0.036495426245473236 0 -0.02717028807445869 0.036786448173351978 0 -0.028798029006293732 0.036589522942835316 0 -0.028198301196879643 0.035897667159909462 0 -0.027682312362861797 0.036495426245473236 0 -0.027677941644271401 0.036688130407065291 0 -0.028571890773479446 0.036363327742995596 0 -0.028571890773479446 0.036363327742995596 0 -0.026198233275671261 0.036444441388058753 0 -0.026992044502301849 0.035811758810086719 0 -0.027194122520828555 0.036751933812275435 0 -0.025470353787775905 0.036849855349233393 0 -0.026992044502301849 0.035811758810086719 0 -0.027682312362861797 0.036495426245473236 0 -0.027194122520828555 0.036751933812275435 0 -0.028571890773479446 0.036363327742995596 0 -0.029893390197996389 0.035972400082810212 0 -0.030773597830732091 0.036202587301584654 0 -0.030878660080929144 0.036017530712338257 0 -0.031060531616206529 0.03611589389818632 0 -0.030773597830732091 0.036202587301584654 0 -0.030878660080929144 0.036017530712338257 0 -0.030678156225988677 0.036068064576513972 0 -0.030878660080929144 0.036017530712338257 0 -0.030678156225988677 0.036068064576513972 0 -0.030872830132536448 0.035789887329590778 0 -0.030878660080929144 0.036017530712338257 0 -0.030872830132536448 0.035789887329590778 0 -0.03112996207160219 0.035899033521421632 0 -0.030878660080929144 0.036017530712338257 0 -0.03112996207160219 0.035899033521421632 0 -0.031060531616206529 0.03611589389818632 0 -0.030481888805205904 0.036093652750318041 0 -0.030545865355441494 0.036107731966006605 0 -0.030678156225988677 0.036068064576513972 0 -0.030481888805205904 0.036093652750318041 0 -0.030678156225988677 0.036068064576513972 0 -0.030872830132536448 0.035789887329590778 0 -0.038061346541065008 0.031851913228202869 0 -0.037534547730080525 0.032210473078563867 0 -0.038398340613960663 0.032381491117170258 0 -0.033563652717136454 0.034593599273526961 0 -0.03513827161244272 0.034200081625984854 0 -0.036844789858889469 0.033081709476028627 0 -0.037534547730080525 0.032210473078563867 0 -0.038398340613960663 0.032381491117170258 0 -0.038061346541065008 0.031851913228202869 0 -0.038398340613960663 0.032381491117170258 0 -0.038407688814541395 0.031617170949294789 0 -0.038398340613960663 0.032381491117170258 0 -0.038407688814541395 0.031617170949294789 0 -0.038981500858234569 0.031753590005661768 0 -0.038407688814541395 0.031617170949294789 0 -0.038643941847166366 0.031219703741707218 0 -0.038981500858234569 0.031753590005661768 0 -0.038061346541065008 0.031851913228202869 0 -0.038407688814541395 0.031617170949294789 0 -0.037845683500755289 0.031127031047125105 0 -0.038407688814541395 0.031617170949294789 0 -0.038121716775319892 0.03092274971239023 0 -0.037845683500755289 0.031127031047125105 0 -0.038407688814541395 0.031617170949294789 0 -0.038643941847166366 0.031219703741707218 0 -0.038121716775319892 0.03092274971239023 0 -0.038643941847166366 0.031219703741707218 0 -0.03853661190198554 0.030655227623538325 0 -0.038121716775319892 0.03092274971239023 0 -0.036260654958002785 0.029712083722558541 0 -0.03611816455617655 0.030336805594036436 0 -0.036976800433142637 0.030208099960207624 0 -0.038283641150242978 0.030789298412971299 0 -0.038121716775319892 0.03092274971239023 0 -0.037966382746932759 0.030591413281045476 0 -0.03688686572573846 0.030928558696397747 0 -0.038213559951101823 0.030568893652727847 0 -0.03688686572573846 0.030928558696397747 0 -0.036968756583314347 0.029510989818522432 0 -0.038121716775319892 0.03092274971239023 0 -0.037920821561200996 0.030836846074238103 0 -0.037966382746932759 0.030591413281045476 0 -0.037845683500755289 0.031127031047125105 0 -0.037773159719399048 0.030726973881458213 0 -0.037830592497634895 0.030713899676440046 0 -0.037920821561200996 0.030836846074238103 0 -0.037830592497634895 0.030713899676440046 0 -0.037966382746932759 0.030591413281045476 0 -0.037920821561200996 0.030836846074238103 0 -0.037845683500755289 0.031127031047125105 0 -0.037830592497634895 0.030713899676440046 0 -0.037534547730080525 0.032210473078563867 0 -0.037845683500755289 0.031127031047125105 0 -0.036461331326973004 0.03196764085605152 0 -0.038121716775319892 0.03092274971239023 0 -0.037920821561200996 0.030836846074238103 0 -0.037845683500755289 0.031127031047125105 0 -0.038061346541065008 0.031851913228202869 0 -0.037534547730080525 0.032210473078563867 0 -0.037845683500755289 0.031127031047125105 0 -0.037845683500755289 0.031127031047125105 0 -0.037788972965036555 0.030753248013164664 0 -0.037773159719399048 0.030726973881458213 0 -0.037835563592978946 0.031123077632406262 0 -0.037171218937619821 0.031373573530935964 0 -0.03763498380073025 0.030925337682476468 0 -0.037788972965036555 0.030753248013164664 0 -0.037684011012664241 0.030545253635934209 0 -0.037788972965036555 0.030753248013164664 0 -0.037773159719399048 0.030726973881458213 0 -0.037684011012664241 0.030545253635934209 0 -0.037186684321257525 0.029492659738214945 0 -0.03737557300879743 0.029661256513674107 0 -0.037773159719399048 0.030726973881458213 0 -0.037684011012664241 0.030545253635934209 0 -0.037733850034988796 0.030539285028150679 0 -0.037491844964139001 0.030077846992570344 0 -0.037684011012664241 0.030545253635934209 0 -0.037733850034988796 0.030539285028150679 0 -0.037073705937435621 0.028899247340996762 0 -0.036897437039504301 0.028765366783901875 0 -0.037015596999528062 0.028854511478189973 0 -0.037830592497634895 0.030713899676440046 0 -0.037733850034988796 0.030539285028150679 0 -0.037966382746932759 0.030591413281045476 0 -0.037773159719399048 0.030726973881458213 0 -0.037830592497634895 0.030713899676440046 0 -0.037733850034988796 0.030539285028150679 0 -0.036897437039504301 0.028765366783901875 0 -0.036762184064826189 0.028885338950122401 0 -0.036620592196345031 0.02878844343926323 0 -0.03737557300879743 0.029661256513674107 0 -0.036968756583314347 0.029510989818522432 0 -0.036897437039504301 0.028765366783901875 0 -0.037015596999528062 0.028854511478189973 0 -0.037041270027324061 0.028919088738360094 0 -0.036897437039504301 0.028765366783901875 0 -0.036762184064826189 0.028885338950122401 0 -0.037041270027324061 0.028919088738360094 0 -0.037612823007530154 0.028158696293338011 0 -0.038145135791280066 0.027668094257630022 0 -0.03756323760658635 0.027690345800774615 0 -0.037262192946135073 0.027865374161220816 0 -0.037612823007530154 0.028158696293338011 0 -0.03756323760658635 0.027690345800774615 0 -0.036762184064826189 0.028885338950122401 0 -0.037041270027324061 0.028919088738360094 0 -0.036687384504336409 0.029342321142648495 0 -0.037321967937638249 0.028502071114944984 0 -0.037414452890658471 0.02882162905160621 0 -0.036762184064826189 0.028885338950122401 0 -0.036289430946760619 0.028955047422905156 0 -0.036687384504336409 0.029342321142648495 0 -0.036289430946760619 0.028955047422905156 0 -0.036120344143049585 0.029381170494762871 0 -0.036687384504336409 0.029342321142648495 0 -0.036289430946760619 0.028955047422905156 0 -0.035848236554186085 0.029186661848423685 0 -0.036120344143049585 0.029381170494762871 0 -0.035848236554186085 0.029186661848423685 0 -0.035898832156423421 0.028783394546907721 0 -0.03545880319683669 0.02889452558740524 0 -0.036289430946760619 0.028955047422905156 0 -0.035848236554186085 0.029186661848423685 0 -0.035898832156423421 0.028783394546907721 0 -0.035898832156423421 0.028783394546907721 0 -0.035658064180679634 0.028460484526522941 0 -0.036228920161480466 0.028415056107957973 0 -0.035910887619487734 0.029389617824296357 0 -0.036968756583314347 0.029510989818522432 0 -0.035898832156423421 0.028783394546907721 0 -0.035658064180679634 0.028460484526522941 0 -0.03545880319683669 0.02889452558740524 0 -0.036762184064826189 0.028885338950122401 0 -0.036289430946760619 0.028955047422905156 0 -0.036228920161480466 0.028415056107957973 0 -0.036289430946760619 0.028955047422905156 0 -0.035898832156423421 0.028783394546907721 0 -0.036228920161480466 0.028415056107957973 0 -0.036461678094930935 0.028587268837681094 0 -0.036968756583314347 0.029510989818522432 0 -0.034807548186626645 0.03054641342627935 0 -0.03074774978240789 0.031198433125284929 0 -0.033130190608138321 0.032147269444670459 0 -0.033654819162987647 0.032236735268395218 0 -0.032570228095636436 0.03305711525523395 0 -0.033654819162987647 0.032236735268395218 0 -0.033781247639714289 0.032221291669034077 0 -0.032570228095636436 0.03305711525523395 0 -0.032902430712690243 0.031912371705554943 0 -0.033130190608138321 0.032147269444670459 0 -0.032570228095636436 0.03305711525523395 0 -0.033130190608138321 0.032147269444670459 0 -0.033508380634562997 0.031956530650681603 0 -0.033654819162987647 0.032236735268395218 0 -0.033508380634562997 0.031956530650681603 0 -0.033793448746502801 0.032219016143431714 0 -0.033538818004232557 0.031406014839634067 0 -0.033130190608138321 0.032147269444670459 0 -0.033508380634562997 0.031956530650681603 0 -0.033538818004232557 0.031406014839634067 0 -0.033508380634562997 0.031956530650681603 0 -0.033654819162987647 0.032236735268395218 0 -0.033793448746502801 0.032219016143431714 0 -0.034624629408049779 0.030632188255238935 0 -0.034807548186626645 0.03054641342627935 0 -0.036260654958002785 0.029712083722558541 0 -0.03611816455617655 0.030336805594036436 0 -0.035253289849867045 0.030462527089144629 0 -0.035658064180679634 0.028460484526522941 0 -0.035062177054113748 0.028527132564803912 0 -0.03545880319683669 0.02889452558740524 0 -0.035910887619487734 0.029389617824296357 0 -0.034807548186626645 0.03054641342627935 0 -0.035848236554186085 0.029186661848423685 0 -0.03545880319683669 0.02889452558740524 0 -0.035386234205605084 0.029386787184165441 0 -0.035062177054113748 0.028527132564803912 0 -0.03545880319683669 0.02889452558740524 0 -0.034820986134024928 0.029091570090714076 0 -0.03545880319683669 0.02889452558740524 0 -0.034820986134024928 0.029091570090714076 0 -0.035386234205605084 0.029386787184165441 0 -0.035062177054113748 0.028527132564803912 0 -0.034820986134024928 0.029091570090714076 0 -0.03443212042352025 0.028977528569029142 0 -0.034820986134024928 0.029091570090714076 0 -0.03443212042352025 0.028977528569029142 0 -0.034618679096546916 0.029402247294165927 0 -0.03074774978240789 0.031198433125284929 0 -0.025948468512233445 0.028899273675882579 0 -0.026499724727154207 0.032538063189919211 0 -0.026260562777928105 0.032584400914315505 0 -0.026298125549290681 0.032508813198415816 0 -0.026499724727154207 0.032538063189919211 0 -0.026260562777928105 0.032584400914315505 0 -0.02626618052228976 0.032672803252892568 0 -0.026260562777928105 0.032584400914315505 0 -0.026298125549290681 0.032508813198415816 0 -0.026183999826646032 0.032574714462377301 0 -0.026260562777928105 0.032584400914315505 0 -0.026183999826646032 0.032574714462377301 0 -0.026234291791717584 0.032638242147647475 0 -0.026298125549290681 0.032508813198415816 0 -0.026190971112663844 0.032487002394261652 0 -0.026183999826646032 0.032574714462377301 0 -0.026298125549290681 0.032508813198415816 0 -0.026256561577146172 0.032420834231261485 0 -0.026190971112663844 0.032487002394261652 0 -0.026298125549290681 0.032508813198415816 0 -0.026256561577146172 0.032420834231261485 0 -0.026395325470509462 0.032421103542746008 0 -0.026256561577146172 0.032420834231261485 0 -0.026395325470509462 0.032421103542746008 0 -0.026333006555329153 0.032353990079350275 0 -0.026256561577146172 0.032420834231261485 0 -0.026229782476717815 0.032346957559119718 0 -0.026333006555329153 0.032353990079350275 0 -0.026544811665277133 0.03239141675881483 0 -0.026499724727154207 0.032538063189919211 0 -0.026395325470509462 0.032421103542746008 0 -0.026499724727154207 0.032538063189919211 0 -0.026298125549290681 0.032508813198415816 0 -0.026395325470509462 0.032421103542746008 0 -0.029513190856816134 0.032558359541944762 0 -0.03074774978240789 0.031198433125284929 0 -0.026544811665277133 0.03239141675881483 0 -0.026395325470509462 0.032421103542746008 0 -0.02643381283499794 0.032309421308516967 0 -0.026544811665277133 0.03239141675881483 0 -0.02643381283499794 0.032309421308516967 0 -0.026519159182171355 0.03226397697442869 0 -0.026395325470509462 0.032421103542746008 0 -0.02643381283499794 0.032309421308516967 0 -0.026333006555329153 0.032353990079350275 0 -0.02643381283499794 0.032309421308516967 0 -0.026519159182171355 0.03226397697442869 0 -0.0264705365952538 0.032192826168507618 0 -0.026229782476717815 0.032346957559119718 0 -0.026333006555329153 0.032353990079350275 0 -0.026278873935664866 0.032275531240423823 0 -0.02643381283499794 0.032309421308516967 0 -0.026333006555329153 0.032353990079350275 0 -0.026278873935664866 0.032275531240423823 0 -0.02643381283499794 0.032309421308516967 0 -0.026278873935664866 0.032275531240423823 0 -0.026338963290857092 0.0322039013607835 0 -0.026229782476717815 0.032346957559119718 0 -0.026278873935664866 0.032275531240423823 0 -0.026138030164552479 0.032295170869650003 0 -0.02634158777382942 0.032127939246570016 0 -0.026342142056154146 0.032112446966798498 0 -0.026137021145108307 0.032166459168793189 0 -0.026338963290857092 0.0322039013607835 0 -0.02634158777382942 0.032127939246570016 0 -0.026137021145108307 0.032166459168793189 0 -0.026278873935664866 0.032275531240423823 0 -0.026338963290857092 0.0322039013607835 0 -0.026137021145108307 0.032166459168793189 0 -0.02453708590200521 0.034249703358404701 0 -0.024862319353961587 0.034271149855643716 0 -0.026519159182171355 0.03226397697442869 0 -0.0264705365952538 0.032192826168507618 0 -0.026559557264805807 0.032180480471664545 0 -0.0264705365952538 0.032192826168507618 0 -0.026552870895683301 0.032133325520854801 0 -0.026559557264805807 0.032180480471664545 0 -0.026338963290857092 0.0322039013607835 0 -0.0264705365952538 0.032192826168507618 0 -0.026410984969553433 0.032159443868311891 0 -0.02643381283499794 0.032309421308516967 0 -0.026338963290857092 0.0322039013607835 0 -0.0264705365952538 0.032192826168507618 0 -0.02634158777382942 0.032127939246570016 0 -0.026410984969553433 0.032159443868311891 0 -0.026498029921322368 0.032114091019460653 0 -0.026338963290857092 0.0322039013607835 0 -0.02634158777382942 0.032127939246570016 0 -0.026410984969553433 0.032159443868311891 0 -0.0264705365952538 0.032192826168507618 0 -0.026410984969553433 0.032159443868311891 0 -0.026498029921322368 0.032114091019460653 0 -0.0264705365952538 0.032192826168507618 0 -0.026498029921322368 0.032114091019460653 0 -0.026552870895683301 0.032133325520854801 0 -0.026498029921322368 0.032114091019460653 0 -0.026602394752812814 0.032082023709063101 0 -0.026552870895683301 0.032133325520854801 0 -0.033380924731630415 0.030029635516359447 0 -0.033222962140288449 0.03063380309269868 0 -0.03426125537770993 0.030622215793813037 0 -0.026602394752812814 0.032082023709063101 0 -0.0266426743534156 0.032114633979949833 0 -0.026552870895683301 0.032133325520854801 0 -0.031182150012800919 0.032515014418752035 0 -0.030935597608388876 0.032341324904455855 0 -0.031254199225585567 0.031097837552308626 0 -0.028760525016862201 0.031219202762767965 0 -0.030208020306903689 0.031697689481265674 0 -0.0266426743534156 0.032114633979949833 0 -0.026552870895683301 0.032133325520854801 0 -0.026559557264805807 0.032180480471664545 0 -0.032264295925082016 0.031590340069657837 0 -0.031807811750921872 0.031269078097356053 0 -0.031224430924411007 0.033582879849555734 0 -0.039642553547777536 0.031569255763736294 0 -0.039334025481653795 0.031671642650275944 0 -0.039550400265767942 0.031952765344140398 0 -0.030208020306903689 0.031697689481265674 0 -0.032925650272366026 0.032029684754607567 0 -0.032925650272366026 0.032029684754607567 0 -0.031350331463827298 0.031345634334352224 0 -0.026519159182171355 0.03226397697442869 0 -0.026616839276046723 0.032226157094458315 0 -0.026559557264805807 0.032180480471664545 0 -0.030208020306903689 0.031697689481265674 0 -0.031350331463827298 0.031345634334352224 0 -0.0266426743534156 0.032114633979949833 0 -0.026616839276046723 0.032226157094458315 0 -0.026559557264805807 0.032180480471664545 0 -0.033130190608138321 0.032147269444670459 0 -0.033222962140288449 0.03063380309269868 0 -0.033538818004232557 0.031406014839634067 0 -0.032902430712690243 0.031912371705554943 0 -0.033130190608138321 0.032147269444670459 0 -0.033094308575867523 0.03086158031081632 0 -0.029513190856816134 0.032558359541944762 0 -0.031350331463827298 0.031345634334352224 0 -0.033459867781993287 0.031806354235099712 0 -0.031350331463827298 0.031345634334352224 0 -0.033222962140288449 0.03063380309269868 0 -0.033538818004232557 0.031406014839634067 0 -0.03426125537770993 0.030622215793813037 0 -0.026544811665277133 0.03239141675881483 0 -0.026519159182171355 0.03226397697442869 0 -0.026616839276046723 0.032226157094458315 0 -0.035153717723239615 0.031230853129418999 0 -0.033793448746502801 0.032219016143431714 0 -0.033538818004232557 0.031406014839634067 0 -0.035153717723239615 0.031230853129418999 0 -0.033538818004232557 0.031406014839634067 0 -0.03426125537770993 0.030622215793813037 0 -0.03688686572573846 0.030928558696397747 0 -0.034807548186626645 0.03054641342627935 0 -0.03688686572573846 0.030928558696397747 0 -0.036939978823971042 0.0311219767783679 0 -0.038643941847166366 0.031219703741707218 0 -0.03853661190198554 0.030655227623538325 0 -0.039125252180648919 0.031132477828829858 0 -0.038643941847166366 0.031219703741707218 0 -0.039125252180648919 0.031132477828829858 0 -0.038981500858234569 0.031753590005661768 0 -0.032925650272366026 0.032029684754607567 0 -0.036939978823971042 0.0311219767783679 0 -0.039125252180648919 0.031132477828829858 0 -0.039334025481653795 0.031671642650275944 0 -0.038981500858234569 0.031753590005661768 0 -0.039642553547777536 0.031569255763736294 0 -0.039125252180648919 0.031132477828829858 0 -0.039334025481653795 0.031671642650275944 0 -0.03513827161244272 0.034200081625984854 0 -0.033166562296466341 0.032752450419266541 0 -0.038398340613960663 0.032381491117170258 0 -0.038981500858234569 0.031753590005661768 0 -0.039550400265767942 0.031952765344140398 0 -0.030872830132536448 0.035789887329590778 0 -0.031487871523682778 0.035575489119988625 0 -0.03112996207160219 0.035899033521421632 0 -0.031487871523682778 0.035575489119988625 0 -0.03112996207160219 0.035899033521421632 0 -0.031381108461958067 0.035966713174782464 0 -0.039334025481653795 0.031671642650275944 0 -0.038981500858234569 0.031753590005661768 0 -0.039550400265767942 0.031952765344140398 0 -0.029010941259840828 0.032434422609790167 0 -0.029611617825188841 0.034764791814433413 0 -0.028240541438820085 0.03546923505621747 0 -0.026354616771914738 0.032146438529153859 0 -0.026349111502419156 0.032170808107792812 0 -0.026342142056154146 0.032112446966798498 0 -0.033166562296466341 0.032752450419266541 0 -0.028430898386159836 0.035649616505543477 0 -0.026498029921322368 0.032114091019460653 0 -0.026602394752812814 0.032082023709063101 0 -0.026662364453534104 0.032008439156843101 0 -0.030208020306903689 0.031697689481265674 0 -0.028698874086390234 0.032429799834219245 0 -0.026602394752812814 0.032082023709063101 0 -0.026671158095388295 0.032124601663090155 0 -0.026662364453534104 0.032008439156843101 0 -0.032264295925082016 0.031590340069657837 0 -0.032179948360615183 0.033364146194478937 0 -0.031224430924411007 0.033582879849555734 0 -0.032925650272366026 0.032029684754607567 0 -0.033166562296466341 0.032752450419266541 0 -0.028698874086390234 0.032429799834219245 0 -0.033166562296466341 0.032752450419266541 0 -0.028698874086390234 0.032429799834219245 0 -0.026095564694912726 0.034756433284146675 0 -0.029734324718562802 0.032268484075472836 0 -0.029010941259840828 0.032434422609790167 0 -0.029611617825188841 0.034764791814433413 0 -0.026402317935085604 0.035264086093348086 0 -0.02606283254854758 0.035440504662251876 0 -0.026362651987513488 0.036022435193199712 0 -0.026095564694912726 0.034756433284146675 0 -0.024748266130359721 0.036283540609358109 0 -0.023629952229800091 0.036242202462336594 0 -0.023643335209029899 0.035996994898068881 0 -0.023395201748206453 0.036018906850498182 0 -0.026095564694912726 0.034756433284146675 0 -0.028430898386159836 0.035649616505543477 0 -0.02606283254854758 0.035440504662251876 0 -0.025907857784267949 0.036047695433505472 0 -0.026362651987513488 0.036022435193199712 0 -0.03112996207160219 0.035899033521421632 0 -0.031381108461958067 0.035966713174782464 0 -0.031060531616206529 0.03611589389818632 0 -0.028430898386159836 0.035649616505543477 0 -0.026198233275671261 0.036444441388058753 0 -0.028430898386159836 0.035649616505543477 0 -0.029893390197996389 0.035972400082810212 0 -0.027959641928667536 0.03629707283085553 0 -0.028218966373769232 0.036172935333072601 0 -0.028014894303307291 0.036063582827791235 0 -0.028480846371535157 0.036046808284084554 0 -0.028218966373769232 0.036172935333072601 0 -0.028014894303307291 0.036063582827791235 0 -0.025395218867085786 0.036901422368519878 0 -0.024707915495253942 0.036935060040867738 0 -0.024781717572368488 0.034999991358570515 0 -0.026198233275671261 0.036444441388058753 0 -0.024748266130359721 0.036283540609358109 0 -0.024748266130359721 0.036283540609358109 0 -0.023454866987508257 0.036142041428554768 0 -0.024407537310929189 0.036329569749721548 0 -0.023992147738218238 0.035755628576440678 0 -0.023703719493973131 0.036249795229443847 0 -0.024407537310929189 0.036329569749721548 0 -0.024780611865328674 0.034999829983023284 0 -0.023992147738218238 0.035755628576440678 0 -0.024748266130359721 0.036283540609358109 0 -0.024781435840173883 0.03500080879171262 0 -0.024780611865328674 0.034999829983023284 0 -0.023772952514836208 0.035327084192475752 0 -0.023992147738218238 0.035755628576440678 0 -0.026198233275671261 0.036444441388058753 0 -0.0258852948808691 0.03500123488919115 0 -0.025395218867085786 0.036901422368519878 0 -0.024781717572368488 0.034999991358570515 0 -0.025885920794272668 0.034999989331532602 0 -0.026992044502301849 0.035811758810086719 0 -0.025470353787775905 0.036849855349233393 0 -0.025886185877669037 0.034999915782880787 0 -0.022991111912540784 0.035242225708555237 0 -0.023320314551159783 0.034999998839312839 0 -0.021776849955062891 0.034999996377373867 0 -0.022759369628251702 0.034813625008134827 0 -0.021962615265622681 0.035391649035719841 0 -0.021466743625441456 0.035129511793350374 0 -0.023260708200368078 0.035240470634176874 0 -0.023219343688465593 0.035786674323997084 0 -0.02291082459475053 0.03578148361294748 0 -0.022991111912540784 0.035242225708555237 0 -0.020952750086468394 0.035751268409929114 0 -0.021776849955062891 0.034999996377373867 0 -0.022985245592403176 0.035079191106752561 0 -0.021245766710521044 0.035451820459862275 0 -0.022985245592403176 0.035079191106752561 0 -0.022430044066637331 0.035570491798439643 0 -0.024780611865328674 0.034999829983023284 0 -0.0233214138545795 0.035000045956226154 0 -0.023772952514836208 0.035327084192475752 0 -0.023260708200368078 0.035240470634176874 0 -0.023339684354436039 0.035160108912818094 0 -0.023529934826688862 0.035607694185055293 0 -0.023191719467836623 0.035231105080819107 0 -0.0233214138545795 0.035000045956226154 0 -0.023339684354436039 0.035160108912818094 0 -0.023339684354436039 0.035160108912818094 0 -0.023772952514836208 0.035327084192475752 0 -0.023529934826688862 0.035607694185055293 0 -0.022985245592403176 0.035079191106752561 0 -0.023320003424348527 0.034999989783708434 0 -0.022985245592403176 0.035079191106752561 0 -0.023112568390951639 0.035072781330543833 0 -0.0233214138545795 0.035000045956226154 0 -0.023339684354436039 0.035160108912818094 0 -0.023772952514836208 0.035327084192475752 0 -0.023772952514836208 0.035327084192475752 0 -0.023529934826688862 0.035607694185055293 0 -0.023992147738218238 0.035755628576440678 0 -0.023260708200368078 0.035240470634176874 0 -0.023529934826688862 0.035607694185055293 0 -0.023219343688465593 0.035786674323997084 0 -0.023529934826688862 0.035607694185055293 0 -0.023703719493973131 0.036249795229443847 0 -0.023219343688465593 0.035786674323997084 0 -0.023529934826688862 0.035607694185055293 0 -0.023992147738218238 0.035755628576440678 0 -0.023703719493973131 0.036249795229443847 0 -0.023454866987508257 0.036142041428554768 0 -0.023272505182540544 0.036099842434369936 0 -0.023703719493973131 0.036249795229443847 0 -0.02316481005270541 0.036073911211841087 0 -0.023219343688465593 0.035786674323997084 0 -0.02316481005270541 0.036073911211841087 0 -0.023219343688465593 0.035786674323997084 0 -0.02291082459475053 0.03578148361294748 0 -0.02316481005270541 0.036073911211841087 0 -0.022920689068991289 0.036045989591281101 0 -0.02291082459475053 0.03578148361294748 0 -0.02316481005270541 0.036073911211841087 0 -0.02296206103752808 0.036243386233946615 0 -0.022920689068991289 0.036045989591281101 0 -0.02316481005270541 0.036073911211841087 0 -0.023276315693657495 0.036195738316817549 0 -0.02296206103752808 0.036243386233946615 0 -0.023629952229800091 0.036242202462336594 0 -0.023395201748206453 0.036018906850498182 0 -0.023276315693657495 0.036195738316817549 0 -0.023395201748206453 0.036018906850498182 0 -0.02316481005270541 0.036073911211841087 0 -0.023276315693657495 0.036195738316817549 0 -0.023629952229800091 0.036242202462336594 0 -0.023276315693657495 0.036195738316817549 0 -0.023257713806852157 0.036402736194857649 0 -0.02634158777382942 0.032127939246570016 0 -0.026498029921322368 0.032114091019460653 0 -0.026662364453534104 0.032008439156843101 0 -0.025504221886283051 0.032156171789011527 0 -0.028698874086390234 0.032429799834219245 0 -0.026095564694912726 0.034756433284146675 0 -0.02453708590200521 0.034249703358404701 0 -0.02634158777382942 0.032127939246570016 0 -0.026354616771914738 0.032146438529153859 0 -0.026342142056154146 0.032112446966798498 0 -0.023276315693657495 0.036195738316817549 0 -0.023257713806852157 0.036402736194857649 0 -0.02296206103752808 0.036243386233946615 0 -0.023257713806852157 0.036402736194857649 0 -0.02296206103752808 0.036243386233946615 0 -0.022911736909314216 0.03653299339286125 0 -0.022722655192424356 0.03629256812816254 0 -0.02296206103752808 0.036243386233946615 0 -0.022911736909314216 0.03653299339286125 0 -0.022722655192424356 0.03629256812816254 0 -0.022546494018877729 0.036439492985927149 0 -0.022911736909314216 0.03653299339286125 0 -0.022722655192424356 0.03629256812816254 0 -0.022488121563493477 0.036202923359865642 0 -0.022546494018877729 0.036439492985927149 0 -0.022087574311349407 0.035992904604735594 0 -0.020284112244685067 0.035809996478466014 0 -0.022722655192424356 0.03629256812816254 0 -0.022710295914009655 0.03603243236177945 0 -0.022488121563493477 0.036202923359865642 0 -0.02296206103752808 0.036243386233946615 0 -0.022920689068991289 0.036045989591281101 0 -0.022710295914009655 0.03603243236177945 0 -0.022722655192424356 0.03629256812816254 0 -0.02296206103752808 0.036243386233946615 0 -0.022710295914009655 0.03603243236177945 0 -0.021962615265622681 0.035391649035719841 0 -0.021170599347779887 0.035963812892050327 0 -0.021466743625441456 0.035129511793350374 0 -0.022920689068991289 0.036045989591281101 0 -0.02291082459475053 0.03578148361294748 0 -0.022710295914009655 0.03603243236177945 0 -0.022430044066637331 0.035570491798439643 0 -0.022087574311349407 0.035992904604735594 0 -0.021170599347779887 0.035963812892050327 0 -0.021466743625441456 0.035129511793350374 0 -0.020185815958922975 0.035446504506284372 0 -0.019699034007636004 0.035502172756498085 0 -0.020233382641757794 0.034999996475598392 0 -0.020952750086468394 0.035751268409929114 0 -0.019699034007636004 0.035502172756498085 0 -0.020952750086468394 0.035751268409929114 0 -0.018919370138540566 0.036256903251888871 0 -0.021245766710521044 0.035451820459862275 0 -0.01926719861606787 0.035701780137216158 0 -0.020233382641757794 0.034999996475598392 0 -0.020952750086468394 0.035751268409929114 0 -0.021776849955062891 0.034999996377373867 0 -0.017080813776532821 0.035146593917662089 0 -0.017949508825592864 0.035758382847743742 0 -0.018689885246279236 0.034999980521826082 0 -0.017949508825592864 0.035758382847743742 0 -0.018689885246279236 0.034999980521826082 0 -0.018904625163605197 0.036243842269689387 0 -0.017358233105898555 0.036626505803108909 0 -0.017267463994835964 0.035794582621355778 0 -0.017949508825592864 0.035758382847743742 0 -0.019699034007636004 0.035502172756498085 0 -0.018689932812459144 0.034999993637546856 0 -0.018919370138540566 0.036256903251888871 0 -0.018690026027679236 0.035000789184673968 0 -0.01926719861606787 0.035701780137216158 0 -0.019699034007636004 0.035502172756498085 0 -0.020233382641757794 0.034999996475598392 0 -0.018689932812459144 0.034999993637546856 0 -0.01926719861606787 0.035701780137216158 0 -0.020284112244685067 0.035809996478466014 0 -0.021170599347779887 0.035963812892050327 0 -0.020185815958922975 0.035446504506284372 0 -0.02038477512785293 0.036534192928320997 0 -0.017358233105898555 0.036626505803108909 0 -0.017949508825592864 0.035758382847743742 0 -0.018904625163605197 0.036243842269689387 0 -0.018709712086892139 0.035207337746555191 0 -0.019182450342478403 0.03509789289774802 0 -0.01889980254734842 0.035483851000392558 0 -0.018067002928586824 0.035872219113513827 0 -0.01926719861606787 0.035701780137216158 0 -0.01889980254734842 0.035483851000392558 0 -0.01927611433737822 0.035612585916532963 0 -0.018903303487018616 0.03569881556196116 0 -0.018709712086892139 0.035207337746555191 0 -0.01866105042232714 0.035424652762230599 0 -0.01889980254734842 0.035483851000392558 0 -0.018626527397128667 0.035714968329636498 0 -0.01889980254734842 0.035483851000392558 0 -0.018903303487018616 0.03569881556196116 0 -0.019182450342478403 0.03509789289774802 0 -0.01889980254734842 0.035483851000392558 0 -0.01927611433737822 0.035612585916532963 0 -0.020284112244685067 0.035809996478466014 0 -0.021058560972691674 0.036537412201451326 0 -0.019454947670534382 0.03547870791692298 0 -0.019540193333125989 0.035984277236587044 0 -0.019186464205142403 0.035978211913886067 0 -0.019454947670534382 0.03547870791692298 0 -0.019186464205142403 0.035978211913886067 0 -0.018797564393481798 0.035982879602818089 0 -0.01927611433737822 0.035612585916532963 0 -0.018903303487018616 0.03569881556196116 0 -0.018797564393481798 0.035982879602818089 0 -0.020284112244685067 0.035809996478466014 0 -0.018484630469357867 0.035941865741837636 0 -0.018626527397128667 0.035714968329636498 0 -0.018903303487018616 0.03569881556196116 0 -0.018797564393481798 0.035982879602818089 0 -0.019186464205142403 0.035978211913886067 0 -0.018797564393481798 0.035982879602818089 0 -0.018876326248502193 0.036164536646568227 0 -0.018876326248502193 0.036164536646568227 0 -0.019147244052064298 0.036701094905735719 0 -0.019274377070547612 0.036251761306633483 0 -0.019186464205142403 0.035978211913886067 0 -0.018876326248502193 0.036164536646568227 0 -0.019274377070547612 0.036251761306633483 0 -0.01492475360843132 0.03739275167573735 0 -0.015056916851203198 0.037288632558015289 0 -0.015028894823611185 0.037512173752152503 0 -0.016856797598597973 0.036962194376823874 0 -0.01897791704890317 0.03545692182264619 0 -0.015056916851203198 0.037288632558015289 0 -0.015028894823611185 0.037512173752152503 0 -0.015266682911213164 0.037650046976433052 0 -0.01897791704890317 0.03545692182264619 0 -0.017348145396462834 0.033941013570547476 0 -0.015028894823611185 0.037512173752152503 0 -0.015266682911213164 0.037650046976433052 0 -0.015091115702496327 0.037736088191146482 0 -0.022647162151785541 0.033729067359712289 0 -0.021787773409156514 0.034175468027331971 0 -0.02209057505962532 0.033485301566971437 0 -0.01897791704890317 0.03545692182264619 0 -0.022786926902557493 0.034586169083557883 0 -0.019147244052064298 0.036701094905735719 0 -0.019274377070547612 0.036251761306633483 0 -0.019635519795050523 0.036456492829312029 0 -0.021787773409156514 0.034175468027331971 0 -0.021594515291810119 0.033042982978034506 0 -0.02209057505962532 0.033485301566971437 0 -0.019540193333125989 0.035984277236587044 0 -0.019274377070547612 0.036251761306633483 0 -0.019635519795050523 0.036456492829312029 0 -0.021058560972691674 0.036537412201451326 0 -0.022786926902557493 0.034586169083557883 0 -0.019540193333125989 0.035984277236587044 0 -0.019186464205142403 0.035978211913886067 0 -0.019274377070547612 0.036251761306633483 0 -0.022546494018877729 0.036439492985927149 0 -0.022911736909314216 0.03653299339286125 0 -0.022600711005665918 0.03666178114080508 0 -0.024862319353961587 0.034271149855643716 0 -0.022786926902557493 0.034586169083557883 0 -0.026137021145108307 0.032166459168793189 0 -0.026138030164552479 0.032295170869650003 0 -0.02590484443434065 0.032282070572066071 0 -0.026278873935664866 0.032275531240423823 0 -0.026137021145108307 0.032166459168793189 0 -0.026138030164552479 0.032295170869650003 0 -0.026229782476717815 0.032346957559119718 0 -0.026138030164552479 0.032295170869650003 0 -0.026125110440606284 0.0324181158076065 0 -0.026138030164552479 0.032295170869650003 0 -0.02590484443434065 0.032282070572066071 0 -0.026125110440606284 0.0324181158076065 0 -0.022786926902557493 0.034586169083557883 0 -0.023818870337796044 0.032726555514761016 0 -0.02590484443434065 0.032282070572066071 0 -0.025959886942892342 0.032460258250118182 0 -0.026125110440606284 0.0324181158076065 0 -0.025959886942892342 0.032460258250118182 0 -0.026125110440606284 0.0324181158076065 0 -0.026093177276285014 0.032512375440989214 0 -0.026256561577146172 0.032420834231261485 0 -0.026229782476717815 0.032346957559119718 0 -0.026125110440606284 0.0324181158076065 0 -0.026125110440606284 0.0324181158076065 0 -0.026190971112663844 0.032487002394261652 0 -0.026093177276285014 0.032512375440989214 0 -0.026256561577146172 0.032420834231261485 0 -0.026125110440606284 0.0324181158076065 0 -0.026190971112663844 0.032487002394261652 0 -0.026093177276285014 0.032512375440989214 0 -0.026183999826646032 0.032574714462377301 0 -0.025996688917703265 0.032636267547086061 0 -0.026190971112663844 0.032487002394261652 0 -0.026093177276285014 0.032512375440989214 0 -0.026183999826646032 0.032574714462377301 0 -0.021594515291810119 0.033042982978034506 0 -0.021882838172906403 0.0325682157574625 0 -0.021412258731497508 0.031888927837514201 0 -0.023818870337796044 0.032726555514761016 0 -0.024285350646009517 0.031075243050918414 0 -0.025959886942892342 0.032460258250118182 0 -0.026093177276285014 0.032512375440989214 0 -0.025996688917703265 0.032636267547086061 0 -0.021882838172906403 0.0325682157574625 0 -0.021764235750570314 0.031955194953325668 0 -0.021412258731497508 0.031888927837514201 0 -0.019985749477652952 0.03083279588136947 0 -0.019359928286080481 0.030865631418177705 0 -0.020064609155968655 0.030987300701436606 0 -0.021632780945814594 0.030442651606429554 0 -0.021541348916490576 0.030230016043952285 0 -0.02142800567606018 0.030205163943723627 0 -0.022009653446329408 0.032237444418127502 0 -0.021882838172906403 0.0325682157574625 0 -0.021764235750570314 0.031955194953325668 0 -0.019985749477652952 0.03083279588136947 0 -0.019359928286080481 0.030865631418177705 0 -0.019604278114626155 0.030458529256163991 0 -0.021174430480592078 0.031181798368420218 0 -0.022386643158911559 0.029993597451541846 0 -0.020841373599008273 0.027671256154224718 0 -0.021966890548292203 0.028993377007623961 0 -0.021174430480592078 0.031181798368420218 0 -0.021966890548292203 0.028993377007623961 0 -0.021174430480592078 0.031181798368420218 0 -0.02086902464793057 0.032970303855654623 0 -0.022009653446329408 0.032237444418127502 0 -0.021882838172906403 0.0325682157574625 0 -0.022331090336027364 0.032989116310852502 0 -0.019276319139068972 0.0324520050456234 0 -0.019581000235036412 0.032856439475471767 0 -0.019445764765536687 0.03292692550678411 0 -0.021174430480592078 0.031181798368420218 0 -0.019493128764724123 0.031550441209059032 0 -0.019096610805363397 0.030512259166555974 0 -0.019359928286080481 0.030865631418177705 0 -0.019604278114626155 0.030458529256163991 0 -0.019096610805363397 0.030512259166555974 0 -0.019604278114626155 0.030458529256163991 0 -0.019235756116156692 0.03009924203507847 0 -0.019631275254126314 0.033387494746313591 0 -0.019581000235036412 0.032856439475471767 0 -0.019898349965093719 0.033245846743767994 0 -0.019493128764724123 0.031550441209059032 0 -0.017348145396462834 0.033941013570547476 0 -0.01897791704890317 0.03545692182264619 0 -0.02086902464793057 0.032970303855654623 0 -0.022647162151785541 0.033729067359712289 0 -0.02209057505962532 0.033485301566971437 0 -0.022331090336027364 0.032989116310852502 0 -0.019631275254126314 0.033387494746313591 0 -0.019581000235036412 0.032856439475471767 0 -0.019445764765536687 0.03292692550678411 0 -0.021594515291810119 0.033042982978034506 0 -0.02209057505962532 0.033485301566971437 0 -0.022331090336027364 0.032989116310852502 0 -0.021594515291810119 0.033042982978034506 0 -0.021882838172906403 0.0325682157574625 0 -0.022331090336027364 0.032989116310852502 0 -0.023492473176879827 0.025967269847708436 0 -0.023214488289585791 0.02613609697828892 0 -0.023034105045704936 0.025750773960773767 0 -0.023482234391660389 0.026177241699174042 0 -0.023214488289585791 0.02613609697828892 0 -0.023486882256973714 0.026347723099361033 0 -0.023492473176879827 0.025967269847708436 0 -0.023482234391660389 0.026177241699174042 0 -0.023730053336146164 0.026249193410817356 0 -0.023492473176879827 0.025967269847708436 0 -0.023482234391660389 0.026177241699174042 0 -0.023214488289585791 0.02613609697828892 0 -0.023214488289585791 0.02613609697828892 0 -0.023034105045704936 0.025750773960773767 0 -0.022828864406938876 0.026287358897532562 0 -0.022959045813539882 0.025781824424055456 0 -0.022439906055438327 0.027065013700827676 0 -0.021729009808692194 0.026805580796879402 0 -0.023034105045704936 0.025750773960773767 0 -0.021657030174752012 0.027602143528358321 0 -0.021729009808692194 0.026805580796879402 0 -0.02195887116870926 0.025741310002874863 0 -0.023034105045704936 0.025750773960773767 0 -0.022274081578828091 0.024664795405827548 0 -0.02195887116870926 0.025741310002874863 0 -0.023034105045704936 0.025750773960773767 0 -0.021341068960939392 0.025210048055366748 0 -0.022274081578828091 0.024664795405827548 0 -0.02195887116870926 0.025741310002874863 0 -0.023492473176879827 0.025967269847708436 0 -0.023034105045704936 0.025750773960773767 0 -0.023609011461351057 0.025138817452318395 0 -0.022274081578828091 0.024664795405827548 0 -0.023034105045704936 0.025750773960773767 0 -0.023609011461351057 0.025138817452318395 0 -0.021966890548292203 0.028993377007623961 0 -0.022386643158911559 0.029993597451541846 0 -0.02442733348012709 0.028695682601935991 0 -0.024437593211993559 0.02869727672698932 0 -0.024447163016084895 0.028694452777029363 0 -0.024422998051096434 0.028695741906989928 0 -0.024447163016084895 0.028694452777029363 0 -0.02445292608598737 0.02869238947543299 0 -0.021966890548292203 0.028993377007623961 0 -0.024397045996280758 0.026743381828848268 0 -0.024422998051096434 0.028695741906989928 0 -0.02442733348012709 0.028695682601935991 0 -0.024447163016084895 0.028694452777029363 0 -0.022386643158911559 0.029993597451541846 0 -0.024285350646009517 0.031075243050918414 0 -0.024285350646009517 0.031075243050918414 0 -0.024166515254562523 0.028707573810775662 0 -0.024447163016084895 0.028694452777029363 0 -0.024476438434787529 0.028693529439012901 0 -0.024484145781887189 0.028690084704866267 0 -0.024446704707195285 0.028693283844669435 0 -0.024447163016084895 0.028694452777029363 0 -0.024484145781887189 0.028690084704866267 0 -0.026183999826646032 0.032574714462377301 0 -0.025996688917703265 0.032636267547086061 0 -0.026213571044339891 0.032669175442569497 0 -0.024285350646009517 0.031075243050918414 0 -0.025643293418122597 0.029942982441859247 0 -0.026183999826646032 0.032574714462377301 0 -0.026234291791717584 0.032638242147647475 0 -0.026213571044339891 0.032669175442569497 0 -0.025452304829131963 0.026930527505726536 0 -0.025643293418122597 0.029942982441859247 0 -0.024447163016084895 0.028694452777029363 0 -0.024476438434787529 0.028693529439012901 0 -0.02445292608598737 0.02869238947543299 0 -0.024824640649882244 0.026605446537279986 0 -0.025048761913215218 0.026427032434541826 0 -0.024977292368882534 0.026271427405077472 0 -0.025555275713101424 0.024210835878984531 0 -0.025606459850311798 0.025145398883399554 0 -0.02497100997006025 0.02522570395637929 0 -0.025452304829131963 0.026930527505726536 0 -0.02477255642170929 0.02561613570437498 0 -0.025452304829131963 0.026930527505726536 0 -0.024397045996280758 0.026743381828848268 0 -0.023492473176879827 0.025967269847708436 0 -0.023609011461351057 0.025138817452318395 0 -0.023910332642372609 0.026171593221668885 0 -0.024397045996280758 0.026743381828848268 0 -0.02414122529968718 0.026625776518496479 0 -0.023492473176879827 0.025967269847708436 0 -0.023910332642372609 0.026171593221668885 0 -0.023730053336146164 0.026249193410817356 0 -0.024952488882158758 0.025195601918221695 0 -0.025036247178386168 0.02539001752202856 0 -0.024346211061149078 0.026149779247936961 0 -0.023730053336146164 0.026249193410817356 0 -0.023752836843716481 0.026369452881107664 0 -0.023486882256973714 0.026347723099361033 0 -0.023831167044162885 0.026171880552427126 0 -0.023730053336146164 0.026249193410817356 0 -0.023752836843716481 0.026369452881107664 0 -0.024397045996280758 0.026743381828848268 0 -0.02477255642170929 0.02561613570437498 0 -0.023831167044162885 0.026171880552427126 0 -0.023752836843716481 0.026369452881107664 0 -0.023936559738346127 0.026395008549106019 0 -0.023752836843716481 0.026369452881107664 0 -0.02365542201361711 0.026529034755187249 0 -0.023936559738346127 0.026395008549106019 0 -0.023752836843716481 0.026369452881107664 0 -0.02365542201361711 0.026529034755187249 0 -0.023486882256973714 0.026347723099361033 0 -0.025606459850311798 0.025145398883399554 0 -0.02497100997006025 0.02522570395637929 0 -0.025036247178386168 0.02539001752202856 0 -0.02477255642170929 0.02561613570437498 0 -0.024790656729239635 0.025519829769101544 0 -0.025606459850311798 0.025145398883399554 0 -0.02532797926467199 0.025709694110873028 0 -0.025782720616285219 0.025745839767421563 0 -0.025606459850311798 0.025145398883399554 0 -0.025036247178386168 0.02539001752202856 0 -0.02532797926467199 0.025709694110873028 0 -0.02532797926467199 0.025709694110873028 0 -0.025270057079673881 0.026389143995086174 0 -0.025782720616285219 0.025745839767421563 0 -0.025036247178386168 0.02539001752202856 0 -0.02532797926467199 0.025709694110873028 0 -0.024930079821660019 0.025930065072188535 0 -0.02532797926467199 0.025709694110873028 0 -0.024930079821660019 0.025930065072188535 0 -0.025270057079673881 0.026389143995086174 0 -0.024930079821660019 0.025930065072188535 0 -0.024346211061149078 0.026149779247936961 0 -0.025270057079673881 0.026389143995086174 0 -0.02477255642170929 0.02561613570437498 0 -0.024000815465736933 0.026564408624089722 0 -0.02365542201361711 0.026529034755187249 0 -0.023936559738346127 0.026395008549106019 0 -0.023747521474895714 0.026816684493512426 0 -0.025036247178386168 0.02539001752202856 0 -0.024930079821660019 0.025930065072188535 0 -0.024346211061149078 0.026149779247936961 0 -0.02365542201361711 0.026529034755187249 0 -0.023747521474895714 0.026816684493512426 0 -0.023495134833607201 0.026710566067444302 0 -0.023747521474895714 0.026816684493512426 0 -0.023495134833607201 0.026710566067444302 0 -0.023376867853079596 0.026909137282610612 0 -0.023495134833607201 0.026710566067444302 0 -0.023190104058792068 0.026702776889561471 0 -0.023376867853079596 0.026909137282610612 0 -0.023495134833607201 0.026710566067444302 0 -0.023305338551396715 0.026517724829348804 0 -0.023190104058792068 0.026702776889561471 0 -0.02365542201361711 0.026529034755187249 0 -0.023495134833607201 0.026710566067444302 0 -0.023305338551396715 0.026517724829348804 0 -0.02365542201361711 0.026529034755187249 0 -0.023305338551396715 0.026517724829348804 0 -0.023486882256973714 0.026347723099361033 0 -0.023305338551396715 0.026517724829348804 0 -0.023486882256973714 0.026347723099361033 0 -0.023142866197939409 0.026349854983577635 0 -0.023214488289585791 0.02613609697828892 0 -0.023486882256973714 0.026347723099361033 0 -0.023142866197939409 0.026349854983577635 0 -0.023482234391660389 0.026177241699174042 0 -0.023730053336146164 0.026249193410817356 0 -0.023486882256973714 0.026347723099361033 0 -0.023214488289585791 0.02613609697828892 0 -0.022828864406938876 0.026287358897532562 0 -0.023142866197939409 0.026349854983577635 0 -0.023305338551396715 0.026517724829348804 0 -0.023142866197939409 0.026349854983577635 0 -0.022969061802419911 0.02657347053784893 0 -0.022828864406938876 0.026287358897532562 0 -0.023142866197939409 0.026349854983577635 0 -0.022969061802419911 0.02657347053784893 0 -0.022969061802419911 0.02657347053784893 0 -0.023190104058792068 0.026702776889561471 0 -0.022935525411642541 0.026854717817326283 0 -0.023305338551396715 0.026517724829348804 0 -0.022969061802419911 0.02657347053784893 0 -0.023190104058792068 0.026702776889561471 0 -0.023190104058792068 0.026702776889561471 0 -0.022935525411642541 0.026854717817326283 0 -0.023376867853079596 0.026909137282610612 0 -0.022723069491550077 0.027130128500005329 0 -0.022935525411642541 0.026854717817326283 0 -0.023118280158967327 0.027159769120481084 0 -0.022935525411642541 0.026854717817326283 0 -0.023118280158967327 0.027159769120481084 0 -0.023376867853079596 0.026909137282610612 0 -0.022723069491550077 0.027130128500005329 0 -0.023118280158967327 0.027159769120481084 0 -0.023054918991090946 0.027605051052330958 0 -0.023118280158967327 0.027159769120481084 0 -0.023376867853079596 0.026909137282610612 0 -0.023700780204987525 0.027274164356579009 0 -0.023747521474895714 0.026816684493512426 0 -0.023376867853079596 0.026909137282610612 0 -0.023700780204987525 0.027274164356579009 0 -0.023700780204987525 0.027274164356579009 0 -0.023054918991090946 0.027605051052330958 0 -0.023551743348624355 0.02825630841126521 0 -0.023700780204987525 0.027274164356579009 0 -0.023551743348624355 0.02825630841126521 0 -0.024534991891998627 0.027708366553260175 0 -0.023118280158967327 0.027159769120481084 0 -0.023700780204987525 0.027274164356579009 0 -0.023054918991090946 0.027605051052330958 0 -0.021762304162513433 0.025576918169145313 0 -0.022114999941930526 0.026447925124764831 0 -0.020450272249134753 0.025064261290988321 0 -0.021203030344267015 0.024793956986583279 0 -0.021231734195514215 0.025604300932256092 0 -0.021203030344267015 0.024793956986583279 0 -0.021674138066937593 0.025296612049249007 0 -0.021231734195514215 0.025604300932256092 0 -0.022114999941930526 0.026447925124764831 0 -0.024792417803717524 0.023838557386495898 0 -0.026526466905609881 0.020897442062298859 0 -0.026921530305221323 0.021326330801529566 0 -0.025934281811865856 0.021315541723138928 0 -0.026639963141618997 0.0210038569773725 0 -0.026921530305221323 0.021326330801529566 0 -0.027271427776067184 0.021041524095995984 0 -0.024792417803717524 0.023838557386495898 0 -0.026136128372384097 0.021587855220338792 0 -0.024792417803717524 0.023838557386495898 0 -0.021984637750435972 0.023229792324570116 0 -0.026437535485608919 0.018760185844882482 0 -0.021984637750435972 0.023229792324570116 0 -0.026921530305221323 0.021326330801529566 0 -0.02670249216653799 0.021813415885819754 0 -0.025934281811865856 0.021315541723138928 0 -0.022508931998771901 0.024005075053836859 0 -0.020958619453537251 0.022942563390612861 0 -0.020138623435320659 0.024823942724305152 0 -0.019856523435611718 0.023763794694941495 0 -0.020958619453537251 0.022942563390612861 0 -0.020138623435320659 0.024823942724305152 0 -0.019919494673321898 0.023863755938365892 0 -0.021984637750435972 0.023229792324570116 0 -0.032879542104782972 0.008062174036811599 0 -0.030492254691469108 0.0088423298951922844 0 -0.032361480834492681 0.010226188588393876 0 -0.031767171624808063 0.013864071222938815 0 -0.028997628268975693 0.015136967341266875 0 -0.031767171624808063 0.013864071222938815 0 -0.032901937310952985 0.0081499172295520037 0 -0.028026008780963146 0.021262672092491965 0 -0.027422198493484897 0.021509953373058031 0 -0.027692186085033692 0.020999053049117072 0 -0.026437535485608919 0.018760185844882482 0 -0.028997628268975693 0.015136967341266875 0 -0.026921530305221323 0.021326330801529566 0 -0.02670249216653799 0.021813415885819754 0 -0.027422198493484897 0.021509953373058031 0 -0.028026935332528608 0.0098037999322587513 0 -0.030492254691469108 0.0088423298951922844 0 -0.030031695862705685 0.01031413557249717 0 -0.030492254691469108 0.0088423298951922844 0 -0.030031695862705685 0.01031413557249717 0 -0.032361480834492681 0.010226188588393876 0 -0.026921530305221323 0.021326330801529566 0 -0.027422198493484897 0.021509953373058031 0 -0.027271427776067184 0.021041524095995984 0 -0.026639963141618997 0.0210038569773725 0 -0.027271427776067184 0.021041524095995984 0 -0.027390955345064819 0.020522954758581943 0 -0.027422198493484897 0.021509953373058031 0 -0.027271427776067184 0.021041524095995984 0 -0.027692186085033692 0.020999053049117072 0 -0.024792417803717524 0.023838557386495898 0 -0.025912676394412196 0.024103174888117047 0 -0.027271427776067184 0.021041524095995984 0 -0.027692186085033692 0.020999053049117072 0 -0.027390955345064819 0.020522954758581943 0 -0.027692186085033692 0.020999053049117072 0 -0.027390955345064819 0.020522954758581943 0 -0.028133129987740049 0.020780020471184466 0 -0.028026008780963146 0.021262672092491965 0 -0.027692186085033692 0.020999053049117072 0 -0.028133129987740049 0.020780020471184466 0 -0.031767171624808063 0.013864071222938815 0 -0.031106407950130522 0.020011532080090041 0 -0.024534991891998627 0.027708366553260175 0 -0.025723550467405376 0.026946070437131462 0 -0.025028664060065868 0.026993063075725261 0 -0.025912676394412196 0.024103174888117047 0 -0.027569970310057364 0.024494965063762506 0 -0.027390955345064819 0.020522954758581943 0 -0.028254303205571676 0.020312429899497737 0 -0.028133129987740049 0.020780020471184466 0 -0.027390955345064819 0.020522954758581943 0 -0.028065711177273092 0.020097020830385625 0 -0.028254303205571676 0.020312429899497737 0 -0.024534991891998627 0.027708366553260175 0 -0.024588015391257784 0.026916845551089794 0 -0.025028664060065868 0.026993063075725261 0 -0.023700780204987525 0.027274164356579009 0 -0.024534991891998627 0.027708366553260175 0 -0.024588015391257784 0.026916845551089794 0 -0.024000815465736933 0.026564408624089722 0 -0.023727919279312944 0.027200583809129666 0 -0.024346211061149078 0.026149779247936961 0 -0.024588015391257784 0.026916845551089794 0 -0.025270057079673881 0.026389143995086174 0 -0.024346211061149078 0.026149779247936961 0 -0.023700780204987525 0.027274164356579009 0 -0.024588015391257784 0.026916845551089794 0 -0.025723550467405376 0.026946070437131462 0 -0.025028664060065868 0.026993063075725261 0 -0.025270057079673881 0.026389143995086174 0 -0.024588015391257784 0.026916845551089794 0 -0.025028664060065868 0.026993063075725261 0 -0.025270057079673881 0.026389143995086174 0 -0.027569970310057364 0.024494965063762506 0 -0.02592073122451349 0.026234019838044419 0 -0.025685694627722654 0.026858719420945688 0 -0.025270057079673881 0.026389143995086174 0 -0.026125932152811067 0.026541401579177722 0 -0.027569970310057364 0.024494965063762506 0 -0.032039957948528465 0.024631436756502527 0 -0.036957849283359365 0.022238272684001428 0 -0.037009705553086088 0.022262572352594517 0 -0.036951413010423186 0.02226304524355607 0 -0.0315381195563533 0.023776632230773306 0 -0.031014195974358012 0.024163674736223252 0 -0.031213779473651119 0.023355922746172958 0 -0.032039957948528465 0.024631436756502527 0 -0.032610050161787613 0.021750377886231378 0 -0.027569970310057364 0.024494965063762506 0 -0.032610050161787613 0.021750377886231378 0 -0.036957849283359365 0.022238272684001428 0 -0.037031260367173795 0.022241104051712497 0 -0.037044525133956376 0.022200769724157948 0 -0.037031260367173795 0.022241104051712497 0 -0.037085907529186064 0.022238254401307847 0 -0.037044525133956376 0.022200769724157948 0 -0.036957849283359365 0.022238272684001428 0 -0.037031260367173795 0.022241104051712497 0 -0.037009705553086088 0.022262572352594517 0 -0.037031260367173795 0.022241104051712497 0 -0.037063207952664247 0.022264598767299474 0 -0.037085907529186064 0.022238254401307847 0 -0.037031260367173795 0.022241104051712497 0 -0.037063207952664247 0.022264598767299474 0 -0.037009705553086088 0.022262572352594517 0 -0.037063207952664247 0.022264598767299474 0 -0.037009705553086088 0.022262572352594517 0 -0.037044582764941845 0.022297141200616908 0 -0.034054991727986726 0.019070282719513821 0 -0.034288285368006897 0.018134898107741139 0 -0.0330474020423039 0.017729544899784538 0 -0.037009705553086088 0.022262572352594517 0 -0.036951413010423186 0.02226304524355607 0 -0.037044582764941845 0.022297141200616908 0 -0.032610050161787613 0.021750377886231378 0 -0.037580075535039413 0.016205974295159249 0 -0.032610050161787613 0.021750377886231378 0 -0.031106407950130522 0.020011532080090041 0 -0.034509617180192367 0.017201372681326904 0 -0.034288285368006897 0.018134898107741139 0 -0.0330474020423039 0.017729544899784538 0 -0.031767171624808063 0.013864071222938815 0 -0.037580075535039413 0.016205974295159249 0 -0.036321299239622566 0.0070653508371635778 0 -0.035140955097108593 0.0097285148511365299 0 -0.038594581705731081 0.009890671724644003 0 -0.03296811782835949 0.0081376249671583668 0 -0.036321299239622566 0.0070653508371635778 0 -0.035140955097108593 0.0097285148511365299 0 -0.03296811782835949 0.0081376249671583668 0 -0.035140955097108593 0.0097285148511365299 0 -0.032361480834492681 0.010226188588393876 0 -0.041333394400861388 0.016987594305215174 0 -0.042352540954865542 0.016233628261321693 0 -0.041471618174531717 0.01608043113622817 0 -0.037580075535039413 0.016205974295159249 0 -0.040626918479015499 0.012397054287098676 0 -0.043070465513982643 0.017265436214808971 0 -0.042352540954865542 0.016233628261321693 0 -0.041935004133402815 0.017720959485865859 0 -0.037580075535039413 0.016205974295159249 0 -0.039956925893338963 0.020399124817701949 0 -0.041333394400861388 0.016987594305215174 0 -0.042352540954865542 0.016233628261321693 0 -0.041935004133402815 0.017720959485865859 0 -0.041333394400861388 0.016987594305215174 0 -0.041935004133402815 0.017720959485865859 0 -0.040783182059857953 0.018173903503642324 0 -0.037159510723856128 0.022287512696531078 0 -0.037163682765159342 0.022265867959372049 0 -0.037175825151787599 0.022274721269152184 0 -0.039956925893338963 0.020399124817701949 0 -0.038905012585350875 0.020187953560440754 0 -0.037159510723856128 0.022287512696531078 0 -0.037175825151787599 0.022274721269152184 0 -0.037181133489161841 0.022262151873339676 0 -0.037159510723856128 0.022287512696531078 0 -0.037119372118390483 0.022267087820584779 0 -0.037163682765159342 0.022265867959372049 0 -0.037063207952664247 0.022264598767299474 0 -0.037044582764941845 0.022297141200616908 0 -0.037159510723856128 0.022287512696531078 0 -0.037063207952664247 0.022264598767299474 0 -0.037159510723856128 0.022287512696531078 0 -0.037119372118390483 0.022267087820584779 0 -0.037063207952664247 0.022264598767299474 0 -0.037119372118390483 0.022267087820584779 0 -0.037085907529186064 0.022238254401307847 0 -0.037119372118390483 0.022267087820584779 0 -0.037085907529186064 0.022238254401307847 0 -0.037163682765159342 0.022265867959372049 0 -0.037085907529186064 0.022238254401307847 0 -0.037163682765159342 0.022265867959372049 0 -0.037123305555247538 0.022206406810378509 0 -0.037168149417097722 0.022336043488907855 0 -0.037075845660970413 0.022067654260353706 0 -0.037163682765159342 0.022265867959372049 0 -0.0371728803648105 0.022311144062215009 0 -0.037175825151787599 0.022274721269152184 0 -0.037163682765159342 0.022265867959372049 0 -0.037212225442385227 0.022333677836877328 0 -0.0371728803648105 0.022311144062215009 0 -0.037212225442385227 0.022333677836877328 0 -0.037185733585035262 0.02237441623322518 0 -0.037227121848207319 0.022401206951243553 0 -0.037212225442385227 0.022333677836877328 0 -0.037185733585035262 0.02237441623322518 0 -0.0371728803648105 0.022311144062215009 0 -0.037185733585035262 0.02237441623322518 0 -0.037227121848207319 0.022401206951243553 0 -0.037191796718634033 0.022440404621261515 0 -0.035917672657025931 0.0238866052022461 0 -0.036894919539690992 0.023863334644728944 0 -0.033373963035177749 0.025271741810699223 0 -0.033428739603868947 0.025215253445515336 0 -0.033415307281783706 0.025329593399662488 0 -0.037085907529186064 0.022238254401307847 0 -0.037123305555247538 0.022206406810378509 0 -0.037044525133956376 0.022200769724157948 0 -0.037123305555247538 0.022206406810378509 0 -0.03710508460356414 0.022175665977397466 0 -0.037044525133956376 0.022200769724157948 0 -0.035917672657025931 0.0238866052022461 0 -0.035695198389060018 0.023434999457578029 0 -0.037075845660970413 0.022067654260353706 0 -0.035917672657025931 0.0238866052022461 0 -0.033468612225257495 0.025160759678330223 0 -0.033428739603868947 0.025215253445515336 0 -0.033457997632638459 0.025277528394836237 0 -0.032039957948528465 0.024631436756502527 0 -0.035695198389060018 0.023434999457578029 0 -0.032039957948528465 0.024631436756502527 0 -0.029501902067155247 0.025212885021476453 0 -0.025270057079673881 0.026389143995086174 0 -0.026125932152811067 0.026541401579177722 0 -0.025782720616285219 0.025745839767421563 0 -0.026125932152811067 0.026541401579177722 0 -0.025782720616285219 0.025745839767421563 0 -0.026424368092446339 0.025257731464942246 0 -0.025606459850311798 0.025145398883399554 0 -0.025782720616285219 0.025745839767421563 0 -0.026424368092446339 0.025257731464942246 0 -0.025606459850311798 0.025145398883399554 0 -0.026424368092446339 0.025257731464942246 0 -0.026076600422306331 0.024530217479347024 0 -0.033428739603868947 0.025215253445515336 0 -0.033457997632638459 0.025277528394836237 0 -0.033415307281783706 0.025329593399662488 0 -0.033457997632638459 0.025277528394836237 0 -0.033415307281783706 0.025329593399662488 0 -0.033431638040344748 0.025406094750679786 0 -0.029501902067155247 0.025212885021476453 0 -0.03103908017452614 0.026521624089668232 0 -0.026424368092446339 0.025257731464942246 0 -0.026076600422306331 0.024530217479347024 0 -0.026742313836647175 0.024079194884192082 0 -0.025555275713101424 0.024210835878984531 0 -0.025606459850311798 0.025145398883399554 0 -0.026076600422306331 0.024530217479347024 0 -0.025948468512233445 0.028899273675882579 0 -0.03103908017452614 0.026521624089668232 0 -0.026076600422306331 0.024530217479347024 0 -0.025951608236343644 0.023934467256822571 0 -0.026742313836647175 0.024079194884192082 0 -0.025452304829131963 0.026930527505726536 0 -0.025948468512233445 0.028899273675882579 0 -0.025780612304677947 0.02801013052315339 0 -0.025181024418464617 0.028472814454825961 0 -0.025527417460060688 0.028535673944289932 0 -0.025555275713101424 0.024210835878984531 0 -0.026076600422306331 0.024530217479347024 0 -0.025951608236343644 0.023934467256822571 0 -0.026260562777928105 0.032584400914315505 0 -0.02626618052228976 0.032672803252892568 0 -0.026234291791717584 0.032638242147647475 0 -0.025948468512233445 0.028899273675882579 0 -0.025643293418122597 0.029942982441859247 0 -0.025432284777229176 0.030958096790974218 0 -0.025643293418122597 0.029942982441859247 0 -0.02626618052228976 0.032672803252892568 0 -0.026234291791717584 0.032638242147647475 0 -0.026220749122675902 0.032661828010065418 0 -0.03443212042352025 0.028977528569029142 0 -0.03427978061809378 0.029557038904370714 0 -0.034618679096546916 0.029402247294165927 0 -0.03074774978240789 0.031198433125284929 0 -0.03103908017452614 0.026521624089668232 0 -0.029459060444545878 0.028665890838994238 0 -0.028625850686768584 0.029247844873791555 0 -0.029267085928938803 0.029363245355739708 0 -0.03103908017452614 0.026521624089668232 0 -0.035138094700337567 0.027560403005170656 0 -0.034820986134024928 0.029091570090714076 0 -0.034618679096546916 0.029402247294165927 0 -0.034855823682012801 0.029657773538651268 0 -0.034870940121559821 0.029928527570341038 0 -0.035138094700337567 0.027560403005170656 0 -0.034820986134024928 0.029091570090714076 0 -0.034936093756162641 0.029747094445075235 0 -0.035386234205605084 0.029386787184165441 0 -0.03427978061809378 0.029557038904370714 0 -0.034618679096546916 0.029402247294165927 0 -0.034855823682012801 0.029657773538651268 0 -0.035386234205605084 0.029386787184165441 0 -0.035456321078080479 0.029833215754186827 0 -0.035782960950077818 0.029548760889539203 0 -0.034936093756162641 0.029747094445075235 0 -0.035386234205605084 0.029386787184165441 0 -0.035456321078080479 0.029833215754186827 0 -0.036500530530658798 0.026031710150497565 0 -0.036129450375068969 0.025955751594476516 0 -0.036090929309043812 0.025636507014576697 0 -0.036426823352397247 0.025381542452433813 0 -0.036500530530658798 0.026031710150497565 0 -0.036090929309043812 0.025636507014576697 0 -0.035138094700337567 0.027560403005170656 0 -0.035792603213717203 0.027841696041555529 0 -0.035917672657025931 0.0238866052022461 0 -0.035138094700337567 0.027560403005170656 0 -0.033373963035177749 0.025271741810699223 0 -0.033415307281783706 0.025329593399662488 0 -0.033374949516406988 0.02539155279354869 0 -0.033415307281783706 0.025329593399662488 0 -0.033431638040344748 0.025406094750679786 0 -0.033374949516406988 0.02539155279354869 0 -0.037673306168381555 0.024379804611326977 0 -0.036811239811218997 0.026600156821907438 0 -0.037109054238313961 0.022494246358106106 0 -0.037147548398980164 0.022464603379436426 0 -0.037157808400131769 0.022487369171786818 0 -0.037126395670006584 0.02246678602495757 0 -0.037147548398980164 0.022464603379436426 0 -0.037132488708370409 0.022410674191036019 0 -0.037673306168381555 0.024379804611326977 0 -0.037296118040192429 0.023176977934711414 0 -0.037191796718634033 0.022440404621261515 0 -0.037147548398980164 0.022464603379436426 0 -0.037161904753225443 0.02240781406712717 0 -0.037191796718634033 0.022440404621261515 0 -0.037147548398980164 0.022464603379436426 0 -0.037157808400131769 0.022487369171786818 0 -0.036894919539690992 0.023863334644728944 0 -0.036811239811218997 0.026600156821907438 0 -0.035792603213717203 0.027841696041555529 0 -0.036811239811218997 0.026600156821907438 0 -0.036129450375068969 0.025955751594476516 0 -0.036090929309043812 0.025636507014576697 0 -0.03576948428179387 0.025887766641304964 0 -0.035973341799057854 0.029906979127107301 0 -0.035782960950077818 0.029548760889539203 0 -0.036120344143049585 0.029381170494762871 0 -0.035456321078080479 0.029833215754186827 0 -0.035973341799057854 0.029906979127107301 0 -0.035782960950077818 0.029548760889539203 0 -0.035848236554186085 0.029186661848423685 0 -0.035386234205605084 0.029386787184165441 0 -0.035782960950077818 0.029548760889539203 0 -0.035848236554186085 0.029186661848423685 0 -0.035782960950077818 0.029548760889539203 0 -0.036120344143049585 0.029381170494762871 0 -0.038337467326658325 0.027223255066551228 0 -0.038612238323220575 0.027269921053517446 0 -0.038145135791280066 0.027668094257630022 0 -0.036811239811218997 0.026600156821907438 0 -0.037414452890658471 0.02882162905160621 0 -0.035973341799057854 0.029906979127107301 0 -0.036120344143049585 0.029381170494762871 0 -0.036687384504336409 0.029342321142648495 0 -0.038337467326658325 0.027223255066551228 0 -0.038145135791280066 0.027668094257630022 0 -0.037804651230154293 0.027342544866019315 0 -0.03756323760658635 0.027690345800774615 0 -0.037804651230154293 0.027342544866019315 0 -0.037155179191188326 0.027444978865257992 0 -0.038145135791280066 0.027668094257630022 0 -0.03756323760658635 0.027690345800774615 0 -0.037804651230154293 0.027342544866019315 0 -0.037670466015922659 0.0263523878344992 0 -0.036993700125018084 0.026311683733292974 0 -0.037336732605077701 0.024786266297894634 0 -0.03742227203871263 0.025020842131978926 0 -0.0369048927572437 0.025154200435750958 0 -0.037673306168381555 0.024379804611326977 0 -0.037089405075125051 0.023506573653518052 0 -0.037925585635162531 0.024893002875390993 0 -0.037336732605077701 0.024786266297894634 0 -0.03742227203871263 0.025020842131978926 0 -0.037126395670006584 0.02246678602495757 0 -0.037048619588909114 0.022452315310815665 0 -0.037091160691146347 0.022403776196935534 0 -0.037673306168381555 0.024379804611326977 0 -0.037670466015922659 0.0263523878344992 0 -0.037048619588909114 0.022452315310815665 0 -0.037042375720423126 0.022367333693444985 0 -0.036984958766549308 0.022372330497236522 0 -0.037048619588909114 0.022452315310815665 0 -0.037091160691146347 0.022403776196935534 0 -0.037042375720423126 0.022367333693444985 0 -0.037042375720423126 0.022367333693444985 0 -0.03708215936733613 0.022351171030470136 0 -0.037026531760285211 0.022300363513232811 0 -0.037091160691146347 0.022403776196935534 0 -0.037042375720423126 0.022367333693444985 0 -0.03708215936733613 0.022351171030470136 0 -0.03708215936733613 0.022351171030470136 0 -0.0371217185238472 0.022353390923898632 0 -0.037113687190188281 0.022270976013138804 0 -0.037091160691146347 0.022403776196935534 0 -0.03708215936733613 0.022351171030470136 0 -0.0371217185238472 0.022353390923898632 0 -0.0371217185238472 0.022353390923898632 0 -0.037153085461296691 0.022355775699521345 0 -0.037153034276020194 0.022300606095575333 0 -0.0371217185238472 0.022353390923898632 0 -0.037132488708370409 0.022410674191036019 0 -0.037153085461296691 0.022355775699521345 0 -0.037126395670006584 0.02246678602495757 0 -0.037091160691146347 0.022403776196935534 0 -0.037132488708370409 0.022410674191036019 0 -0.037091160691146347 0.022403776196935534 0 -0.0371217185238472 0.022353390923898632 0 -0.037132488708370409 0.022410674191036019 0 -0.037185733585035262 0.02237441623322518 0 -0.037191796718634033 0.022440404621261515 0 -0.037161904753225443 0.02240781406712717 0 -0.037147548398980164 0.022464603379436426 0 -0.037132488708370409 0.022410674191036019 0 -0.037161904753225443 0.02240781406712717 0 -0.037132488708370409 0.022410674191036019 0 -0.037161904753225443 0.02240781406712717 0 -0.037153085461296691 0.022355775699521345 0 -0.037185733585035262 0.02237441623322518 0 -0.037161904753225443 0.02240781406712717 0 -0.037153085461296691 0.022355775699521345 0 -0.037185733585035262 0.02237441623322518 0 -0.037153085461296691 0.022355775699521345 0 -0.0371728803648105 0.022311144062215009 0 -0.037153085461296691 0.022355775699521345 0 -0.0371728803648105 0.022311144062215009 0 -0.037153034276020194 0.022300606095575333 0 -0.037175825151787599 0.022274721269152184 0 -0.037153034276020194 0.022300606095575333 0 -0.037181133489161841 0.022262151873339676 0 -0.0371728803648105 0.022311144062215009 0 -0.037175825151787599 0.022274721269152184 0 -0.037153034276020194 0.022300606095575333 0 -0.0371217185238472 0.022353390923898632 0 -0.037153034276020194 0.022300606095575333 0 -0.037113687190188281 0.022270976013138804 0 -0.037153034276020194 0.022300606095575333 0 -0.037181133489161841 0.022262151873339676 0 -0.037113687190188281 0.022270976013138804 0 -0.039947302899604235 0.017834812797130437 0 -0.040783182059857953 0.018173903503642324 0 -0.039619705011478851 0.018653785562434744 0 -0.038905012585350875 0.020187953560440754 0 -0.038357311462217852 0.020411276405725119 0 -0.041333394400861388 0.016987594305215174 0 -0.040783182059857953 0.018173903503642324 0 -0.040543392093512279 0.017228710286220503 0 -0.039947302899604235 0.017834812797130437 0 -0.040783182059857953 0.018173903503642324 0 -0.040543392093512279 0.017228710286220503 0 -0.039947302899604235 0.017834812797130437 0 -0.040041461047076357 0.017141512458278604 0 -0.040543392093512279 0.017228710286220503 0 -0.040041461047076357 0.017141512458278604 0 -0.040543392093512279 0.017228710286220503 0 -0.040277539506051924 0.016731468272076753 0 -0.040543392093512279 0.017228710286220503 0 -0.040277539506051924 0.016731468272076753 0 -0.040815049104386755 0.016315658929530328 0 -0.040277539506051924 0.016731468272076753 0 -0.040815049104386755 0.016315658929530328 0 -0.039983793845586105 0.016305211153477987 0 -0.040041461047076357 0.017141512458278604 0 -0.040277539506051924 0.016731468272076753 0 -0.040038241719907837 0.016661836288716935 0 -0.040277539506051924 0.016731468272076753 0 -0.040038241719907837 0.016661836288716935 0 -0.039983793845586105 0.016305211153477987 0 -0.041333394400861388 0.016987594305215174 0 -0.040543392093512279 0.017228710286220503 0 -0.040815049104386755 0.016315658929530328 0 -0.041333394400861388 0.016987594305215174 0 -0.040815049104386755 0.016315658929530328 0 -0.041471618174531717 0.01608043113622817 0 -0.039188608261749684 0.016679461867816658 0 -0.03813361530884328 0.018424545371384247 0 -0.037669608887015885 0.016803960968572583 0 -0.040038241719907837 0.016661836288716935 0 -0.039188608261749684 0.016679461867816658 0 -0.039546033542850169 0.018182393201055698 0 -0.040041461047076357 0.017141512458278604 0 -0.040038241719907837 0.016661836288716935 0 -0.039440294134368052 0.017339461327847944 0 -0.039994703429205768 0.016780831029822637 0 -0.039467155196644094 0.017801759209246735 0 -0.040038241719907837 0.016661836288716935 0 -0.039188608261749684 0.016679461867816658 0 -0.039983793845586105 0.016305211153477987 0 -0.039467155196644094 0.017801759209246735 0 -0.038953797209352492 0.018808228592148493 0 -0.039947302899604235 0.017834812797130437 0 -0.040041461047076357 0.017141512458278604 0 -0.039440294134368052 0.017339461327847944 0 -0.039546033542850169 0.018182393201055698 0 -0.03813361530884328 0.018424545371384247 0 -0.03886800351314966 0.019732458685241934 0 -0.039188608261749684 0.016679461867816658 0 -0.039546033542850169 0.018182393201055698 0 -0.03813361530884328 0.018424545371384247 0 -0.03813361530884328 0.018424545371384247 0 -0.03886800351314966 0.019732458685241934 0 -0.037948760248976261 0.02015026206730022 0 -0.039947302899604235 0.017834812797130437 0 -0.039440294134368052 0.017339461327847944 0 -0.038875601690875693 0.018211166865922598 0 -0.039947302899604235 0.017834812797130437 0 -0.038875601690875693 0.018211166865922598 0 -0.039619705011478851 0.018653785562434744 0 -0.03708215936733613 0.022351171030470136 0 -0.037113687190188281 0.022270976013138804 0 -0.037026531760285211 0.022300363513232811 0 -0.038953797209352492 0.018808228592148493 0 -0.037827757452152264 0.021179079857799828 0 -0.038875601690875693 0.018211166865922598 0 -0.039619705011478851 0.018653785562434744 0 -0.038324370078258396 0.019153363753186135 0 -0.038357311462217852 0.020411276405725119 0 -0.037827757452152264 0.021179079857799828 0 -0.03886800351314966 0.019732458685241934 0 -0.038067810625881951 0.021298392179634258 0 -0.037948760248976261 0.02015026206730022 0 -0.037827757452152264 0.021179079857799828 0 -0.036929541209951684 0.022163680099184593 0 -0.037386435736740227 0.020739638794868336 0 -0.036539381053122356 0.021666316451848903 0 -0.036957619178119912 0.019776351261882295 0 -0.038067810625881951 0.021298392179634258 0 -0.036539381053122356 0.021666316451848903 0 -0.036464980097894485 0.021940151915027951 0 -0.038067810625881951 0.021298392179634258 0 -0.037386435736740227 0.020739638794868336 0 -0.036539381053122356 0.021666316451848903 0 -0.038067810625881951 0.021298392179634258 0 -0.037386435736740227 0.020739638794868336 0 -0.037948760248976261 0.02015026206730022 0 -0.036539381053122356 0.021666316451848903 0 -0.036957619178119912 0.019776351261882295 0 -0.035272530984421034 0.019863285959362598 0 -0.036539381053122356 0.021666316451848903 0 -0.036090739298080939 0.02113084955989154 0 -0.036069108927513173 0.021696733055881313 0 -0.036502958754012799 0.021602570861104092 0 -0.035620149634832309 0.020516926340340382 0 -0.036539381053122356 0.021666316451848903 0 -0.036069108927513173 0.021696733055881313 0 -0.036464980097894485 0.021940151915027951 0 -0.036957619178119912 0.019776351261882295 0 -0.035435732351115953 0.018354312182949698 0 -0.035272530984421034 0.019863285959362598 0 -0.03813361530884328 0.018424545371384247 0 -0.037948760248976261 0.02015026206730022 0 -0.036957619178119912 0.019776351261882295 0 -0.037386435736740227 0.020739638794868336 0 -0.037948760248976261 0.02015026206730022 0 -0.036957619178119912 0.019776351261882295 0 -0.03813361530884328 0.018424545371384247 0 -0.036957619178119912 0.019776351261882295 0 -0.036712833798275751 0.017779137764148491 0 -0.036957619178119912 0.019776351261882295 0 -0.035435732351115953 0.018354312182949698 0 -0.036712833798275751 0.017779137764148491 0 -0.035435732351115953 0.018354312182949698 0 -0.03575825737126364 0.017107875474046276 0 -0.036712833798275751 0.017779137764148491 0 -0.03575825737126364 0.017107875474046276 0 -0.036712833798275751 0.017779137764148491 0 -0.036430022654032418 0.016546988899385856 0 -0.03813361530884328 0.018424545371384247 0 -0.036712833798275751 0.017779137764148491 0 -0.037669608887015885 0.016803960968572583 0 -0.036712833798275751 0.017779137764148491 0 -0.037669608887015885 0.016803960968572583 0 -0.036430022654032418 0.016546988899385856 0 -0.036397141162407956 0.017747312927436074 0 -0.036051688428541839 0.018891994431355676 0 -0.034999989595939689 0.017409509187263337 0 -0.035518525552177653 0.019048031443369671 0 -0.03500061249049826 0.017409987570244319 0 -0.034999996096330595 0.019132073649058889 0 -0.036079262141782455 0.018947335740333745 0 -0.034999997370318357 0.017409596547158426 0 -0.035507230010370733 0.017255671884014528 0 -0.035518525552177653 0.019048031443369671 0 -0.035435732351115953 0.018354312182949698 0 -0.03575825737126364 0.017107875474046276 0 -0.034590966904563793 0.016867023549064792 0 -0.03575825737126364 0.017107875474046276 0 -0.034590966904563793 0.016867023549064792 0 -0.03540357737974513 0.0159855787170783 0 -0.035435732351115953 0.018354312182949698 0 -0.034168798823514236 0.018217028733429411 0 -0.035272530984421034 0.019863285959362598 0 -0.035518525552177653 0.019048031443369671 0 -0.035620149634832309 0.020516926340340382 0 -0.035435732351115953 0.018354312182949698 0 -0.034590966904563793 0.016867023549064792 0 -0.034168798823514236 0.018217028733429411 0 -0.034999996096330595 0.019132073649058889 0 -0.036079262141782455 0.018947335740333745 0 -0.035542003111239388 0.02076195004475646 0 -0.035518525552177653 0.019048031443369671 0 -0.035438834113332048 0.021170924374479375 0 -0.034999996096330595 0.019132073649058889 0 -0.035542003111239388 0.02076195004475646 0 -0.034999994032474092 0.020854556432916317 0 -0.035563030934767731 0.02035557312112735 0 -0.035282411002906869 0.021344934068854463 0 -0.036090739298080939 0.02113084955989154 0 -0.035282411002906869 0.021344934068854463 0 -0.036090739298080939 0.02113084955989154 0 -0.036069108927513173 0.021696733055881313 0 -0.035282411002906869 0.021344934068854463 0 -0.036069108927513173 0.021696733055881313 0 -0.035845769354927982 0.022384770442897484 0 -0.035438834113332048 0.021170924374479375 0 -0.034997138310933422 0.022576562865903566 0 -0.035542003111239388 0.02076195004475646 0 -0.034999994032474092 0.020854556432916317 0 -0.034997048029470741 0.022577034369630523 0 -0.034996723047127178 0.022577352503040233 0 -0.035000143696291612 0.023072097180990427 0 -0.035845769354927982 0.022384770442897484 0 -0.035000166498748576 0.023072583778834855 0 -0.035969247492170342 0.022558221262782931 0 -0.035282411002906869 0.021344934068854463 0 -0.034996723047127178 0.022577352503040233 0 -0.035845769354927982 0.022384770442897484 0 -0.03500015822627503 0.023364258875949936 0 -0.036459840912001634 0.02362095203476031 0 -0.035000135610309402 0.023073304498609015 0 -0.036205675719799213 0.02352833509013132 0 -0.036168459806082714 0.022696231261990777 0 -0.034999992298215446 0.02336425479060086 0 -0.036507711072789675 0.023658278566843952 0 -0.036126084438060695 0.024646817163363435 0 -0.034999848372192464 0.023363652100739915 0 -0.035000135610309402 0.023073304498609015 0 -0.036205675719799213 0.02352833509013132 0 -0.036205675719799213 0.02352833509013132 0 -0.036168459806082714 0.022696231261990777 0 -0.036899708366263682 0.023039093147864422 0 -0.036069108927513173 0.021696733055881313 0 -0.035845769354927982 0.022384770442897484 0 -0.036464980097894485 0.021940151915027951 0 -0.035969247492170342 0.022558221262782931 0 -0.036929541209951684 0.022163680099184593 0 -0.037260071283243282 0.022330992540265791 0 -0.037827373341336637 0.022829006048324885 0 -0.036899708366263682 0.023039093147864422 0 -0.036168459806082714 0.022696231261990777 0 -0.037260071283243282 0.022330992540265791 0 -0.036899708366263682 0.023039093147864422 0 -0.038331505847156562 0.021950939929129866 0 -0.037260071283243282 0.022330992540265791 0 -0.037827373341336637 0.022829006048324885 0 -0.037042375720423126 0.022367333693444985 0 -0.037026531760285211 0.022300363513232811 0 -0.036984958766549308 0.022372330497236522 0 -0.037827757452152264 0.021179079857799828 0 -0.037371313406659709 0.022668158255714298 0 -0.037048619588909114 0.022452315310815665 0 -0.036984958766549308 0.022372330497236522 0 -0.036948173379817394 0.022444029779880154 0 -0.037371313406659709 0.022668158255714298 0 -0.037114534054272036 0.023628019749569063 0 -0.036205675719799213 0.02352833509013132 0 -0.036899708366263682 0.023039093147864422 0 -0.037320079943921981 0.023711407523785345 0 -0.037827373341336637 0.022829006048324885 0 -0.036899708366263682 0.023039093147864422 0 -0.037320079943921981 0.023711407523785345 0 -0.036459840912001634 0.02362095203476031 0 -0.037114534054272036 0.023628019749569063 0 -0.036507711072789675 0.023658278566843952 0 -0.03799815058448671 0.023939011200142839 0 -0.037448717408101968 0.024889584218596692 0 -0.036727795880822325 0.024669794673058063 0 -0.036548299249172606 0.024977514808304728 0 -0.0369048927572437 0.025154200435750958 0 -0.037114534054272036 0.023628019749569063 0 -0.037001864424266055 0.024907232580743465 0 -0.037336732605077701 0.024786266297894634 0 -0.036727795880822325 0.024669794673058063 0 -0.0369048927572437 0.025154200435750958 0 -0.037089405075125051 0.023506573653518052 0 -0.037114534054272036 0.023628019749569063 0 -0.036834601666293799 0.02779677909638139 0 -0.037262192946135073 0.027865374161220816 0 -0.037155179191188326 0.027444978865257992 0 -0.037262192946135073 0.027865374161220816 0 -0.03756323760658635 0.027690345800774615 0 -0.037155179191188326 0.027444978865257992 0 -0.036993700125018084 0.026311683733292974 0 -0.036454132592470836 0.026189610096961601 0 -0.036548299249172606 0.024977514808304728 0 -0.0369048927572437 0.025154200435750958 0 -0.036368874550705491 0.025292825880758051 0 -0.036834601666293799 0.02779677909638139 0 -0.037155179191188326 0.027444978865257992 0 -0.036375656535957653 0.027568899633043917 0 -0.037001864424266055 0.024907232580743465 0 -0.036454132592470836 0.026189610096961601 0 -0.036531136965622851 0.027867906995019794 0 -0.036834601666293799 0.02779677909638139 0 -0.036375656535957653 0.027568899633043917 0 -0.03651130630141778 0.026166923288797866 0 -0.036454132592470836 0.026189610096961601 0 -0.037448717408101968 0.024889584218596692 0 -0.036896588599471467 0.025850277778604241 0 -0.036664801098335385 0.025359179916447396 0 -0.03676156939687697 0.02588299873763034 0 -0.036896588599471467 0.025850277778604241 0 -0.036664801098335385 0.025359179916447396 0 -0.03676156939687697 0.02588299873763034 0 -0.036664801098335385 0.025359179916447396 0 -0.03609077483270174 0.025527550043397431 0 -0.036664801098335385 0.025359179916447396 0 -0.03609077483270174 0.025527550043397431 0 -0.036126084438060695 0.024646817163363435 0 -0.03676156939687697 0.02588299873763034 0 -0.03609077483270174 0.025527550043397431 0 -0.036164641553283049 0.026204181158049112 0 -0.034999967295678162 0.026939354733426398 0 -0.035694090768547126 0.026177957411897584 0 -0.035000005318680416 0.025151892597847454 0 -0.03609077483270174 0.025527550043397431 0 -0.036164641553283049 0.026204181158049112 0 -0.035694090768547126 0.026177957411897584 0 -0.03609077483270174 0.025527550043397431 0 -0.035694090768547126 0.026177957411897584 0 -0.035000005318680416 0.025151892597847454 0 -0.034999992298215446 0.02336425479060086 0 -0.035000005318680416 0.025151892597847454 0 -0.036126084438060695 0.024646817163363435 0 -0.03609077483270174 0.025527550043397431 0 -0.035000005318680416 0.025151892597847454 0 -0.036126084438060695 0.024646817163363435 0 -0.037448717408101968 0.024889584218596692 0 -0.036664801098335385 0.025359179916447396 0 -0.036126084438060695 0.024646817163363435 0 -0.036507711072789675 0.023658278566843952 0 -0.037448717408101968 0.024889584218596692 0 -0.036126084438060695 0.024646817163363435 0 -0.03602840013102155 0.0098079729267973766 0 -0.037146895588870674 0.010195814995792732 0 -0.036242010659477103 0.011142486361380755 0 -0.034999849077066068 0.01047377584027721 0 -0.03602840013102155 0.0098079729267973766 0 -0.036242010659477103 0.011142486361380755 0 -0.034999849077066068 0.01047377584027721 0 -0.03602840013102155 0.0098079729267973766 0 -0.034999889485267159 0.0084211000074048397 0 -0.03602840013102155 0.0098079729267973766 0 -0.036631587719278484 0.0087694438488327593 0 -0.034999889485267159 0.0084211000074048397 0 -0.03602840013102155 0.0098079729267973766 0 -0.037146895588870674 0.010195814995792732 0 -0.036631587719278484 0.0087694438488327593 0 -0.037799236734310286 0.0092781424865419314 0 -0.037146895588870674 0.010195814995792732 0 -0.036631587719278484 0.0087694438488327593 0 -0.037799236734310286 0.0092781424865419314 0 -0.038126725248119685 0.010611691395190404 0 -0.038711656937137011 0.0098032078649379802 0 -0.037799236734310286 0.0092781424865419314 0 -0.038126725248119685 0.010611691395190404 0 -0.037146895588870674 0.010195814995792732 0 -0.038126725248119685 0.010611691395190404 0 -0.037146895588870674 0.010195814995792732 0 -0.03754318081879976 0.011633670775250092 0 -0.037146895588870674 0.010195814995792732 0 -0.03754318081879976 0.011633670775250092 0 -0.036242010659477103 0.011142486361380755 0 -0.03754318081879976 0.011633670775250092 0 -0.036665215946405698 0.012447913158853382 0 -0.036242010659477103 0.011142486361380755 0 -0.038126725248119685 0.010611691395190404 0 -0.03754318081879976 0.011633670775250092 0 -0.038669816217216518 0.011604475048941947 0 -0.03754318081879976 0.011633670775250092 0 -0.038355069039833857 0.012535737875682049 0 -0.038669816217216518 0.011604475048941947 0 -0.037601878499953528 0.012655757445070154 0 -0.037981788976653795 0.01331443940288018 0 -0.038355069039833857 0.012535737875682049 0 -0.03754318081879976 0.011633670775250092 0 -0.037601878499953528 0.012655757445070154 0 -0.038355069039833857 0.012535737875682049 0 -0.03754318081879976 0.011633670775250092 0 -0.037601878499953528 0.012655757445070154 0 -0.036665215946405698 0.012447913158853382 0 -0.037601878499953528 0.012655757445070154 0 -0.036665215946405698 0.012447913158853382 0 -0.037221432608685892 0.013305641222101199 0 -0.036665215946405698 0.012447913158853382 0 -0.036242010659477103 0.011142486361380755 0 -0.034999906817323644 0.012526572291705276 0 -0.036665215946405698 0.012447913158853382 0 -0.034999906817323644 0.012526572291705276 0 -0.036110126214234886 0.01371677139277677 0 -0.034999849077066068 0.01047377584027721 0 -0.036242010659477103 0.011142486361380755 0 -0.034999906817323644 0.012526572291705276 0 -0.034999906817323644 0.012526572291705276 0 -0.036110126214234886 0.01371677139277677 0 -0.034999842709495112 0.014578661140305198 0 -0.036110126214234886 0.01371677139277677 0 -0.036950549243632683 0.014644903639942461 0 -0.037221432608685892 0.013305641222101199 0 -0.036665215946405698 0.012447913158853382 0 -0.036110126214234886 0.01371677139277677 0 -0.037221432608685892 0.013305641222101199 0 -0.036110126214234886 0.01371677139277677 0 -0.036107721119802462 0.014857410144033004 0 -0.036950549243632683 0.014644903639942461 0 -0.036107721119802462 0.014857410144033004 0 -0.034999842709495112 0.014578661140305198 0 -0.03611913600789389 0.015660450625627757 0 -0.036110126214234886 0.01371677139277677 0 -0.036107721119802462 0.014857410144033004 0 -0.034999842709495112 0.014578661140305198 0 -0.035000508442999907 0.015760561831365004 0 -0.036157412400581658 0.01588667127682683 0 -0.034999987438380925 0.015760493243514501 0 -0.036291529830734477 0.016070880168176961 0 -0.035862206651409767 0.016856015297935432 0 -0.035000001826985427 0.014579408536113475 0 -0.034999993020997253 0.015760404575005018 0 -0.036312185587265962 0.016059829706556786 0 -0.035000248806087313 0.014579587208206863 0 -0.036157412400581658 0.01588667127682683 0 -0.036095394073986375 0.015453501668654716 0 -0.036977403009067843 0.014324715627333881 0 -0.036107721119802462 0.014857410144033004 0 -0.036598820062854059 0.015776803996434611 0 -0.03611913600789389 0.015660450625627757 0 -0.036107721119802462 0.014857410144033004 0 -0.036598820062854059 0.015776803996434611 0 -0.036950549243632683 0.014644903639942461 0 -0.035883628522205148 0.01580994012434531 0 -0.036046635657952152 0.015847453295740485 0 -0.035915602694221171 0.015701662174103511 0 -0.036095394073986375 0.015453501668654716 0 -0.035782523098693383 0.016002040846252875 0 -0.036095394073986375 0.015453501668654716 0 -0.036157412400581658 0.01588667127682683 0 -0.036157412400581658 0.01588667127682683 0 -0.035782523098693383 0.016002040846252875 0 -0.035507230010370733 0.017255671884014528 0 -0.035782523098693383 0.016002040846252875 0 -0.036291529830734477 0.016070880168176961 0 -0.036745954381909494 0.016588334342828193 0 -0.035862206651409767 0.016856015297935432 0 -0.034590966904563793 0.016867023549064792 0 -0.035007430298370022 0.015538183352132803 0 -0.03540357737974513 0.0159855787170783 0 -0.036397141162407956 0.017747312927436074 0 -0.036745954381909494 0.016588334342828193 0 -0.035862206651409767 0.016856015297935432 0 -0.035146238209808479 0.015110704818685488 0 -0.035016279893093631 0.015546129244325286 0 -0.03540357737974513 0.0159855787170783 0 -0.035782523098693383 0.016002040846252875 0 -0.035419857247236577 0.015764217134191221 0 -0.036397141162407956 0.017747312927436074 0 -0.034999989595939689 0.017409509187263337 0 -0.035862206651409767 0.016856015297935432 0 -0.034999987438380925 0.015760493243514501 0 -0.034999989595939689 0.017409509187263337 0 -0.035862206651409767 0.016856015297935432 0 -0.037669608887015885 0.016803960968572583 0 -0.036874968357073018 0.015508022057764933 0 -0.036430022654032418 0.016546988899385856 0 -0.037669608887015885 0.016803960968572583 0 -0.036874968357073018 0.015508022057764933 0 -0.038561222560665756 0.01591877271729019 0 -0.037217645364302311 0.015316403105189053 0 -0.038600880015959849 0.015705969119533512 0 -0.03540357737974513 0.0159855787170783 0 -0.036874968357073018 0.015508022057764933 0 -0.036430022654032418 0.016546988899385856 0 -0.035146238209808479 0.015110704818685488 0 -0.03540357737974513 0.0159855787170783 0 -0.036874968357073018 0.015508022057764933 0 -0.03575825737126364 0.017107875474046276 0 -0.03540357737974513 0.0159855787170783 0 -0.036430022654032418 0.016546988899385856 0 -0.036676983928424028 0.01496514127493538 0 -0.037282034882769467 0.014625060624673782 0 -0.03694554852967314 0.014121381972121243 0 -0.036676983928424028 0.01496514127493538 0 -0.037655140038140203 0.015201888306280701 0 -0.037282034882769467 0.014625060624673782 0 -0.036095394073986375 0.015453501668654716 0 -0.037217645364302311 0.015316403105189053 0 -0.037655140038140203 0.015201888306280701 0 -0.037887943979506178 0.014127261080176933 0 -0.038600593818107182 0.01454125608836772 0 -0.037655140038140203 0.015201888306280701 0 -0.037282034882769467 0.014625060624673782 0 -0.037887943979506178 0.014127261080176933 0 -0.037887943979506178 0.014127261080176933 0 -0.03694554852967314 0.014121381972121243 0 -0.037221432608685892 0.013305641222101199 0 -0.037282034882769467 0.014625060624673782 0 -0.037887943979506178 0.014127261080176933 0 -0.03694554852967314 0.014121381972121243 0 -0.036977403009067843 0.014324715627333881 0 -0.037194217105785424 0.013438219432286508 0 -0.037887943979506178 0.014127261080176933 0 -0.037221432608685892 0.013305641222101199 0 -0.037981788976653795 0.01331443940288018 0 -0.037601878499953528 0.012655757445070154 0 -0.037221432608685892 0.013305641222101199 0 -0.037981788976653795 0.01331443940288018 0 -0.037887943979506178 0.014127261080176933 0 -0.037981788976653795 0.01331443940288018 0 -0.038803495641205367 0.013456522369141114 0 -0.037981788976653795 0.01331443940288018 0 -0.038803495641205367 0.013456522369141114 0 -0.038355069039833857 0.012535737875682049 0 -0.038803495641205367 0.013456522369141114 0 -0.039465329544851671 0.013871825722607046 0 -0.039828886607980722 0.01308087529472879 0 -0.038803495641205367 0.013456522369141114 0 -0.039828886607980722 0.01308087529472879 0 -0.039268581562117204 0.012426678364537088 0 -0.039465329544851671 0.013871825722607046 0 -0.038600593818107182 0.01454125608836772 0 -0.039270091335164514 0.01474407481572358 0 -0.039465329544851671 0.013871825722607046 0 -0.039270091335164514 0.01474407481572358 0 -0.039882674206175424 0.014490101146064671 0 -0.037887943979506178 0.014127261080176933 0 -0.038803495641205367 0.013456522369141114 0 -0.038600593818107182 0.01454125608836772 0 -0.038803495641205367 0.013456522369141114 0 -0.039465329544851671 0.013871825722607046 0 -0.038600593818107182 0.01454125608836772 0 -0.037655140038140203 0.015201888306280701 0 -0.038600593818107182 0.01454125608836772 0 -0.038631095422875385 0.015472309181084672 0 -0.038600593818107182 0.01454125608836772 0 -0.039270091335164514 0.01474407481572358 0 -0.038631095422875385 0.015472309181084672 0 -0.039270091335164514 0.01474407481572358 0 -0.038631095422875385 0.015472309181084672 0 -0.039676389146277045 0.015193446061893334 0 -0.039270091335164514 0.01474407481572358 0 -0.039676389146277045 0.015193446061893334 0 -0.039882674206175424 0.014490101146064671 0 -0.039828254907728858 0.016061480737474692 0 -0.038600880015959849 0.015705969119533512 0 -0.039188608261749684 0.016679461867816658 0 -0.039983793845586105 0.016305211153477987 0 -0.038561222560665756 0.01591877271729019 0 -0.039634473386490454 0.015826544833603989 0 -0.038631095422875385 0.015472309181084672 0 -0.039676389146277045 0.015193446061893334 0 -0.039188608261749684 0.016679461867816658 0 -0.037669608887015885 0.016803960968572583 0 -0.038561222560665756 0.01591877271729019 0 -0.040989982896600802 0.01558009203382048 0 -0.040320801045607597 0.015552831062631493 0 -0.040500996121364215 0.014934124976837904 0 -0.040815049104386755 0.016315658929530328 0 -0.040989982896600802 0.01558009203382048 0 -0.041471618174531717 0.01608043113622817 0 -0.040815049104386755 0.016315658929530328 0 -0.040989982896600802 0.01558009203382048 0 -0.040320801045607597 0.015552831062631493 0 -0.040815049104386755 0.016315658929530328 0 -0.039634473386490454 0.015826544833603989 0 -0.040320801045607597 0.015552831062631493 0 -0.040769481682886008 0.016302176433272284 0 -0.039828254907728858 0.016061480737474692 0 -0.039634473386490454 0.015826544833603989 0 -0.040320801045607597 0.015552831062631493 0 -0.039676389146277045 0.015193446061893334 0 -0.040320801045607597 0.015552831062631493 0 -0.039676389146277045 0.015193446061893334 0 -0.040500996121364215 0.014934124976837904 0 -0.039882674206175424 0.014490101146064671 0 -0.040500996121364215 0.014934124976837904 0 -0.040557568074084303 0.013717325544858534 0 -0.039676389146277045 0.015193446061893334 0 -0.039882674206175424 0.014490101146064671 0 -0.040500996121364215 0.014934124976837904 0 -0.040989982896600802 0.01558009203382048 0 -0.040500996121364215 0.014934124976837904 0 -0.041575348803310201 0.015005426255345322 0 -0.040500996121364215 0.014934124976837904 0 -0.040557568074084303 0.013717325544858534 0 -0.041575348803310201 0.015005426255345322 0 -0.040592124383389112 0.013652963803293615 0 -0.040982964792666221 0.013971406263605074 0 -0.039465329544851671 0.013871825722607046 0 -0.039882674206175424 0.014490101146064671 0 -0.040557568074084303 0.013717325544858534 0 -0.039465329544851671 0.013871825722607046 0 -0.040557568074084303 0.013717325544858534 0 -0.039828886607980722 0.01308087529472879 0 -0.040557568074084303 0.013717325544858534 0 -0.039828886607980722 0.01308087529472879 0 -0.040578006710418203 0.012914967859377622 0 -0.040557568074084303 0.013717325544858534 0 -0.040578006710418203 0.012914967859377622 0 -0.040777321863949494 0.013397473018374871 0 -0.040578006710418203 0.012914967859377622 0 -0.040720711821655424 0.012140922321812369 0 -0.040063625931569653 0.012164445446417541 0 -0.040578006710418203 0.012914967859377622 0 -0.040720711821655424 0.012140922321812369 0 -0.041230625635263321 0.012480581396491816 0 -0.040720711821655424 0.012140922321812369 0 -0.040063625931569653 0.012164445446417541 0 -0.040553147307447961 0.011347706275445318 0 -0.040720711821655424 0.012140922321812369 0 -0.040553147307447961 0.011347706275445318 0 -0.041358800381036218 0.01145290762168585 0 -0.040063625931569653 0.012164445446417541 0 -0.039908022261389106 0.011403738046439835 0 -0.039426302219474019 0.011650023673439763 0 -0.040063625931569653 0.012164445446417541 0 -0.039908022261389106 0.011403738046439835 0 -0.040553147307447961 0.011347706275445318 0 -0.039828886607980722 0.01308087529472879 0 -0.040578006710418203 0.012914967859377622 0 -0.040063625931569653 0.012164445446417541 0 -0.039828886607980722 0.01308087529472879 0 -0.040063625931569653 0.012164445446417541 0 -0.039268581562117204 0.012426678364537088 0 -0.038803495641205367 0.013456522369141114 0 -0.039268581562117204 0.012426678364537088 0 -0.038355069039833857 0.012535737875682049 0 -0.039268581562117204 0.012426678364537088 0 -0.038355069039833857 0.012535737875682049 0 -0.038669816217216518 0.011604475048941947 0 -0.038669816217216518 0.011604475048941947 0 -0.039426302219474019 0.011650023673439763 0 -0.038990861880049361 0.010806801103177128 0 -0.040063625931569653 0.012164445446417541 0 -0.039268581562117204 0.012426678364537088 0 -0.039426302219474019 0.011650023673439763 0 -0.039268581562117204 0.012426678364537088 0 -0.038669816217216518 0.011604475048941947 0 -0.039426302219474019 0.011650023673439763 0 -0.039908022261389106 0.011403738046439835 0 -0.039426302219474019 0.011650023673439763 0 -0.039610728918644353 0.010844623444919699 0 -0.039426302219474019 0.011650023673439763 0 -0.039610728918644353 0.010844623444919699 0 -0.038990861880049361 0.010806801103177128 0 -0.039610728918644353 0.010844623444919699 0 -0.038990861880049361 0.010806801103177128 0 -0.039330961850898849 0.010187228317965659 0 -0.038126725248119685 0.010611691395190404 0 -0.038669816217216518 0.011604475048941947 0 -0.038990861880049361 0.010806801103177128 0 -0.038126725248119685 0.010611691395190404 0 -0.038990861880049361 0.010806801103177128 0 -0.038711656937137011 0.0098032078649379802 0 -0.038990861880049361 0.010806801103177128 0 -0.038711656937137011 0.0098032078649379802 0 -0.039330961850898849 0.010187228317965659 0 -0.039330961850898849 0.010187228317965659 0 -0.039821719738783616 0.010319035174838963 0 -0.039501385323976276 0.0091649887152852119 0 -0.038711656937137011 0.0098032078649379802 0 -0.039330961850898849 0.010187228317965659 0 -0.039501385323976276 0.0091649887152852119 0 -0.039610728918644353 0.010844623444919699 0 -0.039330961850898849 0.010187228317965659 0 -0.039821719738783616 0.010319035174838963 0 -0.032678905975659728 0.017191556108182692 0 -0.032562483925182018 0.017443451574874529 0 -0.033261302130636619 0.017399182643010123 0 -0.039821719738783616 0.010319035174838963 0 -0.040476022490950052 0.010367020744959033 0 -0.039501385323976276 0.0091649887152852119 0 -0.036913554103030211 0.014028848655568677 0 -0.035579407322252191 0.0098264782491456065 0 -0.039821719738783616 0.010319035174838963 0 -0.040476022490950052 0.010367020744959033 0 -0.040124182113892563 0.010886120546192079 0 -0.032678905975659728 0.017191556108182692 0 -0.031925814805703542 0.017327512195961313 0 -0.032562483925182018 0.017443451574874529 0 -0.040476022490950052 0.010367020744959033 0 -0.040553147307447961 0.011347706275445318 0 -0.041358800381036218 0.01145290762168585 0 -0.040476022490950052 0.010367020744959033 0 -0.040553147307447961 0.011347706275445318 0 -0.040124182113892563 0.010886120546192079 0 -0.036913554103030211 0.014028848655568677 0 -0.035867467642589392 0.016327004633260069 0 -0.039908022261389106 0.011403738046439835 0 -0.040553147307447961 0.011347706275445318 0 -0.040124182113892563 0.010886120546192079 0 -0.039908022261389106 0.011403738046439835 0 -0.039610728918644353 0.010844623444919699 0 -0.040124182113892563 0.010886120546192079 0 -0.039610728918644353 0.010844623444919699 0 -0.039821719738783616 0.010319035174838963 0 -0.040124182113892563 0.010886120546192079 0 -0.03112010267319585 0.016959295326349402 0 -0.031882297580752145 0.016747018333866659 0 -0.031582760365167668 0.017448779941811529 0 -0.03112010267319585 0.016959295326349402 0 -0.031582760365167668 0.017448779941811529 0 -0.03029089077751846 0.017410199318718761 0 -0.035867467642589392 0.016327004633260069 0 -0.031618360152303952 0.017343745333900824 0 -0.032678905975659728 0.017191556108182692 0 -0.031924867324074339 0.016669309675864299 0 -0.031925814805703542 0.017327512195961313 0 -0.031882297580752145 0.016747018333866659 0 -0.031925814805703542 0.017327512195961313 0 -0.031582760365167668 0.017448779941811529 0 -0.031925814805703542 0.017327512195961313 0 -0.031582760365167668 0.017448779941811529 0 -0.032562483925182018 0.017443451574874529 0 -0.03126580030178109 0.010595998578003795 0 -0.032347628052476422 0.010931384973228944 0 -0.030806404877352159 0.0037446829853277877 0 -0.028330482151938934 0.0034734040102899332 0 -0.029168654922921766 0.005202033895654626 0 -0.03126580030178109 0.010595998578003795 0 -0.029292767431258311 0.010449259934160515 0 -0.028330482151938934 0.0034734040102899332 0 -0.026838639019200316 0.0048157858221486907 0 -0.029168654922921766 0.005202033895654626 0 -0.028330482151938934 0.0034734040102899332 0 -0.025921184822484136 0.0034155387199818234 0 -0.026838639019200316 0.0048157858221486907 0 -0.029292767431258311 0.010449259934160515 0 -0.027393512336611549 0.010331506231953983 0 -0.03029089077751846 0.017410199318718761 0 -0.030038455697704032 0.016512932466795711 0 -0.028743620498877069 0.017264724921682812 0 -0.03112010267319585 0.016959295326349402 0 -0.03029089077751846 0.017410199318718761 0 -0.030038455697704032 0.016512932466795711 0 -0.03112010267319585 0.016959295326349402 0 -0.030038455697704032 0.016512932466795711 0 -0.031096351800939451 0.016129612344210949 0 -0.030038455697704032 0.016512932466795711 0 -0.030148153164157983 0.015357201536365071 0 -0.028508372082368956 0.015836245704803385 0 -0.035215399686680214 0.018163913660298198 0 -0.037896087463193506 0.017816010303211078 0 -0.037749050445720689 0.019936416557001811 0 -0.032617811146335725 0.016680216483701101 0 -0.03457955993681372 0.018451586230721049 0 -0.030038455697704032 0.016512932466795711 0 -0.030148153164157983 0.015357201536365071 0 -0.031096351800939451 0.016129612344210949 0 -0.037896087463193506 0.017816010303211078 0 -0.039938061436950292 0.019264754469421969 0 -0.039970758272641647 0.01670391427083065 0 -0.037896087463193506 0.017816010303211078 0 -0.037749050445720689 0.019936416557001811 0 -0.039938061436950292 0.019264754469421969 0 -0.035867467642589392 0.016327004633260069 0 -0.03457955993681372 0.018451586230721049 0 -0.03112010267319585 0.016959295326349402 0 -0.031882297580752145 0.016747018333866659 0 -0.031096351800939451 0.016129612344210949 0 -0.040014873529597705 0.021612641147043709 0 -0.037749050445720689 0.019936416557001811 0 -0.039938061436950292 0.019264754469421969 0 -0.035867467642589392 0.016327004633260069 0 -0.040856472091492929 0.015928739756182784 0 -0.040720711821655424 0.012140922321812369 0 -0.041358800381036218 0.01145290762168585 0 -0.041230625635263321 0.012480581396491816 0 -0.040856472091492929 0.015928739756182784 0 -0.040329586573341694 0.014933872480922544 0 -0.040578006710418203 0.012914967859377622 0 -0.041230625635263321 0.012480581396491816 0 -0.040777321863949494 0.013397473018374871 0 -0.037896087463193506 0.017816010303211078 0 -0.039970758272641647 0.01670391427083065 0 -0.037332081557525057 0.015577915915097251 0 -0.037884475787748506 0.013745067017144398 0 -0.039998436052238295 0.013704998890350076 0 -0.037332081557525057 0.015577915915097251 0 -0.039970758272641647 0.01670391427083065 0 -0.039998436052238295 0.013704998890350076 0 -0.037332081557525057 0.015577915915097251 0 -0.040557568074084303 0.013717325544858534 0 -0.040777321863949494 0.013397473018374871 0 -0.039998436052238295 0.013704998890350076 0 -0.040557568074084303 0.013717325544858534 0 -0.039998436052238295 0.013704998890350076 0 -0.040495494806066776 0.012772492714665065 0 -0.040329586573341694 0.014933872480922544 0 -0.040081214725116117 0.013769860934886699 0 -0.039998436052238295 0.013704998890350076 0 -0.040495494806066776 0.012772492714665065 0 -0.038175881330897173 0.012355031234375612 0 -0.037884475787748506 0.013745067017144398 0 -0.039998436052238295 0.013704998890350076 0 -0.038175881330897173 0.012355031234375612 0 -0.038594581705731081 0.009890671724644003 0 -0.040495494806066776 0.012772492714665065 0 -0.038175881330897173 0.012355031234375612 0 -0.038594581705731081 0.009890671724644003 0 -0.038175881330897173 0.012355031234375612 0 -0.036358071510018006 0.011485299907404533 0 -0.040989982896600802 0.01558009203382048 0 -0.041575348803310201 0.015005426255345322 0 -0.041471618174531717 0.01608043113622817 0 -0.042352540954865542 0.016233628261321693 0 -0.041575348803310201 0.015005426255345322 0 -0.041471618174531717 0.01608043113622817 0 -0.040626918479015499 0.012397054287098676 0 -0.040982964792666221 0.013971406263605074 0 -0.035140955097108593 0.0097285148511365299 0 -0.034375611944788234 0.011586598346387153 0 -0.032361480834492681 0.010226188588393876 0 -0.035140955097108593 0.0097285148511365299 0 -0.034375611944788234 0.011586598346387153 0 -0.036358071510018006 0.011485299907404533 0 -0.035140955097108593 0.0097285148511365299 0 -0.038594581705731081 0.009890671724644003 0 -0.036358071510018006 0.011485299907404533 0 -0.034375611944788234 0.011586598346387153 0 -0.036358071510018006 0.011485299907404533 0 -0.035788394402578742 0.013244116282758116 0 -0.038175881330897173 0.012355031234375612 0 -0.036358071510018006 0.011485299907404533 0 -0.035788394402578742 0.013244116282758116 0 -0.037884475787748506 0.013745067017144398 0 -0.038175881330897173 0.012355031234375612 0 -0.035788394402578742 0.013244116282758116 0 -0.034375611944788234 0.011586598346387153 0 -0.035788394402578742 0.013244116282758116 0 -0.03272213092442873 0.013197939989479679 0 -0.035788394402578742 0.013244116282758116 0 -0.034815201196929643 0.015346249244818718 0 -0.03272213092442873 0.013197939989479679 0 -0.034815201196929643 0.015346249244818718 0 -0.032587567084504394 0.016333806256193996 0 -0.03272213092442873 0.013197939989479679 0 -0.035788394402578742 0.013244116282758116 0 -0.034815201196929643 0.015346249244818718 0 -0.037332081557525057 0.015577915915097251 0 -0.037884475787748506 0.013745067017144398 0 -0.035788394402578742 0.013244116282758116 0 -0.037332081557525057 0.015577915915097251 0 -0.035215399686680214 0.018163913660298198 0 -0.034815201196929643 0.015346249244818718 0 -0.037332081557525057 0.015577915915097251 0 -0.035215399686680214 0.018163913660298198 0 -0.037896087463193506 0.017816010303211078 0 -0.037332081557525057 0.015577915915097251 0 -0.032617811146335725 0.016680216483701101 0 -0.030837503069453005 0.015420012857445263 0 -0.035215399686680214 0.018163913660298198 0 -0.034815201196929643 0.015346249244818718 0 -0.032587567084504394 0.016333806256193996 0 -0.029072385963983319 0.01448638034213638 0 -0.027874820394338265 0.014652428000487433 0 -0.028508372082368956 0.015836245704803385 0 -0.029072385963983319 0.01448638034213638 0 -0.027874820394338265 0.014652428000487433 0 -0.027963711801358489 0.013518087723494348 0 -0.030837503069453005 0.015420012857445263 0 -0.02886657514605883 0.013944766578851287 0 -0.032587567084504394 0.016333806256193996 0 -0.029847444028598184 0.014468095430086318 0 -0.03272213092442873 0.013197939989479679 0 -0.029847444028598184 0.014468095430086318 0 -0.03272213092442873 0.013197939989479679 0 -0.030552836293504089 0.011713703938404305 0 -0.029847444028598184 0.014468095430086318 0 -0.030552836293504089 0.011713703938404305 0 -0.028662778472528627 0.010966391073875094 0 -0.030552836293504089 0.011713703938404305 0 -0.030031695862705685 0.01031413557249717 0 -0.032361480834492681 0.010226188588393876 0 -0.030552836293504089 0.011713703938404305 0 -0.030031695862705685 0.01031413557249717 0 -0.028662778472528627 0.010966391073875094 0 -0.028026935332528608 0.0098037999322587513 0 -0.030031695862705685 0.01031413557249717 0 -0.028662778472528627 0.010966391073875094 0 -0.03272213092442873 0.013197939989479679 0 -0.030552836293504089 0.011713703938404305 0 -0.032361480834492681 0.010226188588393876 0 -0.034375611944788234 0.011586598346387153 0 -0.03272213092442873 0.013197939989479679 0 -0.032361480834492681 0.010226188588393876 0 -0.028026935332528608 0.0098037999322587513 0 -0.025317933057704082 0.011201716625641336 0 -0.026966209080354988 0.012405039077201268 0 -0.026437535485608919 0.018760185844882482 0 -0.022226905073020636 0.017939334126494851 0 -0.028026935332528608 0.0098037999322587513 0 -0.028662778472528627 0.010966391073875094 0 -0.026966209080354988 0.012405039077201268 0 -0.02886657514605883 0.013944766578851287 0 -0.027068075837748784 0.012500266881933803 0 -0.029847444028598184 0.014468095430086318 0 -0.028662778472528627 0.010966391073875094 0 -0.026966209080354988 0.012405039077201268 0 -0.025317933057704082 0.011201716625641336 0 -0.026966209080354988 0.012405039077201268 0 -0.025275111210977856 0.012924174925431199 0 -0.026966209080354988 0.012405039077201268 0 -0.026724796743525316 0.013893889167381109 0 -0.025275111210977856 0.012924174925431199 0 -0.026724796743525316 0.013893889167381109 0 -0.025275111210977856 0.012924174925431199 0 -0.0252007591232314 0.014263612739935389 0 -0.027874820394338265 0.014652428000487433 0 -0.027963711801358489 0.013518087723494348 0 -0.026724796743525316 0.013893889167381109 0 -0.027963711801358489 0.013518087723494348 0 -0.026966209080354988 0.012405039077201268 0 -0.026724796743525316 0.013893889167381109 0 -0.027874820394338265 0.014652428000487433 0 -0.026724796743525316 0.013893889167381109 0 -0.026531356232078591 0.015386806852465126 0 -0.026724796743525316 0.013893889167381109 0 -0.026531356232078591 0.015386806852465126 0 -0.0252007591232314 0.014263612739935389 0 -0.026531356232078591 0.015386806852465126 0 -0.0252007591232314 0.014263612739935389 0 -0.024311824670804179 0.01547417420413791 0 -0.025300253666980212 0.010303389115576246 0 -0.023267244441891217 0.0081165331310251599 0 -0.023981891219977472 0.0033755801899116138 0 -0.019960744804901145 0.0016829717263405386 0 -0.020964788799307823 0.0043359904036258893 0 -0.02699116624337183 0.017048489258883009 0 -0.026531356232078591 0.015386806852465126 0 -0.025014321778558717 0.016760899674364262 0 -0.02699116624337183 0.017048489258883009 0 -0.026531356232078591 0.015386806852465126 0 -0.028508372082368956 0.015836245704803385 0 -0.027874820394338265 0.014652428000487433 0 -0.026531356232078591 0.015386806852465126 0 -0.028508372082368956 0.015836245704803385 0 -0.030148153164157983 0.015357201536365071 0 -0.029072385963983319 0.01448638034213638 0 -0.028508372082368956 0.015836245704803385 0 -0.030038455697704032 0.016512932466795711 0 -0.028508372082368956 0.015836245704803385 0 -0.028743620498877069 0.017264724921682812 0 -0.02699116624337183 0.017048489258883009 0 -0.028508372082368956 0.015836245704803385 0 -0.028743620498877069 0.017264724921682812 0 -0.023981891219977472 0.0033755801899116138 0 -0.025921184822484136 0.0034155387199818234 0 -0.024632271449626608 0.0045942368011244288 0 -0.025300253666980212 0.010303389115576246 0 -0.027393512336611549 0.010331506231953983 0 -0.025921184822484136 0.0034155387199818234 0 -0.026838639019200316 0.0048157858221486907 0 -0.024632271449626608 0.0045942368011244288 0 -0.026838639019200316 0.0048157858221486907 0 -0.024632271449626608 0.0045942368011244288 0 -0.025475533846318076 0.0059228967737288652 0 -0.024632271449626608 0.0045942368011244288 0 -0.023023754090484808 0.0053292600193275688 0 -0.023526233338787152 0.0045852604326914693 0 -0.024632271449626608 0.0045942368011244288 0 -0.023023754090484808 0.0053292600193275688 0 -0.023875727399432094 0.0059485221665182293 0 -0.023023754090484808 0.0053292600193275688 0 -0.022210245040760777 0.0057618329699576148 0 -0.021872380509933117 0.0052988280877898598 0 -0.023023754090484808 0.0053292600193275688 0 -0.022285522805036245 0.0047902718951148048 0 -0.021872380509933117 0.0052988280877898598 0 -0.022285522805036245 0.0047902718951148048 0 -0.021872380509933117 0.0052988280877898598 0 -0.021441307342017931 0.0049311987166089444 0 -0.023023754090484808 0.0053292600193275688 0 -0.022285522805036245 0.0047902718951148048 0 -0.023526233338787152 0.0045852604326914693 0 -0.023981891219977472 0.0033755801899116138 0 -0.022285522805036245 0.0047902718951148048 0 -0.020964788799307823 0.0043359904036258893 0 -0.022285522805036245 0.0047902718951148048 0 -0.021441307342017931 0.0049311987166089444 0 -0.020964788799307823 0.0043359904036258893 0 -0.023981891219977472 0.0033755801899116138 0 -0.024632271449626608 0.0045942368011244288 0 -0.023526233338787152 0.0045852604326914693 0 -0.023981891219977472 0.0033755801899116138 0 -0.022285522805036245 0.0047902718951148048 0 -0.023526233338787152 0.0045852604326914693 0 -0.023340839152035886 0.0067085243379879879 0 -0.023875727399432094 0.0059485221665182293 0 -0.024258840544652854 0.006889035132580182 0 -0.023340839152035886 0.0067085243379879879 0 -0.024258840544652854 0.006889035132580182 0 -0.023347273638918583 0.0074636193134795846 0 -0.023340839152035886 0.0067085243379879879 0 -0.022475887171625117 0.0069897896175749891 0 -0.023347273638918583 0.0074636193134795846 0 -0.022475887171625117 0.0069897896175749891 0 -0.02281270853487663 0.0061723571609189464 0 -0.022095936437453986 0.006368388855590784 0 -0.023340839152035886 0.0067085243379879879 0 -0.022475887171625117 0.0069897896175749891 0 -0.02281270853487663 0.0061723571609189464 0 -0.02281270853487663 0.0061723571609189464 0 -0.022210245040760777 0.0057618329699576148 0 -0.022095936437453986 0.006368388855590784 0 -0.023023754090484808 0.0053292600193275688 0 -0.02281270853487663 0.0061723571609189464 0 -0.022210245040760777 0.0057618329699576148 0 -0.023023754090484808 0.0053292600193275688 0 -0.02281270853487663 0.0061723571609189464 0 -0.023875727399432094 0.0059485221665182293 0 -0.023340839152035886 0.0067085243379879879 0 -0.02281270853487663 0.0061723571609189464 0 -0.023875727399432094 0.0059485221665182293 0 -0.024632271449626608 0.0045942368011244288 0 -0.023875727399432094 0.0059485221665182293 0 -0.025475533846318076 0.0059228967737288652 0 -0.023875727399432094 0.0059485221665182293 0 -0.025475533846318076 0.0059228967737288652 0 -0.024258840544652854 0.006889035132580182 0 -0.026838639019200316 0.0048157858221486907 0 -0.025475533846318076 0.0059228967737288652 0 -0.027154506767514786 0.0064633424651466655 0 -0.025475533846318076 0.0059228967737288652 0 -0.025496839587737543 0.00736527292394565 0 -0.027154506767514786 0.0064633424651466655 0 -0.025475533846318076 0.0059228967737288652 0 -0.024258840544652854 0.006889035132580182 0 -0.025496839587737543 0.00736527292394565 0 -0.024258840544652854 0.006889035132580182 0 -0.025496839587737543 0.00736527292394565 0 -0.024201358694653348 0.0078970642315629828 0 -0.025496839587737543 0.00736527292394565 0 -0.02515789199899128 0.0088837299883597447 0 -0.024201358694653348 0.0078970642315629828 0 -0.025496839587737543 0.00736527292394565 0 -0.02515789199899128 0.0088837299883597447 0 -0.026975431413847988 0.0082621981153575066 0 -0.025496839587737543 0.00736527292394565 0 -0.026975431413847988 0.0082621981153575066 0 -0.027154506767514786 0.0064633424651466655 0 -0.026574334871163979 0.0077352396744479563 0 -0.027890699897038893 0.0072300315938823266 0 -0.028335823790773595 0.0070571555606792295 0 -0.027671592798190797 0.0066505503684400613 0 -0.028871393631276186 0.0061880221252822607 0 -0.026574334871163979 0.0077352396744479563 0 -0.024206064978493327 0.0081612492481668818 0 -0.027671592798190797 0.0066505503684400613 0 -0.026499865061412692 0.0071325215252888334 0 -0.027601436824500898 0.0073185854958309352 0 -0.02515789199899128 0.0088837299883597447 0 -0.02394305583833203 0.0086403426891854523 0 -0.024201358694653348 0.0078970642315629828 0 -0.028335823790773595 0.0070571555606792295 0 -0.027671592798190797 0.0066505503684400613 0 -0.027601436824500898 0.0073185854958309352 0 -0.02515789199899128 0.0088837299883597447 0 -0.023488379396237134 0.0093711234539582324 0 -0.02394305583833203 0.0086403426891854523 0 -0.023488379396237134 0.0093711234539582324 0 -0.023041499043846215 0.0088325003243441887 0 -0.023437368095462572 0.0087590851626051236 0 -0.023488379396237134 0.0093711234539582324 0 -0.023437368095462572 0.0087590851626051236 0 -0.02394305583833203 0.0086403426891854523 0 -0.022910994504120413 0.0089201430257815229 0 -0.023041499043846215 0.0088325003243441887 0 -0.022894604947592937 0.0088703072108363319 0 -0.022910994504120413 0.0089201430257815229 0 -0.022935480601231364 0.0089101959768093757 0 -0.023041499043846215 0.0088325003243441887 0 -0.023755517467561993 0.0083714228078515477 0 -0.024206064978493327 0.0081612492481668818 0 -0.024206064978493327 0.0081612492481668818 0 -0.02364824478542803 0.0084233242930278861 0 -0.023437368095462572 0.0087590851626051236 0 -0.02394305583833203 0.0086403426891854523 0 -0.02330834045180227 0.0082861737408034142 0 -0.023041499043846215 0.0088325003243441887 0 -0.023437368095462572 0.0087590851626051236 0 -0.02330834045180227 0.0082861737408034142 0 -0.02394305583833203 0.0086403426891854523 0 -0.02330834045180227 0.0082861737408034142 0 -0.024201358694653348 0.0078970642315629828 0 -0.02330834045180227 0.0082861737408034142 0 -0.023347273638918583 0.0074636193134795846 0 -0.024201358694653348 0.0078970642315629828 0 -0.024258840544652854 0.006889035132580182 0 -0.023347273638918583 0.0074636193134795846 0 -0.024201358694653348 0.0078970642315629828 0 -0.022556495145076499 0.0078729858629323444 0 -0.022732576755855386 0.0084246772259593608 0 -0.021868541496604745 0.0086080956218659212 0 -0.022475887171625117 0.0069897896175749891 0 -0.022556495145076499 0.0078729858629323444 0 -0.021850773948145091 0.0075282013664802324 0 -0.02330834045180227 0.0082861737408034142 0 -0.023347273638918583 0.0074636193134795846 0 -0.022556495145076499 0.0078729858629323444 0 -0.022475887171625117 0.0069897896175749891 0 -0.023347273638918583 0.0074636193134795846 0 -0.022556495145076499 0.0078729858629323444 0 -0.02330834045180227 0.0082861737408034142 0 -0.022556495145076499 0.0078729858629323444 0 -0.022732576755855386 0.0084246772259593608 0 -0.022732576755855386 0.0084246772259593608 0 -0.02265814463705389 0.0087669256829971988 0 -0.021868541496604745 0.0086080956218659212 0 -0.02265814463705389 0.0087669256829971988 0 -0.02280964385843719 0.0090660579448479973 0 -0.021868541496604745 0.0086080956218659212 0 -0.023041499043846215 0.0088325003243441887 0 -0.022732576755855386 0.0084246772259593608 0 -0.02265814463705389 0.0087669256829971988 0 -0.023041499043846215 0.0088325003243441887 0 -0.02330834045180227 0.0082861737408034142 0 -0.022732576755855386 0.0084246772259593608 0 -0.023041499043846215 0.0088325003243441887 0 -0.022894604947592937 0.0088703072108363319 0 -0.02265814463705389 0.0087669256829971988 0 -0.022894604947592937 0.0088703072108363319 0 -0.02265814463705389 0.0087669256829971988 0 -0.022883123504695076 0.0089061021936183513 0 -0.02265814463705389 0.0087669256829971988 0 -0.022883123504695076 0.0089061021936183513 0 -0.02280964385843719 0.0090660579448479973 0 -0.018740052753349289 0.0096499519177613118 0 -0.018629432405539263 0.0096729423735510481 0 -0.017856945513195964 0.0084799111159571724 0 -0.022910994504120413 0.0089201430257815229 0 -0.022894604947592937 0.0088703072108363319 0 -0.022883123504695076 0.0089061021936183513 0 -0.022883123504695076 0.0089061021936183513 0 -0.02291576995163825 0.0089107053893296914 0 -0.022878373317498226 0.0088553455066998216 0 -0.021990711071206776 0.0087391072367591811 0 -0.020842525238960821 0.0088736403066656394 0 -0.02291576995163825 0.0089107053893296914 0 -0.023068324006367685 0.0088787896830633314 0 -0.022920689968940949 0.0084353154169530559 0 -0.022883123504695076 0.0089061021936183513 0 -0.02291576995163825 0.0089107053893296914 0 -0.02280964385843719 0.0090660579448479973 0 -0.020890300518436648 0.0083560667647760659 0 -0.020912442633937375 0.0083522916724415499 0 -0.020814008587411913 0.0081922366510747396 0 -0.020842525238960821 0.0088736403066656394 0 -0.019010092843061786 0.0086178411348805106 0 -0.022845780378522623 0.0089593329498613653 0 -0.02274709100965832 0.0087189774556904534 0 -0.022501280436809136 0.0085796620066915154 0 -0.024206064978493327 0.0081612492481668818 0 -0.024961570914198882 0.0082519384300622552 0 -0.022910994504120413 0.0089201430257815229 0 -0.022845780378522623 0.0089593329498613653 0 -0.022878373317498226 0.0088553455066998216 0 -0.022845780378522623 0.0089593329498613653 0 -0.022878373317498226 0.0088553455066998216 0 -0.02274709100965832 0.0087189774556904534 0 -0.022910994504120413 0.0089201430257815229 0 -0.022883123504695076 0.0089061021936183513 0 -0.022878373317498226 0.0088553455066998216 0 -0.02291576995163825 0.0089107053893296914 0 -0.022878373317498226 0.0088553455066998216 0 -0.022828321348987327 0.0086979709065530247 0 -0.022878373317498226 0.0088553455066998216 0 -0.022828321348987327 0.0086979709065530247 0 -0.02274709100965832 0.0087189774556904534 0 -0.022828321348987327 0.0086979709065530247 0 -0.02274709100965832 0.0087189774556904534 0 -0.022694158194517648 0.008531498473969926 0 -0.02274709100965832 0.0087189774556904534 0 -0.022694158194517648 0.008531498473969926 0 -0.022501280436809136 0.0085796620066915154 0 -0.022694158194517648 0.008531498473969926 0 -0.022920689968940949 0.0084353154169530559 0 -0.022544055301677288 0.0082677359257852211 0 -0.022828321348987327 0.0086979709065530247 0 -0.022694158194517648 0.008531498473969926 0 -0.022920689968940949 0.0084353154169530559 0 -0.021730991526840493 0.0076366753407085333 0 -0.02195869924045922 0.0072685910517930503 0 -0.019993418066418214 0.0045038217449275822 0 -0.020936582220553602 0.0055891737139331168 0 -0.019131881530537673 0.0058910997972081687 0 -0.020936582220553602 0.0055891737139331168 0 -0.020408065148477244 0.006947909140301127 0 -0.019131881530537673 0.0058910997972081687 0 -0.019010092843061786 0.0086178411348805106 0 -0.021730991526840493 0.0076366753407085333 0 -0.020842525238960821 0.0088736403066656394 0 -0.021730991526840493 0.0076366753407085333 0 -0.02291576995163825 0.0089107053893296914 0 -0.022828321348987327 0.0086979709065530247 0 -0.022920689968940949 0.0084353154169530559 0 -0.021730991526840493 0.0076366753407085333 0 -0.022794713559456312 0.0082265150640838426 0 -0.020936582220553602 0.0055891737139331168 0 -0.020408065148477244 0.006947909140301127 0 -0.021679129753315214 0.0067690636747461301 0 -0.022920689968940949 0.0084353154169530559 0 -0.022416903477871859 0.0079495774520443891 0 -0.022544055301677288 0.0082677359257852211 0 -0.022416914190785089 0.0079005609432884864 0 -0.022416828924197888 0.0079288524038953045 0 -0.022416903477871859 0.0079495774520443891 0 -0.02195869924045922 0.0072685910517930503 0 -0.022320095823378103 0.0078663434329143932 0 -0.022416828924197888 0.0079288524038953045 0 -0.022318478411890458 0.0079328946259693139 0 -0.022416903477871859 0.0079495774520443891 0 -0.021679129753315214 0.0067690636747461301 0 -0.021550866957122328 0.0079616329650223309 0 -0.022318478411890458 0.0079328946259693139 0 -0.020408065148477244 0.006947909140301127 0 -0.021679129753315214 0.0067690636747461301 0 -0.021550866957122328 0.0079616329650223309 0 -0.021550866957122328 0.0079616329650223309 0 -0.022462440747123353 0.0082763751136526002 0 -0.022047059509455427 0.0088322732893540788 0 -0.021550866957122328 0.0079616329650223309 0 -0.020463146673204844 0.0085439419373168467 0 -0.022047059509455427 0.0088322732893540788 0 -0.021550866957122328 0.0079616329650223309 0 -0.022462440747123353 0.0082763751136526002 0 -0.022318478411890458 0.0079328946259693139 0 -0.020408065148477244 0.006947909140301127 0 -0.021550866957122328 0.0079616329650223309 0 -0.020463146673204844 0.0085439419373168467 0 -0.020408065148477244 0.006947909140301127 0 -0.020463146673204844 0.0085439419373168467 0 -0.018254236281126116 0.0077366745159404308 0 -0.025784723643879397 0.00766927511303344 0 -0.02221291669908167 0.0083168778172902531 0 -0.024871340162848418 0.0062348234187206185 0 -0.024631136737470808 0.0084092015706093131 0 -0.022824684121483259 0.0083795777846170511 0 -0.022625801336868243 0.0080948555970742977 0 -0.022708401627105506 0.0080713211161422584 0 -0.022824684121483259 0.0083795777846170511 0 -0.022625801336868243 0.0080948555970742977 0 -0.022462440747123353 0.0082763751136526002 0 -0.022824684121483259 0.0083795777846170511 0 -0.022462440747123353 0.0082763751136526002 0 -0.022318478411890458 0.0079328946259693139 0 -0.02248666509240391 0.0080248972071471358 0 -0.022318478411890458 0.0079328946259693139 0 -0.02248666509240391 0.0080248972071471358 0 -0.022416903477871859 0.0079495774520443891 0 -0.022625801336868243 0.0080948555970742977 0 -0.022462440747123353 0.0082763751136526002 0 -0.02248666509240391 0.0080248972071471358 0 -0.022625801336868243 0.0080948555970742977 0 -0.022484238932843729 0.0080673271809377778 0 -0.022476322424443806 0.0081183005133443394 0 -0.022484238932843729 0.0080673271809377778 0 -0.022476322424443806 0.0081183005133443394 0 -0.022544055301677288 0.0082677359257852211 0 -0.022625801336868243 0.0080948555970742977 0 -0.02248666509240391 0.0080248972071471358 0 -0.022484238932843729 0.0080673271809377778 0 -0.022416903477871859 0.0079495774520443891 0 -0.022484238932843729 0.0080673271809377778 0 -0.022544055301677288 0.0082677359257852211 0 -0.02248666509240391 0.0080248972071471358 0 -0.022416903477871859 0.0079495774520443891 0 -0.022484238932843729 0.0080673271809377778 0 -0.022625801336868243 0.0080948555970742977 0 -0.022476322424443806 0.0081183005133443394 0 -0.022708401627105506 0.0080713211161422584 0 -0.025362172375502857 0.0085994862498351629 0 -0.025784723643879397 0.00766927511303344 0 -0.028098889989486751 0.0087340193580991102 0 -0.028936945319937395 0.0082948185912136169 0 -0.028825202958386746 0.009495913566672334 0 -0.028098889989486751 0.0087340193580991102 0 -0.028169896778272887 0.007778349907379252 0 -0.028936945319937395 0.0082948185912136169 0 -0.022476322424443806 0.0081183005133443394 0 -0.022544055301677288 0.0082677359257852211 0 -0.022501280436809136 0.0085796620066915154 0 -0.025362172375502857 0.0085994862498351629 0 -0.024961570914198882 0.0082519384300622552 0 -0.028098889989486751 0.0087340193580991102 0 -0.027318448667842655 0.0079627605359926992 0 -0.028169896778272887 0.007778349907379252 0 -0.022694158194517648 0.008531498473969926 0 -0.022544055301677288 0.0082677359257852211 0 -0.022501280436809136 0.0085796620066915154 0 -0.026499865061412692 0.0071325215252888334 0 -0.027318448667842655 0.0079627605359926992 0 -0.027601436824500898 0.0073185854958309352 0 -0.027318448667842655 0.0079627605359926992 0 -0.027601436824500898 0.0073185854958309352 0 -0.028169896778272887 0.007778349907379252 0 -0.028335823790773595 0.0070571555606792295 0 -0.028169896778272887 0.007778349907379252 0 -0.029051906191409939 0.0073208778855921456 0 -0.028335823790773595 0.0070571555606792295 0 -0.027601436824500898 0.0073185854958309352 0 -0.028169896778272887 0.007778349907379252 0 -0.029051906191409939 0.0073208778855921456 0 -0.029891023468613633 0.0076670312555674209 0 -0.029701761032434392 0.0066903524284785401 0 -0.029051906191409939 0.0073208778855921456 0 -0.029727150828944025 0.007669050499496185 0 -0.028936945319937395 0.0082948185912136169 0 -0.028169896778272887 0.007778349907379252 0 -0.029051906191409939 0.0073208778855921456 0 -0.028936945319937395 0.0082948185912136169 0 -0.029106755393198569 0.0073393971207678706 0 -0.029926778331617845 0.007700414011061721 0 -0.029891023468613633 0.0076670312555674209 0 -0.030647558527230476 0.0080018724792716243 0 -0.030566192592411959 0.0067525317003286345 0 -0.029926778331617845 0.007700414011061721 0 -0.030255985682708708 0.0066273429272512858 0 -0.029727150828944025 0.007669050499496185 0 -0.029643913227290351 0.0087526923771367813 0 -0.030439907381426459 0.0080089956237005509 0 -0.026881272712745385 0.0052653108755404783 0 -0.028643563269022117 0.0056058738752843085 0 -0.028466738977333532 0.0038562680884267641 0 -0.028347821227383909 0.0069383057936635321 0 -0.030255985682708708 0.0066273429272512858 0 -0.029727150828944025 0.007669050499496185 0 -0.029643913227290351 0.0087526923771367813 0 -0.028936945319937395 0.0082948185912136169 0 -0.029643913227290351 0.0087526923771367813 0 -0.028936945319937395 0.0082948185912136169 0 -0.028825202958386746 0.009495913566672334 0 -0.028347821227383909 0.0069383057936635321 0 -0.025784723643879397 0.00766927511303344 0 -0.026881272712745385 0.0052653108755404783 0 -0.027604014990436423 0.0067777724936888212 0 -0.028643563269022117 0.0056058738752843085 0 -0.026881272712745385 0.0052653108755404783 0 -0.02534827219106792 0.0066076131369753434 0 -0.027604014990436423 0.0067777724936888212 0 -0.027604014990436423 0.0067777724936888212 0 -0.026467298541710912 0.0078511729281034812 0 -0.028346430894096487 0.0085113322072724075 0 -0.02534827219106792 0.0066076131369753434 0 -0.027604014990436423 0.0067777724936888212 0 -0.026467298541710912 0.0078511729281034812 0 -0.024871340162848418 0.0062348234187206185 0 -0.026467298541710912 0.0078511729281034812 0 -0.024631136737470808 0.0084092015706093131 0 -0.025784723643879397 0.00766927511303344 0 -0.026028347592721941 0.0073432681412413329 0 -0.031080221341859674 0.0069174786497083213 0 -0.031798480893938587 0.0081618725226281722 0 -0.030092298522519389 0.0086955755561738349 0 -0.029262929081589107 0.0072169668702191034 0 -0.031080221341859674 0.0069174786497083213 0 -0.030092298522519389 0.0086955755561738349 0 -0.027604014990436423 0.0067777724936888212 0 -0.029262929081589107 0.0072169668702191034 0 -0.028346430894096487 0.0085113322072724075 0 -0.029262929081589107 0.0072169668702191034 0 -0.028346430894096487 0.0085113322072724075 0 -0.030092298522519389 0.0086955755561738349 0 -0.027604014990436423 0.0067777724936888212 0 -0.029262929081589107 0.0072169668702191034 0 -0.028643563269022117 0.0056058738752843085 0 -0.029262929081589107 0.0072169668702191034 0 -0.028643563269022117 0.0056058738752843085 0 -0.029861251835908199 0.0061621037607426359 0 -0.029861251835908199 0.0061621037607426359 0 -0.031080221341859674 0.0069174786497083213 0 -0.030489130707039909 0.0048953942052063597 0 -0.028643563269022117 0.0056058738752843085 0 -0.029861251835908199 0.0061621037607426359 0 -0.030489130707039909 0.0048953942052063597 0 -0.029262929081589107 0.0072169668702191034 0 -0.029861251835908199 0.0061621037607426359 0 -0.031080221341859674 0.0069174786497083213 0 -0.028643563269022117 0.0056058738752843085 0 -0.030489130707039909 0.0048953942052063597 0 -0.028466738977333532 0.0038562680884267641 0 -0.031354412996265485 0.0054022729547196181 0 -0.030255985682708708 0.0066273429272512858 0 -0.030255985682708708 0.0066273429272512858 0 -0.032108610734698284 0.0064973869655001156 0 -0.030647558527230476 0.0080018724792716243 0 -0.03152377196837032 0.0071404474847897113 0 -0.030566192592411959 0.0067525317003286345 0 -0.032390918935303201 0.0061905734250144962 0 -0.032391475988998844 0.0058915129554439286 0 -0.032576430156645818 0.0061082502864185191 0 -0.032390918935303201 0.0061905734250144962 0 -0.032142469006772631 0.0060831046128429454 0 -0.032391475988998844 0.0058915129554439286 0 -0.03152377196837032 0.0071404474847897113 0 -0.03142330379188818 0.0061468821384809916 0 -0.032471275579725074 0.0059091404404344227 0 -0.032108610734698284 0.0064973869655001156 0 -0.032383325390373259 0.0059956801458115327 0 -0.03142330379188818 0.0061468821384809916 0 -0.031866039532628766 0.0057098929494709344 0 -0.032471275579725074 0.0059091404404344227 0 -0.03142330379188818 0.0061468821384809916 0 -0.031866039532628766 0.0057098929494709344 0 -0.031008662721792063 0.0058555460289745065 0 -0.03142330379188818 0.0061468821384809916 0 -0.030804244669490694 0.0060901944855351687 0 -0.031008662721792063 0.0058555460289745065 0 -0.03142330379188818 0.0061468821384809916 0 -0.030804244669490694 0.0060901944855351687 0 -0.030566192592411959 0.0067525317003286345 0 -0.030804244669490694 0.0060901944855351687 0 -0.030566192592411959 0.0067525317003286345 0 -0.030133218344373023 0.0058206171908061106 0 -0.030804244669490694 0.0060901944855351687 0 -0.030133218344373023 0.0058206171908061106 0 -0.031008662721792063 0.0058555460289745065 0 -0.03152377196837032 0.0071404474847897113 0 -0.03142330379188818 0.0061468821384809916 0 -0.030566192592411959 0.0067525317003286345 0 -0.030566192592411959 0.0067525317003286345 0 -0.029701761032434392 0.0066903524284785401 0 -0.030133218344373023 0.0058206171908061106 0 -0.029891023468613633 0.0076670312555674209 0 -0.030566192592411959 0.0067525317003286345 0 -0.029701761032434392 0.0066903524284785401 0 -0.029051906191409939 0.0073208778855921456 0 -0.029701761032434392 0.0066903524284785401 0 -0.028871393631276186 0.0061880221252822607 0 -0.028335823790773595 0.0070571555606792295 0 -0.029051906191409939 0.0073208778855921456 0 -0.028871393631276186 0.0061880221252822607 0 -0.027890699897038893 0.0072300315938823266 0 -0.029528873185086693 0.0065624468158364223 0 -0.026975431413847988 0.0082621981153575066 0 -0.028948212765804261 0.0073250012071938301 0 -0.027154506767514786 0.0064633424651466655 0 -0.029701761032434392 0.0066903524284785401 0 -0.028871393631276186 0.0061880221252822607 0 -0.030133218344373023 0.0058206171908061106 0 -0.028948212765804261 0.0073250012071938301 0 -0.029168654922921766 0.005202033895654626 0 -0.031008662721792063 0.0058555460289745065 0 -0.028948212765804261 0.0073250012071938301 0 -0.027154506767514786 0.0064633424651466655 0 -0.029168654922921766 0.005202033895654626 0 -0.026838639019200316 0.0048157858221486907 0 -0.027154506767514786 0.0064633424651466655 0 -0.029168654922921766 0.005202033895654626 0 -0.030806404877352159 0.0037446829853277877 0 -0.029168654922921766 0.005202033895654626 0 -0.03058942868102317 0.0050293471218311962 0 -0.029168654922921766 0.005202033895654626 0 -0.03058942868102317 0.0050293471218311962 0 -0.031008662721792063 0.0058555460289745065 0 -0.030806404877352159 0.0037446829853277877 0 -0.031670892206188538 0.0050406343082022324 0 -0.032888977686772465 0.0041715425682623142 0 -0.030806404877352159 0.0037446829853277877 0 -0.03058942868102317 0.0050293471218311962 0 -0.031670892206188538 0.0050406343082022324 0 -0.03058942868102317 0.0050293471218311962 0 -0.031670892206188538 0.0050406343082022324 0 -0.031008662721792063 0.0058555460289745065 0 -0.031670892206188538 0.0050406343082022324 0 -0.031866039532628766 0.0057098929494709344 0 -0.031008662721792063 0.0058555460289745065 0 -0.029528873185086693 0.0065624468158364223 0 -0.030857226243859448 0.0059440715564145728 0 -0.033348314266894545 0.0055600060879700567 0 -0.033692625181044975 0.0048604254606954929 0 -0.034227046689300149 0.0052806972579496868 0 -0.031670892206188538 0.0050406343082022324 0 -0.031866039532628766 0.0057098929494709344 0 -0.032652980485248104 0.0054352536846022032 0 -0.031757110907171669 0.0050246350053838483 0 -0.032972037623307839 0.0054656709318378505 0 -0.031670892206188538 0.0050406343082022324 0 -0.033348314266894545 0.0055600060879700567 0 -0.032888977686772465 0.0041715425682623142 0 -0.033348314266894545 0.0055600060879700567 0 -0.032888977686772465 0.0041715425682623142 0 -0.033692625181044975 0.0048604254606954929 0 -0.032347628052476422 0.010931384973228944 0 -0.035579407322252191 0.0098264782491456065 0 -0.032888977686772465 0.0041715425682623142 0 -0.033692625181044975 0.0048604254606954929 0 -0.034397103897311307 0.0045421536139240116 0 -0.033692625181044975 0.0048604254606954929 0 -0.034397103897311307 0.0045421536139240116 0 -0.03447531210496866 0.0049469497750021371 0 -0.035579407322252191 0.0098264782491456065 0 -0.034550256262482884 0.0047165457207119198 0 -0.034397103897311307 0.0045421536139240116 0 -0.034838854720044159 0.0049406582066736328 0 -0.03447531210496866 0.0049469497750021371 0 -0.038711656937137011 0.0098032078649379802 0 -0.039501385323976276 0.0091649887152852119 0 -0.038520504768682094 0.0085862918859005884 0 -0.035579407322252191 0.0098264782491456065 0 -0.0371353477173616 0.0067189982647056544 0 -0.035400680644173024 0.0053866062478439567 0 -0.035195953088087123 0.005199128100334671 0 -0.035261523171435931 0.0051934299226950448 0 -0.034838854720044159 0.0049406582066736328 0 -0.034770724528252604 0.0052593585673341011 0 -0.035179369350129865 0.0051953906294442158 0 -0.035195953088087123 0.005199128100334671 0 -0.035261523171435931 0.0051934299226950448 0 -0.035179369350129865 0.0051953906294442158 0 -0.034550256262482884 0.0047165457207119198 0 -0.035327644720114966 0.005304094199353516 0 -0.033692625181044975 0.0048604254606954929 0 -0.03447531210496866 0.0049469497750021371 0 -0.034227046689300149 0.0052806972579496868 0 -0.034838854720044159 0.0049406582066736328 0 -0.034770724528252604 0.0052593585673341011 0 -0.03447531210496866 0.0049469497750021371 0 -0.034770724528252604 0.0052593585673341011 0 -0.03447531210496866 0.0049469497750021371 0 -0.034227046689300149 0.0052806972579496868 0 -0.034770724528252604 0.0052593585673341011 0 -0.034227046689300149 0.0052806972579496868 0 -0.034532308197045225 0.0056053603612178345 0 -0.034770724528252604 0.0052593585673341011 0 -0.035089079971609184 0.0053057737737371167 0 -0.035179369350129865 0.0051953906294442158 0 -0.034770724528252604 0.0052593585673341011 0 -0.034532308197045225 0.0056053603612178345 0 -0.035089079971609184 0.0053057737737371167 0 -0.03401970366458977 0.0054413454256536991 0 -0.034824145301027516 0.0054201678859260227 0 -0.034532308197045225 0.0056053603612178345 0 -0.034896011400200946 0.0053506243365146929 0 -0.035089079971609184 0.0053057737737371167 0 -0.033464232228417046 0.0052669568277859515 0 -0.034896011400200946 0.0053506243365146929 0 -0.033897086449243524 0.0056534879085767013 0 -0.033464232228417046 0.0052669568277859515 0 -0.032958121116469993 0.0056851398672255965 0 -0.033897086449243524 0.0056534879085767013 0 -0.032652980485248104 0.0054352536846022032 0 -0.033464232228417046 0.0052669568277859515 0 -0.032958121116469993 0.0056851398672255965 0 -0.033348314266894545 0.0055600060879700567 0 -0.034227046689300149 0.0052806972579496868 0 -0.034532308197045225 0.0056053603612178345 0 -0.032972037623307839 0.0054656709318378505 0 -0.03401970366458977 0.0054413454256536991 0 -0.031866039532628766 0.0057098929494709344 0 -0.032652980485248104 0.0054352536846022032 0 -0.032471275579725074 0.0059091404404344227 0 -0.032652980485248104 0.0054352536846022032 0 -0.032958121116469993 0.0056851398672255965 0 -0.032471275579725074 0.0059091404404344227 0 -0.032391475988998844 0.0058915129554439286 0 -0.032471275579725074 0.0059091404404344227 0 -0.032641227516591848 0.0058790469302507182 0 -0.032958121116469993 0.0056851398672255965 0 -0.032471275579725074 0.0059091404404344227 0 -0.032641227516591848 0.0058790469302507182 0 -0.032391475988998844 0.0058915129554439286 0 -0.032641227516591848 0.0058790469302507182 0 -0.032576430156645818 0.0061082502864185191 0 -0.032641227516591848 0.0058790469302507182 0 -0.033199641364305775 0.0059539781581589672 0 -0.032576430156645818 0.0061082502864185191 0 -0.032958121116469993 0.0056851398672255965 0 -0.032641227516591848 0.0058790469302507182 0 -0.033199641364305775 0.0059539781581589672 0 -0.033199641364305775 0.0059539781581589672 0 -0.033208749678337597 0.0063465014506213025 0 -0.032576430156645818 0.0061082502864185191 0 -0.033208749678337597 0.0063465014506213025 0 -0.032576430156645818 0.0061082502864185191 0 -0.032477884731813324 0.0063264246235356369 0 -0.031354412996265485 0.0054022729547196181 0 -0.03244376225326049 0.0062614533692380509 0 -0.032390918935303201 0.0061905734250144962 0 -0.032576430156645818 0.0061082502864185191 0 -0.032477884731813324 0.0063264246235356369 0 -0.031080221341859674 0.0069174786497083213 0 -0.030489130707039909 0.0048953942052063597 0 -0.032477884731813324 0.0063264246235356369 0 -0.031080221341859674 0.0069174786497083213 0 -0.032477884731813324 0.0063264246235356369 0 -0.032820448884090837 0.00729849307444986 0 -0.033208749678337597 0.0063465014506213025 0 -0.032820448884090837 0.00729849307444986 0 -0.033702455640827668 0.0071719413614230749 0 -0.033208749678337597 0.0063465014506213025 0 -0.032477884731813324 0.0063264246235356369 0 -0.032820448884090837 0.00729849307444986 0 -0.032820448884090837 0.00729849307444986 0 -0.033509237144226579 0.008136159164556853 0 -0.031798480893938587 0.0081618725226281722 0 -0.032820448884090837 0.00729849307444986 0 -0.033702455640827668 0.0071719413614230749 0 -0.033509237144226579 0.008136159164556853 0 -0.031080221341859674 0.0069174786497083213 0 -0.032820448884090837 0.00729849307444986 0 -0.031798480893938587 0.0081618725226281722 0 -0.035748117549769497 0.0039537626470685962 0 -0.03583259743848944 0.0040936466964816027 0 -0.034713834179291567 0.0074383039032540101 0 -0.033702455640827668 0.0071719413614230749 0 -0.033509237144226579 0.008136159164556853 0 -0.033208749678337597 0.0063465014506213025 0 -0.033702455640827668 0.0071719413614230749 0 -0.034153251785244539 0.0066911501356199127 0 -0.034713834179291567 0.0074383039032540101 0 -0.034153251785244539 0.0066911501356199127 0 -0.034904723933343026 0.0064531747992404142 0 -0.034713834179291567 0.0074383039032540101 0 -0.033702455640827668 0.0071719413614230749 0 -0.034153251785244539 0.0066911501356199127 0 -0.034153251785244539 0.0066911501356199127 0 -0.033985596524198532 0.0061199610085229525 0 -0.034904723933343026 0.0064531747992404142 0 -0.033985596524198532 0.0061199610085229525 0 -0.034768914753793186 0.005682507576686183 0 -0.034904723933343026 0.0064531747992404142 0 -0.033208749678337597 0.0063465014506213025 0 -0.034153251785244539 0.0066911501356199127 0 -0.033985596524198532 0.0061199610085229525 0 -0.033199641364305775 0.0059539781581589672 0 -0.033208749678337597 0.0063465014506213025 0 -0.033985596524198532 0.0061199610085229525 0 -0.032958121116469993 0.0056851398672255965 0 -0.033199641364305775 0.0059539781581589672 0 -0.033897086449243524 0.0056534879085767013 0 -0.033199641364305775 0.0059539781581589672 0 -0.033985596524198532 0.0061199610085229525 0 -0.033897086449243524 0.0056534879085767013 0 -0.033985596524198532 0.0061199610085229525 0 -0.033897086449243524 0.0056534879085767013 0 -0.034768914753793186 0.005682507576686183 0 -0.034896011400200946 0.0053506243365146929 0 -0.033897086449243524 0.0056534879085767013 0 -0.034768914753793186 0.005682507576686183 0 -0.034896011400200946 0.0053506243365146929 0 -0.034768914753793186 0.005682507576686183 0 -0.035387075777378041 0.0051103477838897763 0 -0.034750960251100915 0.0055350147577296668 0 -0.035750619043519123 0.0054875728942030107 0 -0.034768914753793186 0.005682507576686183 0 -0.035387075777378041 0.0051103477838897763 0 -0.035731540816702351 0.0046557023244426978 0 -0.035731540816702351 0.0046557023244426978 0 -0.035566156265564634 0.0046809851228243639 0 -0.035563216594765155 0.0050057771008234758 0 -0.035387075777378041 0.0051103477838897763 0 -0.035731540816702351 0.0046557023244426978 0 -0.035563216594765155 0.0050057771008234758 0 -0.035767924787548533 0.0060434934601210312 0 -0.034904723933343026 0.0064531747992404142 0 -0.035785267578906571 0.0068842990405333319 0 -0.034768914753793186 0.005682507576686183 0 -0.035767924787548533 0.0060434934601210312 0 -0.034904723933343026 0.0064531747992404142 0 -0.034713834179291567 0.0074383039032540101 0 -0.034904723933343026 0.0064531747992404142 0 -0.035785267578906571 0.0068842990405333319 0 -0.035748117549769497 0.0039537626470685962 0 -0.03615055317474121 0.0040195032052601559 0 -0.036405871219634248 0.0010308747050723119 0 -0.036353657523065269 0.00023814191254900656 0 -0.035801027741144138 0.00098239227315688525 0 -0.036967064987428216 0.00043058165715379783 0 -0.036405871219634248 0.0010308747050723119 0 -0.036353657523065269 0.00023814191254900656 0 -0.034999747212754138 0.00093539852296950293 0 -0.035488790544101818 0.00038916835295885649 0 -0.035000123537478167 -0.00025381792181027784 0 -0.035488790544101818 0.00038916835295885649 0 -0.035801027741144138 0.00098239227315688525 0 -0.035393142401541712 0.0012846542504663205 0 -0.034999747212754138 0.00093539852296950293 0 -0.035488790544101818 0.00038916835295885649 0 -0.035393142401541712 0.0012846542504663205 0 -0.036353657523065269 0.00023814191254900656 0 -0.035801027741144138 0.00098239227315688525 0 -0.035805365265264635 -2.2112533145850087e-05 0 -0.035488790544101818 0.00038916835295885649 0 -0.035801027741144138 0.00098239227315688525 0 -0.035805365265264635 -2.2112533145850087e-05 0 -0.036405871219634248 0.0010308747050723119 0 -0.035801027741144138 0.00098239227315688525 0 -0.035526808422525653 0.00201148017561532 0 -0.03615055317474121 0.0040195032052601559 0 -0.035799244722308672 0.0038232816434202459 0 -0.035801027741144138 0.00098239227315688525 0 -0.035393142401541712 0.0012846542504663205 0 -0.035526808422525653 0.00201148017561532 0 -0.034999747212754138 0.00093539852296950293 0 -0.035393142401541712 0.0012846542504663205 0 -0.034999924155579377 0.0021254258351073915 0 -0.035393142401541712 0.0012846542504663205 0 -0.034999924155579377 0.0021254258351073915 0 -0.035526808422525653 0.00201148017561532 0 -0.035000000014317793 0.0021262519134713572 0 -0.035770830983237793 0.0024049909596852419 0 -0.03499999886817929 0.0027503416894870685 0 -0.035347518435264402 0.0032147056182797638 0 -0.034999664798246843 0.002752573158583493 0 -0.035382036325258236 0.0039271233768623653 0 -0.034999776399272445 0.0021267644211102619 0 -0.035799244722308672 0.0038232816434202459 0 -0.035799244722308672 0.0038232816434202459 0 -0.035000401992716139 0.0027508897610851119 0 -0.035750619043519123 0.0054875728942030107 0 -0.035799244722308672 0.0038232816434202459 0 -0.035767924787548533 0.0060434934601210312 0 -0.035785267578906571 0.0068842990405333319 0 -0.036792159770879518 0.0063726712623937707 0 -0.035731540816702351 0.0046557023244426978 0 -0.035347518435264402 0.0032147056182797638 0 -0.035382036325258236 0.0039271233768623653 0 -0.035731540816702351 0.0046557023244426978 0 -0.035566156265564634 0.0046809851228243639 0 -0.035382036325258236 0.0039271233768623653 0 -0.034999664798246843 0.002752573158583493 0 -0.035382036325258236 0.0039271233768623653 0 -0.034999645052463398 0.0045596719826403436 0 -0.035566156265564634 0.0046809851228243639 0 -0.035382036325258236 0.0039271233768623653 0 -0.034999645052463398 0.0045596719826403436 0 -0.034999803764769952 0.0063655752147924825 0 -0.035601491553396231 0.0053217658406934229 0 -0.035501185282658484 0.0056461540994627319 0 -0.034999645052463398 0.0045596719826403436 0 -0.034999803764769952 0.0063655752147924825 0 -0.035601491553396231 0.0053217658406934229 0 -0.035601491553396231 0.0053217658406934229 0 -0.035499519558177567 0.0053479495788484972 0 -0.035501185282658484 0.0056461540994627319 0 -0.035566156265564634 0.0046809851228243639 0 -0.034999645052463398 0.0045596719826403436 0 -0.035601491553396231 0.0053217658406934229 0 -0.035566156265564634 0.0046809851228243639 0 -0.035601491553396231 0.0053217658406934229 0 -0.035563216594765155 0.0050057771008234758 0 -0.035601491553396231 0.0053217658406934229 0 -0.035563216594765155 0.0050057771008234758 0 -0.035463843560628421 0.0052344322133095816 0 -0.035387075777378041 0.0051103477838897763 0 -0.035563216594765155 0.0050057771008234758 0 -0.035282384329123902 0.0052032617491955049 0 -0.035563216594765155 0.0050057771008234758 0 -0.035282384329123902 0.0052032617491955049 0 -0.035463843560628421 0.0052344322133095816 0 -0.035282384329123902 0.0052032617491955049 0 -0.035089079971609184 0.0053057737737371167 0 -0.035463843560628421 0.0052344322133095816 0 -0.034896011400200946 0.0053506243365146929 0 -0.035282384329123902 0.0052032617491955049 0 -0.035089079971609184 0.0053057737737371167 0 -0.034896011400200946 0.0053506243365146929 0 -0.035387075777378041 0.0051103477838897763 0 -0.035282384329123902 0.0052032617491955049 0 -0.035089079971609184 0.0053057737737371167 0 -0.035353016839273853 0.0052586735631996052 0 -0.035463843560628421 0.0052344322133095816 0 -0.035089079971609184 0.0053057737737371167 0 -0.035353016839273853 0.0052586735631996052 0 -0.035179369350129865 0.0051953906294442158 0 -0.035601491553396231 0.0053217658406934229 0 -0.035463843560628421 0.0052344322133095816 0 -0.035499519558177567 0.0053479495788484972 0 -0.035353016839273853 0.0052586735631996052 0 -0.035463843560628421 0.0052344322133095816 0 -0.035499519558177567 0.0053479495788484972 0 -0.036357808294184883 0.0065757268519972276 0 -0.035826208334621287 0.0063991363838974413 0 -0.035499519558177567 0.0053479495788484972 0 -0.035404540998682198 0.0052072000620831593 0 -0.035501185282658484 0.0056461540994627319 0 -0.035353016839273853 0.0052586735631996052 0 -0.035499519558177567 0.0053479495788484972 0 -0.035404540998682198 0.0052072000620831593 0 -0.035353016839273853 0.0052586735631996052 0 -0.035404540998682198 0.0052072000620831593 0 -0.035179369350129865 0.0051953906294442158 0 -0.0371353477173616 0.0067189982647056544 0 -0.036357808294184883 0.0065757268519972276 0 -0.035195953088087123 0.005199128100334671 0 -0.035404540998682198 0.0052072000620831593 0 -0.035179369350129865 0.0051953906294442158 0 -0.037799236734310286 0.0092781424865419314 0 -0.038520504768682094 0.0085862918859005884 0 -0.03747361730389652 0.0079067015688839039 0 -0.037799236734310286 0.0092781424865419314 0 -0.038711656937137011 0.0098032078649379802 0 -0.038520504768682094 0.0085862918859005884 0 -0.037799236734310286 0.0092781424865419314 0 -0.03747361730389652 0.0079067015688839039 0 -0.036631587719278484 0.0087694438488327593 0 -0.036631587719278484 0.0087694438488327593 0 -0.034999889485267159 0.0084211000074048397 0 -0.036304221291569488 0.0071515254507694892 0 -0.035000012542914398 0.0063677951124221747 0 -0.035826208334621287 0.0063991363838974413 0 -0.034999878541278423 0.0063684306509026517 0 -0.034999889485267159 0.0084211000074048397 0 -0.036304221291569488 0.0071515254507694892 0 -0.03747361730389652 0.0079067015688839039 0 -0.036631587719278484 0.0087694438488327593 0 -0.036304221291569488 0.0071515254507694892 0 0.0034059884808102323 0.036682510078711095 0 0.0005917271257328162 0.034079250292786058 0 -0.0028965472423539188 0.038686088928024977 0 -9.3321247090360159e-05 0.025781822989402337 0 -0.0046520729398886644 0.022764108217929856 0 0.0034059884808102323 0.036682510078711095 0 0.0045394970678994361 0.034442252107215424 0 0.0071496936403363338 0.034954013869696716 0 0.0034059884808102323 0.036682510078711095 0 0.0045394970678994361 0.034442252107215424 0 0.0005917271257328162 0.034079250292786058 0 0.0045394970678994361 0.034442252107215424 0 0.0043387439899235268 0.032685189667886534 0 0.0005917271257328162 0.034079250292786058 0 0.0045394970678994361 0.034442252107215424 0 0.0043387439899235268 0.032685189667886534 0 0.0056357449173935203 0.03374933099305865 0 0.0005917271257328162 0.034079250292786058 0 0.00046821752919526052 0.029944773792034429 0 -0.0026285162342242706 0.030943915002065999 0 0.0043387439899235268 0.032685189667886534 0 0.0005917271257328162 0.034079250292786058 0 0.00046821752919526052 0.029944773792034429 0 0.0005917271257328162 0.034079250292786058 0 -0.0054926894754766305 0.034185314448792178 0 -0.0026285162342242706 0.030943915002065999 0 -0.0054926894754766305 0.034185314448792178 0 -0.0055324946401069698 0.030084868441560428 0 -0.0026285162342242706 0.030943915002065999 0 -0.0054926894754766305 0.034185314448792178 0 -0.0078229153943371946 0.028198146211920707 0 -0.0055324946401069698 0.030084868441560428 0 -0.00834601382049306 0.027727249067258094 0 -0.008583404597055944 0.027565394046415961 0 -0.0078229153943371946 0.028198146211920707 0 -0.0064925533284288413 0.032542693218207096 0 -0.0080954296609118716 0.027840494803747694 0 -0.00834601382049306 0.027727249067258094 0 -0.008583404597055944 0.027565394046415961 0 -0.008524082020939865 0.027376502301331589 0 -0.008583404597055944 0.027565394046415961 0 -0.0086273727710893464 0.027356363893417775 0 -0.0085341208549872954 0.02725403288639654 0 -0.008583404597055944 0.027565394046415961 0 -0.0085341208549872954 0.02725403288639654 0 -0.008524082020939865 0.027376502301331589 0 0.0005917271257328162 0.034079250292786058 0 -0.0054926894754766305 0.034185314448792178 0 -0.0028965472423539188 0.038686088928024977 0 -0.0064925533284288413 0.032542693218207096 0 -0.0046520729398886644 0.022764108217929856 0 -0.0046520729398886644 0.022764108217929856 0 -0.0046334929054489046 0.011258910182557156 0 -0.0051108993544758024 0.012300274549687898 0 -0.0052998551966747035 0.012541278154156231 0 -0.0048009751118646025 0.01260730562319998 0 -0.0046520729398886644 0.022764108217929856 0 -0.006106736614034926 0.015831634799486974 0 -0.0051108993544758024 0.012300274549687898 0 -0.005429580843983331 0.012390542713409209 0 -0.0052998551966747035 0.012541278154156231 0 -0.006106736614034926 0.015831634799486974 0 -0.0051630890742463973 0.013865058870480437 0 -0.006106736614034926 0.015831634799486974 0 -0.0060162877868651038 0.012297563805637705 0 -0.0054950427734909921 0.012413092058536608 0 -0.0055741741081906399 0.012582918750614635 0 -0.0052998551966747035 0.012541278154156231 0 -0.0054950427734909921 0.012413092058536608 0 -0.0055741741081906399 0.012582918750614635 0 -0.0056152716759135428 0.01248513037765729 0 -0.0055741741081906399 0.012582918750614635 0 -0.0052998551966747035 0.012541278154156231 0 -0.0053967326031664374 0.01274401521352095 0 -0.0055741741081906399 0.012582918750614635 0 -0.0053967326031664374 0.01274401521352095 0 -0.0057361754480782443 0.012778751481202043 0 -0.0053967326031664374 0.01274401521352095 0 -0.0048009751118646025 0.01260730562319998 0 -0.0052168638823995167 0.012964371063148803 0 -0.0052998551966747035 0.012541278154156231 0 -0.0053967326031664374 0.01274401521352095 0 -0.0048009751118646025 0.01260730562319998 0 -0.0036688476361332882 0.013675196862269519 0 -0.0037991122941764119 0.014011623302346714 0 -0.0040526724092380334 0.013564118192066413 0 -0.0033836806575607984 0.01427816405226975 0 -0.0036688476361332882 0.013675196862269519 0 -0.0037991122941764119 0.014011623302346714 0 -0.0038997721175690913 0.014375224872820912 0 -0.0033836806575607984 0.01427816405226975 0 -0.0037991122941764119 0.014011623302346714 0 -0.0038997721175690913 0.014375224872820912 0 -0.0037991122941764119 0.014011623302346714 0 -0.0041799666196356876 0.013814483422453143 0 -0.0037991122941764119 0.014011623302346714 0 -0.0040526724092380334 0.013564118192066413 0 -0.0041799666196356876 0.013814483422453143 0 -0.0041799666196356876 0.013814483422453143 0 -0.0043703648762154776 0.013563866216863774 0 -0.0040948794102217785 0.013256311584564293 0 -0.0041799666196356876 0.013814483422453143 0 -0.0043703648762154776 0.013563866216863774 0 -0.0044477716321773405 0.013874974062752385 0 -0.0040526724092380334 0.013564118192066413 0 -0.0041799666196356876 0.013814483422453143 0 -0.0040948794102217785 0.013256311584564293 0 -0.0043703648762154776 0.013563866216863774 0 -0.0046275598515615182 0.013579592722672078 0 -0.0044477716321773405 0.013874974062752385 0 -0.0046275598515615182 0.013579592722672078 0 -0.0044477716321773405 0.013874974062752385 0 -0.0047275627569671368 0.013831200890571509 0 -0.0044477716321773405 0.013874974062752385 0 -0.0047275627569671368 0.013831200890571509 0 -0.0045882598254125499 0.014241783210858203 0 -0.0044477716321773405 0.013874974062752385 0 -0.0042620522958655982 0.014185515819003675 0 -0.0045882598254125499 0.014241783210858203 0 -0.0038997721175690913 0.014375224872820912 0 -0.0041799666196356876 0.013814483422453143 0 -0.0042620522958655982 0.014185515819003675 0 -0.0041799666196356876 0.013814483422453143 0 -0.0044477716321773405 0.013874974062752385 0 -0.0042620522958655982 0.014185515819003675 0 -0.0012527377246489614 0.016464568601677994 0 -0.00092763874560531073 0.016250013331990363 0 -0.00044449554631347476 0.017852730496539453 0 0.0027008866611463282 0.018411119755119127 0 0.0024833768723875886 0.017804135347422662 0 0.0030629400831343953 0.017886597828226415 0 -0.0020576498062445762 0.015257765733387009 0 -0.003350404559670569 0.014667798857956327 0 0.0026431455789155318 0.017174746056799597 0 0.0024833768723875886 0.017804135347422662 0 0.0030629400831343953 0.017886597828226415 0 -0.0020576498062445762 0.015257765733387009 0 0.0008694634112932345 0.017248003845453261 0 -0.0020489170993991165 0.015080470773253151 0 -0.0012527377246489614 0.016464568601677994 0 -0.00092763874560531073 0.016250013331990363 0 -0.0052108692810227163 0.01365198060397959 0 -0.0048945755921364917 0.013600861027989127 0 -0.0051076550670786838 0.013278787262892213 0 -0.003350404559670569 0.014667798857956327 0 -0.0024196487089412971 0.016615812190697351 0 0.0008694634112932345 0.017248003845453261 0 0.002005281408862187 0.019844793100306134 0 -0.0052108692810227163 0.01365198060397959 0 -0.0048945755921364917 0.013600861027989127 0 -0.0049028188323298862 0.013962145633248744 0 -0.0046275598515615182 0.013579592722672078 0 -0.0048945755921364917 0.013600861027989127 0 -0.0048004256797667703 0.01326884258276625 0 -0.0046275598515615182 0.013579592722672078 0 -0.0048945755921364917 0.013600861027989127 0 -0.0047275627569671368 0.013831200890571509 0 -0.0048945755921364917 0.013600861027989127 0 -0.0047275627569671368 0.013831200890571509 0 -0.0049028188323298862 0.013962145633248744 0 -0.0047275627569671368 0.013831200890571509 0 -0.0048727461329107604 0.013942216323188603 0 -0.0045882598254125499 0.014241783210858203 0 -0.0037548486454882677 0.015432879302855309 0 -0.0024196487089412971 0.016615812190697351 0 -0.001188481353248732 0.020432023006662237 0 -0.0013812295782670361 0.018991885879695056 0 0.00072514014732937059 0.021180029021624434 0 -0.0024196487089412971 0.016615812190697351 0 -0.002819963697934939 0.016672148728405486 0 0.002005281408862187 0.019844793100306134 0 0.0017584109046064529 0.023285983574585119 0 -0.001188481353248732 0.020432023006662237 0 -0.0024046824134316799 0.019667348839382672 0 -0.0011244278699828298 0.021886444478147308 0 -0.001188481353248732 0.020432023006662237 0 -0.0013812295782670361 0.018991885879695056 0 -0.0024046824134316799 0.019667348839382672 0 -0.0024196487089412971 0.016615812190697351 0 0.002005281408862187 0.019844793100306134 0 0.003400604958755426 0.022783999425003462 0 0.002005281408862187 0.019844793100306134 0 0.0027008866611463282 0.018411119755119127 0 0.0023922251634923655 0.019316742674626304 0 0.0034640555926990701 0.018590746920908601 0 -0.00092763874560531073 0.016250013331990363 0 0.0002038748672191255 0.017422192875586048 0 -0.00044449554631347476 0.017852730496539453 0 0.0027008866611463282 0.018411119755119127 0 0.0030629400831343953 0.017886597828226415 0 0.0034640555926990701 0.018590746920908601 0 0.0049679986934189442 0.025367301081448385 0 0.0049449098034978272 0.025535961508602188 0 0.0050405506211918857 0.025499771108521058 0 0.0049449098034978272 0.025535961508602188 0 0.0050405506211918857 0.025499771108521058 0 0.0049690892335576562 0.025660413960593837 0 0.0048595537123292841 0.025518208167427857 0 0.0049679986934189442 0.025367301081448385 0 0.0049449098034978272 0.025535961508602188 0 -0.0011244278699828298 0.021886444478147308 0 0.00017117703206518599 0.0241157354987446 0 0.00072514014732937059 0.021180029021624434 0 -0.001188481353248732 0.020432023006662237 0 -0.0011244278699828298 0.021886444478147308 0 0.00072514014732937059 0.021180029021624434 0 0.0017584109046064529 0.023285983574585119 0 0.0044432731032489296 0.029482996680742942 0 0.0044432731032489296 0.029482996680742942 0 0.0063433355569746021 0.030267782656285516 0 0.0063505960537380331 0.034983664646449433 0 0.0072139648874965847 0.034872919603435457 0 0.0067411457190698727 0.034209251160758888 0 0.0050405506211918857 0.025499771108521058 0 0.0051045079861558014 0.025631800225124197 0 0.0049690892335576562 0.025660413960593837 0 0.007935330790679037 0.034756375863068442 0 0.0072139648874965847 0.034872919603435457 0 0.0074524428007277758 0.034412116555939218 0 0.0061592519938048311 0.030160204776045228 0 0.0063433355569746021 0.030267782656285516 0 0.004880722784096651 0.025617241760218488 0 0.0049449098034978272 0.025535961508602188 0 0.0049690892335576562 0.025660413960593837 0 -9.3321247090360159e-05 0.025781822989402337 0 0.0016754468692160237 0.026390363069338989 0 -0.0038997721175690913 0.014375224872820912 0 -0.0042620522958655982 0.014185515819003675 0 -0.0043144249083822764 0.014546934383869477 0 -0.0042620522958655982 0.014185515819003675 0 -0.0043144249083822764 0.014546934383869477 0 -0.0045882598254125499 0.014241783210858203 0 0.0016754468692160237 0.026390363069338989 0 -0.002819963697934939 0.016672148728405486 0 0.00017117703206518599 0.0241157354987446 0 0.0028436720516688209 0.023385221486229308 0 0.00072514014732937059 0.021180029021624434 0 0.005723466502915611 0.03379737523002467 0 0.0057415194327533042 0.033824536028942129 0 0.0057709628659617105 0.033838797021734 0 0.005723466502915611 0.03379737523002467 0 0.0057709628659617105 0.033838797021734 0 0.0058244126335862869 0.033874433054248074 0 0.0044432731032489296 0.029482996680742942 0 0.0016754468692160237 0.026390363069338989 0 0.0044432731032489296 0.029482996680742942 0 0.0066931735292272915 0.035666749493753612 0 0.0045394970678994361 0.034442252107215424 0 0.0071496936403363338 0.034954013869696716 0 0.0056357449173935203 0.03374933099305865 0 0.0057709628659617105 0.033838797021734 0 0.0056357449173935203 0.03374933099305865 0 0.0053018516157414888 0.033289410143813897 0 0.0016754468692160237 0.026390363069338989 0 0.0076798165309762863 0.035285065720479417 0 0.0057415194327533042 0.033824536028942129 0 0.0057709628659617105 0.033838797021734 0 0.0056357449173935203 0.03374933099305865 0 0.0057709628659617105 0.033838797021734 0 0.0053018516157414888 0.033289410143813897 0 0.0058244126335862869 0.033874433054248074 0 0.0043387439899235268 0.032685189667886534 0 0.0056357449173935203 0.03374933099305865 0 0.0053018516157414888 0.033289410143813897 0 0.0053018516157414888 0.033289410143813897 0 0.0058244126335862869 0.033874433054248074 0 0.0060821160693621309 0.033654629724276533 0 0.0063505960537380331 0.034983664646449433 0 0.0058244126335862869 0.033874433054248074 0 0.0067411457190698727 0.034209251160758888 0 0.0058244126335862869 0.033874433054248074 0 0.0060821160693621309 0.033654629724276533 0 0.0067411457190698727 0.034209251160758888 0 0.0053018516157414888 0.033289410143813897 0 0.0060821160693621309 0.033654629724276533 0 0.0054172633723603954 0.033091806332380375 0 0.0074524428007277758 0.034412116555939218 0 0.0067411457190698727 0.034209251160758888 0 0.0072423927406746096 0.03402972312507109 0 0.0072139648874965847 0.034872919603435457 0 0.0074524428007277758 0.034412116555939218 0 0.0067411457190698727 0.034209251160758888 0 0.0060821160693621309 0.033654629724276533 0 0.0067411457190698727 0.034209251160758888 0 0.0072423927406746096 0.03402972312507109 0 0.0060821160693621309 0.033654629724276533 0 0.0072423927406746096 0.03402972312507109 0 0.0063139778569378004 0.03361147891939429 0 0.0080634682511368187 0.034334571950748224 0 0.0074524428007277758 0.034412116555939218 0 0.0072423927406746096 0.03402972312507109 0 0.0082516201763980033 0.034103493707161786 0 0.0072423927406746096 0.03402972312507109 0 0.0077289842077610466 0.033506345390933535 0 0.0072423927406746096 0.03402972312507109 0 0.0063139778569378004 0.03361147891939429 0 0.0077289842077610466 0.033506345390933535 0 0.0063139778569378004 0.03361147891939429 0 0.0077289842077610466 0.033506345390933535 0 0.005796704634683009 0.032651299770522481 0 0.0044949809997967098 0.032051515336275031 0 0.0044878227179089639 0.03420661445490103 0 0.005796704634683009 0.032651299770522481 0 0.0044949809997967098 0.032051515336275031 0 0.0044878227179089639 0.03420661445490103 0 0.0033693896862458409 0.033229058074627796 0 0.0063139778569378004 0.03361147891939429 0 0.0044878227179089639 0.03420661445490103 0 0.005796704634683009 0.032651299770522481 0 0.0061034109791011813 0.033490686138882238 0 0.0052117747920544842 0.0340465467569709 0 0.0060821160693621309 0.033654629724276533 0 0.0063139778569378004 0.03361147891939429 0 0.0054172633723603954 0.033091806332380375 0 0.0030047633375670309 0.031996746777657958 0 0.0033693896862458409 0.033229058074627796 0 0.0020464087334156693 0.033214313301196084 0 0.0015669679186223672 0.032588957750713708 0 0.0022388159368215694 0.031000172510998122 0 0.0033693896862458409 0.033229058074627796 0 0.0020464087334156693 0.033214313301196084 0 0.0027070718484796075 0.034732484164184417 0 0.0044878227179089639 0.03420661445490103 0 0.0033693896862458409 0.033229058074627796 0 0.0027070718484796075 0.034732484164184417 0 0.0053018516157414888 0.033289410143813897 0 0.0054172633723603954 0.033091806332380375 0 0.0047321791919061268 0.032929354222260523 0 0.0052117747920544842 0.0340465467569709 0 0.0022388159368215694 0.031000172510998122 0 0.0014987642123068755 0.02392781616550399 0 -0.0011201210733904358 0.027025266723142212 0 0.00046821752919526052 0.029944773792034429 0 0.0043387439899235268 0.032685189667886534 0 0.0014987642123068755 0.02392781616550399 0 0.00046821752919526052 0.029944773792034429 0 0.0044534071226891327 0.031447758996152937 0 0.0022388159368215694 0.031000172510998122 0 -0.0011201210733904358 0.027025266723142212 0 0.00046821752919526052 0.029944773792034429 0 -0.0026285162342242706 0.030943915002065999 0 0.0043387439899235268 0.032685189667886534 0 0.0053018516157414888 0.033289410143813897 0 0.0047321791919061268 0.032929354222260523 0 -0.0072663114363621445 0.028014599215609778 0 -0.0048960185165190292 0.025775163540179932 0 -0.0099365433890627256 0.027221387567188421 0 -0.0072663114363621445 0.028014599215609778 0 -0.01018538541537385 0.028671177064317786 0 -0.0099365433890627256 0.027221387567188421 0 -0.00834601382049306 0.027727249067258094 0 -0.0078229153943371946 0.028198146211920707 0 -0.0085816932829697531 0.027772827988103127 0 -0.0072663114363621445 0.028014599215609778 0 -0.0078229153943371946 0.028198146211920707 0 -0.0085816932829697531 0.027772827988103127 0 -0.0073824927280591321 0.027801408530444181 0 -0.010302958106040726 0.028322354430227962 0 -0.0072663114363621445 0.028014599215609778 0 -0.0078229153943371946 0.028198146211920707 0 -0.0055324946401069698 0.030084868441560428 0 -0.0072663114363621445 0.028014599215609778 0 -0.0055324946401069698 0.030084868441560428 0 -0.0045089867951644417 0.028354770279572016 0 -0.0055324946401069698 0.030084868441560428 0 -0.0026285162342242706 0.030943915002065999 0 -0.0045089867951644417 0.028354770279572016 0 -0.0011201210733904358 0.027025266723142212 0 -0.0026285162342242706 0.030943915002065999 0 -0.0045089867951644417 0.028354770279572016 0 -0.0011201210733904358 0.027025266723142212 0 -0.0045089867951644417 0.028354770279572016 0 -0.0048960185165190292 0.025775163540179932 0 -0.0072663114363621445 0.028014599215609778 0 -0.0045089867951644417 0.028354770279572016 0 -0.0048960185165190292 0.025775163540179932 0 0.0014987642123068755 0.02392781616550399 0 -0.0011201210733904358 0.027025266723142212 0 -0.0048960185165190292 0.025775163540179932 0 0.00084401186866044228 0.031456714756577867 0 0.00072745932212600237 0.031347231151837303 0 0.00088401822547946201 0.031233499840985605 0 0.0022388159368215694 0.031000172510998122 0 -0.0019766103494204689 0.028255603062668447 0 0.0011006884937330888 0.031352159993462143 0 0.00084401186866044228 0.031456714756577867 0 0.00088401822547946201 0.031233499840985605 0 -0.0019766103494204689 0.028255603062668447 0 -0.0053035698810497689 0.029833003944761065 0 0.00084401186866044228 0.031456714756577867 0 0.00072745932212600237 0.031347231151837303 0 0.00057807562376898671 0.031409659705424933 0 0.00084401186866044228 0.031456714756577867 0 0.00057807562376898671 0.031409659705424933 0 0.00037072536855125763 0.031611560184880129 0 0.00072745932212600237 0.031347231151837303 0 0.00057807562376898671 0.031409659705424933 0 0.00059772621470622917 0.03126913673557332 0 0.00057807562376898671 0.031409659705424933 0 0.00059772621470622917 0.03126913673557332 0 0.00030457482089784162 0.031356706076064646 0 0.00059772621470622917 0.03126913673557332 0 0.00088401822547946201 0.031233499840985605 0 0.00069304857881637215 0.031132524180901681 0 0.00072745932212600237 0.031347231151837303 0 0.00059772621470622917 0.03126913673557332 0 0.00088401822547946201 0.031233499840985605 0 0.00059772621470622917 0.03126913673557332 0 0.00069304857881637215 0.031132524180901681 0 0.00036000828095304293 0.031160951091910367 0 0.00098606199659734208 0.031151741364580696 0 0.0011006884937330888 0.031352159993462143 0 0.00088401822547946201 0.031233499840985605 0 0.0013296670614278909 0.031344711619239234 0 0.00098606199659734208 0.031151741364580696 0 0.0010110859055688576 0.031146818163710503 0 0.0012767920267644417 0.031219590824057088 0 0.0015669679186223672 0.032588957750713708 0 0.00098606199659734208 0.031151741364580696 0 0.00088401822547946201 0.031233499840985605 0 0.0010110859055688576 0.031146818163710503 0 0.00088401822547946201 0.031233499840985605 0 0.0010110859055688576 0.031146818163710503 0 0.00069304857881637215 0.031132524180901681 0 0.00080469287092654993 0.030948824309432119 0 0.0010110859055688576 0.031146818163710503 0 0.00069304857881637215 0.031132524180901681 0 0.00041364844629139525 0.031019768991314294 0 0.00016048370597393263 0.031073114867882456 0 0.00013920047926006688 0.030838507001238542 0 0.00080469287092654993 0.030948824309432119 0 0.00041364844629139525 0.031019768991314294 0 0.00013920047926006688 0.030838507001238542 0 0.00080469287092654993 0.030948824309432119 0 0.00069304857881637215 0.031132524180901681 0 0.00041364844629139525 0.031019768991314294 0 0.00069304857881637215 0.031132524180901681 0 0.00041364844629139525 0.031019768991314294 0 0.00036000828095304293 0.031160951091910367 0 0.00041364844629139525 0.031019768991314294 0 0.00016048370597393263 0.031073114867882456 0 0.00036000828095304293 0.031160951091910367 0 0.00036000828095304293 0.031160951091910367 0 -3.0841403068759072e-06 0.031181752151435711 0 0.00030457482089784162 0.031356706076064646 0 0.00016048370597393263 0.031073114867882456 0 0.00036000828095304293 0.031160951091910367 0 -3.0841403068759072e-06 0.031181752151435711 0 0.00059772621470622917 0.03126913673557332 0 0.00036000828095304293 0.031160951091910367 0 0.00030457482089784162 0.031356706076064646 0 0.00016048370597393263 0.031073114867882456 0 -0.00014593176513048693 0.03099504833685959 0 0.00013920047926006688 0.030838507001238542 0 -0.00035744579049546332 0.031083795486236056 0 -0.00014593176513048693 0.03099504833685959 0 -0.00049919789569200163 0.030963938422466648 0 -0.00035744579049546332 0.031083795486236056 0 -3.0841403068759072e-06 0.031181752151435711 0 -0.00014593176513048693 0.03099504833685959 0 0.00016048370597393263 0.031073114867882456 0 -3.0841403068759072e-06 0.031181752151435711 0 -0.00014593176513048693 0.03099504833685959 0 -0.00014593176513048693 0.03099504833685959 0 0.00013920047926006688 0.030838507001238542 0 -0.00037672164974573134 0.030835970390709195 0 -0.00037718110486526088 0.030639440236157563 0 0.00013920047926006688 0.030838507001238542 0 -0.00037672164974573134 0.030835970390709195 0 -0.00037718110486526088 0.030639440236157563 0 -0.00037672164974573134 0.030835970390709195 0 -0.00090445508332044925 0.030815259504644792 0 -0.00032465880233257117 0.028814435037631477 0 -0.0017995402198010379 0.029926403522045543 0 -0.0027160747676355426 0.028850750827362368 0 2.9904975531806628e-05 0.029401270002295511 0 -0.00099952921294020375 0.030960275229404741 0 -0.00032465880233257117 0.028814435037631477 0 -0.0017995402198010379 0.029926403522045543 0 -0.00090445508332044925 0.030815259504644792 0 -0.00090445508332044925 0.030815259504644792 0 -0.0017520754775018829 0.031108231233799938 0 -0.00066677303027463258 0.031070251956210434 0 -0.0017995402198010379 0.029926403522045543 0 -0.00090445508332044925 0.030815259504644792 0 -0.0017520754775018829 0.031108231233799938 0 -0.00014593176513048693 0.03099504833685959 0 -0.00037672164974573134 0.030835970390709195 0 -0.00049919789569200163 0.030963938422466648 0 -0.00037672164974573134 0.030835970390709195 0 -0.00090445508332044925 0.030815259504644792 0 -0.00049919789569200163 0.030963938422466648 0 -0.00090445508332044925 0.030815259504644792 0 -0.00049919789569200163 0.030963938422466648 0 -0.00066677303027463258 0.031070251956210434 0 -0.00035744579049546332 0.031083795486236056 0 -0.00049919789569200163 0.030963938422466648 0 -0.00066677303027463258 0.031070251956210434 0 -0.00035744579049546332 0.031083795486236056 0 -0.00066677303027463258 0.031070251956210434 0 -0.00037090421631665109 0.031206473162336691 0 -0.00066677303027463258 0.031070251956210434 0 -0.00061469842093618326 0.031185678967551044 0 -0.00037090421631665109 0.031206473162336691 0 -0.00066677303027463258 0.031070251956210434 0 -0.00071023342086433557 0.031076840492872331 0 -0.00084166206594532761 0.030898193532741952 0 -0.00066677303027463258 0.031070251956210434 0 -0.00071023342086433557 0.031076840492872331 0 -0.00061469842093618326 0.031185678967551044 0 -0.0010630397355829082 0.030459120059787102 0 -0.00084166206594532761 0.030898193532741952 0 -0.0010060486583562988 0.03089885936761326 0 -0.0010630397355829082 0.030459120059787102 0 -0.00066677303027463258 0.031070251956210434 0 -0.00084166206594532761 0.030898193532741952 0 -0.0010630397355829082 0.030459120059787102 0 -0.0010060486583562988 0.03089885936761326 0 -0.00132486672380566 0.030653566553671394 0 0.0004572154311262222 0.031504838495071019 0 -0.0014750361795412344 0.030777648498249419 0 -0.00071023342086433557 0.031076840492872331 0 -0.00084166206594532761 0.030898193532741952 0 -0.0010060486583562988 0.03089885936761326 0 -0.0012659565175352665 0.030938992337507337 0 -0.0013860048891658813 0.031142617556437907 0 -0.00082492956630778275 0.031146235480084248 0 -0.0010060486583562988 0.03089885936761326 0 -0.0012659565175352665 0.030938992337507337 0 -0.00082492956630778275 0.031146235480084248 0 -0.00071023342086433557 0.031076840492872331 0 -0.0010060486583562988 0.03089885936761326 0 -0.00082492956630778275 0.031146235480084248 0 -0.00071023342086433557 0.031076840492872331 0 -0.00063511378200753444 0.031121632851354282 0 -0.00082492956630778275 0.031146235480084248 0 -0.00071023342086433557 0.031076840492872331 0 -0.00061469842093618326 0.031185678967551044 0 -0.00063511378200753444 0.031121632851354282 0 -0.0046078499581634963 0.026601407060952004 0 -0.0033619332616472535 0.019822265913448697 0 -0.00030533346137056065 0.031776334147132421 0 -2.5763504164850507e-05 0.03152731792156712 0 0.00037072536855125763 0.031611560184880129 0 -0.013234430785908698 0.028091403403257928 0 -0.01018538541537385 0.028671177064317786 0 -0.012321383330669459 0.029310603506275672 0 -0.00061469842093618326 0.031185678967551044 0 -0.00030533346137056065 0.031776334147132421 0 -0.00027253410240141304 0.031401349091678923 0 0.00060371630532597947 0.032846508102428187 0 -0.0046078499581634963 0.026601407060952004 0 -0.00030533346137056065 0.031776334147132421 0 -2.5763504164850507e-05 0.03152731792156712 0 -0.00027253410240141304 0.031401349091678923 0 -0.0046078499581634963 0.026601407060952004 0 -0.0077428579064335165 0.018795066638044394 0 -0.013234430785908698 0.028091403403257928 0 -0.01018538541537385 0.028671177064317786 0 -0.0099365433890627256 0.027221387567188421 0 -0.0046078499581634963 0.026601407060952004 0 -0.0053035698810497689 0.029833003944761065 0 -0.010302958106040726 0.028322354430227962 0 -0.0077428579064335165 0.018795066638044394 0 -2.5763504164850507e-05 0.03152731792156712 0 0.00037072536855125763 0.031611560184880129 0 0.00014811039587909935 0.031465635128427857 0 0.00014811039587909935 0.031465635128427857 0 0.00030457482089784162 0.031356706076064646 0 -3.3736801980715978e-05 0.031351112480053109 0 0.00037072536855125763 0.031611560184880129 0 0.00014811039587909935 0.031465635128427857 0 0.00030457482089784162 0.031356706076064646 0 0.00057807562376898671 0.031409659705424933 0 0.00037072536855125763 0.031611560184880129 0 0.00030457482089784162 0.031356706076064646 0 -3.0841403068759072e-06 0.031181752151435711 0 0.00030457482089784162 0.031356706076064646 0 -3.3736801980715978e-05 0.031351112480053109 0 -3.0841403068759072e-06 0.031181752151435711 0 -0.00037090421631665109 0.031206473162336691 0 -3.3736801980715978e-05 0.031351112480053109 0 -0.00035744579049546332 0.031083795486236056 0 -3.0841403068759072e-06 0.031181752151435711 0 -0.00037090421631665109 0.031206473162336691 0 -0.00037090421631665109 0.031206473162336691 0 -0.00027253410240141304 0.031401349091678923 0 -3.3736801980715978e-05 0.031351112480053109 0 -0.00061469842093618326 0.031185678967551044 0 -0.00037090421631665109 0.031206473162336691 0 -0.00027253410240141304 0.031401349091678923 0 -2.5763504164850507e-05 0.03152731792156712 0 -0.00027253410240141304 0.031401349091678923 0 -3.3736801980715978e-05 0.031351112480053109 0 -2.5763504164850507e-05 0.03152731792156712 0 0.00014811039587909935 0.031465635128427857 0 -3.3736801980715978e-05 0.031351112480053109 0 -0.025317933057704082 0.011201716625641336 0 -0.025275111210977856 0.012924174925431199 0 -0.02348923253059786 0.012142293119173274 0 -0.025275111210977856 0.012924174925431199 0 -0.02348923253059786 0.012142293119173274 0 -0.02372169641279924 0.013789894590113547 0 -0.022226905073020636 0.017939334126494851 0 -0.022481284262517793 0.018068819370827108 0 -0.018538741441946269 0.024234122488120607 0 -0.020138623435320659 0.024823942724305152 0 -0.018057085713922307 0.025474691474583533 0 -0.018538741441946269 0.024234122488120607 0 -0.019856523435611718 0.023763794694941495 0 -0.020138623435320659 0.024823942724305152 0 -0.018538741441946269 0.024234122488120607 0 -0.018057085713922307 0.025474691474583533 0 -0.016940061517842928 0.024459302436053154 0 -0.02348923253059786 0.012142293119173274 0 -0.021716594474892357 0.012971941061101512 0 -0.02372169641279924 0.013789894590113547 0 -0.022481284262517793 0.018068819370827108 0 -0.011518338993844753 0.023644946675614165 0 -0.018057085713922307 0.025474691474583533 0 -0.016940061517842928 0.024459302436053154 0 -0.016018161259754565 0.026144908637655308 0 -0.016940061517842928 0.024459302436053154 0 -0.015470971334414151 0.024293878300350815 0 -0.016018161259754565 0.026144908637655308 0 -0.0017995402198010379 0.029926403522045543 0 -0.0027160747676355426 0.028850750827362368 0 -0.0032548862676278342 0.030600488919401002 0 -0.0090679841186122358 0.027579242254147505 0 -0.011518338993844753 0.023644946675614165 0 -0.0017995402198010379 0.029926403522045543 0 -0.0017520754775018829 0.031108231233799938 0 -0.0032548862676278342 0.030600488919401002 0 0.0004572154311262222 0.031504838495071019 0 -0.011518338993844753 0.023644946675614165 0 -0.0010630397355829082 0.030459120059787102 0 -0.0015729731107308092 0.030120993469142588 0 -0.00132486672380566 0.030653566553671394 0 -0.0015729731107308092 0.030120993469142588 0 -0.00132486672380566 0.030653566553671394 0 -0.0017073432290848247 0.030744336788944494 0 -0.0010060486583562988 0.03089885936761326 0 -0.00132486672380566 0.030653566553671394 0 -0.0012659565175352665 0.030938992337507337 0 -0.0012659565175352665 0.030938992337507337 0 -0.0017073432290848247 0.030744336788944494 0 -0.0013860048891658813 0.031142617556437907 0 -0.00132486672380566 0.030653566553671394 0 -0.0012659565175352665 0.030938992337507337 0 -0.0017073432290848247 0.030744336788944494 0 -0.011518338993844753 0.023644946675614165 0 -0.012335059271373284 0.023951730860911402 0 -0.021716594474892357 0.012971941061101512 0 -0.022387291887605309 0.014714734525754388 0 -0.02372169641279924 0.013789894590113547 0 -0.022387291887605309 0.014714734525754388 0 -0.02372169641279924 0.013789894590113547 0 -0.024311824670804179 0.01547417420413791 0 -0.02372169641279924 0.013789894590113547 0 -0.0252007591232314 0.014263612739935389 0 -0.024311824670804179 0.01547417420413791 0 -0.025275111210977856 0.012924174925431199 0 -0.02372169641279924 0.013789894590113547 0 -0.0252007591232314 0.014263612739935389 0 -0.019960744804901145 0.0016829717263405386 0 -0.01159147190228752 0.0048655308632753963 0 -0.016901172598146517 0.0065098720888683136 0 -0.019960744804901145 0.0016829717263405386 0 -0.016901172598146517 0.0065098720888683136 0 -0.020964788799307823 0.0043359904036258893 0 -0.026531356232078591 0.015386806852465126 0 -0.025014321778558717 0.016760899674364262 0 -0.024311824670804179 0.01547417420413791 0 -0.025014321778558717 0.016760899674364262 0 -0.024311824670804179 0.01547417420413791 0 -0.022964372419068214 0.016349889564177156 0 -0.022387291887605309 0.014714734525754388 0 -0.024311824670804179 0.01547417420413791 0 -0.022964372419068214 0.016349889564177156 0 -0.019960744804901145 0.0016829717263405386 0 -0.0097283437631404783 -0.0013832327525469638 0 -0.01159147190228752 0.0048655308632753963 0 -0.023267244441891217 0.0081165331310251599 0 -0.011494897664482447 0.015794161861480964 0 -0.011494897664482447 0.015794161861480964 0 -0.011056206239835106 0.0061159266115318918 0 -0.0096676431860479219 0.011169532920160439 0 -0.010714935368112227 0.010092566011992418 0 -0.01147538094251559 0.01118039642651579 0 -0.0096676431860479219 0.011169532920160439 0 -0.010714935368112227 0.010092566011992418 0 -0.0091181384572172532 0.010673144369864959 0 -0.012335059271373284 0.023951730860911402 0 -0.011494897664482447 0.015794161861480964 0 -0.011494897664482447 0.015794161861480964 0 -0.0042643511186261293 0.020922608552590826 0 -0.010714935368112227 0.010092566011992418 0 -0.0086097207549354574 0.009913657718725509 0 -0.0091181384572172532 0.010673144369864959 0 -0.0017073432290848247 0.030744336788944494 0 -0.0019276710134882506 0.031104683094094983 0 -0.0013860048891658813 0.031142617556437907 0 -0.0086097207549354574 0.009913657718725509 0 -0.007931047810597518 0.011013082351928096 0 -0.0091181384572172532 0.010673144369864959 0 -0.007931047810597518 0.011013082351928096 0 -0.0091181384572172532 0.010673144369864959 0 -0.0085849478897771815 0.011260349180712014 0 -0.0096676431860479219 0.011169532920160439 0 -0.0091181384572172532 0.010673144369864959 0 -0.0085849478897771815 0.011260349180712014 0 -0.0096676431860479219 0.011169532920160439 0 -0.0085849478897771815 0.011260349180712014 0 -0.0084299548439408303 0.012022775007019601 0 -0.0085849478897771815 0.011260349180712014 0 -0.0079207146685804242 0.011699705612784248 0 -0.0084299548439408303 0.012022775007019601 0 -0.007931047810597518 0.011013082351928096 0 -0.0085849478897771815 0.011260349180712014 0 -0.0079207146685804242 0.011699705612784248 0 -0.0079207146685804242 0.011699705612784248 0 -0.0084299548439408303 0.012022775007019601 0 -0.0075972894532127305 0.0122272480382799 0 -0.0096676431860479219 0.011169532920160439 0 -0.0084299548439408303 0.012022775007019601 0 -0.0097836356681481433 0.01201333960309134 0 -0.0084299548439408303 0.012022775007019601 0 -0.008441231541658413 0.013208556448893325 0 -0.0097836356681481433 0.01201333960309134 0 -0.0084299548439408303 0.012022775007019601 0 -0.008441231541658413 0.013208556448893325 0 -0.0076203122150207553 0.012820702095810606 0 -0.0084299548439408303 0.012022775007019601 0 -0.0075972894532127305 0.0122272480382799 0 -0.0076203122150207553 0.012820702095810606 0 -0.008441231541658413 0.013208556448893325 0 -0.010035349829623976 0.013387148682580638 0 -0.0084088409212065094 0.015585656016465258 0 -0.008441231541658413 0.013208556448893325 0 -0.0076203122150207553 0.012820702095810606 0 -0.0070241119992577811 0.013320070212187783 0 -0.008441231541658413 0.013208556448893325 0 -0.0070241119992577811 0.013320070212187783 0 -0.0084088409212065094 0.015585656016465258 0 -0.0069641965714262099 0.013371119815620584 0 -0.0074589908889538294 0.014610810667523065 0 -0.008441231541658413 0.013208556448893325 0 -0.010035349829623976 0.013387148682580638 0 -0.0097836356681481433 0.01201333960309134 0 -0.010035349829623976 0.013387148682580638 0 -0.012313479270031329 0.014216121954543019 0 -0.010635576147199143 0.015364656434473082 0 -0.010035349829623976 0.013387148682580638 0 -0.011232204499616344 0.012095704720060147 0 -0.012313479270031329 0.014216121954543019 0 -0.0096676431860479219 0.011169532920160439 0 -0.0097836356681481433 0.01201333960309134 0 -0.01147538094251559 0.01118039642651579 0 -0.011232204499616344 0.012095704720060147 0 -0.0097836356681481433 0.01201333960309134 0 -0.01147538094251559 0.01118039642651579 0 -0.010035349829623976 0.013387148682580638 0 -0.011232204499616344 0.012095704720060147 0 -0.0097836356681481433 0.01201333960309134 0 -0.011232204499616344 0.012095704720060147 0 -0.01147538094251559 0.01118039642651579 0 -0.013194166218423915 0.011974977204446595 0 -0.011056206239835106 0.0061159266115318918 0 -0.013192259384557448 0.012454174141633415 0 -0.01159147190228752 0.0048655308632753963 0 -0.013194166218423915 0.011974977204446595 0 -0.016901172598146517 0.0065098720888683136 0 -0.011232204499616344 0.012095704720060147 0 -0.012313479270031329 0.014216121954543019 0 -0.013194166218423915 0.011974977204446595 0 -0.012313479270031329 0.014216121954543019 0 -0.013194166218423915 0.011974977204446595 0 -0.015764051022542476 0.015228099834595173 0 -0.013194166218423915 0.011974977204446595 0 -0.018557739006038649 0.011009817385799984 0 -0.015764051022542476 0.015228099834595173 0 -0.021475539067803431 0.005553643456313046 0 -0.021441307342017931 0.0049311987166089444 0 -0.02136791982394691 0.0056706459481213325 0 -0.019853964661211351 0.0078307445214466764 0 -0.01772331988125796 0.0091655698349615445 0 -0.019361910356327137 0.0078382964489444387 0 -0.01772331988125796 0.0091655698349615445 0 -0.022210245040760777 0.0057618329699576148 0 -0.021872380509933117 0.0052988280877898598 0 -0.021823442601455151 0.0056517952988912436 0 -0.021475539067803431 0.005553643456313046 0 -0.021872380509933117 0.0052988280877898598 0 -0.021441307342017931 0.0049311987166089444 0 -0.021475539067803431 0.005553643456313046 0 -0.021872380509933117 0.0052988280877898598 0 -0.021823442601455151 0.0056517952988912436 0 -0.019853964661211351 0.0078307445214466764 0 -0.020941280838475209 0.004815042721811204 0 -0.018557739006038649 0.011009817385799984 0 -0.016901172598146517 0.0065098720888683136 0 -0.020964788799307823 0.0043359904036258893 0 -0.013194166218423915 0.011974977204446595 0 -0.018557739006038649 0.011009817385799984 0 -0.016901172598146517 0.0065098720888683136 0 -0.0056424446968759276 0.012283702442918461 0 -0.0058627409126355001 0.01204526570501142 0 -0.0058685464179569985 0.012283008035999745 0 -0.0058627409126355001 0.01204526570501142 0 -0.0058685464179569985 0.012283008035999745 0 -0.0061429235779400905 0.011986873310117023 0 -0.0056424446968759276 0.012283702442918461 0 -0.0058685464179569985 0.012283008035999745 0 -0.005600614986573914 0.012451176355847617 0 -0.006106736614034926 0.015831634799486974 0 -0.0067584054086521151 0.020622366667160445 0 -0.0055870531933540184 0.012515805565765689 0 -0.005600614986573914 0.012451176355847617 0 -0.0054619447545245937 0.012494667400382258 0 -0.0056424446968759276 0.012283702442918461 0 -0.005600614986573914 0.012451176355847617 0 -0.0054619447545245937 0.012494667400382258 0 -0.00834601382049306 0.027727249067258094 0 -0.008524082020939865 0.027376502301331589 0 -0.0088536013255528321 0.02722970853436249 0 -0.00834601382049306 0.027727249067258094 0 -0.0085816932829697531 0.027772827988103127 0 -0.0088536013255528321 0.02722970853436249 0 -0.0056424446968759276 0.012283702442918461 0 -0.0054619447545245937 0.012494667400382258 0 -0.0054994582983187157 0.012183642637635751 0 -0.0067584054086521151 0.020622366667160445 0 -0.0077428579064335165 0.018795066638044394 0 -0.0077428579064335165 0.018795066638044394 0 -0.0054215788596285817 0.010154599875068964 0 -0.0056424446968759276 0.012283702442918461 0 -0.0058627409126355001 0.01204526570501142 0 -0.0054994582983187157 0.012183642637635751 0 -0.0049242643950235341 0.009742095613967959 0 -0.0044739422262384315 0.010364907628682807 0 -0.0061400715983735569 0.010657150922896107 0 -0.0058627409126355001 0.01204526570501142 0 -0.0054994582983187157 0.012183642637635751 0 -0.0063247080731477397 0.011516938423850412 0 -0.0049242643950235341 0.009742095613967959 0 -0.0061400715983735569 0.010657150922896107 0 -0.0066513765147825305 0.0098489197042976213 0 -0.0082108979000923652 0.011393679910887022 0 -0.0054215788596285817 0.010154599875068964 0 -0.0086097207549354574 0.009913657718725509 0 -0.007931047810597518 0.011013082351928096 0 -0.0066513765147825305 0.0098489197042976213 0 -0.007931047810597518 0.011013082351928096 0 -0.0061400715983735569 0.010657150922896107 0 -0.0066513765147825305 0.0098489197042976213 0 -0.0042643511186261293 0.020922608552590826 0 -0.0033619332616472535 0.019822265913448697 0 -0.007931047810597518 0.011013082351928096 0 -0.0063247080731477397 0.011516938423850412 0 -0.0072956986602107903 0.011514116237643512 0 -0.0063247080731477397 0.011516938423850412 0 -0.0072956986602107903 0.011514116237643512 0 -0.0065289856411265418 0.011842079547822579 0 -0.0072956986602107903 0.011514116237643512 0 -0.0065289856411265418 0.011842079547822579 0 -0.0066132998645026418 0.012172985432683093 0 -0.0079207146685804242 0.011699705612784248 0 -0.0072956986602107903 0.011514116237643512 0 -0.0075972894532127305 0.0122272480382799 0 -0.007931047810597518 0.011013082351928096 0 -0.0079207146685804242 0.011699705612784248 0 -0.0072956986602107903 0.011514116237643512 0 -0.0058627409126355001 0.01204526570501142 0 -0.0063247080731477397 0.011516938423850412 0 -0.0061429235779400905 0.011986873310117023 0 -0.0063247080731477397 0.011516938423850412 0 -0.0061429235779400905 0.011986873310117023 0 -0.0065289856411265418 0.011842079547822579 0 -0.0065289856411265418 0.011842079547822579 0 -0.0062636162514888537 0.012197545953677552 0 -0.0066132998645026418 0.012172985432683093 0 -0.0061429235779400905 0.011986873310117023 0 -0.0065289856411265418 0.011842079547822579 0 -0.0062636162514888537 0.012197545953677552 0 -0.0058685464179569985 0.012283008035999745 0 -0.0061429235779400905 0.011986873310117023 0 -0.0062636162514888537 0.012197545953677552 0 -0.0062636162514888537 0.012197545953677552 0 -0.0063553210289594162 0.012468706842339089 0 -0.0060749505552594495 0.012492261736924901 0 -0.0062636162514888537 0.012197545953677552 0 -0.0066132998645026418 0.012172985432683093 0 -0.0063553210289594162 0.012468706842339089 0 -0.0066132998645026418 0.012172985432683093 0 -0.0063553210289594162 0.012468706842339089 0 -0.0066370589343850237 0.012787087869719783 0 -0.0063553210289594162 0.012468706842339089 0 -0.0066370589343850237 0.012787087869719783 0 -0.0062872776395452076 0.012697991587009965 0 -0.0063553210289594162 0.012468706842339089 0 -0.0062872776395452076 0.012697991587009965 0 -0.0060749505552594495 0.012492261736924901 0 -0.0072343614679168354 0.011598858356826393 0 -0.0068017810640643751 0.012840931900225682 0 -0.0072956986602107903 0.011514116237643512 0 -0.0066132998645026418 0.012172985432683093 0 -0.0066370589343850237 0.012787087869719783 0 -0.0072956986602107903 0.011514116237643512 0 -0.0075972894532127305 0.0122272480382799 0 -0.0069019578316930263 0.013041302863524333 0 -0.0075972894532127305 0.0122272480382799 0 -0.0069019578316930263 0.013041302863524333 0 -0.0076203122150207553 0.012820702095810606 0 -0.0069019578316930263 0.013041302863524333 0 -0.0070241119992577811 0.013320070212187783 0 -0.0069275831585847315 0.013060806420802495 0 -0.0068017810640643751 0.012840931900225682 0 -0.0066290966623031421 0.013044232885781146 0 -0.0069019578316930263 0.013041302863524333 0 -0.0076203122150207553 0.012820702095810606 0 -0.0070241119992577811 0.013320070212187783 0 -0.0066370589343850237 0.012787087869719783 0 -0.006256772487786646 0.012911356547931253 0 -0.0063532925512384836 0.013035762532084974 0 -0.0066370589343850237 0.012787087869719783 0 -0.0062872776395452076 0.012697991587009965 0 -0.006256772487786646 0.012911356547931253 0 -0.006256772487786646 0.012911356547931253 0 -0.0060482303152442993 0.012743975321712132 0 -0.0061319164984107617 0.012927207958280739 0 -0.0060482303152442993 0.012743975321712132 0 -0.0059397737605040163 0.012769949492211769 0 -0.0061319164984107617 0.012927207958280739 0 -0.0060482303152442993 0.012743975321712132 0 -0.0058122780280471346 0.012622498616455573 0 -0.0059397737605040163 0.012769949492211769 0 -0.0062872776395452076 0.012697991587009965 0 -0.006256772487786646 0.012911356547931253 0 -0.0060482303152442993 0.012743975321712132 0 -0.0060482303152442993 0.012743975321712132 0 -0.0058358950468213626 0.012503797596450133 0 -0.0060749505552594495 0.012492261736924901 0 -0.0062872776395452076 0.012697991587009965 0 -0.0060482303152442993 0.012743975321712132 0 -0.0060749505552594495 0.012492261736924901 0 -0.0060482303152442993 0.012743975321712132 0 -0.0058358950468213626 0.012503797596450133 0 -0.0058122780280471346 0.012622498616455573 0 -0.0058685464179569985 0.012283008035999745 0 -0.005600614986573914 0.012451176355847617 0 -0.0058358950468213626 0.012503797596450133 0 -0.0058685464179569985 0.012283008035999745 0 -0.0062636162514888537 0.012197545953677552 0 -0.0060749505552594495 0.012492261736924901 0 -0.0058685464179569985 0.012283008035999745 0 -0.0058358950468213626 0.012503797596450133 0 -0.0060749505552594495 0.012492261736924901 0 -0.0055870531933540184 0.012515805565765689 0 -0.005600614986573914 0.012451176355847617 0 -0.0056152716759135428 0.01248513037765729 0 -0.005600614986573914 0.012451176355847617 0 -0.0058358950468213626 0.012503797596450133 0 -0.0057168983204866344 0.012511167774361006 0 -0.005600614986573914 0.012451176355847617 0 -0.0056152716759135428 0.01248513037765729 0 -0.0057168983204866344 0.012511167774361006 0 -0.0056152716759135428 0.01248513037765729 0 -0.0057168983204866344 0.012511167774361006 0 -0.0058122780280471346 0.012622498616455573 0 -0.0058358950468213626 0.012503797596450133 0 -0.0057168983204866344 0.012511167774361006 0 -0.0058122780280471346 0.012622498616455573 0 -0.0055741741081906399 0.012582918750614635 0 -0.0056152716759135428 0.01248513037765729 0 -0.0058122780280471346 0.012622498616455573 0 -0.0055741741081906399 0.012582918750614635 0 -0.0058122780280471346 0.012622498616455573 0 -0.0057361754480782443 0.012778751481202043 0 -0.0059397737605040163 0.012769949492211769 0 -0.0057361754480782443 0.012778751481202043 0 -0.0061319164984107617 0.012927207958280739 0 -0.0058122780280471346 0.012622498616455573 0 -0.0059397737605040163 0.012769949492211769 0 -0.0057361754480782443 0.012778751481202043 0 -0.0057361754480782443 0.012778751481202043 0 -0.0061319164984107617 0.012927207958280739 0 -0.0057435716918522971 0.012989391546175165 0 -0.0063764112067240721 0.013055764501516402 0 -0.0061319164984107617 0.012927207958280739 0 -0.0057435716918522971 0.012989391546175165 0 -0.0063764112067240721 0.013055764501516402 0 -0.0057724983858409989 0.013377140696508062 0 -0.0058635419743301364 0.013850407624290116 0 -0.0063764112067240721 0.013055764501516402 0 -0.0057724983858409989 0.013377140696508062 0 -0.0057435716918522971 0.012989391546175165 0 -0.0063764112067240721 0.013055764501516402 0 -0.0063301269808582914 0.013042874925579814 0 -0.0067965686742538882 0.012731303710433271 0 -0.0063301269808582914 0.013042874925579814 0 -0.0062424115121748015 0.012842980298315328 0 -0.0067965686742538882 0.012731303710433271 0 -0.006256772487786646 0.012911356547931253 0 -0.0063301269808582914 0.013042874925579814 0 -0.0061319164984107617 0.012927207958280739 0 -0.0063764112067240721 0.013055764501516402 0 -0.0063301269808582914 0.013042874925579814 0 -0.0061319164984107617 0.012927207958280739 0 -0.006256772487786646 0.012911356547931253 0 -0.0063301269808582914 0.013042874925579814 0 -0.0063532925512384836 0.013035762532084974 0 -0.0069275831585847315 0.013060806420802495 0 -0.0067766952447298433 0.013056637799805133 0 -0.0065516827364319923 0.012730129194464557 0 -0.0070241119992577811 0.013320070212187783 0 -0.0069275831585847315 0.013060806420802495 0 -0.0067766952447298433 0.013056637799805133 0 -0.0070241119992577811 0.013320070212187783 0 -0.0067766952447298433 0.013056637799805133 0 -0.0064068179193858899 0.013009544590300865 0 -0.0065516827364319923 0.012730129194464557 0 -0.0066465105905011953 0.012506960047003711 0 -0.0064584025661086003 0.012297355378735417 0 -0.0069275831585847315 0.013060806420802495 0 -0.0065516827364319923 0.012730129194464557 0 -0.0066465105905011953 0.012506960047003711 0 -0.0066290966623031421 0.013044232885781146 0 -0.0065583718700826486 0.012609542137078201 0 -0.0069275831585847315 0.013060806420802495 0 -0.0066465105905011953 0.012506960047003711 0 -0.0068464824406385379 0.01241561928732903 0 -0.0063301269808582914 0.013042874925579814 0 -0.0063532925512384836 0.013035762532084974 0 -0.0062424115121748015 0.012842980298315328 0 -0.0062424115121748015 0.012842980298315328 0 -0.0067053009910500797 0.0115457991034256 0 -0.0069459580170464653 0.012001871662537354 0 -0.0068464824406385379 0.01241561928732903 0 -0.0065585056542464921 0.012107780444367479 0 -0.0067053009910500797 0.0115457991034256 0 -0.0065583718700826486 0.012609542137078201 0 -0.0066969254191583012 0.011655202409848598 0 -0.0066465105905011953 0.012506960047003711 0 -0.0068464824406385379 0.01241561928732903 0 -0.0065585056542464921 0.012107780444367479 0 -0.0066465105905011953 0.012506960047003711 0 -0.0065585056542464921 0.012107780444367479 0 -0.0064584025661086003 0.012297355378735417 0 -0.0065585056542464921 0.012107780444367479 0 -0.0064584025661086003 0.012297355378735417 0 -0.0064038987678234262 0.011671704432244469 0 -0.007817561219397591 0.0099072681722057153 0 -0.0074172467250827019 0.01039889352102666 0 -0.0097025404794105936 0.0079682776740660922 0 -0.0092376530272526864 0.0089365364916423936 0 -0.0082056472427173982 0.0091551706801366959 0 -0.0092376530272526864 0.0089365364916423936 0 -0.0086772512554225325 0.0093514763989331548 0 -0.0088898234023303321 0.009660977744890567 0 -0.0092376530272526864 0.0089365364916423936 0 -0.0086772512554225325 0.0093514763989331548 0 -0.0082056472427173982 0.0091551706801366959 0 -0.0092376530272526864 0.0089365364916423936 0 -0.0098068358654712917 0.0097144827059021579 0 -0.0088898234023303321 0.009660977744890567 0 -0.0065585056542464921 0.012107780444367479 0 -0.0064038987678234262 0.011671704432244469 0 -0.0067053009910500797 0.0115457991034256 0 -0.0086772512554225325 0.0093514763989331548 0 -0.0082056472427173982 0.0091551706801366959 0 -0.0084133269505936737 0.0096160963293338356 0 -0.0067053009910500797 0.0115457991034256 0 -0.0074416607170269631 0.011154163494744818 0 -0.0077017774140973909 0.010010868420571403 0 -0.0064038987678234262 0.011671704432244469 0 -0.0067053009910500797 0.0115457991034256 0 -0.0077017774140973909 0.010010868420571403 0 -0.0067053009910500797 0.0115457991034256 0 -0.0071185233095427854 0.011600879057640038 0 -0.0074416607170269631 0.011154163494744818 0 -0.0067053009910500797 0.0115457991034256 0 -0.0071185233095427854 0.011600879057640038 0 -0.0069459580170464653 0.012001871662537354 0 -0.0071185233095427854 0.011600879057640038 0 -0.007456881649035566 0.011729993515964893 0 -0.0074416607170269631 0.011154163494744818 0 -0.0071185233095427854 0.011600879057640038 0 -0.0069459580170464653 0.012001871662537354 0 -0.007456881649035566 0.011729993515964893 0 -0.007456881649035566 0.011729993515964893 0 -0.0074416607170269631 0.011154163494744818 0 -0.0079369683507823849 0.011233500489995411 0 -0.0079369683507823849 0.011233500489995411 0 -0.0082480834977537668 0.01172090937700794 0 -0.0082731413627596968 0.010740918723547887 0 -0.0074416607170269631 0.011154163494744818 0 -0.0079369683507823849 0.011233500489995411 0 -0.0082731413627596968 0.010740918723547887 0 -0.0062508084464186287 0.01349129793313735 0 -0.0070981547550976265 0.01230774106685004 0 -0.0068983946724958138 0.012602812487942389 0 -0.0069267720387758535 0.012678873738140693 0 -0.0070111296107172837 0.012465415580145489 0 -0.0076758975454085752 0.011970945031959104 0 -0.0070981547550976265 0.01230774106685004 0 -0.0082480834977537668 0.01172090937700794 0 -0.0082731413627596968 0.010740918723547887 0 -0.009063542676290599 0.010525536487244034 0 -0.007456881649035566 0.011729993515964893 0 -0.0079369683507823849 0.011233500489995411 0 -0.0082480834977537668 0.01172090937700794 0 -0.0068983946724958138 0.012602812487942389 0 -0.0069267720387758535 0.012678873738140693 0 -0.0067965686742538882 0.012731303710433271 0 -0.0063764112067240721 0.013055764501516402 0 -0.0069267720387758535 0.012678873738140693 0 -0.0067965686742538882 0.012731303710433271 0 -0.0064534591890189116 0.012938634879876662 0 -0.0062508084464186287 0.01349129793313735 0 -0.0076758975454085752 0.011970945031959104 0 -0.0068918808514109803 0.012730024543391861 0 -0.0057724983858409989 0.013377140696508062 0 -0.0058635419743301364 0.013850407624290116 0 -0.0055346653201789608 0.013692141390071797 0 -0.0062424115121748015 0.012842980298315328 0 -0.0069459580170464653 0.012001871662537354 0 -0.0067965686742538882 0.012731303710433271 0 -0.007456881649035566 0.011729993515964893 0 -0.0082480834977537668 0.01172090937700794 0 -0.0067965686742538882 0.012731303710433271 0 -0.0069459580170464653 0.012001871662537354 0 -0.007456881649035566 0.011729993515964893 0 -0.0067965686742538882 0.012731303710433271 0 -0.021668553288903256 0.0067744240911582973 0 -0.020761790395579467 0.0073445082177595071 0 -0.021850773948145091 0.0075282013664802324 0 -0.022475887171625117 0.0069897896175749891 0 -0.021668553288903256 0.0067744240911582973 0 -0.021850773948145091 0.0075282013664802324 0 -0.022475887171625117 0.0069897896175749891 0 -0.021668553288903256 0.0067744240911582973 0 -0.022095936437453986 0.006368388855590784 0 -0.021668553288903256 0.0067744240911582973 0 -0.022095936437453986 0.006368388855590784 0 -0.021717568694566224 0.0059905306431547213 0 -0.022210245040760777 0.0057618329699576148 0 -0.021717568694566224 0.0059905306431547213 0 -0.021823442601455151 0.0056517952988912436 0 -0.021475539067803431 0.005553643456313046 0 -0.021717568694566224 0.0059905306431547213 0 -0.021823442601455151 0.0056517952988912436 0 -0.022210245040760777 0.0057618329699576148 0 -0.022095936437453986 0.006368388855590784 0 -0.021717568694566224 0.0059905306431547213 0 -0.021475539067803431 0.005553643456313046 0 -0.021717568694566224 0.0059905306431547213 0 -0.021340232643459394 0.00567317472381781 0 -0.021717568694566224 0.0059905306431547213 0 -0.021340232643459394 0.00567317472381781 0 -0.021076670197733953 0.0064821687226634984 0 -0.01772331988125796 0.0091655698349615445 0 -0.018209455686526627 0.0075169462112071811 0 -0.021668553288903256 0.0067744240911582973 0 -0.021717568694566224 0.0059905306431547213 0 -0.021076670197733953 0.0064821687226634984 0 -0.015498800433675573 0.0084394498203466516 0 -0.015118951572814204 0.0093059330053010692 0 -0.0145801284691023 0.0090946298020654608 0 -0.015118951572814204 0.0093059330053010692 0 -0.0145801284691023 0.0090946298020654608 0 -0.014705305039804972 0.0095978795784809143 0 -0.012313479270031329 0.014216121954543019 0 -0.015764051022542476 0.015228099834595173 0 -0.012398529822561496 0.016624425537435612 0 -0.01772331988125796 0.0091655698349615445 0 -0.013147074957699619 0.013248554447016191 0 -0.012313479270031329 0.014216121954543019 0 -0.012398529822561496 0.016624425537435612 0 -0.010635576147199143 0.015364656434473082 0 -0.016548450942627656 0.0086317191565313811 0 -0.014485444240540091 0.0094433934573433711 0 -0.0147049403430699 0.010078411149692552 0 -0.013740315565872265 0.0097049278212080255 0 -0.014516809081511125 0.010530630642897942 0 -0.014705305039804972 0.0095978795784809143 0 -0.014774379972661487 0.0101474113447396 0 -0.014241163951101121 0.0094012658904380174 0 -0.0145801284691023 0.0090946298020654608 0 -0.014705305039804972 0.0095978795784809143 0 -0.014241163951101121 0.0094012658904380174 0 -0.021668553288903256 0.0067744240911582973 0 -0.021076670197733953 0.0064821687226634984 0 -0.020761790395579467 0.0073445082177595071 0 -0.018209455686526627 0.0075169462112071811 0 -0.016548450942627656 0.0086317191565313811 0 -0.015118951572814204 0.0093059330053010692 0 -0.014705305039804972 0.0095978795784809143 0 -0.014774379972661487 0.0101474113447396 0 -0.0147049403430699 0.010078411149692552 0 -0.013740315565872265 0.0097049278212080255 0 -0.014241163951101121 0.0094012658904380174 0 -0.010443841045300018 0.011581910768188207 0 -0.014064106965329587 0.007979296381187783 0 -0.013147074957699619 0.013248554447016191 0 -0.010443841045300018 0.011581910768188207 0 -0.0145801284691023 0.0090946298020654608 0 -0.013740315565872265 0.0097049278212080255 0 -0.014241163951101121 0.0094012658904380174 0 -0.010035349829623976 0.013387148682580638 0 -0.010635576147199143 0.015364656434473082 0 -0.0084088409212065094 0.015585656016465258 0 -0.012398529822561496 0.016624425537435612 0 -0.010210208002041145 0.017922857975903886 0 -0.010635576147199143 0.015364656434473082 0 -0.010210208002041145 0.017922857975903886 0 -0.010635576147199143 0.015364656434473082 0 -0.0084088409212065094 0.015585656016465258 0 -0.010443841045300018 0.011581910768188207 0 -0.0074589908889538294 0.014610810667523065 0 -0.0067766952447298433 0.013056637799805133 0 -0.0065516827364319923 0.012730129194464557 0 -0.0064068179193858899 0.013009544590300865 0 -0.0065516827364319923 0.012730129194464557 0 -0.0061327404209818972 0.012658645908031022 0 -0.0064068179193858899 0.013009544590300865 0 -0.007817561219397591 0.0099072681722057153 0 -0.010443841045300018 0.011581910768188207 0 -0.0065516827364319923 0.012730129194464557 0 -0.0064584025661086003 0.012297355378735417 0 -0.0061327404209818972 0.012658645908031022 0 -0.0097025404794105936 0.0079682776740660922 0 -0.0092376530272526864 0.0089365364916423936 0 -0.010388487800654484 0.0085914924121708834 0 -0.0097025404794105936 0.0079682776740660922 0 -0.011227110217085725 0.0069046711691350942 0 -0.011067015021645843 0.0079442677946855184 0 -0.0097025404794105936 0.0079682776740660922 0 -0.010388487800654484 0.0085914924121708834 0 -0.011067015021645843 0.0079442677946855184 0 -0.010362430874636014 0.0086103911588495431 0 -0.0098046898628786766 0.0099352412856166059 0 -0.010388487800654484 0.0085914924121708834 0 -0.010916139078469942 0.0093453453131528107 0 -0.0099355251788947642 0.0097330237944011442 0 -0.0092376530272526864 0.0089365364916423936 0 -0.010388487800654484 0.0085914924121708834 0 -0.0098068358654712917 0.0097144827059021579 0 -0.010388487800654484 0.0085914924121708834 0 -0.011258567482807805 0.0085764221226605208 0 -0.010916139078469942 0.0093453453131528107 0 -0.011258567482807805 0.0085764221226605208 0 -0.011735645104219424 0.0090413163005456047 0 -0.012166776457572597 0.0079448375699256672 0 -0.010916139078469942 0.0093453453131528107 0 -0.011735645104219424 0.0090413163005456047 0 -0.011432591690838758 0.010131933383945725 0 -0.011258567482807805 0.0085764221226605208 0 -0.010916139078469942 0.0093453453131528107 0 -0.011735645104219424 0.0090413163005456047 0 -0.011227110217085725 0.0069046711691350942 0 -0.011067015021645843 0.0079442677946855184 0 -0.012166776457572597 0.0079448375699256672 0 -0.011258567482807805 0.0085764221226605208 0 -0.011067015021645843 0.0079442677946855184 0 -0.012166776457572597 0.0079448375699256672 0 -0.010388487800654484 0.0085914924121708834 0 -0.011258567482807805 0.0085764221226605208 0 -0.011067015021645843 0.0079442677946855184 0 -0.016992910288516783 0.0072995288318333284 0 -0.016808614299004061 0.0077602285614445056 0 -0.017856945513195964 0.0084799111159571724 0 -0.011933845839195253 0.0086613694353547283 0 -0.014064106965329587 0.007979296381187783 0 -0.016548450942627656 0.0086317191565313811 0 -0.020163947060800911 0.0084568471635506157 0 -0.016548450942627656 0.0086317191565313811 0 -0.014064106965329587 0.007979296381187783 0 -0.01217280655216013 0.0082820703763730567 0 -0.012909375401300053 0.0064833596697899338 0 -0.014619054431375169 0.0083896619814151988 0 -0.01217280655216013 0.0082820703763730567 0 -0.014619054431375169 0.0083896619814151988 0 -0.012831327997730202 0.009732545081100278 0 -0.014064106965329587 0.007979296381187783 0 -0.016090528764816196 0.0085965846144777976 0 -0.018629432405539263 0.0096729423735510481 0 -0.017856945513195964 0.0084799111159571724 0 -0.017709880686816077 0.0087219122748041552 0 -0.016808614299004061 0.0077602285614445056 0 -0.017856945513195964 0.0084799111159571724 0 -0.017709880686816077 0.0087219122748041552 0 -0.022556495145076499 0.0078729858629323444 0 -0.021868541496604745 0.0086080956218659212 0 -0.021850773948145091 0.0075282013664802324 0 -0.020761790395579467 0.0073445082177595071 0 -0.021868541496604745 0.0086080956218659212 0 -0.021850773948145091 0.0075282013664802324 0 -0.019131881530537673 0.0058910997972081687 0 -0.017434591314040685 0.0060989239241266979 0 -0.017959884092016151 0.0048443817199733024 0 -0.019993418066418214 0.0045038217449275822 0 -0.019131881530537673 0.0058910997972081687 0 -0.017959884092016151 0.0048443817199733024 0 -0.019010092843061786 0.0086178411348805106 0 -0.015841177793052497 0.0077307757047517505 0 -0.019010092843061786 0.0086178411348805106 0 -0.016090528764816196 0.0085965846144777976 0 -0.016371142432952138 0.010310917852784931 0 -0.014619054431375169 0.0083896619814151988 0 -0.01402619367669912 0.010779156776740977 0 -0.020842525238960821 0.0088736403066656394 0 -0.020163947060800911 0.0084568471635506157 0 -0.014619054431375169 0.0083896619814151988 0 -0.012831327997730202 0.009732545081100278 0 -0.01402619367669912 0.010779156776740977 0 -0.012831327997730202 0.009732545081100278 0 -0.01402619367669912 0.010779156776740977 0 -0.011706005380384098 0.011143646138673203 0 -0.015841177793052497 0.0077307757047517505 0 -0.01385936758583509 0.008266891811173134 0 -0.017434591314040685 0.0060989239241266979 0 -0.017959884092016151 0.0048443817199733024 0 -0.015788820221506256 0.0052117899836588615 0 -0.015788820221506256 0.0052117899836588615 0 -0.013506497844873957 0.0056712081928310893 0 -0.015930321182402743 0.006774057859285228 0 -0.017434591314040685 0.0060989239241266979 0 -0.015788820221506256 0.0052117899836588615 0 -0.015930321182402743 0.006774057859285228 0 -0.012831327997730202 0.009732545081100278 0 -0.011706005380384098 0.011143646138673203 0 -0.011432591690838758 0.010131933383945725 0 -0.011933845839195253 0.0086613694353547283 0 -0.011470932665130282 0.0099873688299843971 0 -0.01217280655216013 0.0082820703763730567 0 -0.012831327997730202 0.009732545081100278 0 -0.011432591690838758 0.010131933383945725 0 -0.010916139078469942 0.0093453453131528107 0 -0.011432591690838758 0.010131933383945725 0 -0.010638417991053277 0.010016510837186611 0 -0.011706005380384098 0.011143646138673203 0 -0.011432591690838758 0.010131933383945725 0 -0.010735422498933033 0.010634567942286692 0 -0.0099355251788947642 0.0097330237944011442 0 -0.010131316205832549 0.010544045594057534 0 -0.0093710008276568779 0.011023365412902242 0 -0.010735422498933033 0.010634567942286692 0 -0.010638417991053277 0.010016510837186611 0 -0.010131316205832549 0.010544045594057534 0 -0.011432591690838758 0.010131933383945725 0 -0.010735422498933033 0.010634567942286692 0 -0.010638417991053277 0.010016510837186611 0 -0.010916139078469942 0.0093453453131528107 0 -0.010638417991053277 0.010016510837186611 0 -0.0099355251788947642 0.0097330237944011442 0 -0.010638417991053277 0.010016510837186611 0 -0.0099355251788947642 0.0097330237944011442 0 -0.010131316205832549 0.010544045594057534 0 -0.011706005380384098 0.011143646138673203 0 -0.010735422498933033 0.010634567942286692 0 -0.0099842083166416587 0.011337809857271012 0 -0.011214564996405538 0.0071650078190281623 0 -0.01450683100840112 0.0056475794674519233 0 -0.01385936758583509 0.008266891811173134 0 -0.011214564996405538 0.0071650078190281623 0 -0.010131316205832549 0.010544045594057534 0 -0.0099842083166416587 0.011337809857271012 0 -0.0093710008276568779 0.011023365412902242 0 -0.010735422498933033 0.010634567942286692 0 -0.010131316205832549 0.010544045594057534 0 -0.0099842083166416587 0.011337809857271012 0 -0.010898054962586164 0.0041591811484529024 0 -0.011928365916260241 0.0060308255791654214 0 -0.012880899115959455 0.0050374528340965917 0 -0.010898054962586164 0.0041591811484529024 0 -0.010698845408199955 0.0055494498500395515 0 -0.011928365916260241 0.0060308255791654214 0 -0.010898054962586164 0.0041591811484529024 0 -0.010698845408199955 0.0055494498500395515 0 -0.010427396653626329 0.0048804586974111495 0 -0.011928365916260241 0.0060308255791654214 0 -0.011470946489841075 0.0073418570558424863 0 -0.010382231450834428 0.0069679695419528533 0 -0.010698845408199955 0.0055494498500395515 0 -0.011928365916260241 0.0060308255791654214 0 -0.010382231450834428 0.0069679695419528533 0 -0.011928365916260241 0.0060308255791654214 0 -0.011470946489841075 0.0073418570558424863 0 -0.013114130089280258 0.0069596680761735774 0 -0.011928365916260241 0.0060308255791654214 0 -0.013114130089280258 0.0069596680761735774 0 -0.012880899115959455 0.0050374528340965917 0 -0.017434591314040685 0.0060989239241266979 0 -0.015930321182402743 0.006774057859285228 0 -0.018254236281126116 0.0077366745159404308 0 -0.013114130089280258 0.0069596680761735774 0 -0.012880899115959455 0.0050374528340965917 0 -0.014962040660657344 0.005793413927372819 0 -0.01450683100840112 0.0056475794674519233 0 -0.016614262303581748 0.0067908000530413149 0 -0.013114130089280258 0.0069596680761735774 0 -0.014962040660657344 0.005793413927372819 0 -0.014986521660732667 0.0074343153306473285 0 -0.018930078718461588 0.0075478422979993864 0 -0.016614262303581748 0.0067908000530413149 0 -0.017410961551582425 0.0065848264025568882 0 -0.014962040660657344 0.005793413927372819 0 -0.014986521660732667 0.0074343153306473285 0 -0.020408065148477244 0.006947909140301127 0 -0.019131881530537673 0.0058910997972081687 0 -0.018254236281126116 0.0077366745159404308 0 -0.019131881530537673 0.0058910997972081687 0 -0.017434591314040685 0.0060989239241266979 0 -0.018254236281126116 0.0077366745159404308 0 -0.0080172619098064189 0.0093368363526815379 0 -0.0077839942986264749 0.0094920200605427378 0 -0.0077017774140973909 0.010010868420571403 0 -0.0077839942986264749 0.0094920200605427378 0 -0.0078339154421858855 0.0089571961013217832 0 -0.0076326145147736476 0.0091578162563395061 0 -0.0080172619098064189 0.0093368363526815379 0 -0.0077839942986264749 0.0094920200605427378 0 -0.0078339154421858855 0.0089571961013217832 0 -0.0080172619098064189 0.0093368363526815379 0 -0.0078339154421858855 0.0089571961013217832 0 -0.0080691196419398464 0.0086877203433919307 0 -0.0080172619098064189 0.0093368363526815379 0 -0.0083783599036022314 0.0089978338331787953 0 -0.0086452670788958984 0.0094493426584385306 0 -0.0080172619098064189 0.0093368363526815379 0 -0.0083783599036022314 0.0089978338331787953 0 -0.0080691196419398464 0.0086877203433919307 0 -0.0083783599036022314 0.0089978338331787953 0 -0.0087867353027708851 0.0090099050867530183 0 -0.0086452670788958984 0.0094493426584385306 0 -0.0080172619098064189 0.0093368363526815379 0 -0.0086452670788958984 0.0094493426584385306 0 -0.0083206556838147823 0.0099639170019649066 0 -0.0086452670788958984 0.0094493426584385306 0 -0.0083206556838147823 0.0099639170019649066 0 -0.009063542676290599 0.010525536487244034 0 -0.0080172619098064189 0.0093368363526815379 0 -0.0083206556838147823 0.0099639170019649066 0 -0.0077017774140973909 0.010010868420571403 0 -0.0083206556838147823 0.0099639170019649066 0 -0.0082731413627596968 0.010740918723547887 0 -0.009063542676290599 0.010525536487244034 0 -0.0074416607170269631 0.011154163494744818 0 -0.0082731413627596968 0.010740918723547887 0 -0.0077017774140973909 0.010010868420571403 0 -0.0083206556838147823 0.0099639170019649066 0 -0.0082731413627596968 0.010740918723547887 0 -0.0077017774140973909 0.010010868420571403 0 -0.0082056472427173982 0.0091551706801366959 0 -0.0077017774140973909 0.010010868420571403 0 -0.0078754982999186766 0.0097886561943738674 0 -0.0074172467250827019 0.01039889352102666 0 -0.0076952924544608312 0.01001545318772281 0 -0.0077839942986264749 0.0094920200605427378 0 -0.0077017774140973909 0.010010868420571403 0 -0.0078754982999186766 0.0097886561943738674 0 -0.0082056472427173982 0.0091551706801366959 0 -0.0078754982999186766 0.0097886561943738674 0 -0.0084133269505936737 0.0096160963293338356 0 -0.0078754982999186766 0.0097886561943738674 0 -0.0084133269505936737 0.0096160963293338356 0 -0.0085049133087402428 0.010259186681250615 0 -0.0086772512554225325 0.0093514763989331548 0 -0.0084133269505936737 0.0096160963293338356 0 -0.0088898234023303321 0.009660977744890567 0 -0.0084133269505936737 0.0096160963293338356 0 -0.0085049133087402428 0.010259186681250615 0 -0.0088898234023303321 0.009660977744890567 0 -0.0079330598226650777 0.0098313566518943973 0 -0.0079024446815098032 0.009803095820153861 0 -0.0077839942986264749 0.0094920200605427378 0 -0.0078754982999186766 0.0097886561943738674 0 -0.0074483453076639112 0.0095106992922246187 0 -0.0098046898628786766 0.0099352412856166059 0 -0.0092821056835092931 0.0094367804640436426 0 -0.0098068358654712917 0.0097144827059021579 0 -0.0091233057868067412 0.010088840582672596 0 -0.0093292747559401527 0.010707357126886499 0 -0.0098068358654712917 0.0097144827059021579 0 -0.0088898234023303321 0.009660977744890567 0 -0.0091233057868067412 0.010088840582672596 0 -0.0085049133087402428 0.010259186681250615 0 -0.0088898234023303321 0.009660977744890567 0 -0.0091233057868067412 0.010088840582672596 0 -0.0085049133087402428 0.010259186681250615 0 -0.0091233057868067412 0.010088840582672596 0 -0.0093292747559401527 0.010707357126886499 0 -0.011214564996405538 0.0071650078190281623 0 -0.0092821056835092931 0.0094367804640436426 0 -0.0074483453076639112 0.0095106992922246187 0 -0.0070293383521250795 0.0092584477253713996 0 -0.0074579354229303632 0.009014569646554756 0 -0.0079024446815098032 0.009803095820153861 0 -0.0092821056835092931 0.0094367804640436426 0 -0.0070293383521250795 0.0092584477253713996 0 -0.0071136280835478139 0.0090522740220155169 0 -0.0074579354229303632 0.009014569646554756 0 -0.010502120723777708 0.0078087778870083863 0 -0.0096716028461485016 0.007410107214113947 0 -0.0094273900367838302 0.0080094769734809449 0 -0.010898054962586164 0.0041591811484529024 0 -0.0099382093293876855 0.0043383902575444598 0 -0.010427396653626329 0.0048804586974111495 0 -0.011214564996405538 0.0071650078190281623 0 -0.0095171915040626748 0.0073567497521136857 0 -0.0092821056835092931 0.0094367804640436426 0 -0.0095171915040626748 0.0073567497521136857 0 -0.0077839942986264749 0.0094920200605427378 0 -0.0074483453076639112 0.0095106992922246187 0 -0.0076326145147736476 0.0091578162563395061 0 -0.0074483453076639112 0.0095106992922246187 0 -0.0074579354229303632 0.009014569646554756 0 -0.0076326145147736476 0.0091578162563395061 0 -0.0078339154421858855 0.0089571961013217832 0 -0.0076326145147736476 0.0091578162563395061 0 -0.0076620014332134763 0.0087668536660849283 0 -0.0074579354229303632 0.009014569646554756 0 -0.0076326145147736476 0.0091578162563395061 0 -0.0076620014332134763 0.0087668536660849283 0 -0.0076620014332134763 0.0087668536660849283 0 -0.0075683506962077717 0.0084306094850417623 0 -0.0078366316331469257 0.0084397642422612482 0 -0.0074579354229303632 0.009014569646554756 0 -0.0076620014332134763 0.0087668536660849283 0 -0.0075683506962077717 0.0084306094850417623 0 -0.0095171915040626748 0.0073567497521136857 0 -0.008439518050991442 0.0071819002056868388 0 -0.0099382093293876855 0.0043383902575444598 0 -0.0092916281417900638 0.0059046517548386355 0 -0.010427396653626329 0.0048804586974111495 0 -0.010698845408199955 0.0055494498500395515 0 -0.0092916281417900638 0.0059046517548386355 0 -0.010427396653626329 0.0048804586974111495 0 -0.0071136280835478139 0.0090522740220155169 0 -0.0074579354229303632 0.009014569646554756 0 -0.0075683506962077717 0.0084306094850417623 0 -0.010698845408199955 0.0055494498500395515 0 -0.0092916281417900638 0.0059046517548386355 0 -0.010382231450834428 0.0069679695419528533 0 -0.0092916281417900638 0.0059046517548386355 0 -0.010382231450834428 0.0069679695419528533 0 -0.0084904932920131654 0.0082728517500411849 0 -0.0075683506962077717 0.0084306094850417623 0 -0.0080502524594587115 0.0081662956596690005 0 -0.0078366316331469257 0.0084397642422612482 0 -0.0075683506962077717 0.0084306094850417623 0 -0.0080502524594587115 0.0081662956596690005 0 -0.0084904932920131654 0.0082728517500411849 0 -0.008439518050991442 0.0071819002056868388 0 -0.0084111618466415506 0.0082262916066901792 0 -0.0080502524594587115 0.0081662956596690005 0 -0.0078799932983920074 0.0081116660768850834 0 -0.0078366316331469257 0.0084397642422612482 0 -0.0080502524594587115 0.0081662956596690005 0 -0.0076050658741499922 0.0080618589846462186 0 -0.0073225027302949944 0.0084651055180341665 0 -0.0080502524594587115 0.0081662956596690005 0 -0.0078799932983920074 0.0081116660768850834 0 -0.0076050658741499922 0.0080618589846462186 0 -0.0078799932983920074 0.0081116660768850834 0 -0.0078366316331469257 0.0084397642422612482 0 -0.0080691196419398464 0.0086877203433919307 0 -0.0078339154421858855 0.0089571961013217832 0 -0.0076620014332134763 0.0087668536660849283 0 -0.0078366316331469257 0.0084397642422612482 0 -0.0078339154421858855 0.0089571961013217832 0 -0.0078366316331469257 0.0084397642422612482 0 -0.0080691196419398464 0.0086877203433919307 0 -0.0083783599036022314 0.0089978338331787953 0 -0.0087867353027708851 0.0090099050867530183 0 -0.0086648450354647882 0.0085442494081939251 0 -0.0083783599036022314 0.0089978338331787953 0 -0.0080691196419398464 0.0086877203433919307 0 -0.0086648450354647882 0.0085442494081939251 0 -0.0078799932983920074 0.0081116660768850834 0 -0.0080691196419398464 0.0086877203433919307 0 -0.0086648450354647882 0.0085442494081939251 0 -0.0079113558255967144 0.008126678562008903 0 -0.0081207418999097846 0.0081287661128244728 0 -0.0076050658741499922 0.0080618589846462186 0 -0.0060300093122470349 0.0072051796858403029 0 -0.0065621208200198249 0.008233822982881259 0 -0.0074406730962275095 0.0079704689630132261 0 -0.0068433031854010255 0.0076959069296709233 0 -0.0074799454074577941 0.0078561918927999453 0 -0.0075842414514237016 0.0080602858857545794 0 -0.0074139379110106079 0.0080999604991369625 0 -0.0075842414514237016 0.0080602858857545794 0 -0.0076050658741499922 0.0080618589846462186 0 -0.0074139379110106079 0.0080999604991369625 0 -0.0078799932983920074 0.0081116660768850834 0 -0.0075842414514237016 0.0080602858857545794 0 -0.0076050658741499922 0.0080618589846462186 0 -0.0078799932983920074 0.0081116660768850834 0 -0.0074799454074577941 0.0078561918927999453 0 -0.0075842414514237016 0.0080602858857545794 0 -0.0060300093122470349 0.0072051796858403029 0 -0.0057462046717240717 0.0081401119160750667 0 -0.0065621208200198249 0.008233822982881259 0 -0.0068433031854010255 0.0076959069296709233 0 -0.004399405838356108 0.0091432520948494262 0 -0.0060300093122470349 0.0072051796858403029 0 -0.0050202490181585286 0.0077452646202798283 0 -0.0057462046717240717 0.0081401119160750667 0 -0.0060300093122470349 0.0072051796858403029 0 -0.0050202490181585286 0.0077452646202798283 0 -0.0044354218408379767 0.0066777824130021327 0 -0.0050202490181585286 0.0077452646202798283 0 -0.0039387225887610646 0.0080033789210436738 0 -0.0049869241788489003 0.0085000748365085463 0 -0.0050202490181585286 0.0077452646202798283 0 -0.0039387225887610646 0.0080033789210436738 0 -0.0044354218408379767 0.0066777824130021327 0 -0.0039387225887610646 0.0080033789210436738 0 -0.0038549166233120859 0.0081726026527484379 0 -0.0038474717339885469 0.0082047466533380804 0 -0.0042318206174605591 0.007594306236211784 0 -0.004399405838356108 0.0091432520948494262 0 -0.0035031897841182385 0.012783419678912946 0 -0.0036541015573901235 0.012971452828280527 0 -0.0038540385820515452 0.012909865903211087 0 -0.004399405838356108 0.0091432520948494262 0 -0.0037467004068030487 0.010674788837160398 0 -0.0035031897841182385 0.012783419678912946 0 -0.0036541015573901235 0.012971452828280527 0 -0.003445792014895541 0.013034543704309296 0 -0.004399405838356108 0.0091432520948494262 0 -0.0068615925072720635 0.010500760413708935 0 -0.0070646843442757753 0.0080038769502953841 0 -0.0072755571913798792 0.007885681295843704 0 -0.0072133081436644292 0.0076864242506210143 0 -0.0074139379110106079 0.0080999604991369625 0 -0.0070646843442757753 0.0080038769502953841 0 -0.0072755571913798792 0.007885681295843704 0 -0.0087867353027708851 0.0090099050867530183 0 -0.0086648450354647882 0.0085442494081939251 0 -0.009481378002414189 0.0090602587577695987 0 -0.0081207418999097846 0.0081287661128244728 0 -0.0068615925072720635 0.010500760413708935 0 -0.0074799454074577941 0.0078561918927999453 0 -0.0072755571913798792 0.007885681295843704 0 -0.0072133081436644292 0.0076864242506210143 0 -0.0074799454074577941 0.0078561918927999453 0 -0.0074139379110106079 0.0080999604991369625 0 -0.0072755571913798792 0.007885681295843704 0 -0.0035007363661873686 0.0085322297460151547 0 -0.0037160203154512289 0.0083544043549757651 0 -0.0035341742290953605 0.0084963657624772034 0 -0.0037160203154512289 0.0083544043549757651 0 -0.0035341742290953605 0.0084963657624772034 0 -0.0038350464044858441 0.0083100303615471979 0 -0.0043259628358624886 0.0085760050468586292 0 -0.0038679985170930226 0.0083476466327854805 0 -0.0035007363661873686 0.0085322297460151547 0 -0.0036453711865272738 0.0083765470784986258 0 -0.0036409988864709308 0.008279363226909699 0 -0.0035007363661873686 0.0085322297460151547 0 -0.0037160203154512289 0.0083544043549757651 0 -0.0036453711865272738 0.0083765470784986258 0 -0.0037160203154512289 0.0083544043549757651 0 -0.0036453711865272738 0.0083765470784986258 0 -0.0037445745448914541 0.0082919692949659455 0 -0.0037160203154512289 0.0083544043549757651 0 -0.0038474717339885469 0.0082047466533380804 0 -0.0037445745448914541 0.0082919692949659455 0 -0.0037160203154512289 0.0083544043549757651 0 -0.003830007065976485 0.0081979833252888139 0 -0.0038350464044858441 0.0083100303615471979 0 -0.0039387225887610646 0.0080033789210436738 0 -0.003830007065976485 0.0081979833252888139 0 -0.0038474717339885469 0.0082047466533380804 0 -0.0037160203154512289 0.0083544043549757651 0 -0.003830007065976485 0.0081979833252888139 0 -0.0038474717339885469 0.0082047466533380804 0 -0.0038549166233120859 0.0081726026527484379 0 -0.0038474717339885469 0.0082047466533380804 0 -0.0038200008871621181 0.0082287654243995492 0 -0.0036541015573901235 0.012971452828280527 0 -0.0038540385820515452 0.012909865903211087 0 -0.0038020900032586704 0.013121022174892652 0 -0.0038474717339885469 0.0082047466533380804 0 -0.0038200008871621181 0.0082287654243995492 0 -0.0037445745448914541 0.0082919692949659455 0 -0.0035007363661873686 0.0085322297460151547 0 -0.0036409988864709308 0.008279363226909699 0 -0.0034774596469043634 0.0081099867159761894 0 -0.0037467004068030487 0.010674788837160398 0 -0.0039661191720936715 0.01046013842396307 0 -0.0038540385820515452 0.012909865903211087 0 -0.0039824676228684781 0.01330910536115793 0 -0.004363564513814755 0.013096823580319739 0 -0.0038200008871621181 0.0082287654243995492 0 -0.0036409988864709308 0.008279363226909699 0 -0.0034774596469043634 0.0081099867159761894 0 -0.0033744748514094305 0.0080325995061881449 0 -0.0039661191720936715 0.01046013842396307 0 -0.0038200008871621181 0.0082287654243995492 0 -0.0037445745448914541 0.0082919692949659455 0 -0.0036409988864709308 0.008279363226909699 0 -0.0036453711865272738 0.0083765470784986258 0 -0.0037445745448914541 0.0082919692949659455 0 -0.0036409988864709308 0.008279363226909699 0 -0.0041401346333895007 0.013588180871403123 0 -0.0043285694729853913 0.01381722611607562 0 -0.004363564513814755 0.013096823580319739 0 -0.0039824676228684781 0.01330910536115793 0 -0.0041401346333895007 0.013588180871403123 0 -0.004363564513814755 0.013096823580319739 0 -0.0038540385820515452 0.012909865903211087 0 -0.0039824676228684781 0.01330910536115793 0 -0.0038020900032586704 0.013121022174892652 0 -0.0039824676228684781 0.01330910536115793 0 -0.0037209528469355369 0.013286399164089011 0 -0.0038152277921849678 0.013650694185177252 0 -0.0039824676228684781 0.01330910536115793 0 -0.0037209528469355369 0.013286399164089011 0 -0.0038020900032586704 0.013121022174892652 0 -0.0036541015573901235 0.012971452828280527 0 -0.0037209528469355369 0.013286399164089011 0 -0.0038020900032586704 0.013121022174892652 0 -0.0046532986320460736 0.014403401859064194 0 -0.0050672233044678225 0.014234840207480915 0 -0.0046015041267778653 0.013967084106331566 0 -0.0039824676228684781 0.01330910536115793 0 -0.0038152277921849678 0.013650694185177252 0 -0.0041401346333895007 0.013588180871403123 0 -0.0038152277921849678 0.013650694185177252 0 -0.0041401346333895007 0.013588180871403123 0 -0.0042407858005456328 0.013909554246266966 0 -0.0042372268747672684 0.014117954635407865 0 -0.0042268246182622475 0.013910185144199838 0 -0.0041401346333895007 0.013588180871403123 0 -0.0042407858005456328 0.013909554246266966 0 -0.0043285694729853913 0.01381722611607562 0 -0.0087867353027708851 0.0090099050867530183 0 -0.0086452670788958984 0.0094493426584385306 0 -0.009481378002414189 0.0090602587577695987 0 -0.0086452670788958984 0.0094493426584385306 0 -0.009481378002414189 0.0090602587577695987 0 -0.009063542676290599 0.010525536487244034 0 -0.006394291383921908 0.012110955156580684 0 -0.0063559287849615127 0.012087908272006481 0 -0.0064581436253133822 0.011990832569761686 0 -0.0036541015573901235 0.012971452828280527 0 -0.003445792014895541 0.013034543704309296 0 -0.0035300450345050367 0.013098871528307876 0 -0.0042372268747672684 0.014117954635407865 0 -0.004610034488643667 0.013111985246847124 0 -0.0037209528469355369 0.013286399164089011 0 -0.0038152277921849678 0.013650694185177252 0 -0.0033696284092830046 0.013302949144117962 0 -0.0068615925072720635 0.010500760413708935 0 -0.004610034488643667 0.013111985246847124 0 -0.0034731859254197102 0.01320962274770344 0 -0.004610034488643667 0.013111985246847124 0 -0.0036541015573901235 0.012971452828280527 0 -0.0037209528469355369 0.013286399164089011 0 -0.0033696284092830046 0.013302949144117962 0 -0.0046532986320460736 0.014403401859064194 0 -0.0051256025408116116 0.014755812016919933 0 -0.0050672233044678225 0.014234840207480915 0 -0.004610034488643667 0.013111985246847124 0 -0.0070981547550976265 0.01230774106685004 0 -0.0051256025408116116 0.014755812016919933 0 -0.0050672233044678225 0.014234840207480915 0 -0.0055603864264624492 0.014297827706879937 0 -0.0068615925072720635 0.010500760413708935 0 -0.0070981547550976265 0.01230774106685004 0 -0.0058635419743301364 0.013850407624290116 0 -0.0055603864264624492 0.014297827706879937 0 -0.0053981653888905577 0.013957554669569622 0 -0.0050672233044678225 0.014234840207480915 0 -0.0055603864264624492 0.014297827706879937 0 -0.0053981653888905577 0.013957554669569622 0 -0.0058635419743301364 0.013850407624290116 0 -0.0053981653888905577 0.013957554669569622 0 -0.0055346653201789608 0.013692141390071797 0 -0.0053981653888905577 0.013957554669569622 0 -0.0055346653201789608 0.013692141390071797 0 -0.0051938469096939775 0.01360007512348016 0 -0.0055346653201789608 0.013692141390071797 0 -0.0051938469096939775 0.01360007512348016 0 -0.005401524034772732 0.013331864946119501 0 -0.0053981653888905577 0.013957554669569622 0 -0.0049492051275904243 0.013808777321942181 0 -0.0051938469096939775 0.01360007512348016 0 -0.0049492051275904243 0.013808777321942181 0 -0.0051938469096939775 0.01360007512348016 0 -0.0048690169481556992 0.013407772972348341 0 -0.0050672233044678225 0.014234840207480915 0 -0.0049492051275904243 0.013808777321942181 0 -0.0046015041267778653 0.013967084106331566 0 -0.0050672233044678225 0.014234840207480915 0 -0.0053981653888905577 0.013957554669569622 0 -0.0049492051275904243 0.013808777321942181 0 -0.0046532986320460736 0.014403401859064194 0 -0.0046015041267778653 0.013967084106331566 0 -0.0042407858005456328 0.013909554246266966 0 -0.0046015041267778653 0.013967084106331566 0 -0.0042407858005456328 0.013909554246266966 0 -0.0044230486050865839 0.013667583052846745 0 -0.0044230486050865839 0.013667583052846745 0 -0.0042133700122005549 0.013454475550219848 0 -0.0040888664556804127 0.013707058725367592 0 -0.0042407858005456328 0.013909554246266966 0 -0.0044230486050865839 0.013667583052846745 0 -0.0040888664556804127 0.013707058725367592 0 -0.0049492051275904243 0.013808777321942181 0 -0.0046015041267778653 0.013967084106331566 0 -0.0044230486050865839 0.013667583052846745 0 -0.0049492051275904243 0.013808777321942181 0 -0.0044230486050865839 0.013667583052846745 0 -0.0048690169481556992 0.013407772972348341 0 -0.0044230486050865839 0.013667583052846745 0 -0.0042586243883932636 0.01325687425398789 0 -0.0048690169481556992 0.013407772972348341 0 -0.0044230486050865839 0.013667583052846745 0 -0.0042133700122005549 0.013454475550219848 0 -0.0042586243883932636 0.01325687425398789 0 -0.0042133700122005549 0.013454475550219848 0 -0.0042586243883932636 0.01325687425398789 0 -0.0040948794102217785 0.013256311584564293 0 -0.0040526724092380334 0.013564118192066413 0 -0.0042586243883932636 0.01325687425398789 0 -0.0040948794102217785 0.013256311584564293 0 -0.0036688476361332882 0.013675196862269519 0 -0.0040526724092380334 0.013564118192066413 0 -0.0042586243883932636 0.01325687425398789 0 -0.0042586243883932636 0.01325687425398789 0 -0.0048009135030446064 0.013031568463295156 0 -0.0048690169481556992 0.013407772972348341 0 -0.0048009751118646025 0.01260730562319998 0 -0.0042586243883932636 0.01325687425398789 0 -0.0048009135030446064 0.013031568463295156 0 -0.0046334929054489046 0.011258910182557156 0 -0.0039800163401007673 0.014020018883947254 0 -0.0048009135030446064 0.013031568463295156 0 -0.0052168638823995167 0.012964371063148803 0 -0.0048690169481556992 0.013407772972348341 0 -0.0048009751118646025 0.01260730562319998 0 -0.0048009135030446064 0.013031568463295156 0 -0.0052168638823995167 0.012964371063148803 0 -0.0053967326031664374 0.01274401521352095 0 -0.0052168638823995167 0.012964371063148803 0 -0.0057435716918522971 0.012989391546175165 0 -0.0052168638823995167 0.012964371063148803 0 -0.0057435716918522971 0.012989391546175165 0 -0.005401524034772732 0.013331864946119501 0 -0.0053967326031664374 0.01274401521352095 0 -0.0057361754480782443 0.012778751481202043 0 -0.0057435716918522971 0.012989391546175165 0 -0.0057724983858409989 0.013377140696508062 0 -0.0057435716918522971 0.012989391546175165 0 -0.005401524034772732 0.013331864946119501 0 -0.0057724983858409989 0.013377140696508062 0 -0.0055346653201789608 0.013692141390071797 0 -0.005401524034772732 0.013331864946119501 0 -0.0051938469096939775 0.01360007512348016 0 -0.005401524034772732 0.013331864946119501 0 -0.0048690169481556992 0.013407772972348341 0 -0.0052168638823995167 0.012964371063148803 0 -0.005401524034772732 0.013331864946119501 0 -0.0048690169481556992 0.013407772972348341 0 -0.0050127412454537869 0.012992714719747566 0 -0.0050638496109390915 0.012638791472106814 0 -0.0045570754771923714 0.012792815423803004 0 -0.0050127412454537869 0.012992714719747566 0 -0.0048004256797667703 0.01326884258276625 0 -0.0045570754771923714 0.012792815423803004 0 -0.0050638496109390915 0.012638791472106814 0 -0.0045570754771923714 0.012792815423803004 0 -0.0045240259582634522 0.012120615669160319 0 -0.0050638496109390915 0.012638791472106814 0 -0.0053956369051982728 0.012499490185101037 0 -0.0053402620242208954 0.012920814370431515 0 -0.005651433984264603 0.012581485012297017 0 -0.0053956369051982728 0.012499490185101037 0 -0.0053402620242208954 0.012920814370431515 0 -0.0050127412454537869 0.012992714719747566 0 -0.0050638496109390915 0.012638791472106814 0 -0.0053402620242208954 0.012920814370431515 0 -0.0053402620242208954 0.012920814370431515 0 -0.005368681294521351 0.013251158512812911 0 -0.0051076550670786838 0.013278787262892213 0 -0.0050127412454537869 0.012992714719747566 0 -0.0053402620242208954 0.012920814370431515 0 -0.0051076550670786838 0.013278787262892213 0 -0.0053402620242208954 0.012920814370431515 0 -0.005485079948820905 0.013067790783580509 0 -0.005368681294521351 0.013251158512812911 0 -0.0056339032589094729 0.012920355637260768 0 -0.0053402620242208954 0.012920814370431515 0 -0.005485079948820905 0.013067790783580509 0 -0.0055485342931980161 0.013260360984185527 0 -0.005485079948820905 0.013067790783580509 0 -0.005368681294521351 0.013251158512812911 0 -0.0055246714028416265 0.013307278343025346 0 -0.0052108692810227163 0.01365198060397959 0 -0.005368681294521351 0.013251158512812911 0 -0.0055485342931980161 0.013260360984185527 0 -0.0055246714028416265 0.013307278343025346 0 -0.005368681294521351 0.013251158512812911 0 -0.0052108692810227163 0.01365198060397959 0 -0.005368681294521351 0.013251158512812911 0 -0.0051076550670786838 0.013278787262892213 0 -0.0048945755921364917 0.013600861027989127 0 -0.0051076550670786838 0.013278787262892213 0 -0.0048004256797667703 0.01326884258276625 0 -0.0050127412454537869 0.012992714719747566 0 -0.0051076550670786838 0.013278787262892213 0 -0.0048004256797667703 0.01326884258276625 0 -0.0043703648762154776 0.013563866216863774 0 -0.0046275598515615182 0.013579592722672078 0 -0.0044795797402262354 0.013252600148831933 0 -0.0048004256797667703 0.01326884258276625 0 -0.0044795797402262354 0.013252600148831933 0 -0.0045570754771923714 0.012792815423803004 0 -0.0044795797402262354 0.013252600148831933 0 -0.0040948794102217785 0.013256311584564293 0 -0.0045570754771923714 0.012792815423803004 0 -0.0046275598515615182 0.013579592722672078 0 -0.0048004256797667703 0.01326884258276625 0 -0.0044795797402262354 0.013252600148831933 0 -0.0043703648762154776 0.013563866216863774 0 -0.0044795797402262354 0.013252600148831933 0 -0.0040948794102217785 0.013256311584564293 0 -0.0040636732740487068 0.013259541827388036 0 -0.0039278367809618695 0.012905087424897379 0 -0.0042133700122005549 0.013454475550219848 0 -0.0040948794102217785 0.013256311584564293 0 -0.0040888664556804127 0.013707058725367592 0 -0.0040948794102217785 0.013256311584564293 0 -0.0045570754771923714 0.012792815423803004 0 -0.0037327064410242667 0.012234733860135174 0 -0.0045570754771923714 0.012792815423803004 0 -0.0045240259582634522 0.012120615669160319 0 -0.0037327064410242667 0.012234733860135174 0 -0.0045240259582634522 0.012120615669160319 0 -0.0037327064410242667 0.012234733860135174 0 -0.0041051277680952247 0.011575950813343663 0 -0.0037327064410242667 0.012234733860135174 0 -0.0041051277680952247 0.011575950813343663 0 -0.0034602891662348311 0.011083608494888703 0 -0.0042407858005456328 0.013909554246266966 0 -0.0040888664556804127 0.013707058725367592 0 -0.0043285694729853913 0.01381722611607562 0 -0.0039278367809618695 0.012905087424897379 0 -0.0038818687427773393 0.012638090490594934 0 -0.0045240259582634522 0.012120615669160319 0 -0.0041051277680952247 0.011575950813343663 0 -0.0045867438957578844 0.011591046303440405 0 -0.0042902909720282968 0.011283469904224399 0 -0.0041051277680952247 0.011575950813343663 0 -0.0039617902267313791 0.011067148423788193 0 -0.0042902909720282968 0.011283469904224399 0 -0.0045867438957578844 0.011591046303440405 0 -0.0047873818486049982 0.011039060465444218 0 -0.0042902909720282968 0.011283469904224399 0 -0.0041051277680952247 0.011575950813343663 0 -0.0045867438957578844 0.011591046303440405 0 -0.0045867438957578844 0.011591046303440405 0 -0.0049824715687972051 0.01167475194733809 0 -0.0047873818486049982 0.011039060465444218 0 -0.0049824715687972051 0.01167475194733809 0 -0.0053180309718805132 0.011238636503178294 0 -0.0047873818486049982 0.011039060465444218 0 -0.0045240259582634522 0.012120615669160319 0 -0.0045867438957578844 0.011591046303440405 0 -0.0049824715687972051 0.01167475194733809 0 -0.0045240259582634522 0.012120615669160319 0 -0.0049824715687972051 0.01167475194733809 0 -0.0052875596259561635 0.012100046376224536 0 -0.0050638496109390915 0.012638791472106814 0 -0.0045240259582634522 0.012120615669160319 0 -0.0052875596259561635 0.012100046376224536 0 -0.005629533057858958 0.012159182186633722 0 -0.0053956369051982728 0.012499490185101037 0 -0.0052875596259561635 0.012100046376224536 0 -0.0050638496109390915 0.012638791472106814 0 -0.0053956369051982728 0.012499490185101037 0 -0.0052875596259561635 0.012100046376224536 0 -0.0049824715687972051 0.01167475194733809 0 -0.0052875596259561635 0.012100046376224536 0 -0.0053180309718805132 0.011238636503178294 0 -0.005629533057858958 0.012159182186633722 0 -0.0058171355598044235 0.011342753538033993 0 -0.0052875596259561635 0.012100046376224536 0 -0.0058171355598044235 0.011342753538033993 0 -0.0052875596259561635 0.012100046376224536 0 -0.0053180309718805132 0.011238636503178294 0 -0.0058171355598044235 0.011342753538033993 0 -0.0053180309718805132 0.011238636503178294 0 -0.0058197292065671046 0.01032694158058804 0 -0.0053180309718805132 0.011238636503178294 0 -0.0052222758130492115 0.010670646282422794 0 -0.0058197292065671046 0.01032694158058804 0 -0.0053654791043855976 0.011184434129417551 0 -0.0049933727543938775 0.0098749637808406079 0 -0.0053180309718805132 0.011238636503178294 0 -0.0047873818486049982 0.011039060465444218 0 -0.0052222758130492115 0.010670646282422794 0 -0.0047873818486049982 0.011039060465444218 0 -0.0049628997479276215 0.010368085730091689 0 -0.0046200284307770364 0.010548320569987595 0 -0.0047873818486049982 0.011039060465444218 0 -0.0052222758130492115 0.010670646282422794 0 -0.0049628997479276215 0.010368085730091689 0 -0.0052222758130492115 0.010670646282422794 0 -0.0049628997479276215 0.010368085730091689 0 -0.0053996376730725245 0.010206923888240503 0 -0.0049628997479276215 0.010368085730091689 0 -0.0047003625266507799 0.010023753704357199 0 -0.0046200284307770364 0.010548320569987595 0 -0.0049628997479276215 0.010368085730091689 0 -0.0047003625266507799 0.010023753704357199 0 -0.005121680157400694 0.0098835819379965474 0 -0.0049628997479276215 0.010368085730091689 0 -0.005121680157400694 0.0098835819379965474 0 -0.0053996376730725245 0.010206923888240503 0 -0.0053996376730725245 0.010206923888240503 0 -0.0058197292065671046 0.01032694158058804 0 -0.0056828893133021975 0.0093100549879934352 0 -0.0052222758130492115 0.010670646282422794 0 -0.0053996376730725245 0.010206923888240503 0 -0.0058197292065671046 0.01032694158058804 0 -0.0034602891662348311 0.011083608494888703 0 -0.0039238296989600229 0.010549453961618702 0 -0.0036336946775622175 0.010229990417812777 0 -0.0041051277680952247 0.011575950813343663 0 -0.0034602891662348311 0.011083608494888703 0 -0.0039617902267313791 0.011067148423788193 0 -0.0034602891662348311 0.011083608494888703 0 -0.0039617902267313791 0.011067148423788193 0 -0.0039238296989600229 0.010549453961618702 0 -0.0039617902267313791 0.011067148423788193 0 -0.0042891364814214078 0.010798797123046893 0 -0.0039238296989600229 0.010549453961618702 0 -0.0042902909720282968 0.011283469904224399 0 -0.0039617902267313791 0.011067148423788193 0 -0.0042891364814214078 0.010798797123046893 0 -0.0042902909720282968 0.011283469904224399 0 -0.0047873818486049982 0.011039060465444218 0 -0.0042891364814214078 0.010798797123046893 0 -0.0047873818486049982 0.011039060465444218 0 -0.0042891364814214078 0.010798797123046893 0 -0.0046200284307770364 0.010548320569987595 0 -0.0042891364814214078 0.010798797123046893 0 -0.0046200284307770364 0.010548320569987595 0 -0.0043077209456937049 0.010263523307056871 0 -0.0047003625266507799 0.010023753704357199 0 -0.0046200284307770364 0.010548320569987595 0 -0.0043077209456937049 0.010263523307056871 0 -0.0047003625266507799 0.010023753704357199 0 -0.0043077209456937049 0.010263523307056871 0 -0.004340737337534528 0.0096358729827092475 0 -0.0043077209456937049 0.010263523307056871 0 -0.0039624687511020003 0.0099752451304659946 0 -0.004340737337534528 0.0096358729827092475 0 -0.0043077209456937049 0.010263523307056871 0 -0.0039238296989600229 0.010549453961618702 0 -0.0039624687511020003 0.0099752451304659946 0 -0.0042891364814214078 0.010798797123046893 0 -0.0043077209456937049 0.010263523307056871 0 -0.0039238296989600229 0.010549453961618702 0 -0.0038818687427773393 0.012638090490594934 0 -0.0039661191720936715 0.01046013842396307 0 -0.0034602891662348311 0.011083608494888703 0 -0.0036336946775622175 0.010229990417812777 0 -0.0032967036405299969 0.0097306076061367784 0 -0.0039238296989600229 0.010549453961618702 0 -0.0039624687511020003 0.0099752451304659946 0 -0.0036336946775622175 0.010229990417812777 0 -0.0039624687511020003 0.0099752451304659946 0 -0.0035235401665701474 0.0097942024845482593 0 -0.0036336946775622175 0.010229990417812777 0 -0.0039624687511020003 0.0099752451304659946 0 -0.0035235401665701474 0.0097942024845482593 0 -0.0038742379730674036 0.0095209435726318278 0 -0.0035235401665701474 0.0097942024845482593 0 -0.0036336946775622175 0.010229990417812777 0 -0.0032967036405299969 0.0097306076061367784 0 -0.0035007363661873686 0.0085322297460151547 0 -0.0035715550361835346 0.0093213002701677365 0 -0.0032759141841018956 0.0097079458072805505 0 -0.0035007363661873686 0.0085322297460151547 0 -0.0035715550361835346 0.0093213002701677365 0 -0.0037243048392177633 0.0090586213754432626 0 -0.0035235401665701474 0.0097942024845482593 0 -0.0035715550361835346 0.0093213002701677365 0 -0.0038742379730674036 0.0095209435726318278 0 -0.0035235401665701474 0.0097942024845482593 0 -0.0035715550361835346 0.0093213002701677365 0 -0.0032759141841018956 0.0097079458072805505 0 -0.003626200722711121 0.010248229833402671 0 -0.0039661191720936715 0.01046013842396307 0 -0.0038742379730674036 0.0095209435726318278 0 -0.0037243048392177633 0.0090586213754432626 0 -0.0041091727977953553 0.009036084505383242 0 -0.0035715550361835346 0.0093213002701677365 0 -0.0038742379730674036 0.0095209435726318278 0 -0.0037243048392177633 0.0090586213754432626 0 -0.0037243048392177633 0.0090586213754432626 0 -0.0041091727977953553 0.009036084505383242 0 -0.0036954238662076869 0.0087842157422395647 0 -0.004340737337534528 0.0096358729827092475 0 -0.0045873790179241092 0.0088985399478629674 0 -0.0048589955617692063 0.0094982739135730555 0 -0.0041091727977953553 0.009036084505383242 0 -0.004340737337534528 0.0096358729827092475 0 -0.0045873790179241092 0.0088985399478629674 0 -0.0038742379730674036 0.0095209435726318278 0 -0.0041091727977953553 0.009036084505383242 0 -0.004340737337534528 0.0096358729827092475 0 -0.0039624687511020003 0.0099752451304659946 0 -0.0038742379730674036 0.0095209435726318278 0 -0.004340737337534528 0.0096358729827092475 0 -0.0047003625266507799 0.010023753704357199 0 -0.004340737337534528 0.0096358729827092475 0 -0.0048589955617692063 0.0094982739135730555 0 -0.0059538680543088631 0.0091238183899889271 0 -0.0043259628358624886 0.0085760050468586292 0 -0.0041091727977953553 0.009036084505383242 0 -0.0045873790179241092 0.0088985399478629674 0 -0.0035341742290953605 0.0084963657624772034 0 -0.0067650862507347542 0.0091337825563564505 0 -0.0052364680998989825 0.0087197380944019336 0 -0.0056719148047567761 0.0078865854376646439 0 -0.0041091727977953553 0.009036084505383242 0 -0.0035341742290953605 0.0084963657624772034 0 -0.0036954238662076869 0.0087842157422395647 0 -0.0035007363661873686 0.0085322297460151547 0 -0.0037243048392177633 0.0090586213754432626 0 -0.0036954238662076869 0.0087842157422395647 0 -0.0035007363661873686 0.0085322297460151547 0 -0.0035341742290953605 0.0084963657624772034 0 -0.0036954238662076869 0.0087842157422395647 0 -0.005121680157400694 0.0098835819379965474 0 -0.0053996376730725245 0.010206923888240503 0 -0.0056828893133021975 0.0093100549879934352 0 -0.0043201967405133365 0.0095246946846010653 0 -0.0039504551712577695 0.0082299348156406466 0 -0.0042693180659806058 0.0087947648375069215 0 -0.0049933727543938775 0.0098749637808406079 0 -0.0057116571817107387 0.0088402496239374916 0 -0.0038766975371260512 0.0083936451024360544 0 -0.0057116571817107387 0.0088402496239374916 0 -0.0043937667208591357 0.0085895465999845533 0 -0.0039504551712577695 0.0082299348156406466 0 -0.0042693180659806058 0.0087947648375069215 0 -0.0045873790179241092 0.0088985399478629674 0 -0.0056828893133021975 0.0093100549879934352 0 -0.0048589955617692063 0.0094982739135730555 0 -0.005121680157400694 0.0098835819379965474 0 -0.0056828893133021975 0.0093100549879934352 0 -0.0048589955617692063 0.0094982739135730555 0 -0.0047003625266507799 0.010023753704357199 0 -0.005121680157400694 0.0098835819379965474 0 -0.0048589955617692063 0.0094982739135730555 0 -0.0067650862507347542 0.0091337825563564505 0 -0.0082415201932619191 0.0095334491293081209 0 -0.0079419627328830532 0.0079586400065147795 0 -0.0059538680543088631 0.0091238183899889271 0 -0.0057116571817107387 0.0088402496239374916 0 -0.0042963498457791625 0.008076234669416895 0 -0.0040225792303058309 0.0084948674918236145 0 -0.0038403999850895837 0.0078026090008125716 0 -0.0057116571817107387 0.0088402496239374916 0 -0.0059553905043822847 0.0079250395268389926 0 -0.0042963498457791625 0.008076234669416895 0 -0.0038403999850895837 0.0078026090008125716 0 -0.0042446153568719445 0.0074715451024722976 0 -0.0067650862507347542 0.0091337825563564505 0 -0.0079419627328830532 0.0079586400065147795 0 -0.0067447789031214811 0.0076193604726083816 0 -0.0059553905043822847 0.0079250395268389926 0 -0.0056735153425813136 0.0066644936696751813 0 -0.0079419627328830532 0.0079586400065147795 0 -0.0067447789031214811 0.0076193604726083816 0 -0.0076764079898933744 0.0062753227756597888 0 -0.0038403999850895837 0.0078026090008125716 0 -0.0036972912402982697 0.0071174453455246168 0 -0.0042446153568719445 0.0074715451024722976 0 -0.0052364680998989825 0.0087197380944019336 0 -0.0056719148047567761 0.0078865854376646439 0 -0.0046682639906253836 0.0079227007418170362 0 -0.0056719148047567761 0.0078865854376646439 0 -0.004834395315173743 0.0071317226276733188 0 -0.0046682639906253836 0.0079227007418170362 0 -0.0067650862507347542 0.0091337825563564505 0 -0.0056719148047567761 0.0078865854376646439 0 -0.0067447789031214811 0.0076193604726083816 0 -0.0056719148047567761 0.0078865854376646439 0 -0.0067447789031214811 0.0076193604726083816 0 -0.0060961344683735747 0.0066047383013809477 0 -0.0067447789031214811 0.0076193604726083816 0 -0.0060961344683735747 0.0066047383013809477 0 -0.0076764079898933744 0.0062753227756597888 0 -0.0056719148047567761 0.0078865854376646439 0 -0.0060961344683735747 0.0066047383013809477 0 -0.004834395315173743 0.0071317226276733188 0 -0.0060961344683735747 0.0066047383013809477 0 -0.0050471171491556195 0.0060310011053321816 0 -0.004834395315173743 0.0071317226276733188 0 -0.0060961344683735747 0.0066047383013809477 0 -0.0050471171491556195 0.0060310011053321816 0 -0.0058769700293642623 0.0056076217235734652 0 -0.0060961344683735747 0.0066047383013809477 0 -0.0067374853641557902 0.0055423291010115554 0 -0.0076764079898933744 0.0062753227756597888 0 -0.0060961344683735747 0.0066047383013809477 0 -0.0058769700293642623 0.0056076217235734652 0 -0.0067374853641557902 0.0055423291010115554 0 -0.0067374853641557902 0.0055423291010115554 0 -0.0063094262961321743 0.0047385854722696991 0 -0.0073424361958705532 0.0043612345471067205 0 -0.0058769700293642623 0.0056076217235734652 0 -0.0067374853641557902 0.0055423291010115554 0 -0.0063094262961321743 0.0047385854722696991 0 -0.0050471171491556195 0.0060310011053321816 0 -0.0058769700293642623 0.0056076217235734652 0 -0.0052405781370880207 0.0046429316808107839 0 -0.0058769700293642623 0.0056076217235734652 0 -0.0063094262961321743 0.0047385854722696991 0 -0.0052405781370880207 0.0046429316808107839 0 -0.0036972912402982697 0.0071174453455246168 0 -0.0042446153568719445 0.0074715451024722976 0 -0.0042216473724665752 0.0068927830865637019 0 -0.0036972912402982697 0.0071174453455246168 0 -0.003961461829191432 0.0066100638688860805 0 -0.0042216473724665752 0.0068927830865637019 0 -0.0056735153425813136 0.0066644936696751813 0 -0.0054668404765326637 0.0054705391955805595 0 -0.0067374853641557902 0.0055423291010115554 0 -0.0076764079898933744 0.0062753227756597888 0 -0.0073424361958705532 0.0043612345471067205 0 -0.0036972912402982697 0.0071174453455246168 0 -0.003961461829191432 0.0066100638688860805 0 -0.0035748847510552548 0.0064491542281566181 0 -0.003961461829191432 0.0066100638688860805 0 -0.0039894771533282858 0.0062112937003058798 0 -0.0035748847510552548 0.0064491542281566181 0 -0.003961461829191432 0.0066100638688860805 0 -0.0039894771533282858 0.0062112937003058798 0 -0.0044450343683154966 0.0063550472809132778 0 -0.0069386447520356498 0.0022175561131951627 0 -0.0068540201142726544 0.001961356324462345 0 -0.0067082968095972034 0.0020897463303365849 0 -0.0069386447520356498 0.0022175561131951627 0 -0.0068540201142726544 0.001961356324462345 0 -0.0070946678319082843 0.0018490312080706218 0 -0.0068540201142726544 0.001961356324462345 0 -0.0070946678319082843 0.0018490312080706218 0 -0.0069139854012125407 0.0017332340585869432 0 -0.0069386447520356498 0.0022175561131951627 0 -0.0067082968095972034 0.0020897463303365849 0 -0.0066166884681613082 0.0021951925973403012 0 -0.0067082968095972034 0.0020897463303365849 0 -0.0065908220997587079 0.0021980144153000013 0 -0.0066811180919401835 0.0018024812430709233 0 -0.0068540201142726544 0.001961356324462345 0 -0.0067082968095972034 0.0020897463303365849 0 -0.0066811180919401835 0.0018024812430709233 0 -0.0052815428277914449 0.0041000269575987612 0 -0.0061326143828253138 0.0022384961810127738 0 -0.0067082968095972034 0.0020897463303365849 0 -0.0066166884681613082 0.0021951925973403012 0 -0.0065908220997587079 0.0021980144153000013 0 -0.0052815428277914449 0.0041000269575987612 0 -0.0054668404765326637 0.0054705391955805595 0 -0.0039894771533282858 0.0062112937003058798 0 -0.0035050355545651808 0.0060623309978071766 0 -0.0035748847510552548 0.0064491542281566181 0 -0.005306473732503752 0.0041659912227338452 0 -0.0052815428277914449 0.0041000269575987612 0 -0.0063094262961321743 0.0047385854722696991 0 -0.0073424361958705532 0.0043612345471067205 0 -0.0061050988372975236 0.0035781855910010933 0 -0.0070015318784785738 0.0031305009375107236 0 -0.0073424361958705532 0.0043612345471067205 0 -0.0061050988372975236 0.0035781855910010933 0 -0.0052405781370880207 0.0046429316808107839 0 -0.0061050988372975236 0.0035781855910010933 0 -0.0049468804217808176 0.0032750162200602681 0 -0.0063094262961321743 0.0047385854722696991 0 -0.0052405781370880207 0.0046429316808107839 0 -0.0061050988372975236 0.0035781855910010933 0 -0.0061050988372975236 0.0035781855910010933 0 -0.005827440388394731 0.0024781129355439645 0 -0.0049468804217808176 0.0032750162200602681 0 -0.005827440388394731 0.0024781129355439645 0 -0.0050516683508047555 0.0022398275349907707 0 -0.0049468804217808176 0.0032750162200602681 0 -0.0061050988372975236 0.0035781855910010933 0 -0.005827440388394731 0.0024781129355439645 0 -0.0065908220997587079 0.0021980144153000013 0 -0.0070015318784785738 0.0031305009375107236 0 -0.0061050988372975236 0.0035781855910010933 0 -0.0065908220997587079 0.0021980144153000013 0 -0.005827440388394731 0.0024781129355439645 0 -0.0065908220997587079 0.0021980144153000013 0 -0.006262757707381641 0.001722647378805506 0 -0.005827440388394731 0.0024781129355439645 0 -0.006262757707381641 0.001722647378805506 0 -0.0056894751216671757 0.0018277328605585616 0 -0.006262757707381641 0.001722647378805506 0 -0.0056894751216671757 0.0018277328605585616 0 -0.0058635864280109223 0.00124680678517113 0 -0.005827440388394731 0.0024781129355439645 0 -0.0050516683508047555 0.0022398275349907707 0 -0.0056894751216671757 0.0018277328605585616 0 -0.0056894751216671757 0.0018277328605585616 0 -0.0052066135217838563 0.0015067441349243052 0 -0.0058635864280109223 0.00124680678517113 0 -0.0050516683508047555 0.0022398275349907707 0 -0.0056894751216671757 0.0018277328605585616 0 -0.0052066135217838563 0.0015067441349243052 0 -0.0052066135217838563 0.0015067441349243052 0 -0.0054203710006626819 0.00084335134533012842 0 -0.0046249513597210346 0.00068968636051017294 0 -0.0052066135217838563 0.0015067441349243052 0 -0.0054203710006626819 0.00084335134533012842 0 -0.0058635864280109223 0.00124680678517113 0 -0.0054203710006626819 0.00084335134533012842 0 -0.0058635864280109223 0.00124680678517113 0 -0.005948252123008502 0.00047458864924278417 0 -0.0058635864280109223 0.00124680678517113 0 -0.0064894121176865089 0.0011496713752136062 0 -0.005948252123008502 0.00047458864924278417 0 -0.006262757707381641 0.001722647378805506 0 -0.0058635864280109223 0.00124680678517113 0 -0.0064894121176865089 0.0011496713752136062 0 -0.0064894121176865089 0.0011496713752136062 0 -0.0069084054969086959 0.0010003381543437877 0 -0.006858702787713198 0.0014505294935501347 0 -0.0064894121176865089 0.0011496713752136062 0 -0.0069084054969086959 0.0010003381543437877 0 -0.0065822836111298442 0.00054999123298928509 0 -0.0069084054969086959 0.0010003381543437877 0 -0.0071749672284265242 0.0010729879478882872 0 -0.0070552803048746227 0.0012923958586000251 0 -0.0069084054969086959 0.0010003381543437877 0 -0.0071749672284265242 0.0010729879478882872 0 -0.0071465761088810994 0.00079198936381984176 0 -0.0071749672284265242 0.0010729879478882872 0 -0.0070552803048746227 0.0012923958586000251 0 -0.0072278488882777112 0.0013335507641174795 0 -0.0069084054969086959 0.0010003381543437877 0 -0.0070552803048746227 0.0012923958586000251 0 -0.006858702787713198 0.0014505294935501347 0 -0.006858702787713198 0.0014505294935501347 0 -0.0070657318951518697 0.0015631648362451314 0 -0.0069139854012125407 0.0017332340585869432 0 -0.0070552803048746227 0.0012923958586000251 0 -0.0070657318951518697 0.0015631648362451314 0 -0.0072278488882777112 0.0013335507641174795 0 -0.0070552803048746227 0.0012923958586000251 0 -0.006858702787713198 0.0014505294935501347 0 -0.0070657318951518697 0.0015631648362451314 0 -0.0070946678319082843 0.0018490312080706218 0 -0.0070657318951518697 0.0015631648362451314 0 -0.0069139854012125407 0.0017332340585869432 0 -0.0064894121176865089 0.0011496713752136062 0 -0.006858702787713198 0.0014505294935501347 0 -0.0066811180919401835 0.0018024812430709233 0 -0.006262757707381641 0.001722647378805506 0 -0.0064894121176865089 0.0011496713752136062 0 -0.0066811180919401835 0.0018024812430709233 0 -0.0068540201142726544 0.001961356324462345 0 -0.0069139854012125407 0.0017332340585869432 0 -0.0066811180919401835 0.0018024812430709233 0 -0.0065908220997587079 0.0021980144153000013 0 -0.006262757707381641 0.001722647378805506 0 -0.0066811180919401835 0.0018024812430709233 0 -0.006858702787713198 0.0014505294935501347 0 -0.0069139854012125407 0.0017332340585869432 0 -0.0066811180919401835 0.0018024812430709233 0 -0.0033980121890725854 0.0015933873675197739 0 -0.0027949011820124275 0.0014724087351626687 0 -0.0030809616272396805 0.0023134369218745857 0 -0.0033980121890725854 0.0015933873675197739 0 -0.0039181060490186322 0.0021475017188156737 0 -0.0030809616272396805 0.0023134369218745857 0 -0.002388373327280697 0.002099832467184906 0 -0.0030809616272396805 0.0023134369218745857 0 -0.0026048257250566465 0.0025389477755525971 0 -0.002388373327280697 0.002099832467184906 0 -0.0027949011820124275 0.0014724087351626687 0 -0.0030809616272396805 0.0023134369218745857 0 -0.002388373327280697 0.002099832467184906 0 -0.0027949011820124275 0.0014724087351626687 0 -0.0022656119906077493 0.0014979699703062831 0 -0.0027949011820124275 0.0014724087351626687 0 -0.0032464249023897505 0.00072494524234879365 0 -0.0025091766381077482 0.00057078069465184582 0 -0.0027949011820124275 0.0014724087351626687 0 -0.0022656119906077493 0.0014979699703062831 0 -0.0025091766381077482 0.00057078069465184582 0 -0.0038545973102333511 0.0012343153023503699 0 -0.0038670691849777964 0.00048371649192654575 0 -0.0032464249023897505 0.00072494524234879365 0 -0.0033980121890725854 0.0015933873675197739 0 -0.0038545973102333511 0.0012343153023503699 0 -0.0032464249023897505 0.00072494524234879365 0 -0.0033980121890725854 0.0015933873675197739 0 -0.0027949011820124275 0.0014724087351626687 0 -0.0032464249023897505 0.00072494524234879365 0 -0.0038545973102333511 0.0012343153023503699 0 -0.0046249513597210346 0.00068968636051017294 0 -0.0038670691849777964 0.00048371649192654575 0 -0.0052066135217838563 0.0015067441349243052 0 -0.0044398948346078531 0.001732335114785885 0 -0.0046249513597210346 0.00068968636051017294 0 -0.0038545973102333511 0.0012343153023503699 0 -0.0044398948346078531 0.001732335114785885 0 -0.0046249513597210346 0.00068968636051017294 0 -0.0050516683508047555 0.0022398275349907707 0 -0.0052066135217838563 0.0015067441349243052 0 -0.0044398948346078531 0.001732335114785885 0 -0.0050516683508047555 0.0022398275349907707 0 -0.0044398948346078531 0.001732335114785885 0 -0.0043055226397772624 0.0025208193953666336 0 -0.0033980121890725854 0.0015933873675197739 0 -0.0038545973102333511 0.0012343153023503699 0 -0.0039181060490186322 0.0021475017188156737 0 -0.0038357445736721309 0.0014944117038974392 0 -0.0037864025142884334 0.0017409183268465649 0 -0.0038545973102333511 0.0012343153023503699 0 -0.0044398948346078531 0.001732335114785885 0 -0.00364949179503997 0.0021636110147833128 0 -0.0044398948346078531 0.001732335114785885 0 -0.00364949179503997 0.0021636110147833128 0 -0.0043055226397772624 0.0025208193953666336 0 -0.00364949179503997 0.0021636110147833128 0 -0.0043055226397772624 0.0025208193953666336 0 -0.0035465819765879416 0.003121406659412664 0 -0.0037864025142884334 0.0017409183268465649 0 -0.0047161776564515643 0.0053386495315775606 0 -0.0043055226397772624 0.0025208193953666336 0 -0.0049468804217808176 0.0032750162200602681 0 -0.0035465819765879416 0.003121406659412664 0 -0.0050516683508047555 0.0022398275349907707 0 -0.0043055226397772624 0.0025208193953666336 0 -0.0049468804217808176 0.0032750162200602681 0 -0.0052405781370880207 0.0046429316808107839 0 -0.0049468804217808176 0.0032750162200602681 0 -0.0040585460704087124 0.0042073481027426656 0 -0.0049468804217808176 0.0032750162200602681 0 -0.0040585460704087124 0.0042073481027426656 0 -0.0029301198337612954 0.0033526416787921075 0 -0.0042389949213868395 0.0026992573404348223 0 -0.0047161776564515643 0.0053386495315775606 0 -0.0040585460704087124 0.0042073481027426656 0 -0.0029301198337612954 0.0033526416787921075 0 -0.0028315414915730959 0.0045164383381332074 0 -0.0047161776564515643 0.0053386495315775606 0 -0.0047854756014470449 0.0079786325221921899 0 -0.0067854477142065767 0.011243728476567837 0 -0.0071262163078232976 0.011037890653800583 0 -0.0068186869999540762 0.010898296355304803 0 -0.0067854477142065767 0.011243728476567837 0 -0.0071262163078232976 0.011037890653800583 0 -0.0073295702990735512 0.011292300269575015 0 -0.0038817172574810181 0.0030634627414149601 0 -0.0030809616272396805 0.0023134369218745857 0 -0.0028350697273129589 0.0030536710904573499 0 -0.0039181060490186322 0.0021475017188156737 0 -0.0038817172574810181 0.0030634627414149601 0 -0.0030809616272396805 0.0023134369218745857 0 -0.0047161776564515643 0.0053386495315775606 0 -0.0049840682689608479 0.0071786758297221571 0 -0.0026048257250566465 0.0025389477755525971 0 -0.0028350697273129589 0.0030536710904573499 0 -0.0021132401622642226 0.0026796786331460226 0 -0.002388373327280697 0.002099832467184906 0 -0.0026048257250566465 0.0025389477755525971 0 -0.0021132401622642226 0.0026796786331460226 0 -0.0030809616272396805 0.0023134369218745857 0 -0.0026048257250566465 0.0025389477755525971 0 -0.0028350697273129589 0.0030536710904573499 0 -0.0071262163078232976 0.011037890653800583 0 -0.0073295702990735512 0.011292300269575015 0 -0.0075332696592912115 0.011031969619096959 0 -0.0073295702990735512 0.011292300269575015 0 -0.0075332696592912115 0.011031969619096959 0 -0.0078540624347244025 0.011307413299732186 0 -0.0071262163078232976 0.011037890653800583 0 -0.0075332696592912115 0.011031969619096959 0 -0.0072939216616260388 0.010780807994379237 0 -0.0072939216616260388 0.010780807994379237 0 -0.0075462821907366249 0.010364721803463582 0 -0.007664095068167915 0.010777342196004356 0 -0.0075332696592912115 0.011031969619096959 0 -0.0072939216616260388 0.010780807994379237 0 -0.007664095068167915 0.010777342196004356 0 -0.0071262163078232976 0.011037890653800583 0 -0.0072939216616260388 0.010780807994379237 0 -0.0068186869999540762 0.010898296355304803 0 -0.0072939216616260388 0.010780807994379237 0 -0.006835950358854685 0.010529317328856988 0 -0.0068186869999540762 0.010898296355304803 0 -0.0036081033259112009 0.011690762392540849 0 -0.0060500952473869036 0.010963064985109988 0 -0.0037017248060348569 0.010112249169550344 0 -0.0042373261372925068 0.008297451266103751 0 -0.0034628000843574896 0.0086346721480305907 0 -0.0042373261372925068 0.008297451266103751 0 -0.0069618280841573527 0.011047236799258585 0 -0.0072939216616260388 0.010780807994379237 0 -0.006835950358854685 0.010529317328856988 0 -0.0075462821907366249 0.010364721803463582 0 -0.0050471171491556195 0.0060310011053321816 0 -0.0052405781370880207 0.0046429316808107839 0 -0.0042652532350431309 0.0052691730698150143 0 -0.0052405781370880207 0.0046429316808107839 0 -0.0040585460704087124 0.0042073481027426656 0 -0.0042652532350431309 0.0052691730698150143 0 -0.0027489177854270914 0.0057522927635025043 0 -0.0042652532350431309 0.0052691730698150143 0 -0.0028315414915730959 0.0045164383381332074 0 -0.0042373261372925068 0.008297451266103751 0 -0.0047854756014470449 0.0079786325221921899 0 -0.0042373261372925068 0.008297451266103751 0 -0.0039085328623586222 0.0050661459591077266 0 -0.0040585460704087124 0.0042073481027426656 0 -0.0042652532350431309 0.0052691730698150143 0 -0.0028315414915730959 0.0045164383381332074 0 -0.0031938141921083584 0.0057894518789769799 0 -0.0040863304843033856 0.006484493398756834 0 -0.0032449693254034038 0.0070352871820959393 0 -0.0031938141921083584 0.0057894518789769799 0 -0.0042652532350431309 0.0052691730698150143 0 -0.0040863304843033856 0.006484493398756834 0 -0.0050471171491556195 0.0060310011053321816 0 -0.0040863304843033856 0.006484493398756834 0 -0.004834395315173743 0.0071317226276733188 0 -0.0050471171491556195 0.0060310011053321816 0 -0.0042652532350431309 0.0052691730698150143 0 -0.0040863304843033856 0.006484493398756834 0 -0.0040863304843033856 0.006484493398756834 0 -0.004834395315173743 0.0071317226276733188 0 -0.0040073302955989636 0.007588841094738414 0 -0.004834395315173743 0.0071317226276733188 0 -0.0040073302955989636 0.007588841094738414 0 -0.0046682639906253836 0.0079227007418170362 0 -0.0040863304843033856 0.006484493398756834 0 -0.0040073302955989636 0.007588841094738414 0 -0.0032449693254034038 0.0070352871820959393 0 -0.0040073302955989636 0.007588841094738414 0 -0.0032449693254034038 0.0070352871820959393 0 -0.0036782205811058981 0.0083507466974350724 0 -0.0040073302955989636 0.007588841094738414 0 -0.0038350464044858441 0.0083100303615471979 0 -0.0046682639906253836 0.0079227007418170362 0 -0.0040073302955989636 0.007588841094738414 0 -0.0038350464044858441 0.0083100303615471979 0 -0.0036782205811058981 0.0083507466974350724 0 -0.003830007065976485 0.0081979833252888139 0 -0.0038350464044858441 0.0083100303615471979 0 -0.0036782205811058981 0.0083507466974350724 0 -0.0052364680998989825 0.0087197380944019336 0 -0.0038350464044858441 0.0083100303615471979 0 -0.0046682639906253836 0.0079227007418170362 0 -0.0060500952473869036 0.010963064985109988 0 -0.0054143902289584302 0.0095554080028998917 0 -0.0037017248060348569 0.010112249169550344 0 -0.0054143902289584302 0.0095554080028998917 0 -0.0063302669070914933 0.008872642943913378 0 -0.0067784946199081417 0.0096505962435158629 0 -0.0060500952473869036 0.010963064985109988 0 -0.0054143902289584302 0.0095554080028998917 0 -0.0067784946199081417 0.0096505962435158629 0 -0.0054143902289584302 0.0095554080028998917 0 -0.0037017248060348569 0.010112249169550344 0 -0.0044630236177327972 0.0090826867321449241 0 -0.0034628000843574896 0.0086346721480305907 0 -0.0036284414966748883 0.0082870835634165398 0 -0.0037017248060348569 0.010112249169550344 0 -0.0044630236177327972 0.0090826867321449241 0 -0.0036782205811058981 0.0083507466974350724 0 -0.0044630236177327972 0.0090826867321449241 0 -0.0036782205811058981 0.0083507466974350724 0 -0.0049869241788489003 0.0085000748365085463 0 -0.0039387225887610646 0.0080033789210436738 0 -0.003830007065976485 0.0081979833252888139 0 -0.0036782205811058981 0.0083507466974350724 0 -0.0039387225887610646 0.0080033789210436738 0 -0.0036782205811058981 0.0083507466974350724 0 -0.0049869241788489003 0.0085000748365085463 0 -0.0050202490181585286 0.0077452646202798283 0 -0.0049869241788489003 0.0085000748365085463 0 -0.0057462046717240717 0.0081401119160750667 0 -0.0054143902289584302 0.0095554080028998917 0 -0.0049869241788489003 0.0085000748365085463 0 -0.0063302669070914933 0.008872642943913378 0 -0.0054143902289584302 0.0095554080028998917 0 -0.0044630236177327972 0.0090826867321449241 0 -0.0049869241788489003 0.0085000748365085463 0 -0.0057462046717240717 0.0081401119160750667 0 -0.0065621208200198249 0.008233822982881259 0 -0.0063302669070914933 0.008872642943913378 0 -0.0049869241788489003 0.0085000748365085463 0 -0.0057462046717240717 0.0081401119160750667 0 -0.0063302669070914933 0.008872642943913378 0 -0.0065621208200198249 0.008233822982881259 0 -0.0073225027302949944 0.0084651055180341665 0 -0.0063302669070914933 0.008872642943913378 0 -0.0063302669070914933 0.008872642943913378 0 -0.0067784946199081417 0.0096505962435158629 0 -0.0076347349536869252 0.008937380599009493 0 -0.0073225027302949944 0.0084651055180341665 0 -0.0063302669070914933 0.008872642943913378 0 -0.0076347349536869252 0.008937380599009493 0 -0.0076050658741499922 0.0080618589846462186 0 -0.0065621208200198249 0.008233822982881259 0 -0.0073225027302949944 0.0084651055180341665 0 -0.0060500952473869036 0.010963064985109988 0 -0.0067784946199081417 0.0096505962435158629 0 -0.0083373379735017777 0.0099655953294997043 0 -0.0083373379735017777 0.0099655953294997043 0 -0.0076347349536869252 0.008937380599009493 0 -0.0084904932920131654 0.0082728517500411849 0 -0.0067784946199081417 0.0096505962435158629 0 -0.0083373379735017777 0.0099655953294997043 0 -0.0076347349536869252 0.008937380599009493 0 -0.0080502524594587115 0.0081662956596690005 0 -0.0076347349536869252 0.008937380599009493 0 -0.0084904932920131654 0.0082728517500411849 0 -0.0080502524594587115 0.0081662956596690005 0 -0.0073225027302949944 0.0084651055180341665 0 -0.0076347349536869252 0.008937380599009493 0 -0.0084904932920131654 0.0082728517500411849 0 -0.010302446746344753 0.0086877902592449111 0 -0.0091466829778085214 0.0096397814279733443 0 -0.010382231450834428 0.0069679695419528533 0 -0.0084904932920131654 0.0082728517500411849 0 -0.010302446746344753 0.0086877902592449111 0 -0.010302446746344753 0.0086877902592449111 0 -0.010008094712107458 0.010059821487544087 0 -0.011146735004360059 0.0096092131556129931 0 -0.010302446746344753 0.0086877902592449111 0 -0.0091466829778085214 0.0096397814279733443 0 -0.010008094712107458 0.010059821487544087 0 -0.0083373379735017777 0.0099655953294997043 0 -0.0084904932920131654 0.0082728517500411849 0 -0.0091466829778085214 0.0096397814279733443 0 -0.0083373379735017777 0.0099655953294997043 0 -0.0093748209217748256 0.010597882371057774 0 -0.0087758942393789761 0.01101820278893513 0 -0.0091466829778085214 0.0096397814279733443 0 -0.0093748209217748256 0.010597882371057774 0 -0.010008094712107458 0.010059821487544087 0 -0.0083373379735017777 0.0099655953294997043 0 -0.0091466829778085214 0.0096397814279733443 0 -0.0093748209217748256 0.010597882371057774 0 -0.010008094712107458 0.010059821487544087 0 -0.010347669239857684 0.010824188029832421 0 -0.010841189147134986 0.010419717617735894 0 -0.0093748209217748256 0.010597882371057774 0 -0.010008094712107458 0.010059821487544087 0 -0.010347669239857684 0.010824188029832421 0 -0.010347669239857684 0.010824188029832421 0 -0.009939153580118822 0.011254679599466995 0 -0.010841304040586808 0.011575191129045117 0 -0.0093748209217748256 0.010597882371057774 0 -0.010347669239857684 0.010824188029832421 0 -0.009939153580118822 0.011254679599466995 0 -0.009939153580118822 0.011254679599466995 0 -0.0093730478566180289 0.01155046662449293 0 -0.010022497024078973 0.01170979999307477 0 -0.009939153580118822 0.011254679599466995 0 -0.010841304040586808 0.011575191129045117 0 -0.010022497024078973 0.01170979999307477 0 -0.0093748209217748256 0.010597882371057774 0 -0.0093537467894620942 0.011106612628013197 0 -0.0087758942393789761 0.01101820278893513 0 -0.0093748209217748256 0.010597882371057774 0 -0.009939153580118822 0.011254679599466995 0 -0.0093537467894620942 0.011106612628013197 0 -0.009939153580118822 0.011254679599466995 0 -0.0093537467894620942 0.011106612628013197 0 -0.0093730478566180289 0.01155046662449293 0 -0.0093537467894620942 0.011106612628013197 0 -0.0087758942393789761 0.01101820278893513 0 -0.0093730478566180289 0.01155046662449293 0 -0.0087758942393789761 0.01101820278893513 0 -0.0083568493964530574 0.011434030935748546 0 -0.0080265493440610305 0.010650424598174672 0 -0.0087758942393789761 0.01101820278893513 0 -0.0083568493964530574 0.011434030935748546 0 -0.0089063693396540054 0.011644922900094666 0 -0.0087758942393789761 0.01101820278893513 0 -0.0089063693396540054 0.011644922900094666 0 -0.0093730478566180289 0.01155046662449293 0 -0.008077757500348292 0.011589909849500497 0 -0.0080711204540328818 0.010546469815115861 0 -0.0078953951216853072 0.010967754167857582 0 -0.007664095068167915 0.010777342196004356 0 -0.0080265493440610305 0.010650424598174672 0 -0.0075332696592912115 0.011031969619096959 0 -0.0078953951216853072 0.010967754167857582 0 -0.007664095068167915 0.010777342196004356 0 -0.0069618280841573527 0.011047236799258585 0 -0.0082197164171108807 0.0099133732126812837 0 -0.0075462821907366249 0.010364721803463582 0 -0.0083373379735017777 0.0099655953294997043 0 -0.0080265493440610305 0.010650424598174672 0 -0.0075462821907366249 0.010364721803463582 0 -0.007664095068167915 0.010777342196004356 0 -0.0080265493440610305 0.010650424598174672 0 -0.0083373379735017777 0.0099655953294997043 0 -0.0087758942393789761 0.01101820278893513 0 -0.0080265493440610305 0.010650424598174672 0 -0.015327256586158591 0.010234822579620786 0 -0.016095625802159522 0.0087452757783400056 0 -0.013660740162832004 0.0090638179448989196 0 -0.017410961551582425 0.0065848264025568882 0 -0.016095625802159522 0.0087452757783400056 0 -0.014986521660732667 0.0074343153306473285 0 -0.016095625802159522 0.0087452757783400056 0 -0.014986521660732667 0.0074343153306473285 0 -0.013660740162832004 0.0090638179448989196 0 -0.013114130089280258 0.0069596680761735774 0 -0.014986521660732667 0.0074343153306473285 0 -0.013660740162832004 0.0090638179448989196 0 -0.013660740162832004 0.0090638179448989196 0 -0.012868215114571412 0.010338886159141454 0 -0.014041328843726986 0.010493526631743437 0 -0.015327256586158591 0.010234822579620786 0 -0.013660740162832004 0.0090638179448989196 0 -0.014041328843726986 0.010493526631743437 0 -0.013660740162832004 0.0090638179448989196 0 -0.012224718693094558 0.0095516351042512042 0 -0.012051094413742254 0.008455522927745842 0 -0.013660740162832004 0.0090638179448989196 0 -0.012224718693094558 0.0095516351042512042 0 -0.012868215114571412 0.010338886159141454 0 -0.013114130089280258 0.0069596680761735774 0 -0.013660740162832004 0.0090638179448989196 0 -0.012051094413742254 0.008455522927745842 0 -0.011470946489841075 0.0073418570558424863 0 -0.013114130089280258 0.0069596680761735774 0 -0.012051094413742254 0.008455522927745842 0 -0.011470946489841075 0.0073418570558424863 0 -0.010382231450834428 0.0069679695419528533 0 -0.010302446746344753 0.0086877902592449111 0 -0.011470946489841075 0.0073418570558424863 0 -0.010302446746344753 0.0086877902592449111 0 -0.012051094413742254 0.008455522927745842 0 -0.010302446746344753 0.0086877902592449111 0 -0.012051094413742254 0.008455522927745842 0 -0.011146735004360059 0.0096092131556129931 0 -0.012224718693094558 0.0095516351042512042 0 -0.012051094413742254 0.008455522927745842 0 -0.011146735004360059 0.0096092131556129931 0 -0.012224718693094558 0.0095516351042512042 0 -0.011146735004360059 0.0096092131556129931 0 -0.01163081900290555 0.010311134339102747 0 -0.010008094712107458 0.010059821487544087 0 -0.011146735004360059 0.0096092131556129931 0 -0.010841189147134986 0.010419717617735894 0 -0.011146735004360059 0.0096092131556129931 0 -0.010841189147134986 0.010419717617735894 0 -0.01163081900290555 0.010311134339102747 0 -0.01163081900290555 0.010311134339102747 0 -0.011295415728026812 0.010942452060721492 0 -0.012150110041317929 0.010894244470603012 0 -0.010841189147134986 0.010419717617735894 0 -0.01163081900290555 0.010311134339102747 0 -0.011295415728026812 0.010942452060721492 0 -0.010347669239857684 0.010824188029832421 0 -0.010841189147134986 0.010419717617735894 0 -0.011295415728026812 0.010942452060721492 0 -0.010347669239857684 0.010824188029832421 0 -0.011295415728026812 0.010942452060721492 0 -0.010841304040586808 0.011575191129045117 0 -0.010841304040586808 0.011575191129045117 0 -0.011810507008815445 0.011418921131995979 0 -0.011720154346003556 0.011836033997025023 0 -0.010841304040586808 0.011575191129045117 0 -0.011720154346003556 0.011836033997025023 0 -0.011332336624525928 0.012026886332860465 0 -0.011295415728026812 0.010942452060721492 0 -0.010841304040586808 0.011575191129045117 0 -0.011810507008815445 0.011418921131995979 0 -0.011295415728026812 0.010942452060721492 0 -0.011810507008815445 0.011418921131995979 0 -0.012150110041317929 0.010894244470603012 0 -0.011810507008815445 0.011418921131995979 0 -0.012257505412214788 0.011777379232010044 0 -0.012547678804489308 0.011410782497720443 0 -0.011810507008815445 0.011418921131995979 0 -0.012547678804489308 0.011410782497720443 0 -0.012150110041317929 0.010894244470603012 0 -0.012257505412214788 0.011777379232010044 0 -0.012608885241825692 0.01208299616513335 0 -0.011924933688580603 0.012063496110415892 0 -0.011810507008815445 0.011418921131995979 0 -0.012257505412214788 0.011777379232010044 0 -0.011720154346003556 0.011836033997025023 0 -0.012257505412214788 0.011777379232010044 0 -0.011720154346003556 0.011836033997025023 0 -0.011924933688580603 0.012063496110415892 0 -0.012257505412214788 0.011777379232010044 0 -0.012608885241825692 0.01208299616513335 0 -0.012894191212729115 0.011803262317371596 0 -0.012608885241825692 0.01208299616513335 0 -0.012894191212729115 0.011803262317371596 0 -0.013087985758034907 0.012011190403101394 0 -0.012894191212729115 0.011803262317371596 0 -0.012547678804489308 0.011410782497720443 0 -0.013161361973691266 0.011454009801388443 0 -0.012257505412214788 0.011777379232010044 0 -0.012894191212729115 0.011803262317371596 0 -0.012547678804489308 0.011410782497720443 0 -0.012547678804489308 0.011410782497720443 0 -0.012831904800072182 0.010950367216898831 0 -0.013161361973691266 0.011454009801388443 0 -0.012831904800072182 0.010950367216898831 0 -0.012150110041317929 0.010894244470603012 0 -0.012868215114571412 0.010338886159141454 0 -0.012831904800072182 0.010950367216898831 0 -0.012868215114571412 0.010338886159141454 0 -0.013573487718472504 0.011039868448951461 0 -0.012547678804489308 0.011410782497720443 0 -0.012831904800072182 0.010950367216898831 0 -0.012150110041317929 0.010894244470603012 0 -0.01163081900290555 0.010311134339102747 0 -0.012150110041317929 0.010894244470603012 0 -0.012868215114571412 0.010338886159141454 0 -0.012224718693094558 0.0095516351042512042 0 -0.01163081900290555 0.010311134339102747 0 -0.012868215114571412 0.010338886159141454 0 -0.012868215114571412 0.010338886159141454 0 -0.014041328843726986 0.010493526631743437 0 -0.013573487718472504 0.011039868448951461 0 -0.015327256586158591 0.010234822579620786 0 -0.014041328843726986 0.010493526631743437 0 -0.01454048162232408 0.011218493569663176 0 -0.014041328843726986 0.010493526631743437 0 -0.01454048162232408 0.011218493569663176 0 -0.013573487718472504 0.011039868448951461 0 -0.01454048162232408 0.011218493569663176 0 -0.013573487718472504 0.011039868448951461 0 -0.013810961591087306 0.011573716700917037 0 -0.012831904800072182 0.010950367216898831 0 -0.013573487718472504 0.011039868448951461 0 -0.013161361973691266 0.011454009801388443 0 -0.013573487718472504 0.011039868448951461 0 -0.013161361973691266 0.011454009801388443 0 -0.013810961591087306 0.011573716700917037 0 -0.013161361973691266 0.011454009801388443 0 -0.013397490772103438 0.011950996354076353 0 -0.013810961591087306 0.011573716700917037 0 -0.012894191212729115 0.011803262317371596 0 -0.013161361973691266 0.011454009801388443 0 -0.013397490772103438 0.011950996354076353 0 -0.012608885241825692 0.01208299616513335 0 -0.013087985758034907 0.012011190403101394 0 -0.013443020146072784 0.012193624269553309 0 -0.012894191212729115 0.011803262317371596 0 -0.013087985758034907 0.012011190403101394 0 -0.013397490772103438 0.011950996354076353 0 -0.013765364330218634 0.011715842918134553 0 -0.013762224198489808 0.011369036944152698 0 -0.013087985758034907 0.012011190403101394 0 -0.013397490772103438 0.011950996354076353 0 -0.013443020146072784 0.012193624269553309 0 -0.013397490772103438 0.011950996354076353 0 -0.013582941402400166 0.012480859924843553 0 -0.014331646562177738 0.012149504118021881 0 -0.014134719103347033 0.014030419103287971 0 -0.014866358583195592 0.013582337193534109 0 -0.01556826118715203 0.014716678644267053 0 -0.013762224198489808 0.011369036944152698 0 -0.014405669374739203 0.012510643524238344 0 -0.01454048162232408 0.011218493569663176 0 -0.014331646562177738 0.012149504118021881 0 -0.013810961591087306 0.011573716700917037 0 -0.013397490772103438 0.011950996354076353 0 -0.014331646562177738 0.012149504118021881 0 -0.013810961591087306 0.011573716700917037 0 -0.014866358583195592 0.013582337193534109 0 -0.016612055385812851 0.013733463779830304 0 -0.016473522097535286 0.012144979011832854 0 -0.01454048162232408 0.011218493569663176 0 -0.014331646562177738 0.012149504118021881 0 -0.016073866946030673 0.011386379310178628 0 -0.014866358583195592 0.013582337193534109 0 -0.016612055385812851 0.013733463779830304 0 -0.01556826118715203 0.014716678644267053 0 -0.014405669374739203 0.012510643524238344 0 -0.01635118254371519 0.011729461547909659 0 -0.015327256586158591 0.010234822579620786 0 -0.01454048162232408 0.011218493569663176 0 -0.016073866946030673 0.011386379310178628 0 -0.020032492187195702 0.0059290194726445613 0 -0.02250660077761181 0.0047733522421388218 0 -0.021942110396094297 0.0066193106176035592 0 -0.020032492187195702 0.0059290194726445613 0 -0.020985815016064734 0.0083152207993614866 0 -0.021942110396094297 0.0066193106176035592 0 -0.016340881716529733 0.0095286311593525616 0 -0.020284534296733936 0.010207722856784156 0 -0.016612055385812851 0.013733463779830304 0 -0.01556826118715203 0.014716678644267053 0 -0.01766011972043605 0.015281017924449167 0 -0.01556826118715203 0.014716678644267053 0 -0.015022165594246736 0.016328661587823288 0 -0.01766011972043605 0.015281017924449167 0 -0.013927976773397502 0.0080981464337049544 0 -0.013805551899813948 0.0089478149951781327 0 -0.013239225679009516 0.0087207263534083909 0 -0.014134719103347033 0.014030419103287971 0 -0.01556826118715203 0.014716678644267053 0 -0.015022165594246736 0.016328661587823288 0 -0.013927976773397502 0.0080981464337049544 0 -0.013805551899813948 0.0089478149951781327 0 -0.014388946571078731 0.0092843666557428182 0 -0.013762224198489808 0.011369036944152698 0 -0.016340881716529733 0.0095286311593525616 0 -0.013762224198489808 0.011369036944152698 0 -0.013374928950230468 0.0085352910221512084 0 -0.013805551899813948 0.0089478149951781327 0 -0.014388946571078731 0.0092843666557428182 0 -0.01363259996038277 0.0096311853330788375 0 -0.016340881716529733 0.0095286311593525616 0 -0.013340549981835995 0.0098586431828083104 0 -0.014460598722597471 0.0092480812393253616 0 -0.01363259996038277 0.0096311853330788375 0 -0.013802456379001097 0.010134121747360423 0 -0.012973234103503437 0.0097226549685812437 0 -0.013239225679009516 0.0087207263534083909 0 -0.012443139465914755 0.009344151313549284 0 -0.01363259996038277 0.0096311853330788375 0 -0.012973234103503437 0.0097226549685812437 0 -0.013239225679009516 0.0087207263534083909 0 -0.013805551899813948 0.0089478149951781327 0 -0.01363259996038277 0.0096311853330788375 0 -0.013239225679009516 0.0087207263534083909 0 -0.01363259996038277 0.0096311853330788375 0 -0.012973234103503437 0.0097226549685812437 0 -0.013802456379001097 0.010134121747360423 0 -0.013762224198489808 0.011369036944152698 0 -0.011902698459344854 0.010562811186780785 0 -0.013543955583747873 0.0084246715922203629 0 -0.013004193385408152 0.008851000801814897 0 -0.01245767939641295 0.0089537954003723382 0 -0.012608885241825692 0.01208299616513335 0 -0.013443020146072784 0.012193624269553309 0 -0.011317534542224474 0.012557868126330737 0 -0.012608885241825692 0.01208299616513335 0 -0.011924933688580603 0.012063496110415892 0 -0.011317534542224474 0.012557868126330737 0 -0.013004193385408152 0.008851000801814897 0 -0.01245767939641295 0.0089537954003723382 0 -0.012443139465914755 0.009344151313549284 0 -0.013374928950230468 0.0085352910221512084 0 -0.012430552985469551 0.0093567868686173644 0 -0.011924933688580603 0.012063496110415892 0 -0.011317534542224474 0.012557868126330737 0 -0.011332336624525928 0.012026886332860465 0 -0.011720154346003556 0.011836033997025023 0 -0.011924933688580603 0.012063496110415892 0 -0.011332336624525928 0.012026886332860465 0 -0.010841304040586808 0.011575191129045117 0 -0.011332336624525928 0.012026886332860465 0 -0.010411308219011251 0.012099650644099661 0 -0.011317534542224474 0.012557868126330737 0 -0.011332336624525928 0.012026886332860465 0 -0.010411308219011251 0.012099650644099661 0 -0.011902698459344854 0.010562811186780785 0 -0.010326050015241627 0.011154471880439673 0 -0.01245767939641295 0.0089537954003723382 0 -0.012443139465914755 0.009344151313549284 0 -0.010910547989947084 0.0098649417361294286 0 -0.012443139465914755 0.009344151313549284 0 -0.011855973644797086 0.010108444519172673 0 -0.010910547989947084 0.0098649417361294286 0 -0.012973234103503437 0.0097226549685812437 0 -0.012443139465914755 0.009344151313549284 0 -0.012465682532879715 0.010093483101757587 0 -0.012443139465914755 0.009344151313549284 0 -0.011855973644797086 0.010108444519172673 0 -0.012465682532879715 0.010093483101757587 0 -0.011855973644797086 0.010108444519172673 0 -0.012164504996456358 0.010731154522166116 0 -0.011397863448332967 0.011119498108672684 0 -0.011855973644797086 0.010108444519172673 0 -0.012465682532879715 0.010093483101757587 0 -0.012164504996456358 0.010731154522166116 0 -0.012465682532879715 0.010093483101757587 0 -0.012164504996456358 0.010731154522166116 0 -0.012898767277253123 0.010533197244237007 0 -0.012164504996456358 0.010731154522166116 0 -0.012456695952216488 0.011334048134746635 0 -0.011397863448332967 0.011119498108672684 0 -0.012456695952216488 0.011334048134746635 0 -0.011397863448332967 0.011119498108672684 0 -0.011597038003376508 0.011979805161366168 0 -0.012164504996456358 0.010731154522166116 0 -0.012456695952216488 0.011334048134746635 0 -0.012898767277253123 0.010533197244237007 0 -0.012456695952216488 0.011334048134746635 0 -0.013811887010803907 0.011078118274569093 0 -0.013420747302041883 0.01197336183486249 0 -0.012456695952216488 0.011334048134746635 0 -0.012898767277253123 0.010533197244237007 0 -0.013811887010803907 0.011078118274569093 0 -0.012898767277253123 0.010533197244237007 0 -0.013802456379001097 0.010134121747360423 0 -0.013811887010803907 0.011078118274569093 0 -0.012973234103503437 0.0097226549685812437 0 -0.012465682532879715 0.010093483101757587 0 -0.012898767277253123 0.010533197244237007 0 -0.012973234103503437 0.0097226549685812437 0 -0.012898767277253123 0.010533197244237007 0 -0.013802456379001097 0.010134121747360423 0 -0.014460598722597471 0.0092480812393253616 0 -0.013802456379001097 0.010134121747360423 0 -0.015018348306201471 0.010586684777376837 0 -0.013802456379001097 0.010134121747360423 0 -0.013811887010803907 0.011078118274569093 0 -0.015018348306201471 0.010586684777376837 0 -0.013811887010803907 0.011078118274569093 0 -0.015018348306201471 0.010586684777376837 0 -0.01458185182054237 0.01162321175725501 0 -0.013811887010803907 0.011078118274569093 0 -0.01458185182054237 0.01162321175725501 0 -0.013420747302041883 0.01197336183486249 0 -0.015018348306201471 0.010586684777376837 0 -0.01458185182054237 0.01162321175725501 0 -0.015661251235821762 0.011872591270644054 0 -0.01800875143027025 0.010002820361875255 0 -0.020394896477396438 0.0064556771060020586 0 -0.016340881716529733 0.0095286311593525616 0 -0.01800875143027025 0.010002820361875255 0 -0.009144930527958341 0.011919360325994364 0 -0.0089436699699780332 0.011947482982149557 0 -0.0091096785733325823 0.01192835979484755 0 -0.009144930527958341 0.011919360325994364 0 -0.0091330481268946783 0.01186544624227371 0 -0.0089436699699780332 0.011947482982149557 0 -0.009144930527958341 0.011919360325994364 0 -0.0091096785733325823 0.01192835979484755 0 -0.0093030931109168678 0.012016079831657856 0 -0.009144930527958341 0.011919360325994364 0 -0.0093041787960314957 0.011875031078443111 0 -0.0093030931109168678 0.012016079831657856 0 -0.009144930527958341 0.011919360325994364 0 -0.0093041787960314957 0.011875031078443111 0 -0.0092283469472361941 0.011810955761558679 0 -0.009144930527958341 0.011919360325994364 0 -0.0091330481268946783 0.01186544624227371 0 -0.0092283469472361941 0.011810955761558679 0 -0.0091330481268946783 0.01186544624227371 0 -0.0092283469472361941 0.011810955761558679 0 -0.0092614420306191964 0.011756515396147265 0 -0.0059833497470967705 0.008892199402174927 0 -0.0052782497888480325 0.0059674069890310478 0 -0.0049840682689608479 0.0071786758297221571 0 -0.0059833497470967705 0.008892199402174927 0 -0.0028350697273129589 0.0030536710904573499 0 -0.0021132401622642226 0.0026796786331460226 0 -0.0018654960660942682 0.0030546693349202078 0 -0.0091330481268946783 0.01186544624227371 0 -0.0091254443928245783 0.011945061211344598 0 -0.0092614420306191964 0.011756515396147265 0 -0.0021132401622642226 0.0026796786331460226 0 -0.0018654960660942682 0.0030546693349202078 0 -0.0019106455424287212 0.0024328914482571688 0 -0.0020963857532833663 0.0024442538063332367 0 -0.0052782497888480325 0.0059674069890310478 0 -0.002388373327280697 0.002099832467184906 0 -0.0021132401622642226 0.0026796786331460226 0 -0.0018127298042090758 0.0023453956942003141 0 -0.0082077505274447387 0.0098297217379644634 0 -0.0059833497470967705 0.008892199402174927 0 -0.0091330481268946783 0.01186544624227371 0 -0.0089436699699780332 0.011947482982149557 0 -0.0091254443928245783 0.011945061211344598 0 -0.0075332696592912115 0.011031969619096959 0 -0.0078953951216853072 0.010967754167857582 0 -0.0078540624347244025 0.011307413299732186 0 -0.0083568493964530574 0.011434030935748546 0 -0.0089436699699780332 0.011947482982149557 0 -0.0086579422579767026 0.011952552228377971 0 -0.008077757500348292 0.011589909849500497 0 -0.0059833497470967705 0.008892199402174927 0 -0.0083568493964530574 0.011434030935748546 0 -0.0089436699699780332 0.011947482982149557 0 -0.0089063693396540054 0.011644922900094666 0 -0.0089436699699780332 0.011947482982149557 0 -0.0091096785733325823 0.01192835979484755 0 -0.0089063693396540054 0.011644922900094666 0 -0.0091096785733325823 0.01192835979484755 0 -0.0089063693396540054 0.011644922900094666 0 -0.0093498816709170606 0.011958867379303814 0 -0.0089063693396540054 0.011644922900094666 0 -0.0093730478566180289 0.01155046662449293 0 -0.0093498816709170606 0.011958867379303814 0 -0.0093730478566180289 0.01155046662449293 0 -0.010022497024078973 0.01170979999307477 0 -0.0097365128621691461 0.012010731753835883 0 -0.0093730478566180289 0.01155046662449293 0 -0.0093498816709170606 0.011958867379303814 0 -0.0097365128621691461 0.012010731753835883 0 -0.010841304040586808 0.011575191129045117 0 -0.010022497024078973 0.01170979999307477 0 -0.010411308219011251 0.012099650644099661 0 -0.010022497024078973 0.01170979999307477 0 -0.0097365128621691461 0.012010731753835883 0 -0.010411308219011251 0.012099650644099661 0 -0.0097365128621691461 0.012010731753835883 0 -0.010411308219011251 0.012099650644099661 0 -0.0096280348244379855 0.012408889064013023 0 -0.011317534542224474 0.012557868126330737 0 -0.010411308219011251 0.012099650644099661 0 -0.0096280348244379855 0.012408889064013023 0 -0.0093498816709170606 0.011958867379303814 0 -0.0096280348244379855 0.012408889064013023 0 -0.0093030931109168678 0.012016079831657856 0 -0.0093498816709170606 0.011958867379303814 0 -0.0097365128621691461 0.012010731753835883 0 -0.0096280348244379855 0.012408889064013023 0 -0.0093041787960314957 0.011875031078443111 0 -0.0096280348244379855 0.012408889064013023 0 -0.0093030931109168678 0.012016079831657856 0 -0.0091096785733325823 0.01192835979484755 0 -0.0093498816709170606 0.011958867379303814 0 -0.0093030931109168678 0.012016079831657856 0 -0.0093041787960314957 0.011875031078443111 0 -0.0096280348244379855 0.012408889064013023 0 -0.009377968253420901 0.011467785900222755 0 -0.010910547989947084 0.0098649417361294286 0 -0.010312189199102531 0.01115764836031554 0 -0.009377968253420901 0.011467785900222755 0 -0.010326050015241627 0.011154471880439673 0 -0.0094816448317151351 0.011421329294668008 0 -0.011855973644797086 0.010108444519172673 0 -0.010910547989947084 0.0098649417361294286 0 -0.011397863448332967 0.011119498108672684 0 -0.010910547989947084 0.0098649417361294286 0 -0.010312189199102531 0.01115764836031554 0 -0.011397863448332967 0.011119498108672684 0 -0.010312189199102531 0.01115764836031554 0 -0.011397863448332967 0.011119498108672684 0 -0.010535473181900555 0.012145550046144888 0 -0.011397863448332967 0.011119498108672684 0 -0.010535473181900555 0.012145550046144888 0 -0.011597038003376508 0.011979805161366168 0 -0.0091596168471241319 0.010454678581787575 0 -0.0099706630738179876 0.011198984118644624 0 -0.010312189199102531 0.01115764836031554 0 -0.0094728762012739314 0.011413823765268914 0 -0.010535473181900555 0.012145550046144888 0 -0.0078343887539820516 0.0082536959073625446 0 -0.0058664290925488248 0.0092687283842899579 0 -0.0076595182060892096 0.010802262559592086 0 -0.010312189199102531 0.01115764836031554 0 -0.0094728762012739314 0.011413823765268914 0 -0.009377968253420901 0.011467785900222755 0 -0.0094728762012739314 0.011413823765268914 0 -0.009377968253420901 0.011467785900222755 0 -0.0093115705554623011 0.011655532858327964 0 -0.0094728762012739314 0.011413823765268914 0 -0.0093115705554623011 0.011655532858327964 0 -0.0092614420306191964 0.011756515396147265 0 -0.0091596168471241319 0.010454678581787575 0 -0.0052782497888480325 0.0059674069890310478 0 -0.0078343887539820516 0.0082536959073625446 0 -0.0059672301040693768 0.0060534764161927421 0 -0.0058664290925488248 0.0092687283842899579 0 -0.0092283469472361941 0.011810955761558679 0 -0.0093115705554623011 0.011655532858327964 0 -0.0092614420306191964 0.011756515396147265 0 -0.0093041787960314957 0.011875031078443111 0 -0.0092283469472361941 0.011810955761558679 0 -0.0093115705554623011 0.011655532858327964 0 -0.0093041787960314957 0.011875031078443111 0 -0.009377968253420901 0.011467785900222755 0 -0.0093115705554623011 0.011655532858327964 0 -0.0018127298042090758 0.0023453956942003141 0 -0.0022656119906077493 0.0014979699703062831 0 -0.0018382442930494093 0.00098368038006137952 0 -0.002388373327280697 0.002099832467184906 0 -0.0018127298042090758 0.0023453956942003141 0 -0.0022656119906077493 0.0014979699703062831 0 -0.0052782497888480325 0.0059674069890310478 0 -0.0036012781953319718 0.0054347366706853023 0 -0.0022656119906077493 0.0014979699703062831 0 -0.0018382442930494093 0.00098368038006137952 0 -0.0025091766381077482 0.00057078069465184582 0 -0.0018382442930494093 0.00098368038006137952 0 -0.001907635508307358 -0.00043716697950157973 0 -0.0025091766381077482 0.00057078069465184582 0 -0.0058664290925488248 0.0092687283842899579 0 -0.0057544977478868539 0.012440481639576681 0 -0.0076595182060892096 0.010802262559592086 0 -0.0036012781953319718 0.0054347366706853023 0 -0.0044162247449719043 0.0028158189520757714 0 -0.0044162247449719043 0.0028158189520757714 0 -0.0018273019485588924 -0.00054244969879654143 0 -0.0044162247449719043 0.0028158189520757714 0 -0.0069276218989024656 0.0066369555858850583 0 -0.0057544977478868539 0.012440481639576681 0 -0.0076595182060892096 0.010802262559592086 0 -0.0091790622057136007 0.013503914137960222 0 -0.0078343887539820516 0.0082536959073625446 0 -0.0076595182060892096 0.010802262559592086 0 -0.0096668223387660433 0.010512007476968526 0 -0.010535473181900555 0.012145550046144888 0 -0.011597038003376508 0.011979805161366168 0 -0.011335297739987526 0.012822578997119116 0 -0.0099706630738179876 0.011198984118644624 0 -0.011297354527389097 0.012765333673143055 0 -0.0096668223387660433 0.010512007476968526 0 -0.011335297739987526 0.012822578997119116 0 -0.0091790622057136007 0.013503914137960222 0 -0.0076595182060892096 0.010802262559592086 0 -0.0096668223387660433 0.010512007476968526 0 -0.0091790622057136007 0.013503914137960222 0 -0.0054138468696863099 -0.0022410333111863565 0 -0.0061436778111581131 -0.00086027191924210509 0 -0.0049236366890376753 -0.0011672646420175668 0 -0.0054138468696863099 -0.0022410333111863565 0 -0.0061436778111581131 -0.00086027191924210509 0 -0.0076604110470060403 -0.0016414849794889291 0 -0.0069276218989024656 0.0066369555858850583 0 -0.012402517973550025 0.0010792373240831505 0 -0.011335297739987526 0.012822578997119116 0 -0.0091790622057136007 0.013503914137960222 0 -0.011995104753088476 0.014098775443542492 0 -0.0094151161726544301 -0.0061983047402544237 0 -0.012402517973550025 0.0010792373240831505 0 -0.012378182415802913 -0.010093127383838702 0 -0.013819606846454597 -0.01088250801145817 0 -0.014043278973687926 -0.0095436911126093385 0 -0.012378182415802913 -0.010093127383838702 0 -0.014043278973687926 -0.0095436911126093385 0 -0.012151015485605923 -0.0088355038627978624 0 -0.0094151161726544301 -0.0061983047402544237 0 -0.0076728435621232069 -0.0045079701317788639 0 -0.0061436778111581131 -0.00086027191924210509 0 -0.0049236366890376753 -0.0011672646420175668 0 -0.0046395607744214532 -0.00023641344199214255 0 -0.012378182415802913 -0.010093127383838702 0 -0.010968490037570441 -0.0093244607997820719 0 -0.012151015485605923 -0.0088355038627978624 0 -0.0049236366890376753 -0.0011672646420175668 0 -0.0032800982644121449 -0.00083597929424272311 0 -0.0046395607744214532 -0.00023641344199214255 0 -0.0031655951033458187 -0.00045043110629015511 0 -0.0032800982644121449 -0.00083597929424272311 0 -0.0030500535456576012 -0.0007101181774071721 0 -0.0032800982644121449 -0.00083597929424272311 0 -0.0029727998948349413 -0.00079933259063396094 0 -0.0030500535456576012 -0.0007101181774071721 0 -0.0033882963527713497 -0.0027536262011786414 0 -0.0032800982644121449 -0.00083597929424272311 0 -0.0041669592568039562 -0.001790300179061589 0 -0.0027316902604364824 -0.00052206505252129411 0 -0.0032800982644121449 -0.00083597929424272311 0 -0.0028811939973265731 -0.00064571445139800234 0 -0.0044162247449719043 0.0028158189520757714 0 -0.0029107097202199597 -0.0027540825348506214 0 -0.0054138468696863099 -0.0022410333111863565 0 -0.0049236366890376753 -0.0011672646420175668 0 -0.0041669592568039562 -0.001790300179061589 0 -0.0033882963527713497 -0.0027536262011786414 0 -0.0054138468696863099 -0.0022410333111863565 0 -0.0041669592568039562 -0.001790300179061589 0 -0.0049236366890376753 -0.0011672646420175668 0 -0.0032800982644121449 -0.00083597929424272311 0 -0.0041669592568039562 -0.001790300179061589 0 -0.019530713882023782 7.7141287161858283e-05 0 -0.018658451031319565 -0.00029921747904386426 0 -0.019849949900294362 -0.00086978600667237847 0 -0.019530713882023782 7.7141287161858283e-05 0 -0.018658451031319565 -0.00029921747904386426 0 -0.018433623389248692 0.00058625319062877352 0 -0.016166833541070316 0.0060790999198539726 0 -0.020394896477396438 0.0064556771060020586 0 -0.01458185182054237 0.01162321175725501 0 -0.014451730856021227 0.012569503108639224 0 -0.015661251235821762 0.011872591270644054 0 -0.01458185182054237 0.01162321175725501 0 -0.014451730856021227 0.012569503108639224 0 -0.013420747302041883 0.01197336183486249 0 -0.018658451031319565 -0.00029921747904386426 0 -0.017310649527193387 0.00032934174998840344 0 -0.018433623389248692 0.00058625319062877352 0 -0.014451730856021227 0.012569503108639224 0 -0.013217889633044669 0.013239577884817253 0 -0.013420747302041883 0.01197336183486249 0 -0.016166833541070316 0.0060790999198539726 0 -0.015270424308201153 0.0074639348100278002 0 -0.013217889633044669 0.013239577884817253 0 -0.013420747302041883 0.01197336183486249 0 -0.012363867480564042 0.012373042942002794 0 -0.012456695952216488 0.011334048134746635 0 -0.013420747302041883 0.01197336183486249 0 -0.012363867480564042 0.012373042942002794 0 -0.011597038003376508 0.011979805161366168 0 -0.011335297739987526 0.012822578997119116 0 -0.012363867480564042 0.012373042942002794 0 -0.012456695952216488 0.011334048134746635 0 -0.011597038003376508 0.011979805161366168 0 -0.012363867480564042 0.012373042942002794 0 -0.011335297739987526 0.012822578997119116 0 -0.01224827122934124 0.013108486533851636 0 -0.011995104753088476 0.014098775443542492 0 -0.011335297739987526 0.012822578997119116 0 -0.012363867480564042 0.012373042942002794 0 -0.01224827122934124 0.013108486533851636 0 -0.013217889633044669 0.013239577884817253 0 -0.012363867480564042 0.012373042942002794 0 -0.01224827122934124 0.013108486533851636 0 -0.013217889633044669 0.013239577884817253 0 -0.01224827122934124 0.013108486533851636 0 -0.011995104753088476 0.014098775443542492 0 -0.015270424308201153 0.0074639348100278002 0 -0.012402517973550025 0.0010792373240831505 0 -0.013819606846454597 -0.01088250801145817 0 -0.014043278973687926 -0.0095436911126093385 0 -0.01597760091317459 -0.010302880367388806 0 -0.017539310006834119 -0.022878995239286399 0 -0.018134091419076796 -0.023054114547326622 0 -0.018110218320031572 -0.022633690597553706 0 -0.015675652958444787 -0.016800319622524262 0 -0.018067350581873167 -0.012264172471435993 0 -0.012402517973550025 0.0010792373240831505 0 -0.018067350581873167 -0.012264172471435993 0 -0.017310649527193387 0.00032934174998840344 0 -0.01590001554390652 0.0010733348188013262 0 -0.017858280306465028 0.0015917481400445522 0 -0.018433623389248692 0.00058625319062877352 0 -0.017858280306465028 0.0015917481400445522 0 -0.01914018396596525 0.0010690565874875697 0 -0.017310649527193387 0.00032934174998840344 0 -0.018433623389248692 0.00058625319062877352 0 -0.017858280306465028 0.0015917481400445522 0 -0.018067350581873167 -0.012264172471435993 0 -0.019727456956584025 -0.0076382134445894681 0 -0.01904868148278388 -0.016122979074953313 0 -0.021316606211203532 -0.015500218899666999 0 -0.021670339780348935 -0.017205160327500711 0 -0.018067350581873167 -0.012264172471435993 0 -0.021425013737855016 -0.021849923969175931 0 -0.018134091419076796 -0.023054114547326622 0 -0.018498085531757018 -0.022957173813722108 0 -0.018110218320031572 -0.022633690597553706 0 -0.021891365321069861 -0.016072484735114686 0 -0.021316606211203532 -0.015500218899666999 0 -0.021670339780348935 -0.017205160327500711 0 -0.021891365321069861 -0.016072484735114686 0 -0.021322633412414395 -0.015498975659358932 0 -0.022745718246823005 -0.016082462337327578 0 -0.021322633412414395 -0.015498975659358932 0 -0.022745718246823005 -0.016082462337327578 0 -0.023804421007765197 -0.015658650567974278 0 -0.021425013737855016 -0.021849923969175931 0 -0.023973397974771479 -0.022888245492758259 0 -0.020282993178898694 -0.019047512350852114 0 -0.021425013737855016 -0.021849923969175931 0 -0.022745718246823005 -0.016082462337327578 0 -0.022780425062141316 -0.016575787574949419 0 -0.023923178587652145 -0.016590321278748526 0 -0.021891365321069861 -0.016072484735114686 0 -0.022745718246823005 -0.016082462337327578 0 -0.022780425062141316 -0.016575787574949419 0 -0.019530713882023782 7.7141287161858283e-05 0 -0.01914018396596525 0.0010690565874875697 0 -0.020289675143271013 0.00058563028244074675 0 -0.019530713882023782 7.7141287161858283e-05 0 -0.018433623389248692 0.00058625319062877352 0 -0.01914018396596525 0.0010690565874875697 0 -0.023073419253220009 -0.016985471604292441 0 -0.022780425062141316 -0.016575787574949419 0 -0.023923178587652145 -0.016590321278748526 0 -0.019727456956584025 -0.0076382134445894681 0 -0.025438772562052767 -0.0082309964130394611 0 -0.023073419253220009 -0.016985471604292441 0 -0.021670339780348935 -0.017205160327500711 0 -0.023920140820627062 -0.017573953675435145 0 -0.021670339780348935 -0.017205160327500711 0 -0.023920140820627062 -0.017573953675435145 0 -0.02429790789987013 -0.018202842060340292 0 -0.023073419253220009 -0.016985471604292441 0 -0.022780425062141316 -0.016575787574949419 0 -0.021670339780348935 -0.017205160327500711 0 -0.021891365321069861 -0.016072484735114686 0 -0.022780425062141316 -0.016575787574949419 0 -0.021670339780348935 -0.017205160327500711 0 -0.022645330267718495 -0.030628585833366771 0 -0.022639535850760759 -0.030486748776333152 0 -0.02277719623528672 -0.030573959921750469 0 -0.022645330267718495 -0.030628585833366771 0 -0.02277719623528672 -0.030573959921750469 0 -0.022794127152999846 -0.030810968319359089 0 -0.022719168206101752 -0.030271552277117791 0 -0.022639535850760759 -0.030486748776333152 0 -0.022585957399637185 -0.030406969372962209 0 -0.022719168206101752 -0.030271552277117791 0 -0.022639535850760759 -0.030486748776333152 0 -0.02277719623528672 -0.030573959921750469 0 -0.022719168206101752 -0.030271552277117791 0 -0.02277719623528672 -0.030573959921750469 0 -0.02284875820234299 -0.030449069398821315 0 -0.021425013737855016 -0.021849923969175931 0 -0.020642102212421853 -0.027293917133368487 0 -0.020642102212421853 -0.027293917133368487 0 -0.020272094091610106 -0.026027745049322214 0 -0.02277719623528672 -0.030573959921750469 0 -0.022946137405095747 -0.030643469394738651 0 -0.022872397059297417 -0.030814490927494897 0 -0.02277719623528672 -0.030573959921750469 0 -0.02284875820234299 -0.030449069398821315 0 -0.022946137405095747 -0.030643469394738651 0 -0.017539310006834119 -0.022878995239286399 0 -0.018110218320031572 -0.022633690597553706 0 -0.017723698966377186 -0.022283084346247258 0 -0.017539310006834119 -0.022878995239286399 0 -0.017723698966377186 -0.022283084346247258 0 -0.017181703009998845 -0.022369684672325332 0 -0.017723698966377186 -0.022283084346247258 0 -0.017181703009998845 -0.022369684672325332 0 -0.017314627688615684 -0.021901725860758937 0 -0.020272094091610106 -0.026027745049322214 0 -0.01932936127407742 -0.028693860766049895 0 -0.022946137405095747 -0.030643469394738651 0 -0.022906172257286184 -0.031031945905894993 0 -0.023043719128861016 -0.030835243939305406 0 -0.023642752783112713 -0.030961106679563598 0 -0.01932936127407742 -0.028693860766049895 0 -0.022906172257286184 -0.031031945905894993 0 -0.022795474972882333 -0.031072549678705822 0 -0.022805994276948526 -0.031072143312587498 0 -0.022906172257286184 -0.031031945905894993 0 -0.022776650136740954 -0.031120678764182803 0 -0.022795474972882333 -0.031072549678705822 0 -0.022906172257286184 -0.031031945905894993 0 -0.022805994276948526 -0.031072143312587498 0 -0.022824316960948096 -0.031097656626405894 0 -0.022906172257286184 -0.031031945905894993 0 -0.022884899346732376 -0.031013032883807606 0 -0.0228935088694186 -0.031133445305099473 0 -0.022906172257286184 -0.031031945905894993 0 -0.022884899346732376 -0.031013032883807606 0 -0.022872397059297417 -0.030814490927494897 0 -0.022946137405095747 -0.030643469394738651 0 -0.022906172257286184 -0.031031945905894993 0 -0.022872397059297417 -0.030814490927494897 0 -0.022884899346732376 -0.031013032883807606 0 -0.022872397059297417 -0.030814490927494897 0 -0.022794127152999846 -0.030810968319359089 0 -0.02277719623528672 -0.030573959921750469 0 -0.022872397059297417 -0.030814490927494897 0 -0.022794127152999846 -0.030810968319359089 0 -0.022884899346732376 -0.031013032883807606 0 -0.022794127152999846 -0.030810968319359089 0 -0.022811586538428526 -0.031021499848583774 0 -0.022884899346732376 -0.031013032883807606 0 -0.022811586538428526 -0.031021499848583774 0 -0.022950809119042941 -0.031220303705247598 0 -0.022884899346732376 -0.031013032883807606 0 -0.022950809119042941 -0.031220303705247598 0 -0.0228935088694186 -0.031133445305099473 0 -0.022811586538428526 -0.031021499848583774 0 -0.022685252650151075 -0.03083162707921934 0 -0.022624427894245566 -0.031100178549066736 0 -0.022811586538428526 -0.031021499848583774 0 -0.022624427894245566 -0.031100178549066736 0 -0.022752861100206079 -0.031223588532835612 0 -0.022811586538428526 -0.031021499848583774 0 -0.022752861100206079 -0.031223588532835612 0 -0.022950809119042941 -0.031220303705247598 0 -0.022794127152999846 -0.030810968319359089 0 -0.022811586538428526 -0.031021499848583774 0 -0.022685252650151075 -0.03083162707921934 0 -0.022645330267718495 -0.030628585833366771 0 -0.022794127152999846 -0.030810968319359089 0 -0.022685252650151075 -0.03083162707921934 0 -0.015779547710498915 -0.022301760256103913 0 -0.016187354829540913 -0.022050676500497739 0 -0.016681824177765044 -0.022410158111581372 0 -0.011594256831112634 -0.016169938383377356 0 -0.014988205813084285 -0.022627606358967666 0 -0.015245971835910954 -0.028045342300842532 0 -0.015900982803283267 -0.02850844092572628 0 -0.015110860499697102 -0.028784134925496033 0 -0.011677397838064449 -0.020992265695980727 0 -0.012281152948749208 -0.020630285595093587 0 -0.011501696126595407 -0.020102523733110132 0 -0.014988205813084285 -0.022627606358967666 0 -0.011728769057298886 -0.025476639339055213 0 -0.0085255613571184382 -0.021765117951934133 0 -0.0081254374937398746 -0.022367800167941741 0 -0.0083671394976842228 -0.022538668434126219 0 -0.0078515106498202453 -0.016980737042473472 0 -0.011728769057298886 -0.025476639339055213 0 -0.011677397838064449 -0.020992265695980727 0 -0.01102485729817502 -0.020728476885004579 0 -0.011501696126595407 -0.020102523733110132 0 -0.0057348920173872333 -0.019481553567883558 0 -0.0097941627026408417 -0.027405537952560826 0 -0.0089835895962298903 -0.021952628013904209 0 -0.0085255613571184382 -0.021765117951934133 0 -0.0083671394976842228 -0.022538668434126219 0 -0.0057348920173872333 -0.019481553567883558 0 -0.0078515106498202453 -0.016980737042473472 0 -0.0076423577120415635 -0.01177872675602769 0 -0.0076578942378710433 -0.012664141638848769 0 -0.0071804560018171966 -0.012390757874331623 0 -0.0052514021973214175 -0.013264388245357939 0 -0.0054948644178061156 -0.013362205855890742 0 -0.0053386245448821595 -0.01355184132444979 0 -0.0078515106498202453 -0.016980737042473472 0 -0.0047452641916809028 -0.0077068926425693605 0 -0.011594256831112634 -0.016169938383377356 0 -0.0078515106498202453 -0.016980737042473472 0 -0.0085327838424481342 -0.012142837637936032 0 -0.0076423577120415635 -0.01177872675602769 0 -0.0076578942378710433 -0.012664141638848769 0 -0.0032800982644121449 -0.00083597929424272311 0 -0.0034689802692728223 0.0001094102994424395 0 -0.0046395607744214532 -0.00023641344199214255 0 -0.011594256831112634 -0.016169938383377356 0 -0.0063923151047550839 -0.0062700667157983376 0 -0.0031655951033458187 -0.00045043110629015511 0 -0.0032800982644121449 -0.00083597929424272311 0 -0.0034689802692728223 0.0001094102994424395 0 -0.0063923151047550839 -0.0062700667157983376 0 -0.0047452641916809028 -0.0077068926425693605 0 -0.0034470605346244038 3.6336645336165256e-05 0 -0.0032313921374138672 0.00016101679782721775 0 -0.0032966406473055542 -3.9511013035197936e-05 0 -0.0063923151047550839 -0.0062700667157983376 0 -0.0060897125143574973 -0.0049895664087236469 0 -0.0031655951033458187 -0.00045043110629015511 0 -0.0034689802692728223 0.0001094102994424395 0 -0.0032966406473055542 -3.9511013035197936e-05 0 -0.01029624529607358 -0.0081292668335964467 0 -0.010968490037570441 -0.0093244607997820719 0 -0.012151015485605923 -0.0088355038627978624 0 -0.01029624529607358 -0.0081292668335964467 0 -0.0095753995672264568 -0.0085618955981713613 0 -0.010968490037570441 -0.0093244607997820719 0 -0.0063923151047550839 -0.0062700667157983376 0 -0.0076728435621232069 -0.0045079701317788639 0 -0.011594256831112634 -0.016169938383377356 0 -0.014772546730439567 -0.01559822283473393 0 -0.015779547710498915 -0.022301760256103913 0 -0.016872705649769996 -0.022694417910636346 0 -0.016681824177765044 -0.022410158111581372 0 -0.016872705649769996 -0.022694417910636346 0 -0.017181703009998845 -0.022369684672325332 0 -0.016681824177765044 -0.022410158111581372 0 -0.017539310006834119 -0.022878995239286399 0 -0.016872705649769996 -0.022694417910636346 0 -0.017181703009998845 -0.022369684672325332 0 -0.015675652958444787 -0.016800319622524262 0 -0.014772546730439567 -0.01559822283473393 0 -0.016454291165244696 -0.022259782138638193 0 -0.016681824177765044 -0.022410158111581372 0 -0.016855434029889607 -0.02206683794608669 0 -0.015245971835910954 -0.028045342300842532 0 -0.014406333596947322 -0.028640609529643122 0 -0.015110860499697102 -0.028784134925496033 0 -0.017181703009998845 -0.022369684672325332 0 -0.016681824177765044 -0.022410158111581372 0 -0.016855434029889607 -0.02206683794608669 0 -0.014988205813084285 -0.022627606358967666 0 -0.015278756499399389 -0.025526216698238346 0 -0.014988205813084285 -0.022627606358967666 0 -0.016662865446944519 -0.022649109639138427 0 -0.014406333596947322 -0.028640609529643122 0 -0.01470590747443631 -0.029308893595824694 0 -0.015110860499697102 -0.028784134925496033 0 -0.014406333596947322 -0.028640609529643122 0 -0.014323852554638207 -0.029186669040152848 0 -0.01470590747443631 -0.029308893595824694 0 -0.014323852554638207 -0.029186669040152848 0 -0.01470590747443631 -0.029308893595824694 0 -0.014363932655710128 -0.029553685577233622 0 -0.01470590747443631 -0.029308893595824694 0 -0.015194038721425543 -0.029564777142200054 0 -0.015110860499697102 -0.028784134925496033 0 -0.014406333596947322 -0.028640609529643122 0 -0.014323852554638207 -0.029186669040152848 0 -0.013605899230943266 -0.029206844177930024 0 -0.015278756499399389 -0.025526216698238346 0 -0.01932936127407742 -0.028693860766049895 0 -0.017181703009998845 -0.022369684672325332 0 -0.016855434029889607 -0.02206683794608669 0 -0.017314627688615684 -0.021901725860758937 0 -0.014323852554638207 -0.029186669040152848 0 -0.013605899230943266 -0.029206844177930024 0 -0.014363932655710128 -0.029553685577233622 0 -0.0227502451942934 -0.03107515105598832 0 -0.022778456599249798 -0.03107237466611653 0 -0.022776971303503125 -0.031075223142648385 0 -0.017038716150581102 -0.030705983093273354 0 -0.018552850510496738 -0.030330792004450335 0 -0.022776650136740954 -0.031120678764182803 0 -0.022795474972882333 -0.031072549678705822 0 -0.0227502451942934 -0.03107515105598832 0 -0.013605899230943266 -0.029206844177930024 0 -0.014106802638239902 -0.029752250122783038 0 -0.014363932655710128 -0.029553685577233622 0 -0.01932936127407742 -0.028693860766049895 0 -0.017038716150581102 -0.030705983093273354 0 -0.022795474972882333 -0.031072549678705822 0 -0.022778456599249798 -0.03107237466611653 0 -0.022805994276948526 -0.031072143312587498 0 -0.022795474972882333 -0.031072549678705822 0 -0.0227502451942934 -0.03107515105598832 0 -0.022778456599249798 -0.03107237466611653 0 -0.013777921630157291 -0.030304780246990945 0 -0.014417564640233377 -0.03054584992140098 0 -0.014735572251836759 -0.02996789241080745 0 -0.015095982140935806 -0.029774836828958144 0 -0.014370736488159714 -0.030355516696052232 0 -0.014326294618484725 -0.029976959158350455 0 -0.01445335751096713 -0.030099509841374373 0 -0.014490210542153499 -0.03033418856699014 0 -0.01470590747443631 -0.029308893595824694 0 -0.014735572251836759 -0.02996789241080745 0 -0.015194038721425543 -0.029564777142200054 0 -0.014846684699144784 -0.029688595625536489 0 -0.013777921630157291 -0.030304780246990945 0 -0.014106802638239902 -0.029752250122783038 0 -0.014363932655710128 -0.029553685577233622 0 -0.01445335751096713 -0.030099509841374373 0 -0.01470590747443631 -0.029308893595824694 0 -0.014363932655710128 -0.029553685577233622 0 -0.014735572251836759 -0.02996789241080745 0 -0.014363932655710128 -0.029553685577233622 0 -0.01445335751096713 -0.030099509841374373 0 -0.014735572251836759 -0.02996789241080745 0 -0.01445335751096713 -0.030099509841374373 0 -0.014735572251836759 -0.02996789241080745 0 -0.014370736488159714 -0.030355516696052232 0 -0.017038716150581102 -0.030705983093273354 0 -0.014866962843256559 -0.029521676050716823 0 -0.013190386101870798 -0.032020707084562304 0 -0.01164972064451091 -0.033322963998659534 0 -0.011674471141324836 -0.031215827941761382 0 -0.013190386101870798 -0.032020707084562304 0 -0.011674471141324836 -0.031215827941761382 0 -0.013175301980977525 -0.030108498709884201 0 -0.013777921630157291 -0.030304780246990945 0 -0.0097941627026408417 -0.027405537952560826 0 -0.013777921630157291 -0.030304780246990945 0 -0.011728769057298886 -0.025476639339055213 0 -0.015194038721425543 -0.029564777142200054 0 -0.015900982803283267 -0.02850844092572628 0 -0.015110860499697102 -0.028784134925496033 0 -0.011942422537380782 -0.028516375489171325 0 -0.012293973924307472 -0.027938369688715839 0 -0.012419061095310822 -0.02802749307203305 0 -0.0065022273553838822 -0.026370585905892571 0 -0.0065970316744333925 -0.026322155375964437 0 -0.0064650051735159536 -0.026260130416992277 0 -0.01164972064451091 -0.033322963998659534 0 -0.011674471141324836 -0.031215827941761382 0 -0.010194431104285069 -0.03234824583071446 0 -0.0097941627026408417 -0.027405537952560826 0 -0.0069386836141073147 -0.033183731516203262 0 -0.011728769057298886 -0.025476639339055213 0 -0.0097941627026408417 -0.027405537952560826 0 -0.0097635019979192481 -0.0399575981127425 0 -0.0076604332366652659 -0.039756233751571682 0 -0.007765780892825834 -0.041462046479163878 0 -0.010885493137451782 -0.035801938648618845 0 -0.0069386836141073147 -0.033183731516203262 0 -0.0045530991211870766 -0.033592318419607303 0 -0.0049776443913840595 -0.032585580487330956 0 -0.0031281911785299389 -0.032568863897106524 0 -0.0076604332366652659 -0.039756233751571682 0 -0.0061742859222407584 -0.040381175406867066 0 -0.0061255740632605287 -0.039004464743026289 0 -0.0076604332366652659 -0.039756233751571682 0 -0.0061742859222407584 -0.040381175406867066 0 -0.007765780892825834 -0.041462046479163878 0 -0.0055847884052113812 -0.03708103177406151 0 -0.0069386836141073147 -0.033183731516203262 0 -0.0045530991211870766 -0.033592318419607303 0 -0.0049776443913840595 -0.032585580487330956 0 -0.0059984215368486509 -0.034630839734750889 0 -0.0049776443913840595 -0.032585580487330956 0 -0.0060796433153854166 -0.031712814251361077 0 -0.0059984215368486509 -0.034630839734750889 0 -0.0055847884052113812 -0.03708103177406151 0 -0.004184915603194366 -0.037714476676551131 0 -0.0049776443913840595 -0.032585580487330956 0 -0.0047995181567538521 -0.031185523504334484 0 -0.0031281911785299389 -0.032568863897106524 0 -0.0049776443913840595 -0.032585580487330956 0 -0.0047995181567538521 -0.031185523504334484 0 -0.0060796433153854166 -0.031712814251361077 0 -0.0042247676638235239 -0.024442113058302715 0 -0.0041632595619442801 -0.018187094023425599 0 -0.0042247676638235239 -0.024442113058302715 0 -0.002072373630873839 -0.029810143699037457 0 -0.00081462420827715378 -0.023197781195189136 0 -0.0019740754978918272 -0.022297784274417354 0 -0.0043223189574731922 -0.024644865217661363 0 -0.0065022273553838822 -0.026370585905892571 0 -0.0063346275031041016 -0.026319470342411718 0 -0.0064650051735159536 -0.026260130416992277 0 -0.0042247676638235239 -0.024442113058302715 0 -0.0069386836141073147 -0.033183731516203262 0 -0.0037032346527972764 -0.018048628789918728 0 -0.0044809692267256934 -0.018393390375335092 0 -0.003925251487828514 -0.017841035322856809 0 -0.0028451624318817864 -0.010543187180673758 0 -0.0041632595619442801 -0.018187094023425599 0 -0.0057348920173872333 -0.019481553567883558 0 -0.0042247676638235239 -0.024442113058302715 0 -0.0052514021973214175 -0.013264388245357939 0 -0.0053386245448821595 -0.01355184132444979 0 -0.0050682672368759603 -0.013403414180998528 0 -0.0047452641916809028 -0.0077068926425693605 0 -0.0028451624318817864 -0.010543187180673758 0 -0.0057348920173872333 -0.019481553567883558 0 -0.0028451624318817864 -0.010543187180673758 0 -0.0044809692267256934 -0.018393390375335092 0 -0.003925251487828514 -0.017841035322856809 0 -0.0046267272745361123 -0.018276290589933963 0 -3.4066473555384924e-05 -0.0069042745143039373 0 -0.004016210839211617 -0.0092118020985026867 0 -0.0037157333223792979 -0.0065189080112953469 0 -0.0019740754978918272 -0.022297784274417354 0 -0.0044517642709146028 -0.020253433300103471 0 -0.0043223189574731922 -0.024644865217661363 0 -0.004016210839211617 -0.0092118020985026867 0 -0.0037157333223792979 -0.0065189080112953469 0 -0.0057765693766424894 -0.0077505604438511998 0 -0.0041632595619442801 -0.018187094023425599 0 -0.0030172070213098888 -0.016171125983655096 0 -0.0049097090881416623 -0.0061436137022716506 0 -0.0037157333223792979 -0.0065189080112953469 0 -0.0057765693766424894 -0.0077505604438511998 0 -3.4066473555384924e-05 -0.0069042745143039373 0 -0.0037157333223792979 -0.0065189080112953469 0 -0.0032115385563635684 -0.00410604959579662 0 -0.0037157333223792979 -0.0065189080112953469 0 -0.0043483396163154931 -0.0050411143005333961 0 -0.0032115385563635684 -0.00410604959579662 0 -0.0049097090881416623 -0.0061436137022716506 0 -0.0043483396163154931 -0.0050411143005333961 0 -0.0058035662318740274 -0.0052812881745514309 0 -0.0049097090881416623 -0.0061436137022716506 0 -0.0037157333223792979 -0.0065189080112953469 0 -0.0043483396163154931 -0.0050411143005333961 0 -0.0035888113414401816 -0.0031522854458340727 0 -0.0026327199675342298 -0.0024767683650259173 0 -0.0032873796916300861 -0.0024795136876881447 0 -0.0043483396163154931 -0.0050411143005333961 0 -0.0058035662318740274 -0.0052812881745514309 0 -0.0026327199675342298 -0.0024767683650259173 0 -0.0026216972896196161 -0.0064108849136014258 0 -0.0030713417541982299 -0.0023028034584190765 0 -0.0032115385563635684 -0.00410604959579662 0 -0.0022145660739281694 -0.0032871112439266706 0 -0.0026327199675342298 -0.0024767683650259173 0 -0.0043483396163154931 -0.0050411143005333961 0 -0.0032115385563635684 -0.00410604959579662 0 -0.0026327199675342298 -0.0024767683650259173 0 -0.0047452641916809028 -0.0077068926425693605 0 -0.002238371311481034 -0.00092047816925846539 0 -0.0032115385563635684 -0.00410604959579662 0 -0.0022145660739281694 -0.0032871112439266706 0 -0.0015052612714729159 -0.0042377743321443473 0 -0.0022145660739281694 -0.0032871112439266706 0 -0.0015052612714729159 -0.0042377743321443473 0 -0.0016361902039884945 -0.0024510077460455234 0 0.00037665039983622784 -0.0051904092504807446 0 -0.0015052612714729159 -0.0042377743321443473 0 -0.0016361902039884945 -0.0024510077460455234 0 -0.0032313921374138672 0.00016101679782721775 0 -0.0032966406473055542 -3.9511013035197936e-05 0 -0.0028777741577242616 -0.00062466020608351828 0 -0.0031655951033458187 -0.00045043110629015511 0 -0.0032966406473055542 -3.9511013035197936e-05 0 -0.0028777741577242616 -0.00062466020608351828 0 0.00037665039983622784 -0.0051904092504807446 0 -0.0010038103542724097 -0.0059422318402416532 0 -0.0015052612714729159 -0.0042377743321443473 0 -0.0010038103542724097 -0.0059422318402416532 0 -0.0032115385563635684 -0.00410604959579662 0 -0.0015052612714729159 -0.0042377743321443473 0 -0.0028451624318817864 -0.010543187180673758 0 -0.0029748691427251926 -0.0037443879873410133 0 0.0016473666245523529 -0.017081913266316247 0 0.0047322059325521785 -0.019601725936689296 0 0.00015736719284046446 -0.019409999151889155 0 -0.0020429537417107867 -0.009005371371498155 0 -0.0011098952949472113 -0.015525558795964725 0 -0.0048926759261868789 -0.002577888061662155 0 -0.0041895818244561747 -0.0024369177704072274 0 -0.0039004633806120092 -0.0035229242523616587 0 -0.0041895818244561747 -0.0024369177704072274 0 -0.0035804883164220432 -0.0029480651578329448 0 -0.0039004633806120092 -0.0035229242523616587 0 -0.0035804883164220432 -0.0029480651578329448 0 -0.0035888113414401816 -0.0031522854458340727 0 -0.0032873796916300861 -0.0024795136876881447 0 -0.0035804883164220432 -0.0029480651578329448 0 -0.0032873796916300861 -0.0024795136876881447 0 -0.0036907613033128318 -0.0024297205459113294 0 -0.0041895818244561747 -0.0024369177704072274 0 -0.0035804883164220432 -0.0029480651578329448 0 -0.0036907613033128318 -0.0024297205459113294 0 -0.0035804883164220432 -0.0029480651578329448 0 -0.0035665681171286332 -0.0031698389899053798 0 -0.0039004633806120092 -0.0035229242523616587 0 -0.0027763370519462149 -0.0049943449600383496 0 -0.0026216972896196161 -0.0064108849136014258 0 -0.0026216972896196161 -0.0064108849136014258 0 -0.0011098952949472113 -0.015525558795964725 0 -0.0020497821296842369 -0.01076374351924393 0 -0.0042996043592373164 -0.012945503867321739 0 -0.0019341310936886703 -0.014844884496393401 0 -0.0026216972896196161 -0.0064108849136014258 0 -0.0030172070213098888 -0.016171125983655096 0 -0.0049097090881416623 -0.0061436137022716506 0 -0.0058035662318740274 -0.0052812881745514309 0 -0.0057765693766424894 -0.0077505604438511998 0 -0.0011098952949472113 -0.015525558795964725 0 -0.0030172070213098888 -0.016171125983655096 0 -0.0030172070213098888 -0.016171125983655096 0 -0.002072373630873839 -0.029810143699037457 0 -0.0001703588514981207 -0.022455112515758872 0 0.00074208274185483779 -0.023196168851200721 0 -0.00080519567642219514 -0.024569637476623978 0 -0.0011098952949472113 -0.015525558795964725 0 -0.0003423292634038481 -0.024173063723553472 0 0.0047322059325521785 -0.019601725936689296 0 0.0014279608464874338 -0.02291219035926453 0 0.00015736719284046446 -0.019409999151889155 0 -0.0001703588514981207 -0.022455112515758872 0 -0.0029298471705484141 -0.025269304877007046 0 -0.00080519567642219514 -0.024569637476623978 0 -0.0029298471705484141 -0.025269304877007046 0 -0.00080519567642219514 -0.024569637476623978 0 -0.0024505578999195685 -0.026635200588023801 0 -0.002072373630873839 -0.029810143699037457 0 -0.0018747578032665959 -0.031655425897962719 0 0.00079821683605261324 -0.025261561270284807 0 -0.00080519567642219514 -0.024569637476623978 0 -0.0024505578999195685 -0.026635200588023801 0 0.00074208274185483779 -0.023196168851200721 0 0.00079821683605261324 -0.025261561270284807 0 -0.00080519567642219514 -0.024569637476623978 0 -0.00087791460848568451 -0.035935785265154771 0 -0.001291498704415724 -0.03666684901260215 0 -0.0015907203476949786 -0.036309665952936873 0 -0.00087791460848568451 -0.035935785265154771 0 -0.001291498704415724 -0.03666684901260215 0 -0.0008592724999588933 -0.036803018441822155 0 -0.002072373630873839 -0.029810143699037457 0 -0.004184915603194366 -0.037714476676551131 0 -0.0015907203476949786 -0.036309665952936873 0 -0.0018162257082746682 -0.03695127727867456 0 -0.0015107122628120952 -0.036771440641256106 0 -0.001291498704415724 -0.03666684901260215 0 -0.0015907203476949786 -0.036309665952936873 0 -0.0015107122628120952 -0.036771440641256106 0 -0.0018747578032665959 -0.031655425897962719 0 -0.0028592092186772006 -0.031499150022452536 0 -0.0029298471705484141 -0.025269304877007046 0 -0.0024505578999195685 -0.026635200588023801 0 -0.0056073062066159148 -0.028035209311500661 0 -0.0015907203476949786 -0.036309665952936873 0 -0.0021942294847923354 -0.036692801952246723 0 -0.0018162257082746682 -0.03695127727867456 0 -0.0003423292634038481 -0.024173063723553472 0 -0.0028592092186772006 -0.031499150022452536 0 -0.0018199238880580336 -0.026141623386425911 0 -0.0034322264008291039 -0.023568309299752128 0 -0.0039300858945614577 -0.02581399982390465 0 -0.0018199238880580336 -0.026141623386425911 0 -0.0039300858945614577 -0.02581399982390465 0 -0.005191746531653 -0.027519075805164387 0 -0.0018199238880580336 -0.026141623386425911 0 -0.0034322264008291039 -0.023568309299752128 0 -0.0015920386139424141 -0.021532083861954245 0 -0.00022894910948842749 -0.024419928559206189 0 -0.0021860002343749799 -0.022172782405232995 0 0.0014279608464874338 -0.02291219035926453 0 -0.0018199238880580336 -0.026141623386425911 0 -0.0015920386139424141 -0.021532083861954245 0 0.0035784111684401968 -0.031110845513486331 0 0.00096984203186332941 -0.027837924138472712 0 -0.00050834586287111028 -0.030458041447504483 0 0.0035784111684401968 -0.031110845513486331 0 0.0038143963842706464 -0.027733426298960247 0 0.00096984203186332941 -0.027837924138472712 0 -0.0034322264008291039 -0.023568309299752128 0 -0.0059228627473950721 -0.026370876766978139 0 -0.0039300858945614577 -0.02581399982390465 0 0.0069594396633155973 -0.027575592499787589 0 0.0035784111684401968 -0.031110845513486331 0 0.0038143963842706464 -0.027733426298960247 0 -0.00022894910948842749 -0.024419928559206189 0 -0.00093647657726058742 -0.028583199107246157 0 -0.0059228627473950721 -0.026370876766978139 0 -0.0039300858945614577 -0.02581399982390465 0 -0.005191746531653 -0.027519075805164387 0 0.0069594396633155973 -0.027575592499787589 0 0.0038143963842706464 -0.027733426298960247 0 0.003733214547359576 -0.024461667307791403 0 0.0038143963842706464 -0.027733426298960247 0 0.00096984203186332941 -0.027837924138472712 0 0.003733214547359576 -0.024461667307791403 0 0.003733214547359576 -0.024461667307791403 0 0.0012896811105604239 -0.020406610897360598 0 3.238697692685303e-05 -0.02420580807497863 0 0.00096984203186332941 -0.027837924138472712 0 0.003733214547359576 -0.024461667307791403 0 3.238697692685303e-05 -0.02420580807497863 0 0.0069594396633155973 -0.027575592499787589 0 0.003733214547359576 -0.024461667307791403 0 0.0081823725061531682 -0.022202670557288307 0 0.003733214547359576 -0.024461667307791403 0 0.0044911234651669211 -0.021242482392859221 0 0.0081823725061531682 -0.022202670557288307 0 0.0044911234651669211 -0.021242482392859221 0 0.0012896811105604239 -0.020406610897360598 0 0.0047525305565476097 -0.017897014530828249 0 0.0044911234651669211 -0.021242482392859221 0 0.0081823725061531682 -0.022202670557288307 0 0.0047525305565476097 -0.017897014530828249 0 0.003733214547359576 -0.024461667307791403 0 0.0044911234651669211 -0.021242482392859221 0 0.0012896811105604239 -0.020406610897360598 0 0.0014279608464874338 -0.02291219035926453 0 0.00015736719284046446 -0.019409999151889155 0 -0.0015920386139424141 -0.021532083861954245 0 0.00015736719284046446 -0.019409999151889155 0 -0.0015920386139424141 -0.021532083861954245 0 -0.0025434181058373887 -0.019032497329504929 0 -0.003568311507509686 -0.023580714495138887 0 -0.0015920386139424141 -0.021532083861954245 0 -0.0025434181058373887 -0.019032497329504929 0 -0.00022894910948842749 -0.024419928559206189 0 0.0036253760600509811 -0.021993103528824238 0 0.0036253760600509811 -0.021993103528824238 0 -0.0012513494785923241 -0.0096220647771891234 0 0.0016473666245523529 -0.017081913266316247 0 0.00015736719284046446 -0.019409999151889155 0 -0.0014952147371491782 -0.01450205172886109 0 0.00015736719284046446 -0.019409999151889155 0 -0.0025434181058373887 -0.019032497329504929 0 -0.0014952147371491782 -0.01450205172886109 0 -0.0048926759261868789 -0.002577888061662155 0 -0.0058077731865137545 -0.0017076759023412066 0 -0.0046151722837702927 -0.0012730816236578581 0 -0.0020429537417107867 -0.009005371371498155 0 -0.0012513494785923241 -0.0096220647771891234 0 0.0081823725061531682 -0.022202670557288307 0 0.0093812389387843836 -0.016860312970871986 0 0.0047525305565476097 -0.017897014530828249 0 -0.0056044550058693843 -0.0014556344430699192 0 -0.006332108448353236 -0.00076166170787550177 0 -0.0054848595429203536 -0.00059695345786099348 0 0.0093812389387843836 -0.016860312970871986 0 0.0047525305565476097 -0.017897014530828249 0 0.0058851444886864708 -0.014054395445431522 0 -0.0012513494785923241 -0.0096220647771891234 0 0.00021434363309699606 -0.0074746121311319346 0 -0.0012513494785923241 -0.0096220647771891234 0 -0.0054921862392011394 0.0019047382728953021 0 -0.0058077731865137545 -0.0017076759023412066 0 -0.0054848595429203536 -0.00059695345786099348 0 -0.0046151722837702927 -0.0012730816236578581 0 0.0012896811105604239 -0.020406610897360598 0 0.00099740441591813448 -0.016692536503942538 0 0.0047525305565476097 -0.017897014530828249 0 0.00099740441591813448 -0.016692536503942538 0 0.0047525305565476097 -0.017897014530828249 0 0.0028462724396208102 -0.01463399231040647 0 0.0047525305565476097 -0.017897014530828249 0 0.0058851444886864708 -0.014054395445431522 0 0.0028462724396208102 -0.01463399231040647 0 0.0058851444886864708 -0.014054395445431522 0 0.0028462724396208102 -0.01463399231040647 0 0.0023953492309001533 -0.011202650585634943 0 0.00099740441591813448 -0.016692536503942538 0 0.0028462724396208102 -0.01463399231040647 0 0.00017833229525112575 -0.01330452996582822 0 0.0023953492309001533 -0.011202650585634943 0 -0.0011685151020619142 -0.0082926355294274858 0 0.00017833229525112575 -0.01330452996582822 0 0.0028462724396208102 -0.01463399231040647 0 0.0023953492309001533 -0.011202650585634943 0 0.00017833229525112575 -0.01330452996582822 0 0.00021434363309699606 -0.0074746121311319346 0 -0.0021356404252740714 -0.00589491571885344 0 -0.006332108448353236 -0.00076166170787550177 0 -0.0069678271087305925 -3.7644791637341146e-06 0 -0.0062722477131905525 -6.5340519607993522e-05 0 -0.0069678271087305925 -3.7644791637341146e-06 0 -0.0062722477131905525 -6.5340519607993522e-05 0 -0.0065822836111298442 0.00054999123298928509 0 -0.0064894121176865089 0.0011496713752136062 0 -0.0065822836111298442 0.00054999123298928509 0 -0.005948252123008502 0.00047458864924278417 0 -0.0062722477131905525 -6.5340519607993522e-05 0 -0.0065822836111298442 0.00054999123298928509 0 -0.005948252123008502 0.00047458864924278417 0 -0.0021356404252740714 -0.00589491571885344 0 -0.0048743935055098548 -0.0016156890872763556 0 -0.0069678271087305925 -3.7644791637341146e-06 0 -0.0069965077883198841 0.00058675927547165521 0 -0.0074500050215548898 0.00069643775755324979 0 -0.0069965077883198841 0.00058675927547165521 0 -0.0071465761088810994 0.00079198936381984176 0 -0.0074500050215548898 0.00069643775755324979 0 -0.0069678271087305925 -3.7644791637341146e-06 0 -0.0065822836111298442 0.00054999123298928509 0 -0.0069965077883198841 0.00058675927547165521 0 -0.0069084054969086959 0.0010003381543437877 0 -0.0065822836111298442 0.00054999123298928509 0 -0.0069965077883198841 0.00058675927547165521 0 -0.0069084054969086959 0.0010003381543437877 0 -0.0069965077883198841 0.00058675927547165521 0 -0.0071465761088810994 0.00079198936381984176 0 -0.0054848595429203536 -0.00059695345786099348 0 -0.005948252123008502 0.00047458864924278417 0 -0.0052712835028372197 0.0002083510879253286 0 -0.0054848595429203536 -0.00059695345786099348 0 -0.0052712835028372197 0.0002083510879253286 0 -0.0048376956493817822 -0.00038255131869235171 0 -0.006332108448353236 -0.00076166170787550177 0 -0.0062722477131905525 -6.5340519607993522e-05 0 -0.0054848595429203536 -0.00059695345786099348 0 -0.0062722477131905525 -6.5340519607993522e-05 0 -0.0054848595429203536 -0.00059695345786099348 0 -0.005948252123008502 0.00047458864924278417 0 -0.0054203710006626819 0.00084335134533012842 0 -0.005948252123008502 0.00047458864924278417 0 -0.0052712835028372197 0.0002083510879253286 0 -0.0054203710006626819 0.00084335134533012842 0 -0.0052712835028372197 0.0002083510879253286 0 -0.0046249513597210346 0.00068968636051017294 0 -0.0052712835028372197 0.0002083510879253286 0 -0.0046249513597210346 0.00068968636051017294 0 -0.0048376956493817822 -0.00038255131869235171 0 -0.0046249513597210346 0.00068968636051017294 0 -0.0048376956493817822 -0.00038255131869235171 0 -0.0041700405953805052 -0.00013140052124283079 0 -0.0048376956493817822 -0.00038255131869235171 0 -0.0041700405953805052 -0.00013140052124283079 0 -0.0046151722837702927 -0.0012730816236578581 0 -0.0041700405953805052 -0.00013140052124283079 0 -0.0034634784502611373 -9.4319049231060569e-05 0 -0.0036266225419220146 -0.00074123621283408113 0 -0.0041700405953805052 -0.00013140052124283079 0 -0.0038670691849777964 0.00048371649192654575 0 -0.0034634784502611373 -9.4319049231060569e-05 0 -0.0046249513597210346 0.00068968636051017294 0 -0.0041700405953805052 -0.00013140052124283079 0 -0.0038670691849777964 0.00048371649192654575 0 -0.0032464249023897505 0.00072494524234879365 0 -0.0027828661926608427 -0.00023158811746779341 0 -0.0034634784502611373 -9.4319049231060569e-05 0 -0.0038670691849777964 0.00048371649192654575 0 -0.0032464249023897505 0.00072494524234879365 0 -0.0034634784502611373 -9.4319049231060569e-05 0 -0.0032464249023897505 0.00072494524234879365 0 -0.0025091766381077482 0.00057078069465184582 0 -0.0027828661926608427 -0.00023158811746779341 0 -0.0027316902604364824 -0.00052206505252129411 0 -0.0027828661926608427 -0.00023158811746779341 0 -0.0028811939973265731 -0.00064571445139800234 0 -0.001907635508307358 -0.00043716697950157973 0 -0.0025091766381077482 0.00057078069465184582 0 -0.0027828661926608427 -0.00023158811746779341 0 -0.0027828661926608427 -0.00023158811746779341 0 -0.0030411628973351051 -0.00058411319507715108 0 -0.0028811939973265731 -0.00064571445139800234 0 -0.0027828661926608427 -0.00023158811746779341 0 -0.0034634784502611373 -9.4319049231060569e-05 0 -0.0030411628973351051 -0.00058411319507715108 0 -0.0034634784502611373 -9.4319049231060569e-05 0 -0.0030411628973351051 -0.00058411319507715108 0 -0.0036266225419220146 -0.00074123621283408113 0 -0.0030411628973351051 -0.00058411319507715108 0 -0.0030555287310327223 -0.00094912951466876859 0 -0.0036266225419220146 -0.00074123621283408113 0 -0.0030555287310327223 -0.00094912951466876859 0 -0.0036949304735849138 -0.001812891161785825 0 -0.0036266225419220146 -0.00074123621283408113 0 -0.0032800982644121449 -0.00083597929424272311 0 -0.0028811939973265731 -0.00064571445139800234 0 -0.0029727998948349413 -0.00079933259063396094 0 -0.0030411628973351051 -0.00058411319507715108 0 -0.0030555287310327223 -0.00094912951466876859 0 -0.0029727998948349413 -0.00079933259063396094 0 -0.0030411628973351051 -0.00058411319507715108 0 -0.0028811939973265731 -0.00064571445139800234 0 -0.0029727998948349413 -0.00079933259063396094 0 -0.0029727998948349413 -0.00079933259063396094 0 -0.0030500535456576012 -0.0007101181774071721 0 -0.0028777741577242616 -0.00062466020608351828 0 -0.0028894438676085148 -0.0011449574653325135 0 -0.002238371311481034 -0.00092047816925846539 0 -0.0030555287310327223 -0.00094912951466876859 0 -0.0029727998948349413 -0.00079933259063396094 0 -0.0028777741577242616 -0.00062466020608351828 0 -0.0022145660739281694 -0.0032871112439266706 0 -0.0016361902039884945 -0.0024510077460455234 0 -0.0026327199675342298 -0.0024767683650259173 0 -0.0031655951033458187 -0.00045043110629015511 0 -0.0030500535456576012 -0.0007101181774071721 0 -0.0028777741577242616 -0.00062466020608351828 0 -0.0030555287310327223 -0.00094912951466876859 0 -0.0016361902039884945 -0.0024510077460455234 0 -0.0031150299248737527 -0.0019255142062037341 0 -0.0030555287310327223 -0.00094912951466876859 0 -0.0031150299248737527 -0.0019255142062037341 0 -0.0036949304735849138 -0.001812891161785825 0 -0.0016361902039884945 -0.0024510077460455234 0 -0.0031150299248737527 -0.0019255142062037341 0 -0.0026327199675342298 -0.0024767683650259173 0 -0.0031150299248737527 -0.0019255142062037341 0 -0.0032873796916300861 -0.0024795136876881447 0 -0.0036949304735849138 -0.001812891161785825 0 -0.0031150299248737527 -0.0019255142062037341 0 -0.0026327199675342298 -0.0024767683650259173 0 -0.0032873796916300861 -0.0024795136876881447 0 -0.0041895818244561747 -0.0024369177704072274 0 -0.0036907613033128318 -0.0024297205459113294 0 -0.0036949304735849138 -0.001812891161785825 0 -0.0032873796916300861 -0.0024795136876881447 0 -0.0036907613033128318 -0.0024297205459113294 0 -0.0036949304735849138 -0.001812891161785825 0 -0.0041895818244561747 -0.0024369177704072274 0 -0.0036949304735849138 -0.001812891161785825 0 -0.0046151722837702927 -0.0012730816236578581 0 -0.0048926759261868789 -0.002577888061662155 0 -0.0041895818244561747 -0.0024369177704072274 0 -0.0046151722837702927 -0.0012730816236578581 0 -0.0054848595429203536 -0.00059695345786099348 0 -0.0048376956493817822 -0.00038255131869235171 0 -0.0046151722837702927 -0.0012730816236578581 0 -0.0041700405953805052 -0.00013140052124283079 0 -0.0046151722837702927 -0.0012730816236578581 0 -0.0036266225419220146 -0.00074123621283408113 0 -0.0036949304735849138 -0.001812891161785825 0 -0.0046151722837702927 -0.0012730816236578581 0 -0.0036266225419220146 -0.00074123621283408113 0 -0.036721874439857291 -0.0068616171038531374 0 -0.036035968043791229 -0.0066841791933161601 0 -0.036532082320672843 -0.0059109069866004095 0 -0.036035968043791229 -0.0066841791933161601 0 -0.035627804081213445 -0.0072397373312043326 0 -0.036417236892840675 -0.007325014263627686 0 -0.036721874439857291 -0.0068616171038531374 0 -0.036035968043791229 -0.0066841791933161601 0 -0.036417236892840675 -0.007325014263627686 0 -0.036035968043791229 -0.0066841791933161601 0 -0.035136527166055344 -0.0067173380919977582 0 -0.035627804081213445 -0.0072397373312043326 0 -0.035131586793646641 -0.0068037434406932702 0 -0.03524529827748344 -0.0081359563655514708 0 -0.035127218746440973 -0.0069420166884651292 0 -0.034999999313479364 -0.0067779105148893367 0 -0.034999997604117185 -0.0078787725727869386 0 -0.035136527166055344 -0.0067173380919977582 0 -0.035627804081213445 -0.0072397373312043326 0 -0.035287866620473791 -0.007755793996940966 0 -0.036035968043791229 -0.0066841791933161601 0 -0.035136527166055344 -0.0067173380919977582 0 -0.035791260194390655 -0.0059926781128166479 0 -0.03524529827748344 -0.0081359563655514708 0 -0.036343291708179411 -0.0073260150041744949 0 -0.035127218746440973 -0.0069420166884651292 0 -0.034999997604117185 -0.0078787725727869386 0 -0.035299903843395729 -0.0082656802355432109 0 -0.035627804081213445 -0.0072397373312043326 0 -0.035287866620473791 -0.007755793996940966 0 -0.036417236892840675 -0.007325014263627686 0 -0.035000227220301501 -0.0078790001577088969 0 -0.03524529827748344 -0.0081359563655514708 0 -0.03499999962639929 -0.0078787789856875762 0 -0.034999999354246254 -0.0083748421857031737 0 -0.03530022629537289 -0.008266003508155444 0 -0.03500022504641559 -0.0083744578526283933 0 -0.03524529827748344 -0.0081359563655514708 0 -0.035055184281041735 -0.0078217211014076082 0 -0.035971454109950521 -0.0081153888218567713 0 -0.036238584062575921 -0.0073890549198890919 0 -0.035971454109950521 -0.0081153888218567713 0 -0.036238584062575921 -0.0073890549198890919 0 -0.036711608423297862 -0.0083610101585914701 0 -0.036238584062575921 -0.0073890549198890919 0 -0.036983499526418211 -0.0076444041207966145 0 -0.037430857084241986 -0.0069622748697005365 0 -0.036238584062575921 -0.0073890549198890919 0 -0.036983499526418211 -0.0076444041207966145 0 -0.036711608423297862 -0.0083610101585914701 0 -0.036983499526418211 -0.0076444041207966145 0 -0.03754716733869369 -0.0078676249579145499 0 -0.037430857084241986 -0.0069622748697005365 0 -0.036983499526418211 -0.0076444041207966145 0 -0.03754716733869369 -0.0078676249579145499 0 -0.036711608423297862 -0.0083610101585914701 0 -0.03754716733869369 -0.0078676249579145499 0 -0.038836919628117042 -0.0077229521084563419 0 -0.037812376543003269 -0.0087747769064354351 0 -0.03754716733869369 -0.0078676249579145499 0 -0.038134170957467177 -0.0072665315312103558 0 -0.037430857084241986 -0.0069622748697005365 0 -0.03754716733869369 -0.0078676249579145499 0 -0.038134170957467177 -0.0072665315312103558 0 -0.038836919628117042 -0.0077229521084563419 0 -0.038134170957467177 -0.0072665315312103558 0 -0.037430857084241986 -0.0069622748697005365 0 -0.038597988546773258 -0.0061785901203537386 0 -0.037430857084241986 -0.0069622748697005365 0 -0.037128549514642575 -0.0063313021829298774 0 -0.038597988546773258 -0.0061785901203537386 0 -0.036343291708179411 -0.0073260150041744949 0 -0.037343608955223567 -0.0069967009133380838 0 -0.036721874439857291 -0.0068616171038531374 0 -0.036417236892840675 -0.007325014263627686 0 -0.037430857084241986 -0.0069622748697005365 0 -0.036721874439857291 -0.0068616171038531374 0 -0.037430857084241986 -0.0069622748697005365 0 -0.037128549514642575 -0.0063313021829298774 0 -0.037374086270950298 -0.0056668786949510587 0 -0.037128549514642575 -0.0063313021829298774 0 -0.036416299762965308 -0.0060186399353721757 0 -0.036721874439857291 -0.0068616171038531374 0 -0.037128549514642575 -0.0063313021829298774 0 -0.036416299762965308 -0.0060186399353721757 0 -0.037374086270950298 -0.0056668786949510587 0 -0.037128549514642575 -0.0063313021829298774 0 -0.038597988546773258 -0.0061785901203537386 0 -0.036309258696957399 -0.0020491696464451509 0 -0.036804244695316096 -0.0017747790883702323 0 -0.036902805428729063 -0.0022873428143180105 0 -0.0368042045750974 -0.0037954048130334887 0 -0.037766673049990075 -0.0040778004087139103 0 -0.036309258696957399 -0.0020491696464451509 0 -0.036149806209171048 -0.0013777922984528888 0 -0.036804244695316096 -0.0017747790883702323 0 -0.0368042045750974 -0.0037954048130334887 0 -0.035987040030535634 -0.0041066513831692483 0 -0.036309258696957399 -0.0020491696464451509 0 -0.035674872546712526 -0.0018090633395586103 0 -0.036149806209171048 -0.0013777922984528888 0 -0.037374086270950298 -0.0056668786949510587 0 -0.036138983236544235 -0.0051495456211620603 0 -0.036416299762965308 -0.0060186399353721757 0 -0.035987040030535634 -0.0041066513831692483 0 -0.036526126262921246 -0.0061243373732093051 0 -0.036680648143709131 -0.0066921786487935675 0 -0.036526126262921246 -0.0061243373732093051 0 -0.036286960931772159 -0.0048642807933179585 0 -0.036532082320672843 -0.0059109069866004095 0 -0.035791260194390655 -0.0059926781128166479 0 -0.036035968043791229 -0.0066841791933161601 0 -0.036532082320672843 -0.0059109069866004095 0 -0.035791260194390655 -0.0059926781128166479 0 -0.035127218746440973 -0.0069420166884651292 0 -0.034999999313479364 -0.0067779105148893367 0 -0.034999998868606247 -0.0056770409545431845 0 -0.036286960931772159 -0.0048642807933179585 0 -0.034999972481866148 -0.0056767492198269657 0 -0.035791260194390655 -0.0059926781128166479 0 -0.035131586793646641 -0.0068037434406932702 0 -0.035000041949668603 -0.005677373364014005 0 -0.035136527166055344 -0.0067173380919977582 0 -0.034999972481866148 -0.0056767492198269657 0 -0.035791260194390655 -0.0059926781128166479 0 -0.035987040030535634 -0.0041066513831692483 0 -0.035000919114923722 -0.004222244293960258 0 -0.036286960931772159 -0.0048642807933179585 0 -0.034999972481866148 -0.0056767492198269657 0 -0.03499993877563453 -0.0042219958930802938 0 -0.034999995464541994 -0.0042216095927335769 0 -0.036036237498556764 -0.0035574742635834608 0 -0.03499998737489185 -0.0025945511214595777 0 -0.036418015077435917 -0.004776816384095852 0 -0.034999995464541994 -0.0042216095927335769 0 -0.036036237498556764 -0.0035574742635834608 0 -0.035674872546712526 -0.0018090633395586103 0 -0.035510374178343199 -0.0013173492839181 0 -0.036149806209171048 -0.0013777922984528888 0 -0.035987040030535634 -0.0041066513831692483 0 -0.035737734403067198 -0.0022998283046968223 0 -0.035510374178343199 -0.0013173492839181 0 -0.035787942539327086 -0.00096336689783108238 0 -0.036149806209171048 -0.0013777922984528888 0 -0.035510374178343199 -0.0013173492839181 0 -0.035787942539327086 -0.00096336689783108238 0 -0.035344833385236557 -0.00081712218422161267 0 -0.035787942539327086 -0.00096336689783108238 0 -0.035344833385236557 -0.00081712218422161267 0 -0.035943451268621279 -0.00054163055312809875 0 -0.036036237498556764 -0.0035574742635834608 0 -0.035647439939249397 -0.0023144636758215369 0 -0.03499998737489185 -0.0025945511214595777 0 -0.035737734403067198 -0.0022998283046968223 0 -0.035502203599998006 -0.0015965982575304228 0 -0.035502203599998006 -0.0015965982575304228 0 -0.035000112264715742 -0.002593961577466971 0 -0.035653353158465295 -0.0023115621136453484 0 -0.03499999802497844 -0.0025945045254374805 0 -0.034999998628120123 -0.001424745383483533 0 -0.035653353158465295 -0.0023115621136453484 0 -0.035326694760763742 -0.0012842828982478694 0 -0.034999998628120123 -0.001424745383483533 0 -0.035502203599998006 -0.0015965982575304228 0 -0.035262074701601608 -0.00092628587613727829 0 -0.035371354624990442 -0.0010077848944390819 0 -0.035209738179203559 -0.00054891993549172904 0 -0.036094993528687294 -0.00062439179645303251 0 -0.035209738179203559 -0.00054891993549172904 0 -0.036094993528687294 -0.00062439179645303251 0 -0.035805365265264635 -2.2112533145850087e-05 0 -0.035502203599998006 -0.0015965982575304228 0 -0.036023203387147977 -0.00051094173373093864 0 -0.036353657523065269 0.00023814191254900656 0 -0.036094993528687294 -0.00062439179645303251 0 -0.035805365265264635 -2.2112533145850087e-05 0 -0.035209738179203559 -0.00054891993549172904 0 -0.035805365265264635 -2.2112533145850087e-05 0 -0.035000123537478167 -0.00025381792181027784 0 -0.035326694760763742 -0.0012842828982478694 0 -0.034999998628120123 -0.001424745383483533 0 -0.034999999058824165 -0.0002549802535802135 0 -0.035488790544101818 0.00038916835295885649 0 -0.035805365265264635 -2.2112533145850087e-05 0 -0.035000123537478167 -0.00025381792181027784 0 -0.035262074701601608 -0.00092628587613727829 0 -0.035000092337951087 -0.00025515595289608432 0 -0.036967064987428216 0.00043058165715379783 0 -0.036615300756721057 -0.00025504472496725887 0 -0.037042921086259846 -0.00010282848272388833 0 -0.036967064987428216 0.00043058165715379783 0 -0.036353657523065269 0.00023814191254900656 0 -0.036615300756721057 -0.00025504472496725887 0 -0.036353657523065269 0.00023814191254900656 0 -0.036094993528687294 -0.00062439179645303251 0 -0.036615300756721057 -0.00025504472496725887 0 -0.036023203387147977 -0.00051094173373093864 0 -0.036563894356569954 -0.00030519160611126693 0 -0.035943451268621279 -0.00054163055312809875 0 -0.036615300756721057 -0.00025504472496725887 0 -0.036388786649129826 -0.00086956750291495601 0 -0.036615300756721057 -0.00025504472496725887 0 -0.036388786649129826 -0.00086956750291495601 0 -0.037103643264708185 -0.00068433876276769443 0 -0.036388786649129826 -0.00086956750291495601 0 -0.036149806209171048 -0.0013777922984528888 0 -0.03674561084126976 -0.0012390371100878925 0 -0.036388786649129826 -0.00086956750291495601 0 -0.03674561084126976 -0.0012390371100878925 0 -0.037103643264708185 -0.00068433876276769443 0 -0.035787942539327086 -0.00096336689783108238 0 -0.036388786649129826 -0.00086956750291495601 0 -0.036149806209171048 -0.0013777922984528888 0 -0.035787942539327086 -0.00096336689783108238 0 -0.035943451268621279 -0.00054163055312809875 0 -0.036388786649129826 -0.00086956750291495601 0 -0.036149806209171048 -0.0013777922984528888 0 -0.03674561084126976 -0.0012390371100878925 0 -0.036804244695316096 -0.0017747790883702323 0 -0.03674561084126976 -0.0012390371100878925 0 -0.037186135330180302 -0.0014668991383560419 0 -0.036804244695316096 -0.0017747790883702323 0 -0.037186135330180302 -0.0014668991383560419 0 -0.037552739811737387 -0.0011122980822153151 0 -0.037586767378831661 -0.0018365775697768655 0 -0.037186135330180302 -0.0014668991383560419 0 -0.037103643264708185 -0.00068433876276769443 0 -0.037552739811737387 -0.0011122980822153151 0 -0.037103643264708185 -0.00068433876276769443 0 -0.037676907655770905 -0.00055322260688524553 0 -0.037552739811737387 -0.0011122980822153151 0 -0.03674561084126976 -0.0012390371100878925 0 -0.037186135330180302 -0.0014668991383560419 0 -0.037103643264708185 -0.00068433876276769443 0 -0.036615300756721057 -0.00025504472496725887 0 -0.037103643264708185 -0.00068433876276769443 0 -0.037042921086259846 -0.00010282848272388833 0 -0.037103643264708185 -0.00068433876276769443 0 -0.037506084926479069 4.5319077432549763e-05 0 -0.037676907655770905 -0.00055322260688524553 0 -0.037103643264708185 -0.00068433876276769443 0 -0.037506084926479069 4.5319077432549763e-05 0 -0.037042921086259846 -0.00010282848272388833 0 -0.036967064987428216 0.00043058165715379783 0 -0.037506084926479069 4.5319077432549763e-05 0 -0.037042921086259846 -0.00010282848272388833 0 -0.031733744689799108 0.0095471013139465776 0 -0.031798480893938587 0.0081618725226281722 0 -0.030092298522519389 0.0086955755561738349 0 -0.033340732951609234 0.0040741025182618306 0 -0.031876924901845509 0.0097918599697009983 0 -0.033509237144226579 0.008136159164556853 0 -0.031766512886853469 0.0090405423356085552 0 -0.031798480893938587 0.0081618725226281722 0 -0.037506084926479069 4.5319077432549763e-05 0 -0.038122894395539793 -0.00027527005440205441 0 -0.037676907655770905 -0.00055322260688524553 0 -0.03583259743848944 0.0040936466964816027 0 -0.033340732951609234 0.0040741025182618306 0 -0.038122894395539793 -0.00027527005440205441 0 -0.037676907655770905 -0.00055322260688524553 0 -0.038162320538628572 -0.00087349155104202657 0 -0.033340732951609234 0.0040741025182618306 0 -0.035136875798747115 0.00014840892161660412 0 -0.038162320538628572 -0.00087349155104202657 0 -0.037552739811737387 -0.0011122980822153151 0 -0.038171126349822442 -0.001421809064795359 0 -0.037676907655770905 -0.00055322260688524553 0 -0.038162320538628572 -0.00087349155104202657 0 -0.037552739811737387 -0.0011122980822153151 0 -0.038372800915399727 -0.0014767370978584968 0 -0.036172651536730306 -0.00084422504191390875 0 -0.037552739811737387 -0.0011122980822153151 0 -0.03802691472322578 -0.0016204899852483336 0 -0.037586767378831661 -0.0018365775697768655 0 -0.035136875798747115 0.00014840892161660412 0 -0.036172651536730306 -0.00084422504191390875 0 -0.03802691472322578 -0.0016204899852483336 0 -0.037802326456328111 -0.0019484631391402988 0 -0.037923351827086151 -0.0021406231801024806 0 -0.036172651536730306 -0.00084422504191390875 0 -0.037758838222310166 -0.0036224296854748595 0 -0.03802691472322578 -0.0016204899852483336 0 -0.037802326456328111 -0.0019484631391402988 0 -0.037586767378831661 -0.0018365775697768655 0 -0.037802326456328111 -0.0019484631391402988 0 -0.037923351827086151 -0.0021406231801024806 0 -0.037668697836041203 -0.0021838912676918182 0 -0.037758838222310166 -0.0036224296854748595 0 -0.037520063668288209 -0.0023736286831126121 0 -0.037923351827086151 -0.0021406231801024806 0 -0.037660885870225549 -0.0023664787445381178 0 -0.0374916044521919 -0.0025686103469764981 0 -0.037923351827086151 -0.0021406231801024806 0 -0.037660885870225549 -0.0023664787445381178 0 -0.037668697836041203 -0.0021838912676918182 0 -0.037602209899188152 -0.0022704275346863262 0 -0.037583040208648361 -0.0024012698009389273 0 -0.037634896936403095 -0.0023413572542854552 0 -0.037602209899188152 -0.0022704275346863262 0 -0.037583040208648361 -0.0024012698009389273 0 -0.037524615564091215 -0.0021442807483467979 0 -0.037602209899188152 -0.0022704275346863262 0 -0.037634896936403095 -0.0023413572542854552 0 -0.037668697836041203 -0.0021838912676918182 0 -0.037660885870225549 -0.0023664787445381178 0 -0.037634896936403095 -0.0023413572542854552 0 -0.037668697836041203 -0.0021838912676918182 0 -0.037660885870225549 -0.0023664787445381178 0 -0.037634896936403095 -0.0023413572542854552 0 -0.037647071482911215 -0.0023754278312338576 0 -0.037602209899188152 -0.0022704275346863262 0 -0.037668697836041203 -0.0021838912676918182 0 -0.037524615564091215 -0.0021442807483467979 0 -0.037668697836041203 -0.0021838912676918182 0 -0.037524615564091215 -0.0021442807483467979 0 -0.037586767378831661 -0.0018365775697768655 0 -0.037524615564091215 -0.0021442807483467979 0 -0.037586767378831661 -0.0018365775697768655 0 -0.03730499964713628 -0.0020806919644842732 0 -0.037802326456328111 -0.0019484631391402988 0 -0.037668697836041203 -0.0021838912676918182 0 -0.037586767378831661 -0.0018365775697768655 0 -0.037186135330180302 -0.0014668991383560419 0 -0.037586767378831661 -0.0018365775697768655 0 -0.03730499964713628 -0.0020806919644842732 0 -0.037186135330180302 -0.0014668991383560419 0 -0.036804244695316096 -0.0017747790883702323 0 -0.03730499964713628 -0.0020806919644842732 0 -0.036804244695316096 -0.0017747790883702323 0 -0.036902805428729063 -0.0022873428143180105 0 -0.03730499964713628 -0.0020806919644842732 0 -0.036902805428729063 -0.0022873428143180105 0 -0.03730499964713628 -0.0020806919644842732 0 -0.037470346811164054 -0.0025173704287825152 0 -0.037583040208648361 -0.0024012698009389273 0 -0.03730499964713628 -0.0020806919644842732 0 -0.037470346811164054 -0.0025173704287825152 0 -0.037766673049990075 -0.0040778004087139103 0 -0.03836918673652618 -0.0059980319710024608 0 -0.037583040208648361 -0.0024012698009389273 0 -0.037524615564091215 -0.0021442807483467979 0 -0.03730499964713628 -0.0020806919644842732 0 -0.03836918673652618 -0.0059980319710024608 0 -0.038495879497151213 -0.01043417841888517 0 -0.038597988546773258 -0.0061785901203537386 0 -0.039838062927454489 -0.0066966898331468567 0 -0.038836919628117042 -0.0077229521084563419 0 -0.038134170957467177 -0.0072665315312103558 0 -0.038597988546773258 -0.0061785901203537386 0 -0.038836919628117042 -0.0077229521084563419 0 -0.039113626041104042 -0.011057410544790768 0 -0.038197985478577889 -0.012037136260204516 0 -0.039198428291816474 -0.012120318753836014 0 -0.038197985478577889 -0.012037136260204516 0 -0.039198428291816474 -0.012120318753836014 0 -0.038602098433943348 -0.012763970491651261 0 -0.039198428291816474 -0.012120318753836014 0 -0.040419405397193769 -0.011611340632638271 0 -0.039688118644933913 -0.013141117658261573 0 -0.037653679561086693 -0.0021924153367081935 0 -0.0374916044521919 -0.0025686103469764981 0 -0.037647071482911215 -0.0023754278312338576 0 -0.037660885870225549 -0.0023664787445381178 0 -0.0374916044521919 -0.0025686103469764981 0 -0.037647071482911215 -0.0023754278312338576 0 -0.037610556394836347 -0.0024587538504563214 0 -0.037653679561086693 -0.0021924153367081935 0 -0.037647071482911215 -0.0023754278312338576 0 -0.039113626041104042 -0.011057410544790768 0 -0.039198428291816474 -0.012120318753836014 0 -0.040419405397193769 -0.011611340632638271 0 -0.037583040208648361 -0.0024012698009389273 0 -0.037610556394836347 -0.0024587538504563214 0 -0.037647071482911215 -0.0023754278312338576 0 -0.03836918673652618 -0.0059980319710024608 0 -0.039338500740884977 -0.0066830984163415265 0 -0.037583040208648361 -0.0024012698009389273 0 -0.037634896936403095 -0.0023413572542854552 0 -0.037647071482911215 -0.0023754278312338576 0 -0.038753368951270808 -0.0042361806908437286 0 -0.03836918673652618 -0.0059980319710024608 0 -0.040419405397193769 -0.011611340632638271 0 -0.04170739579035565 -0.012164829473585999 0 -0.041031175114516164 -0.013344927012098435 0 -0.036471247282639389 -0.002331430282762214 0 -0.034516518363872269 -0.0031496181542725555 0 -0.035933465445864954 -0.0033227822751443268 0 -0.036471247282639389 -0.002331430282762214 0 -0.035827963885797086 -0.0012803712908573748 0 -0.034516518363872269 -0.0031496181542725555 0 -0.036888188274341357 -0.0092513748905728964 0 -0.034612556000530266 -0.00024766731716025181 0 -0.037653679561086693 -0.0021924153367081935 0 -0.0374916044521919 -0.0025686103469764981 0 -0.036471247282639389 -0.002331430282762214 0 -0.0374916044521919 -0.0025686103469764981 0 -0.036471247282639389 -0.002331430282762214 0 -0.036786825665840781 -0.0033983060351724546 0 -0.036471247282639389 -0.002331430282762214 0 -0.035933465445864954 -0.0033227822751443268 0 -0.036786825665840781 -0.0033983060351724546 0 -0.037653679561086693 -0.0021924153367081935 0 -0.036471247282639389 -0.002331430282762214 0 -0.035827963885797086 -0.0012803712908573748 0 -0.039338500740884977 -0.0066830984163415265 0 -0.036888188274341357 -0.0092513748905728964 0 -0.036888188274341357 -0.0092513748905728964 0 -0.033936587135533748 -0.011940218645827939 0 -0.035094069775850653 -0.0022452191356719083 0 -0.033970655442631614 -0.0026457312453025605 0 -0.034052180847569162 -0.0018069279612277448 0 -0.033970655442631614 -0.0026457312453025605 0 -0.032993467581540994 -0.0021891382630535249 0 -0.034052180847569162 -0.0018069279612277448 0 -0.033970655442631614 -0.0026457312453025605 0 -0.03303039009431441 -0.0030717020057860673 0 -0.032993467581540994 -0.0021891382630535249 0 -0.033970655442631614 -0.0026457312453025605 0 -0.034154159680952069 -0.0036421738940675052 0 -0.03303039009431441 -0.0030717020057860673 0 -0.033970655442631614 -0.0026457312453025605 0 -0.034516518363872269 -0.0031496181542725555 0 -0.034154159680952069 -0.0036421738940675052 0 -0.035094069775850653 -0.0022452191356719083 0 -0.033970655442631614 -0.0026457312453025605 0 -0.034516518363872269 -0.0031496181542725555 0 -0.034516518363872269 -0.0031496181542725555 0 -0.034154159680952069 -0.0036421738940675052 0 -0.035817552485047172 -0.0045436019556806782 0 -0.031722942118277968 0.00044269993138404672 0 -0.032983234201215496 -0.00036303590447480386 0 -0.029374017889690223 0.0044228926551594513 0 -0.028910608852611215 0.0038809487378802009 0 -0.028403431456200164 0.0048337116872945634 0 -0.031722942118277968 0.00044269993138404672 0 -0.031189150400212126 0.00052110028085240116 0 -0.028910608852611215 0.0038809487378802009 0 -0.029639732296262121 0.0033671371688854274 0 -0.028571687609173984 0.0032209561381390441 0 -0.028910608852611215 0.0038809487378802009 0 -0.028571687609173984 0.0032209561381390441 0 -0.028315034380141078 0.0040039079092996808 0 -0.029374017889690223 0.0044228926551594513 0 -0.030665378760366409 0.0038245705761630515 0 -0.029639732296262121 0.0033671371688854274 0 -0.029374017889690223 0.0044228926551594513 0 -0.028910608852611215 0.0038809487378802009 0 -0.029639732296262121 0.0033671371688854274 0 -0.034516518363872269 -0.0031496181542725555 0 -0.035817552485047172 -0.0045436019556806782 0 -0.035933465445864954 -0.0033227822751443268 0 -0.037439394136548183 -0.0040894626767513402 0 -0.035817552485047172 -0.0045436019556806782 0 -0.036786825665840781 -0.0033983060351724546 0 -0.035817552485047172 -0.0045436019556806782 0 -0.035933465445864954 -0.0033227822751443268 0 -0.036786825665840781 -0.0033983060351724546 0 -0.037439394136548183 -0.0040894626767513402 0 -0.0374916044521919 -0.0025686103469764981 0 -0.036786825665840781 -0.0033983060351724546 0 -0.036172651536730306 -0.00084422504191390875 0 -0.032983234201215496 -0.00036303590447480386 0 -0.037476210243530234 -0.0054161268798218224 0 -0.037439394136548183 -0.0040894626767513402 0 -0.035817552485047172 -0.0045436019556806782 0 -0.031995201734608132 0.0019843016973111719 0 -0.031956156719540489 0.0030901610780417798 0 -0.03075304650700033 0.0026145184044086512 0 -0.031956156719540489 0.0030901610780417798 0 -0.030665378760366409 0.0038245705761630515 0 -0.03075304650700033 0.0026145184044086512 0 -0.030665378760366409 0.0038245705761630515 0 -0.03075304650700033 0.0026145184044086512 0 -0.029639732296262121 0.0033671371688854274 0 -0.029685006978877267 0.0062745497918305949 0 -0.028129523243746117 0.0068572330383104693 0 -0.03075304650700033 0.0026145184044086512 0 -0.030758974579060593 0.0014575670004368525 0 -0.029444766543989118 0.0020009156766809901 0 -0.031995201734608132 0.0019843016973111719 0 -0.03075304650700033 0.0026145184044086512 0 -0.030758974579060593 0.0014575670004368525 0 -0.033340732951609234 0.0040741025182618306 0 -0.029685006978877267 0.0062745497918305949 0 -0.032050753023152183 0.00090691012104130581 0 -0.031995201734608132 0.0019843016973111719 0 -0.030758974579060593 0.0014575670004368525 0 -0.029302053660309132 0.010655020475280216 0 -0.028346430894096487 0.0085113322072724075 0 -0.027444340605681069 0.0098732479907405017 0 -0.029302053660309132 0.010655020475280216 0 -0.028346430894096487 0.0085113322072724075 0 -0.030092298522519389 0.0086955755561738349 0 -0.031733744689799108 0.0095471013139465776 0 -0.029302053660309132 0.010655020475280216 0 -0.030092298522519389 0.0086955755561738349 0 -0.026467298541710912 0.0078511729281034812 0 -0.024631136737470808 0.0084092015706093131 0 -0.025450847453538386 0.0098076537465745395 0 -0.024631136737470808 0.0084092015706093131 0 -0.025450847453538386 0.0098076537465745395 0 -0.023487407686449645 0.0094609925708547243 0 -0.026467298541710912 0.0078511729281034812 0 -0.028346430894096487 0.0085113322072724075 0 -0.027444340605681069 0.0098732479907405017 0 -0.026467298541710912 0.0078511729281034812 0 -0.027444340605681069 0.0098732479907405017 0 -0.025450847453538386 0.0098076537465745395 0 -0.027444340605681069 0.0098732479907405017 0 -0.025450847453538386 0.0098076537465745395 0 -0.026682630192347279 0.011813116515435611 0 -0.029302053660309132 0.010655020475280216 0 -0.027444340605681069 0.0098732479907405017 0 -0.026682630192347279 0.011813116515435611 0 -0.025450847453538386 0.0098076537465745395 0 -0.026682630192347279 0.011813116515435611 0 -0.02366360279575519 0.011108435159225206 0 -0.028129523243746117 0.0068572330383104693 0 -0.02571637696316495 0.0077983406092440788 0 -0.026682630192347279 0.011813116515435611 0 -0.02378782197166443 0.013030194214500938 0 -0.02366360279575519 0.011108435159225206 0 -0.03075304650700033 0.0026145184044086512 0 -0.029444766543989118 0.0020009156766809901 0 -0.029639732296262121 0.0033671371688854274 0 -0.029444766543989118 0.0020009156766809901 0 -0.029639732296262121 0.0033671371688854274 0 -0.028571687609173984 0.0032209561381390441 0 -0.029444766543989118 0.0020009156766809901 0 -0.028571687609173984 0.0032209561381390441 0 -0.027704731770616647 0.0025297251405776138 0 -0.028571687609173984 0.0032209561381390441 0 -0.027704731770616647 0.0025297251405776138 0 -0.026846100499411971 0.004000938796100203 0 -0.02571637696316495 0.0077983406092440788 0 -0.022827432214242733 0.008884376614566954 0 -0.02378782197166443 0.013030194214500938 0 -0.020623662851530826 0.01422683207560599 0 -0.021021864260849475 0.012131923073548748 0 -0.027704731770616647 0.0025297251405776138 0 -0.025052270975757775 0.0035899771931063819 0 -0.026846100499411971 0.004000938796100203 0 -0.021021864260849475 0.012131923073548748 0 -0.02366360279575519 0.011108435159225206 0 -0.02078664961717443 0.010120448136762963 0 -0.02378782197166443 0.013030194214500938 0 -0.021021864260849475 0.012131923073548748 0 -0.02366360279575519 0.011108435159225206 0 -0.025450847453538386 0.0098076537465745395 0 -0.02366360279575519 0.011108435159225206 0 -0.023487407686449645 0.0094609925708547243 0 -0.02366360279575519 0.011108435159225206 0 -0.023487407686449645 0.0094609925708547243 0 -0.02078664961717443 0.010120448136762963 0 -0.023487407686449645 0.0094609925708547243 0 -0.02078664961717443 0.010120448136762963 0 -0.020380149663800952 0.0077283542843718349 0 -0.023487407686449645 0.0094609925708547243 0 -0.022047059509455427 0.0088322732893540788 0 -0.022824684121483259 0.0083795777846170511 0 -0.023341463277232348 0.0093653071127872186 0 -0.02122104370739929 0.0083323809540913531 0 -0.022462440747123353 0.0082763751136526002 0 -0.022047059509455427 0.0088322732893540788 0 -0.022824684121483259 0.0083795777846170511 0 -0.024631136737470808 0.0084092015706093131 0 -0.023487407686449645 0.0094609925708547243 0 -0.022824684121483259 0.0083795777846170511 0 -0.017410961551582425 0.0065848264025568882 0 -0.016095625802159522 0.0087452757783400056 0 -0.018198882459828574 0.0084369776675874125 0 -0.018930078718461588 0.0075478422979993864 0 -0.02122104370739929 0.0083323809540913531 0 -0.017410961551582425 0.0065848264025568882 0 -0.020380149663800952 0.0077283542843718349 0 -0.018198882459828574 0.0084369776675874125 0 -0.02078664961717443 0.010120448136762963 0 -0.020380149663800952 0.0077283542843718349 0 -0.018198882459828574 0.0084369776675874125 0 -0.02078664961717443 0.010120448136762963 0 -0.018198882459828574 0.0084369776675874125 0 -0.018111930899128697 0.010511808878502298 0 -0.015327256586158591 0.010234822579620786 0 -0.016095625802159522 0.0087452757783400056 0 -0.018111930899128697 0.010511808878502298 0 -0.016095625802159522 0.0087452757783400056 0 -0.018198882459828574 0.0084369776675874125 0 -0.018111930899128697 0.010511808878502298 0 -0.015327256586158591 0.010234822579620786 0 -0.016073866946030673 0.011386379310178628 0 -0.018111930899128697 0.010511808878502298 0 -0.016473522097535286 0.012144979011832854 0 -0.018111930899128697 0.010511808878502298 0 -0.018505455779028165 0.012998206545566486 0 -0.01635118254371519 0.011729461547909659 0 -0.017963033788340667 0.010558506450956117 0 -0.021021864260849475 0.012131923073548748 0 -0.018111930899128697 0.010511808878502298 0 -0.018505455779028165 0.012998206545566486 0 -0.021021864260849475 0.012131923073548748 0 -0.02078664961717443 0.010120448136762963 0 -0.018111930899128697 0.010511808878502298 0 -0.020623662851530826 0.01422683207560599 0 -0.018505455779028165 0.012998206545566486 0 -0.01766011972043605 0.015281017924449167 0 -0.020623662851530826 0.01422683207560599 0 -0.021021864260849475 0.012131923073548748 0 -0.018505455779028165 0.012998206545566486 0 -0.016612055385812851 0.013733463779830304 0 -0.016473522097535286 0.012144979011832854 0 -0.018505455779028165 0.012998206545566486 0 -0.016612055385812851 0.013733463779830304 0 -0.018505455779028165 0.012998206545566486 0 -0.01766011972043605 0.015281017924449167 0 -0.02250660077761181 0.0047733522421388218 0 -0.021942110396094297 0.0066193106176035592 0 -0.023476021448018324 0.0065324862986952037 0 -0.023476021448018324 0.0065324862986952037 0 -0.025302470363626629 0.0055069433348966012 0 -0.024748397896172451 0.0073395377071780099 0 -0.02250660077761181 0.0047733522421388218 0 -0.023476021448018324 0.0065324862986952037 0 -0.025302470363626629 0.0055069433348966012 0 -0.025052270975757775 0.0035899771931063819 0 -0.02250660077761181 0.0047733522421388218 0 -0.025302470363626629 0.0055069433348966012 0 -0.022827432214242733 0.008884376614566954 0 -0.020284534296733936 0.010207722856784156 0 -0.025052270975757775 0.0035899771931063819 0 -0.026846100499411971 0.004000938796100203 0 -0.025302470363626629 0.0055069433348966012 0 -0.028571687609173984 0.0032209561381390441 0 -0.027490026107345064 0.0051912883680367292 0 -0.026846100499411971 0.004000938796100203 0 -0.028507285688056123 0.0033975373236573487 0 -0.02798727324119344 0.004414617057733947 0 -0.027490026107345064 0.0051912883680367292 0 -0.026846100499411971 0.004000938796100203 0 -0.025302470363626629 0.0055069433348966012 0 -0.02798727324119344 0.004414617057733947 0 -0.026783273330215088 0.0065742779247290606 0 -0.028315034380141078 0.0040039079092996808 0 -0.02798739478864953 0.0046639842498677388 0 -0.028403431456200164 0.0048337116872945634 0 -0.028910608852611215 0.0038809487378802009 0 -0.028315034380141078 0.0040039079092996808 0 -0.028403431456200164 0.0048337116872945634 0 -0.027490026107345064 0.0051912883680367292 0 -0.025302470363626629 0.0055069433348966012 0 -0.02631500999947739 0.0070624954668068226 0 -0.025302470363626629 0.0055069433348966012 0 -0.02631500999947739 0.0070624954668068226 0 -0.024748397896172451 0.0073395377071780099 0 -0.02631500999947739 0.0070624954668068226 0 -0.025181157104626029 0.0088676949080577945 0 -0.024748397896172451 0.0073395377071780099 0 -0.031189150400212126 0.00052110028085240116 0 -0.027772703832073076 0.0031960478138658641 0 -0.026783273330215088 0.0065742779247290606 0 -0.027772703832073076 0.0031960478138658641 0 -0.02798739478864953 0.0046639842498677388 0 -0.028403431456200164 0.0048337116872945634 0 -0.027658447973031602 0.0051749754920279957 0 -0.03303039009431441 -0.0030717020057860673 0 -0.032993467581540994 -0.0021891382630535249 0 -0.031900381089390764 -0.0025040752481182301 0 -0.032993467581540994 -0.0021891382630535249 0 -0.031900381089390764 -0.0025040752481182301 0 -0.032112302674036697 -0.0017445731521017135 0 -0.027772703832073076 0.0031960478138658641 0 -0.024423920025719612 0.0062332113438571752 0 -0.025616147614891456 0.002395382614969032 0 -0.025421738700938834 0.0024708655990637257 0 -0.025456491644642684 0.0025520987051581741 0 -0.027772703832073076 0.0031960478138658641 0 -0.028878167529538413 -1.4942926925883753e-05 0 -0.025181157104626029 0.0088676949080577945 0 -0.023530817681232719 0.0097796436677791612 0 -0.022946285617973895 0.0082886819171500755 0 -0.020985815016064734 0.0083152207993614866 0 -0.022946285617973895 0.0082886819171500755 0 -0.021905895476860081 0.010676867105771724 0 -0.023530817681232719 0.0097796436677791612 0 -0.022946285617973895 0.0082886819171500755 0 -0.021905895476860081 0.010676867105771724 0 -0.020985815016064734 0.0083152207993614866 0 -0.021942110396094297 0.0066193106176035592 0 -0.022946285617973895 0.0082886819171500755 0 -0.021942110396094297 0.0066193106176035592 0 -0.023476021448018324 0.0065324862986952037 0 -0.022946285617973895 0.0082886819171500755 0 -0.023476021448018324 0.0065324862986952037 0 -0.022946285617973895 0.0082886819171500755 0 -0.024748397896172451 0.0073395377071780099 0 -0.025181157104626029 0.0088676949080577945 0 -0.022946285617973895 0.0082886819171500755 0 -0.024748397896172451 0.0073395377071780099 0 -0.031708453423155293 -0.00098645843017874132 0 -0.030738981334413024 -0.00074322115017562385 0 -0.030700025364100873 -0.00085429029758925181 0 -0.030265106308152649 -0.01046129787762309 0 -0.025438772562052767 -0.0082309964130394611 0 -0.025631798607351982 -0.00067241182754847813 0 -0.028878167529538413 -1.4942926925883753e-05 0 -0.031708453423155293 -0.00098645843017874132 0 -0.030700025364100873 -0.00085429029758925181 0 -0.031327602646515122 -0.0016715532163538531 0 -0.031708453423155293 -0.00098645843017874132 0 -0.030738981334413024 -0.00074322115017562385 0 -0.030509079792505538 -0.00061445453912065313 0 -0.025631798607351982 -0.00067241182754847813 0 -0.020394896477396438 0.0064556771060020586 0 -0.019530713882023782 7.7141287161858283e-05 0 -0.020450399623735332 0.00026825514443073491 0 -0.019849949900294362 -0.00086978600667237847 0 -0.030738981334413024 -0.00074322115017562385 0 -0.030680856547111959 -0.00087666090295414269 0 -0.030509079792505538 -0.00061445453912065313 0 -0.026158275830274327 -0.00037009845145092685 0 -0.025631798607351982 -0.00067241182754847813 0 -0.025631798607351982 -0.00067241182754847813 0 -0.025438772562052767 -0.0082309964130394611 0 -0.019530713882023782 7.7141287161858283e-05 0 -0.020450399623735332 0.00026825514443073491 0 -0.020289675143271013 0.00058563028244074675 0 -0.025352374519330194 0.0026611295722312354 0 -0.025276440694377858 0.0025528240921733371 0 -0.025456491644642684 0.0025520987051581741 0 -0.025421738700938834 0.0024708655990637257 0 -0.025276440694377858 0.0025528240921733371 0 -0.025456491644642684 0.0025520987051581741 0 -0.024423920025719612 0.0062332113438571752 0 -0.020394896477396438 0.0064556771060020586 0 -0.031708453423155293 -0.00098645843017874132 0 -0.031327602646515122 -0.0016715532163538531 0 -0.032112302674036697 -0.0017445731521017135 0 -0.031708453423155293 -0.00098645843017874132 0 -0.032112302674036697 -0.0017445731521017135 0 -0.032881807675910563 -0.0013779846644988625 0 -0.031900381089390764 -0.0025040752481182301 0 -0.031327602646515122 -0.0016715532163538531 0 -0.032112302674036697 -0.0017445731521017135 0 -0.032993467581540994 -0.0021891382630535249 0 -0.032112302674036697 -0.0017445731521017135 0 -0.032881807675910563 -0.0013779846644988625 0 -0.031093358292147776 -0.020472546131509891 0 -0.030530793012906048 -0.017288705994572547 0 -0.03281128215632749 -0.018557074646933198 0 -0.027919389513993191 -0.019469938826510606 0 -0.031093358292147776 -0.020472546131509891 0 -0.030530793012906048 -0.017288705994572547 0 -0.030265106308152649 -0.01046129787762309 0 -0.031880399993306732 -0.010829001717616882 0 -0.027919389513993191 -0.019469938826510606 0 -0.030530793012906048 -0.017288705994572547 0 -0.02852074020791524 -0.016449279864170531 0 -0.030530793012906048 -0.017288705994572547 0 -0.030974033238837684 -0.015168739413476302 0 -0.032946149839342055 -0.015778499053549909 0 -0.030530793012906048 -0.017288705994572547 0 -0.030974033238837684 -0.015168739413476302 0 -0.029468869007896883 -0.015444242451746077 0 -0.030530793012906048 -0.017288705994572547 0 -0.02852074020791524 -0.016449279864170531 0 -0.029468869007896883 -0.015444242451746077 0 -0.02852074020791524 -0.016449279864170531 0 -0.029468869007896883 -0.015444242451746077 0 -0.027813980861370671 -0.014532481662221253 0 -0.026797200619210829 -0.015551723451377054 0 -0.025515064128025535 -0.014491678968884756 0 -0.027813980861370671 -0.014532481662221253 0 -0.02852074020791524 -0.016449279864170531 0 -0.026797200619210829 -0.015551723451377054 0 -0.027813980861370671 -0.014532481662221253 0 -0.026797200619210829 -0.015551723451377054 0 -0.025338703596585889 -0.016021926921978312 0 -0.025515064128025535 -0.014491678968884756 0 -0.026797200619210829 -0.015551723451377054 0 -0.02675529439801564 -0.016859344175646124 0 -0.025338703596585889 -0.016021926921978312 0 -0.02852074020791524 -0.016449279864170531 0 -0.026797200619210829 -0.015551723451377054 0 -0.02675529439801564 -0.016859344175646124 0 -0.027919389513993191 -0.019469938826510606 0 -0.02675529439801564 -0.016859344175646124 0 -0.025155542352822254 -0.017105143150506912 0 -0.027919389513993191 -0.019469938826510606 0 -0.02440785921565396 -0.018265723035661284 0 -0.025155542352822254 -0.017105143150506912 0 -0.027919389513993191 -0.019469938826510606 0 -0.02852074020791524 -0.016449279864170531 0 -0.02675529439801564 -0.016859344175646124 0 -0.02675529439801564 -0.016859344175646124 0 -0.025155542352822254 -0.017105143150506912 0 -0.025338703596585889 -0.016021926921978312 0 -0.023920140820627062 -0.017573953675435145 0 -0.02440785921565396 -0.018265723035661284 0 -0.025155542352822254 -0.017105143150506912 0 -0.026712619952200364 -0.013462649083729482 0 -0.025438772562052767 -0.0082309964130394611 0 -0.025155542352822254 -0.017105143150506912 0 -0.023923178587652145 -0.016590321278748526 0 -0.025338703596585889 -0.016021926921978312 0 -0.023920140820627062 -0.017573953675435145 0 -0.025155542352822254 -0.017105143150506912 0 -0.023923178587652145 -0.016590321278748526 0 -0.023073419253220009 -0.016985471604292441 0 -0.023920140820627062 -0.017573953675435145 0 -0.023923178587652145 -0.016590321278748526 0 -0.023923178587652145 -0.016590321278748526 0 -0.023804421007765197 -0.015658650567974278 0 -0.025338703596585889 -0.016021926921978312 0 -0.022745718246823005 -0.016082462337327578 0 -0.023923178587652145 -0.016590321278748526 0 -0.023804421007765197 -0.015658650567974278 0 -0.021322633412414395 -0.015498975659358932 0 -0.023804421007765197 -0.015658650567974278 0 -0.025515064128025535 -0.014491678968884756 0 -0.023804421007765197 -0.015658650567974278 0 -0.025338703596585889 -0.016021926921978312 0 -0.025515064128025535 -0.014491678968884756 0 -0.022639535850760759 -0.030486748776333152 0 -0.022585957399637185 -0.030406969372962209 0 -0.022560781309333585 -0.030526879613475461 0 -0.023973397974771479 -0.022888245492758259 0 -0.026695630518223528 -0.020258916476716501 0 -0.022585957399637185 -0.030406969372962209 0 -0.02263389782326063 -0.030472982115394266 0 -0.022691983442864092 -0.030498939870182547 0 -0.025515064128025535 -0.014491678968884756 0 -0.027813980861370671 -0.014532481662221253 0 -0.02944673646344358 -0.013714864392012372 0 -0.022560781309333585 -0.030526879613475461 0 -0.022642253200364369 -0.030397051573892688 0 -0.02263389782326063 -0.030472982115394266 0 -0.022585957399637185 -0.030406969372962209 0 -0.022560781309333585 -0.030526879613475461 0 -0.02263389782326063 -0.030472982115394266 0 -0.022645330267718495 -0.030628585833366771 0 -0.022639535850760759 -0.030486748776333152 0 -0.022560781309333585 -0.030526879613475461 0 -0.022645330267718495 -0.030628585833366771 0 -0.022560781309333585 -0.030526879613475461 0 -0.022524774333610848 -0.030640394147853231 0 -0.022685252650151075 -0.03083162707921934 0 -0.022524774333610848 -0.030640394147853231 0 -0.022624427894245566 -0.031100178549066736 0 -0.022645330267718495 -0.030628585833366771 0 -0.022685252650151075 -0.03083162707921934 0 -0.022524774333610848 -0.030640394147853231 0 -0.022513820768184693 -0.030607795997131825 0 -0.022302728694357586 -0.030603417482122711 0 -0.022524774333610848 -0.030640394147853231 0 -0.022048800847875919 -0.030723760893818158 0 -0.022322920192956695 -0.031074441957603571 0 -0.022560781309333585 -0.030526879613475461 0 -0.022524774333610848 -0.030640394147853231 0 -0.022597714544842312 -0.030459305543257618 0 -0.022560781309333585 -0.030526879613475461 0 -0.022597714544842312 -0.030459305543257618 0 -0.022642253200364369 -0.030397051573892688 0 -0.022048800847875919 -0.030723760893818158 0 -0.022322920192956695 -0.031074441957603571 0 -0.021904393615311463 -0.03119105185572623 0 -0.022322920192956695 -0.031074441957603571 0 -0.021904393615311463 -0.03119105185572623 0 -0.022263750732936342 -0.031503595028652576 0 -0.022322920192956695 -0.031074441957603571 0 -0.022624427894245566 -0.031100178549066736 0 -0.022586947638712291 -0.031408241202231735 0 -0.022524774333610848 -0.030640394147853231 0 -0.022322920192956695 -0.031074441957603571 0 -0.022624427894245566 -0.031100178549066736 0 -0.022624427894245566 -0.031100178549066736 0 -0.022586947638712291 -0.031408241202231735 0 -0.022752861100206079 -0.031223588532835612 0 -0.022016082901326006 -0.03014812038459377 0 -0.022416050157165704 -0.030054029756381315 0 -0.022185729550021176 -0.030768286789269905 0 -0.022579570983261802 -0.029437147570617293 0 -0.021829404478071319 -0.031083547248670948 0 -0.022184198457979722 -0.030173039712887227 0 -0.022096135242236151 -0.030304193091163122 0 -0.022261770803281736 -0.03032428850104053 0 -0.021904393615311463 -0.03119105185572623 0 -0.021557774280092541 -0.030817111375652639 0 -0.021335104830159518 -0.031409471763543244 0 -0.022048800847875919 -0.030723760893818158 0 -0.021904393615311463 -0.03119105185572623 0 -0.021557774280092541 -0.030817111375652639 0 -0.0222277161495784 -0.030414433613945181 0 -0.021829404478071319 -0.031083547248670948 0 -0.022579570983261802 -0.029437147570617293 0 -0.0222277161495784 -0.030414433613945181 0 -0.022302728694357586 -0.030603417482122711 0 -0.0222277161495784 -0.030414433613945181 0 -0.0222277161495784 -0.030414433613945181 0 -0.022577848394872035 -0.030309453396001346 0 -0.022597714544842312 -0.030459305543257618 0 -0.022627116817672668 -0.030415259222923777 0 -0.022642253200364369 -0.030397051573892688 0 -0.022747032877871668 -0.030292497145034406 0 -0.02270159904486219 -0.030217981277315703 0 -0.022642253200364369 -0.030397051573892688 0 -0.022778476930786086 -0.030219062116477288 0 -0.022747032877871668 -0.030292497145034406 0 -0.02270159904486219 -0.030217981277315703 0 -0.022747032877871668 -0.030292497145034406 0 -0.022642253200364369 -0.030397051573892688 0 -0.022728824427435866 -0.030384810399307675 0 -0.022747032877871668 -0.030292497145034406 0 -0.022816514384019233 -0.030301803820354193 0 -0.022728824427435866 -0.030384810399307675 0 -0.022181057257763051 -0.027598902771725921 0 -0.022963675812536163 -0.030323645977971117 0 -0.02367702617727982 -0.028649414339911958 0 -0.022579570983261802 -0.029437147570617293 0 -0.022880995860359282 -0.030041884705575297 0 -0.022778476930786086 -0.030219062116477288 0 -0.022816514384019233 -0.030301803820354193 0 -0.022963675812536163 -0.030323645977971117 0 -0.022778476930786086 -0.030219062116477288 0 -0.022747032877871668 -0.030292497145034406 0 -0.022816514384019233 -0.030301803820354193 0 -0.022767284077323997 -0.030459537283460708 0 -0.023008885632793526 -0.030617359048002949 0 -0.022691983442864092 -0.030498939870182547 0 -0.022963675812536163 -0.030323645977971117 0 -0.023008885632793526 -0.030617359048002949 0 -0.023919587429887031 -0.029450224415145759 0 -0.022824375540551781 -0.030364139828902913 0 -0.022767284077323997 -0.030459537283460708 0 -0.022963675812536163 -0.030323645977971117 0 -0.022816514384019233 -0.030301803820354193 0 -0.022824375540551781 -0.030364139828902913 0 -0.022728824427435866 -0.030384810399307675 0 -0.022816514384019233 -0.030301803820354193 0 -0.022824375540551781 -0.030364139828902913 0 -0.022963675812536163 -0.030323645977971117 0 -0.022824375540551781 -0.030364139828902913 0 -0.022767284077323997 -0.030459537283460708 0 -0.022728824427435866 -0.030384810399307675 0 -0.022767284077323997 -0.030459537283460708 0 -0.022963675812536163 -0.030323645977971117 0 -0.023008885632793526 -0.030617359048002949 0 -0.022642253200364369 -0.030397051573892688 0 -0.022728824427435866 -0.030384810399307675 0 -0.02263389782326063 -0.030472982115394266 0 -0.022767284077323997 -0.030459537283460708 0 -0.022728824427435866 -0.030384810399307675 0 -0.02263389782326063 -0.030472982115394266 0 -0.022767284077323997 -0.030459537283460708 0 -0.02263389782326063 -0.030472982115394266 0 -0.022691983442864092 -0.030498939870182547 0 -0.029468869007896883 -0.015444242451746077 0 -0.027813980861370671 -0.014532481662221253 0 -0.029436492980523289 -0.013758196357762736 0 -0.029692629414384046 -0.014159709691257906 0 -0.026695630518223528 -0.020258916476716501 0 -0.026695630518223528 -0.020258916476716501 0 -0.031497360203402561 -0.016845507268258089 0 -0.025094486079664993 -0.026813277964701239 0 -0.026695630518223528 -0.020258916476716501 0 -0.028931979349580687 -0.020693757356525257 0 -0.02662453712890606 -0.022060332127063192 0 -0.029849809395362102 -0.021162853329413246 0 -0.030974033238837684 -0.015168739413476302 0 -0.029436492980523289 -0.013758196357762736 0 -0.032432131190575919 -0.013157503707753208 0 -0.030974033238837684 -0.015168739413476302 0 -0.029468869007896883 -0.015444242451746077 0 -0.029436492980523289 -0.013758196357762736 0 -0.032432131190575919 -0.013157503707753208 0 -0.035474872760845773 -0.015316046792447116 0 -0.032946149839342055 -0.015778499053549909 0 -0.030974033238837684 -0.015168739413476302 0 -0.032432131190575919 -0.013157503707753208 0 -0.032946149839342055 -0.015778499053549909 0 -0.032432131190575919 -0.013157503707753208 0 -0.035294880269893421 -0.012509894979301942 0 -0.035474872760845773 -0.015316046792447116 0 -0.033045763653756541 -0.020222646952782586 0 -0.029813156714680163 -0.020167154927323225 0 -0.032972143540466237 -0.018256175939811256 0 -0.031497360203402561 -0.016845507268258089 0 -0.033964452180613995 -0.016402835978820474 0 -0.028553474041341356 -0.02335663696347829 0 -0.031296186264123664 -0.020948053910509971 0 -0.029849809395362102 -0.021162853329413246 0 -0.033045763653756541 -0.020222646952782586 0 -0.029813156714680163 -0.020167154927323225 0 -0.023008885632793526 -0.030617359048002949 0 -0.023919587429887031 -0.029450224415145759 0 -0.025529839660298301 -0.028800870921549492 0 -0.025823355366598594 -0.026404239262522639 0 -0.026814904288392047 -0.025812115957152791 0 -0.029327645748060117 -0.023593866316140358 0 -0.025094486079664993 -0.026813277964701239 0 -0.027035355811178031 -0.02647387176077801 0 -0.025094486079664993 -0.026813277964701239 0 -0.028553474041341356 -0.02335663696347829 0 -0.028931979349580687 -0.020693757356525257 0 -0.029849809395362102 -0.021162853329413246 0 -0.029813156714680163 -0.020167154927323225 0 -0.022963675812536163 -0.030323645977971117 0 -0.023919587429887031 -0.029450224415145759 0 -0.02367702617727982 -0.028649414339911958 0 -0.02367702617727982 -0.028649414339911958 0 -0.024808462655629051 -0.028266214046699309 0 -0.024759637400697154 -0.026945071973370122 0 -0.023919587429887031 -0.029450224415145759 0 -0.02367702617727982 -0.028649414339911958 0 -0.024436967199211377 -0.028842201498262422 0 -0.024808462655629051 -0.028266214046699309 0 -0.024436967199211377 -0.028842201498262422 0 -0.025529839660298301 -0.028800870921549492 0 -0.02367702617727982 -0.028649414339911958 0 -0.024808462655629051 -0.028266214046699309 0 -0.024436967199211377 -0.028842201498262422 0 -0.023919587429887031 -0.029450224415145759 0 -0.024436967199211377 -0.028842201498262422 0 -0.025529839660298301 -0.028800870921549492 0 -0.026814904288392047 -0.025812115957152791 0 -0.030416208842807598 -0.023658946211319594 0 -0.029327645748060117 -0.023593866316140358 0 -0.030416208842807598 -0.023658946211319594 0 -0.029327645748060117 -0.023593866316140358 0 -0.032854502784917305 -0.020740565294028363 0 -0.025529839660298301 -0.028800870921549492 0 -0.025397242007415648 -0.027838442465437156 0 -0.026305449405818981 -0.027298158147568388 0 -0.024808462655629051 -0.028266214046699309 0 -0.025529839660298301 -0.028800870921549492 0 -0.025397242007415648 -0.027838442465437156 0 -0.025397242007415648 -0.027838442465437156 0 -0.026305449405818981 -0.027298158147568388 0 -0.024759637400697154 -0.026945071973370122 0 -0.026305449405818981 -0.027298158147568388 0 -0.024759637400697154 -0.026945071973370122 0 -0.027528271119804403 -0.026238678751378686 0 -0.024808462655629051 -0.028266214046699309 0 -0.025397242007415648 -0.027838442465437156 0 -0.024759637400697154 -0.026945071973370122 0 -0.021974921268011895 -0.030288082354721996 0 -0.022023662664615463 -0.030306113783149465 0 -0.021969739361001311 -0.030337687480336467 0 -0.025529839660298301 -0.028800870921549492 0 -0.026305449405818981 -0.027298158147568388 0 -0.02820310377971998 -0.026643865884509638 0 -0.022853432946530191 -0.028707204324022881 0 -0.026944830562391088 -0.027392716252680038 0 -0.022181057257763051 -0.027598902771725921 0 -0.02367702617727982 -0.028649414339911958 0 -0.024759637400697154 -0.026945071973370122 0 -0.022579570983261802 -0.029437147570617293 0 -0.022853432946530191 -0.028707204324022881 0 -0.022184198457979722 -0.030173039712887227 0 -0.022096135242236151 -0.030304193091163122 0 -0.021974921268011895 -0.030288082354721996 0 -0.022096135242236151 -0.030304193091163122 0 -0.021974921268011895 -0.030288082354721996 0 -0.021997503278515931 -0.030350439673621964 0 -0.037709148775762064 -0.021094423344426242 0 -0.038213342216184165 -0.020792805005602776 0 -0.03775038000737066 -0.020855812640429138 0 -0.034962722287370275 -0.021883366556773795 0 -0.035463025368339396 -0.022206257785242989 0 -0.034989891617566736 -0.022647683815705338 0 -0.037709148775762064 -0.021094423344426242 0 -0.037701611507288998 -0.020867350739176966 0 -0.03775038000737066 -0.020855812640429138 0 -0.037006031784524253 -0.019156716792450439 0 -0.035197476274361546 -0.023370394834717562 0 -0.037006031784524253 -0.019156716792450439 0 -0.031702781190231462 -0.024146364631076597 0 -0.031702781190231462 -0.024146364631076597 0 -0.035197476274361546 -0.023370394834717562 0 -0.026305449405818981 -0.027298158147568388 0 -0.02820310377971998 -0.026643865884509638 0 -0.027528271119804403 -0.026238678751378686 0 -0.030416208842807598 -0.023658946211319594 0 -0.034032583532863585 -0.021451118406860297 0 -0.032854502784917305 -0.020740565294028363 0 -0.026944830562391088 -0.027392716252680038 0 -0.035197476274361546 -0.023370394834717562 0 -0.027035355811178031 -0.02647387176077801 0 -0.031702781190231462 -0.024146364631076597 0 -0.031265980189462132 -0.026830771698741623 0 -0.028871474381308368 -0.02537134401693341 0 -0.034269879695854988 -0.024083088294495791 0 -0.031702781190231462 -0.024146364631076597 0 -0.026944830562391088 -0.027392716252680038 0 -0.032972143540466237 -0.018256175939811256 0 -0.036061455880471049 -0.016376990666405734 0 -0.036174867812294571 -0.019287411915930544 0 -0.031296186264123664 -0.020948053910509971 0 -0.037006031784524253 -0.019156716792450439 0 -0.037868833812087124 -0.015694445228350846 0 -0.039819465849184429 -0.016084502839575354 0 -0.037006031784524253 -0.019156716792450439 0 -0.037868833812087124 -0.015694445228350846 0 -0.039498942843721345 -0.016348845863853656 0 -0.039506383552578815 -0.016332136052671083 0 -0.039451612065283685 -0.016256341728736436 0 -0.037006031784524253 -0.019156716792450439 0 -0.040394313785307376 -0.016057663638131856 0 -0.039471107576049692 -0.016337786528266618 0 -0.039498942843721345 -0.016348845863853656 0 -0.039545347800427115 -0.016412458028058248 0 -0.039471107576049692 -0.016337786528266618 0 -0.039498942843721345 -0.016348845863853656 0 -0.039506383552578815 -0.016332136052671083 0 -0.039341817626751797 -0.015946956468784773 0 -0.039243832280403589 -0.015889407970465924 0 -0.039451612065283685 -0.016256341728736436 0 -0.039341817626751797 -0.015946956468784773 0 -0.038428939081240336 -0.015604975268743486 0 -0.039243832280403589 -0.015889407970465924 0 -0.033045763653756541 -0.020222646952782586 0 -0.032972143540466237 -0.018256175939811256 0 -0.036174867812294571 -0.019287411915930544 0 -0.035294880269893421 -0.012509894979301942 0 -0.038333379559893743 -0.011699246918414624 0 -0.038428939081240336 -0.015604975268743486 0 -0.033964452180613995 -0.016402835978820474 0 -0.037868833812087124 -0.015694445228350846 0 -0.035294880269893421 -0.012509894979301942 0 -0.038428939081240336 -0.015604975268743486 0 -0.035474872760845773 -0.015316046792447116 0 -0.037868833812087124 -0.015694445228350846 0 -0.038761194713017144 -0.014765864198194477 0 -0.038428939081240336 -0.015604975268743486 0 -0.037293403546454967 -0.017517390975248497 0 -0.039368303319491198 -0.017213661372690064 0 -0.037293403546454967 -0.017517390975248497 0 -0.03823184275953375 -0.019714878801067121 0 -0.039368303319491198 -0.017213661372690064 0 -0.037293403546454967 -0.017517390975248497 0 -0.03495400142218251 -0.017373813068234566 0 -0.035712570761558954 -0.019465222917194526 0 -0.038428939081240336 -0.015604975268743486 0 -0.037293403546454967 -0.017517390975248497 0 -0.035474872760845773 -0.015316046792447116 0 -0.037293403546454967 -0.017517390975248497 0 -0.035474872760845773 -0.015316046792447116 0 -0.03495400142218251 -0.017373813068234566 0 -0.035474872760845773 -0.015316046792447116 0 -0.032946149839342055 -0.015778499053549909 0 -0.03495400142218251 -0.017373813068234566 0 -0.030530793012906048 -0.017288705994572547 0 -0.032946149839342055 -0.015778499053549909 0 -0.03281128215632749 -0.018557074646933198 0 -0.032946149839342055 -0.015778499053549909 0 -0.03495400142218251 -0.017373813068234566 0 -0.03281128215632749 -0.018557074646933198 0 -0.03495400142218251 -0.017373813068234566 0 -0.03281128215632749 -0.018557074646933198 0 -0.035712570761558954 -0.019465222917194526 0 -0.03281128215632749 -0.018557074646933198 0 -0.034013915657688271 -0.021340522777367185 0 -0.035712570761558954 -0.019465222917194526 0 -0.031093358292147776 -0.020472546131509891 0 -0.03281128215632749 -0.018557074646933198 0 -0.034013915657688271 -0.021340522777367185 0 -0.031880399993306732 -0.010829001717616882 0 -0.033936587135533748 -0.011940218645827939 0 -0.032993467581540994 -0.0021891382630535249 0 -0.032881807675910563 -0.0013779846644988625 0 -0.034052180847569162 -0.0018069279612277448 0 -0.03668579039979545 -0.022194582505640423 0 -0.034013915657688271 -0.021340522777367185 0 -0.035712570761558954 -0.019465222917194526 0 -0.03668579039979545 -0.022194582505640423 0 -0.03823184275953375 -0.019714878801067121 0 -0.035712570761558954 -0.019465222917194526 0 -0.036888188274341357 -0.0092513748905728964 0 -0.039616678105887669 -0.017987049556514631 0 -0.037293403546454967 -0.017517390975248497 0 -0.03823184275953375 -0.019714878801067121 0 -0.035712570761558954 -0.019465222917194526 0 -0.040419405397193769 -0.011611340632638271 0 -0.041031175114516164 -0.013344927012098435 0 -0.039688118644933913 -0.013141117658261573 0 -0.039688118644933913 -0.013141117658261573 0 -0.039234442396519589 -0.014148421411828078 0 -0.040347001965875248 -0.014527554928669327 0 -0.039688118644933913 -0.013141117658261573 0 -0.038822691443715675 -0.01354264243869409 0 -0.039234442396519589 -0.014148421411828078 0 -0.041031175114516164 -0.013344927012098435 0 -0.039688118644933913 -0.013141117658261573 0 -0.040347001965875248 -0.014527554928669327 0 -0.039616678105887669 -0.017987049556514631 0 -0.039887265464320913 -0.015603449087401473 0 -0.039198428291816474 -0.012120318753836014 0 -0.039688118644933913 -0.013141117658261573 0 -0.038602098433943348 -0.012763970491651261 0 -0.039688118644933913 -0.013141117658261573 0 -0.038602098433943348 -0.012763970491651261 0 -0.038822691443715675 -0.01354264243869409 0 -0.038495879497151213 -0.01043417841888517 0 -0.037895191312129539 -0.010198344027256881 0 -0.038602098433943348 -0.012763970491651261 0 -0.038119235903650545 -0.013281340435920922 0 -0.037360610418867103 -0.012895697961514024 0 -0.038197985478577889 -0.012037136260204516 0 -0.038602098433943348 -0.012763970491651261 0 -0.037360610418867103 -0.012895697961514024 0 -0.038584091809626825 -0.012794264935538778 0 -0.038005850683466562 -0.013484548354149547 0 -0.038091478591145367 -0.013463550255869938 0 -0.038498087448034922 -0.014168889563803062 0 -0.038030185313400459 -0.014324350737032913 0 -0.038091478591145367 -0.013463550255869938 0 -0.038030185313400459 -0.014324350737032913 0 -0.037591705076475336 -0.014105070410595643 0 -0.038091478591145367 -0.013463550255869938 0 -0.038822691443715675 -0.01354264243869409 0 -0.038498087448034922 -0.014168889563803062 0 -0.038005850683466562 -0.013484548354149547 0 -0.038122389997429881 -0.013053838877745763 0 -0.038822691443715675 -0.01354264243869409 0 -0.038498087448034922 -0.014168889563803062 0 -0.039234442396519589 -0.014148421411828078 0 -0.038602098433943348 -0.012763970491651261 0 -0.038091478591145367 -0.013463550255869938 0 -0.038822691443715675 -0.01354264243869409 0 -0.038498087448034922 -0.014168889563803062 0 -0.038745258910209197 -0.014772322927588863 0 -0.039234442396519589 -0.014148421411828078 0 -0.038745258910209197 -0.014772322927588863 0 -0.039371579512410888 -0.014898249164268721 0 -0.039234442396519589 -0.014148421411828078 0 -0.038030185313400459 -0.014324350737032913 0 -0.037867891963841702 -0.014942685427125556 0 -0.037591705076475336 -0.014105070410595643 0 -0.038498087448034922 -0.014168889563803062 0 -0.038030185313400459 -0.014324350737032913 0 -0.038163247610124955 -0.014811517258555108 0 -0.038498087448034922 -0.014168889563803062 0 -0.038745258910209197 -0.014772322927588863 0 -0.038163247610124955 -0.014811517258555108 0 -0.038030185313400459 -0.014324350737032913 0 -0.038163247610124955 -0.014811517258555108 0 -0.037867891963841702 -0.014942685427125556 0 -0.03816194493342407 -0.014655941015600462 0 -0.038332061285826266 -0.0157340519683303 0 -0.037954802546958759 -0.014941586752940789 0 -0.038398206946820099 -0.015278386317998235 0 -0.038351867395856575 -0.015675152735031089 0 -0.038208320781073661 -0.015154353022050442 0 -0.038351867395856575 -0.015675152735031089 0 -0.038112223261884383 -0.015538750505523221 0 -0.038163247610124955 -0.014811517258555108 0 -0.037954802546958759 -0.014941586752940789 0 -0.038398206946820099 -0.015278386317998235 0 -0.038078244926902281 -0.014742764838861991 0 -0.03816194493342407 -0.014655941015600462 0 -0.038745258910209197 -0.014772322927588863 0 -0.038163247610124955 -0.014811517258555108 0 -0.038398206946820099 -0.015278386317998235 0 -0.038745258910209197 -0.014772322927588863 0 -0.03896256548931247 -0.015322729523386163 0 -0.039371579512410888 -0.014898249164268721 0 -0.038745258910209197 -0.014772322927588863 0 -0.038398206946820099 -0.015278386317998235 0 -0.03896256548931247 -0.015322729523386163 0 -0.038398206946820099 -0.015278386317998235 0 -0.03896256548931247 -0.015322729523386163 0 -0.038873288928869508 -0.015765779241597187 0 -0.039887265464320913 -0.015603449087401473 0 -0.039540691959695763 -0.015931956342178675 0 -0.03896256548931247 -0.015322729523386163 0 -0.039371579512410888 -0.014898249164268721 0 -0.039546646117272571 -0.01576944614460592 0 -0.039371579512410888 -0.014898249164268721 0 -0.040347001965875248 -0.014527554928669327 0 -0.039546646117272571 -0.01576944614460592 0 -0.038428939081240336 -0.015604975268743486 0 -0.039368303319491198 -0.017213661372690064 0 -0.039546646117272571 -0.01576944614460592 0 -0.039371579512410888 -0.014898249164268721 0 -0.039234442396519589 -0.014148421411828078 0 -0.040347001965875248 -0.014527554928669327 0 -0.038428939081240336 -0.015604975268743486 0 -0.039273920445049584 -0.015811496274658918 0 -0.039546646117272571 -0.01576944614460592 0 -0.038428939081240336 -0.015604975268743486 0 -0.039273920445049584 -0.015811496274658918 0 -0.039243832280403589 -0.015889407970465924 0 -0.039273920445049584 -0.015811496274658918 0 -0.039546646117272571 -0.01576944614460592 0 -0.039198948214158015 -0.016081395265495988 0 -0.039546646117272571 -0.01576944614460592 0 -0.039198948214158015 -0.016081395265495988 0 -0.038873288928869508 -0.015765779241597187 0 -0.039273920445049584 -0.015811496274658918 0 -0.039198948214158015 -0.016081395265495988 0 -0.039364156875407237 -0.016191405364443509 0 -0.039198948214158015 -0.016081395265495988 0 -0.039364156875407237 -0.016191405364443509 0 -0.03923267228986662 -0.016486415641686947 0 -0.039273920445049584 -0.015811496274658918 0 -0.039243832280403589 -0.015889407970465924 0 -0.039364156875407237 -0.016191405364443509 0 -0.039243832280403589 -0.015889407970465924 0 -0.039364156875407237 -0.016191405364443509 0 -0.039451612065283685 -0.016256341728736436 0 -0.039498942843721345 -0.016348845863853656 0 -0.039451612065283685 -0.016256341728736436 0 -0.039545347800427115 -0.016412458028058248 0 -0.040486609878423528 -0.01702522990662304 0 -0.039545347800427115 -0.016412458028058248 0 -0.039720120228847654 -0.016810424328403226 0 -0.039545347800427115 -0.016412458028058248 0 -0.039423764944551395 -0.016608774807355377 0 -0.039720120228847654 -0.016810424328403226 0 -0.039364156875407237 -0.016191405364443509 0 -0.039545347800427115 -0.016412458028058248 0 -0.039423764944551395 -0.016608774807355377 0 -0.039364156875407237 -0.016191405364443509 0 -0.039451612065283685 -0.016256341728736436 0 -0.039545347800427115 -0.016412458028058248 0 -0.039364156875407237 -0.016191405364443509 0 -0.03923267228986662 -0.016486415641686947 0 -0.039423764944551395 -0.016608774807355377 0 -0.03923267228986662 -0.016486415641686947 0 -0.039423764944551395 -0.016608774807355377 0 -0.039260904227221761 -0.017044757288416593 0 -0.039526123980452306 -0.016986218638491452 0 -0.039474913304612134 -0.017329472008868561 0 -0.039692459479582283 -0.017554908506587016 0 -0.039423764944551395 -0.016608774807355377 0 -0.039526123980452306 -0.016986218638491452 0 -0.039260904227221761 -0.017044757288416593 0 -0.039526123980452306 -0.016986218638491452 0 -0.039260904227221761 -0.017044757288416593 0 -0.039474913304612134 -0.017329472008868561 0 -0.039260904227221761 -0.017044757288416593 0 -0.039474913304612134 -0.017329472008868561 0 -0.039349889088397878 -0.017618596462862856 0 -0.040486609878423528 -0.01702522990662304 0 -0.039817741279383013 -0.017074829337212629 0 -0.039692459479582283 -0.017554908506587016 0 -0.039526123980452306 -0.016986218638491452 0 -0.039817741279383013 -0.017074829337212629 0 -0.039692459479582283 -0.017554908506587016 0 -0.040486609878423528 -0.01702522990662304 0 -0.039817741279383013 -0.017074829337212629 0 -0.039720120228847654 -0.016810424328403226 0 -0.037006031784524253 -0.019156716792450439 0 -0.039379165000745758 -0.019084094397880134 0 -0.039526123980452306 -0.016986218638491452 0 -0.039817741279383013 -0.017074829337212629 0 -0.039720120228847654 -0.016810424328403226 0 -0.039423764944551395 -0.016608774807355377 0 -0.039526123980452306 -0.016986218638491452 0 -0.039720120228847654 -0.016810424328403226 0 -0.038899724905155954 -0.01663606770505624 0 -0.038343890301695598 -0.01666561499633272 0 -0.038799836244005709 -0.017561956238820561 0 -0.038638027450900871 -0.016205793837590281 0 -0.037625538785009134 -0.016803624152300474 0 -0.038799836244005709 -0.017561956238820561 0 -0.038485651295600352 -0.016427651319981119 0 -0.038784728562104541 -0.01746785221991794 0 -0.039260904227221761 -0.017044757288416593 0 -0.038799836244005709 -0.017561956238820561 0 -0.039349889088397878 -0.017618596462862856 0 -0.039260904227221761 -0.017044757288416593 0 -0.038899724905155954 -0.01663606770505624 0 -0.038799836244005709 -0.017561956238820561 0 -0.039198948214158015 -0.016081395265495988 0 -0.03923267228986662 -0.016486415641686947 0 -0.038899724905155954 -0.01663606770505624 0 -0.03923267228986662 -0.016486415641686947 0 -0.039260904227221761 -0.017044757288416593 0 -0.038899724905155954 -0.01663606770505624 0 -0.038899724905155954 -0.01663606770505624 0 -0.038343890301695598 -0.01666561499633272 0 -0.038669504420406432 -0.016152832994144155 0 -0.038343890301695598 -0.01666561499633272 0 -0.038669504420406432 -0.016152832994144155 0 -0.038067452843373664 -0.015976038388697354 0 -0.038485651295600352 -0.016427651319981119 0 -0.03817444085709254 -0.015393581666928981 0 -0.039198948214158015 -0.016081395265495988 0 -0.038899724905155954 -0.01663606770505624 0 -0.038669504420406432 -0.016152832994144155 0 -0.039198948214158015 -0.016081395265495988 0 -0.038669504420406432 -0.016152832994144155 0 -0.038873288928869508 -0.015765779241597187 0 -0.03896256548931247 -0.015322729523386163 0 -0.039546646117272571 -0.01576944614460592 0 -0.038873288928869508 -0.015765779241597187 0 -0.038351867395856575 -0.015675152735031089 0 -0.038067452843373664 -0.015976038388697354 0 -0.038112223261884383 -0.015538750505523221 0 -0.038669504420406432 -0.016152832994144155 0 -0.038873288928869508 -0.015765779241597187 0 -0.038351867395856575 -0.015675152735031089 0 -0.038669504420406432 -0.016152832994144155 0 -0.038351867395856575 -0.015675152735031089 0 -0.038067452843373664 -0.015976038388697354 0 -0.038398206946820099 -0.015278386317998235 0 -0.038873288928869508 -0.015765779241597187 0 -0.038351867395856575 -0.015675152735031089 0 -0.037524983823879157 -0.01406981177098077 0 -0.03828370948687667 -0.01473045185691531 0 -0.03781553185603289 -0.013369069070148697 0 -0.038067452843373664 -0.015976038388697354 0 -0.038112223261884383 -0.015538750505523221 0 -0.037826057689799422 -0.015337959734302006 0 -0.03817444085709254 -0.015393581666928981 0 -0.037830912055229066 -0.014136699418213515 0 -0.037524983823879157 -0.01406981177098077 0 -0.03746497595787638 -0.014557418713258774 0 -0.03828370948687667 -0.01473045185691531 0 -0.036849220948607077 -0.014052011039793132 0 -0.036803239694370236 -0.01385207543872154 0 -0.036738130266811254 -0.014285855170091837 0 -0.036803239694370236 -0.01385207543872154 0 -0.03710324127395092 -0.014162920211284047 0 -0.037524983823879157 -0.01406981177098077 0 -0.036849220948607077 -0.014052011039793132 0 -0.03710324127395092 -0.014162920211284047 0 -0.036738130266811254 -0.014285855170091837 0 -0.036849220948607077 -0.014052011039793132 0 -0.036803239694370236 -0.01385207543872154 0 -0.03710324127395092 -0.014162920211284047 0 -0.03710324127395092 -0.014162920211284047 0 -0.037524983823879157 -0.01406981177098077 0 -0.03746497595787638 -0.014557418713258774 0 -0.03710324127395092 -0.014162920211284047 0 -0.03746497595787638 -0.014557418713258774 0 -0.03679643309870604 -0.014772843946901775 0 -0.03710324127395092 -0.014162920211284047 0 -0.036738130266811254 -0.014285855170091837 0 -0.03679643309870604 -0.014772843946901775 0 -0.03746497595787638 -0.014557418713258774 0 -0.03679643309870604 -0.014772843946901775 0 -0.037608013041455585 -0.015466185784967295 0 -0.03679643309870604 -0.014772843946901775 0 -0.037608013041455585 -0.015466185784967295 0 -0.036822743990231756 -0.015717716104221416 0 -0.038638027450900871 -0.016205793837590281 0 -0.03828370948687667 -0.01473045185691531 0 -0.037608013041455585 -0.015466185784967295 0 -0.03746497595787638 -0.014557418713258774 0 -0.03828370948687667 -0.01473045185691531 0 -0.037608013041455585 -0.015466185784967295 0 -0.038638027450900871 -0.016205793837590281 0 -0.037608013041455585 -0.015466185784967295 0 -0.037625538785009134 -0.016803624152300474 0 -0.036822743990231756 -0.015717716104221416 0 -0.037625538785009134 -0.016803624152300474 0 -0.036246863754004668 -0.016836555536954016 0 -0.037608013041455585 -0.015466185784967295 0 -0.036822743990231756 -0.015717716104221416 0 -0.037625538785009134 -0.016803624152300474 0 -0.037625538785009134 -0.016803624152300474 0 -0.036246863754004668 -0.016836555536954016 0 -0.037011904659266279 -0.01807486298223189 0 -0.036246863754004668 -0.016836555536954016 0 -0.034999839461176463 -0.01618025007505796 0 -0.03499983086683936 -0.018042266167968758 0 -0.036822743990231756 -0.015717716104221416 0 -0.036246863754004668 -0.016836555536954016 0 -0.035957553115217394 -0.015265369871076993 0 -0.036246863754004668 -0.016836555536954016 0 -0.034999839461176463 -0.01618025007505796 0 -0.035957553115217394 -0.015265369871076993 0 -0.034999936096025266 -0.014319153854274439 0 -0.035957553115217394 -0.015265369871076993 0 -0.035922822155171723 -0.014159738582378964 0 -0.034999839461176463 -0.01618025007505796 0 -0.034999936096025266 -0.014319153854274439 0 -0.035957553115217394 -0.015265369871076993 0 -0.03679643309870604 -0.014772843946901775 0 -0.036822743990231756 -0.015717716104221416 0 -0.035957553115217394 -0.015265369871076993 0 -0.03679643309870604 -0.014772843946901775 0 -0.035957553115217394 -0.015265369871076993 0 -0.035922822155171723 -0.014159738582378964 0 -0.03716774862301922 -0.013521586498913838 0 -0.035978756373150449 -0.013965294159476258 0 -0.036803239694370236 -0.01385207543872154 0 -0.036738130266811254 -0.014285855170091837 0 -0.035922822155171723 -0.014159738582378964 0 -0.037226716158523812 -0.013197475656674867 0 -0.036123623034383948 -0.013758325748822263 0 -0.036318996235440201 -0.012648876543901587 0 -0.036738130266811254 -0.014285855170091837 0 -0.03679643309870604 -0.014772843946901775 0 -0.035922822155171723 -0.014159738582378964 0 -0.034999986435925994 -0.014318243490309598 0 -0.036123623034383948 -0.013758325748822263 0 -0.03499999925803849 -0.012337140992946154 0 -0.035000271000618623 -0.014318227347151295 0 -0.035978756373150449 -0.013965294159476258 0 -0.036123623034383948 -0.013758325748822263 0 -0.03499999925803849 -0.012337140992946154 0 -0.036318996235440201 -0.012648876543901587 0 -0.03499999925803849 -0.012337140992946154 0 -0.036205988809830579 -0.011780755811969461 0 -0.036318996235440201 -0.012648876543901587 0 -0.03499999925803849 -0.012337140992946154 0 -0.035807035189199879 -0.010952843800329085 0 -0.036205988809830579 -0.011780755811969461 0 -0.03499999925803849 -0.012337140992946154 0 -0.035807035189199879 -0.010952843800329085 0 -0.03499998063536755 -0.010356028545595381 0 -0.037088824250634519 -0.011125639363388453 0 -0.036496580299195662 -0.011116964923525645 0 -0.036808749307655868 -0.011554417912550753 0 -0.037088824250634519 -0.011125639363388453 0 -0.036808749307655868 -0.011554417912550753 0 -0.037229741191647424 -0.01156886007879368 0 -0.035807035189199879 -0.010952843800329085 0 -0.036496580299195662 -0.011116964923525645 0 -0.036205988809830579 -0.011780755811969461 0 -0.036496580299195662 -0.011116964923525645 0 -0.036205988809830579 -0.011780755811969461 0 -0.036808749307655868 -0.011554417912550753 0 -0.036205988809830579 -0.011780755811969461 0 -0.036808749307655868 -0.011554417912550753 0 -0.037016322810749375 -0.012170385656910374 0 -0.036808749307655868 -0.011554417912550753 0 -0.037016322810749375 -0.012170385656910374 0 -0.037229741191647424 -0.01156886007879368 0 -0.036205988809830579 -0.011780755811969461 0 -0.037016322810749375 -0.012170385656910374 0 -0.036318996235440201 -0.012648876543901587 0 -0.037226716158523812 -0.013197475656674867 0 -0.037016322810749375 -0.012170385656910374 0 -0.036318996235440201 -0.012648876543901587 0 -0.037355574718059524 -0.01372110866151737 0 -0.037718334675447725 -0.013298238518043856 0 -0.037840703910733561 -0.013490413845486384 0 -0.03716774862301922 -0.013521586498913838 0 -0.037830912055229066 -0.014136699418213515 0 -0.036803239694370236 -0.01385207543872154 0 -0.037524983823879157 -0.01406981177098077 0 -0.03781553185603289 -0.013369069070148697 0 -0.037226716158523812 -0.013197475656674867 0 -0.037016322810749375 -0.012170385656910374 0 -0.038095047933635606 -0.012112886951464929 0 -0.03716774862301922 -0.013521586498913838 0 -0.037982192589480615 -0.012840163578865105 0 -0.037982192589480615 -0.012840163578865105 0 -0.037999668490142302 -0.012908807140468052 0 -0.038233310732920085 -0.013737261178702019 0 -0.037901015645744267 -0.013894715070788871 0 -0.037822658367221408 -0.013683803182451054 0 -0.038208320781073661 -0.015154353022050442 0 -0.038112223261884383 -0.015538750505523221 0 -0.037826057689799422 -0.015337959734302006 0 -0.037718334675447725 -0.013298238518043856 0 -0.037840703910733561 -0.013490413845486384 0 -0.037753816201383468 -0.013256555948521435 0 -0.037830912055229066 -0.014136699418213515 0 -0.037999668490142302 -0.012908807140468052 0 -0.03816194493342407 -0.014655941015600462 0 -0.037830912055229066 -0.014136699418213515 0 -0.038233310732920085 -0.013737261178702019 0 -0.037822658367221408 -0.013683803182451054 0 -0.038115238930756433 -0.013340317313426072 0 -0.03816194493342407 -0.014655941015600462 0 -0.038122389997429881 -0.013053838877745763 0 -0.038168569521064434 -0.012012135641352284 0 -0.038888082280599139 -0.011133796112256705 0 -0.037683972993334501 -0.011794594010324797 0 -0.037999668490142302 -0.012908807140468052 0 -0.038122389997429881 -0.013053838877745763 0 -0.037016322810749375 -0.012170385656910374 0 -0.038095047933635606 -0.012112886951464929 0 -0.037683972993334501 -0.011794594010324797 0 -0.038888082280599139 -0.011133796112256705 0 -0.037683972993334501 -0.011794594010324797 0 -0.037538484884742165 -0.01130206922136695 0 -0.037016322810749375 -0.012170385656910374 0 -0.037229741191647424 -0.01156886007879368 0 -0.037683972993334501 -0.011794594010324797 0 -0.037229741191647424 -0.01156886007879368 0 -0.037683972993334501 -0.011794594010324797 0 -0.037538484884742165 -0.01130206922136695 0 -0.038095047933635606 -0.012112886951464929 0 -0.038168569521064434 -0.012012135641352284 0 -0.037683972993334501 -0.011794594010324797 0 -0.037448766481790699 -0.010991104012904995 0 -0.037151717749909927 -0.010520792021793051 0 -0.037088824250634519 -0.011125639363388453 0 -0.037229741191647424 -0.01156886007879368 0 -0.037538484884742165 -0.01130206922136695 0 -0.037088824250634519 -0.011125639363388453 0 -0.037538484884742165 -0.01130206922136695 0 -0.037284808399770775 -0.010938953606256116 0 -0.037066895923482196 -0.010688302892022692 0 -0.037151717749909927 -0.010520792021793051 0 -0.037538484884742165 -0.01130206922136695 0 -0.03730855410610006 -0.011005799781305867 0 -0.038491862940822311 -0.0098603560551841479 0 -0.037151717749909927 -0.010520792021793051 0 -0.037895191312129539 -0.010198344027256881 0 -0.038888082280599139 -0.011133796112256705 0 -0.037538484884742165 -0.01130206922136695 0 -0.038491862940822311 -0.0098603560551841479 0 -0.038119235903650545 -0.013281340435920922 0 -0.03765145605725536 -0.013816808453564087 0 -0.037360610418867103 -0.012895697961514024 0 -0.038122389997429881 -0.013053838877745763 0 -0.037895191312129539 -0.010198344027256881 0 -0.037449278995323514 -0.0075375640978211297 0 -0.037895191312129539 -0.010198344027256881 0 -0.03754716733869369 -0.0078676249579145499 0 -0.037845893114569054 -0.0088476816564235176 0 -0.036711608423297862 -0.0083610101585914701 0 -0.036712946315977803 -0.009970742009074815 0 -0.037845893114569054 -0.0088476816564235176 0 -0.036711608423297862 -0.0083610101585914701 0 -0.036712946315977803 -0.009970742009074815 0 -0.036711608423297862 -0.0083610101585914701 0 -0.0358804260162503 -0.0088900541223871001 0 -0.035971454109950521 -0.0081153888218567713 0 -0.036711608423297862 -0.0083610101585914701 0 -0.0358804260162503 -0.0088900541223871001 0 -0.035055184281041735 -0.0078217211014076082 0 -0.035971454109950521 -0.0081153888218567713 0 -0.0358804260162503 -0.0088900541223871001 0 -0.03529146142131815 -0.0082945107328369055 0 -0.036296710893007435 -0.0095888234738020616 0 -0.035972699753686894 -0.010081568022968401 0 -0.035000004803059259 -0.0083748297333927722 0 -0.035300893907042538 -0.0082659460473782677 0 -0.035466637036859976 -0.010369400564454918 0 -0.035000004803059259 -0.0083748297333927722 0 -0.035466637036859976 -0.010369400564454918 0 -0.03499998063536755 -0.010356028545595381 0 -0.03524529827748344 -0.0081359563655514708 0 -0.036050380336684708 -0.0092033122802834631 0 -0.03529146142131815 -0.0082945107328369055 0 -0.035972699753686894 -0.010081568022968401 0 -0.035466637036859976 -0.010369400564454918 0 -0.03524529827748344 -0.0081359563655514708 0 -0.035476242994480857 -0.010349503951676244 0 -0.035807035189199879 -0.010952843800329085 0 -0.035466637036859976 -0.010369400564454918 0 -0.03499998063536755 -0.010356028545595381 0 -0.035807035189199879 -0.010952843800329085 0 -0.035972699753686894 -0.010081568022968401 0 -0.035466637036859976 -0.010369400564454918 0 -0.035807035189199879 -0.010952843800329085 0 -0.035972699753686894 -0.010081568022968401 0 -0.036499236395864165 -0.01062806772885347 0 -0.035807035189199879 -0.010952843800329085 0 -0.036496580299195662 -0.011116964923525645 0 -0.036499236395864165 -0.01062806772885347 0 -0.037300273041132676 -0.010912826550581947 0 -0.036296710893007435 -0.0095888234738020616 0 -0.036499236395864165 -0.01062806772885347 0 -0.037151717749909927 -0.010520792021793051 0 -0.036050380336684708 -0.0092033122802834631 0 -0.037088824250634519 -0.011125639363388453 0 -0.036496580299195662 -0.011116964923525645 0 -0.036499236395864165 -0.01062806772885347 0 -0.037088824250634519 -0.011125639363388453 0 -0.037300273041132676 -0.010912826550581947 0 -0.036499236395864165 -0.01062806772885347 0 -0.036296710893007435 -0.0095888234738020616 0 -0.035972699753686894 -0.010081568022968401 0 -0.036499236395864165 -0.01062806772885347 0 -0.035294576385149067 -0.025749246495029493 0 -0.034999005170538403 -0.025593346862403488 0 -0.035000457400858553 -0.023633676633636365 0 -0.035294576385149067 -0.025749246495029493 0 -0.034999005170538403 -0.025593346862403488 0 -0.035186916277566607 -0.026063333478976047 0 -0.035294576385149067 -0.025749246495029493 0 -0.035186916277566607 -0.026063333478976047 0 -0.034881610904634916 -0.026200844460899063 0 -0.035294576385149067 -0.025749246495029493 0 -0.034881610904634916 -0.026200844460899063 0 -0.034636868033711632 -0.026513107544575396 0 -0.034881610904634916 -0.026200844460899063 0 -0.034246990789080278 -0.026366177007956591 0 -0.034636868033711632 -0.026513107544575396 0 -0.034246990789080278 -0.026366177007956591 0 -0.034636868033711632 -0.026513107544575396 0 -0.03361648691888626 -0.026680152673450235 0 -0.034636868033711632 -0.026513107544575396 0 -0.034389728405231183 -0.02816387787977272 0 -0.035246667692227417 -0.026332732021539872 0 -0.037955889944098847 -0.021426954519354967 0 -0.036599007010729337 -0.022495350748476372 0 -0.036272409554508986 -0.02120167076085409 0 -0.035294576385149067 -0.025749246495029493 0 -0.034636868033711632 -0.026513107544575396 0 -0.035246667692227417 -0.026332732021539872 0 -0.034636868033711632 -0.026513107544575396 0 -0.034389728405231183 -0.02816387787977272 0 -0.03367778046128915 -0.027297953195933953 0 -0.036119582447393883 -0.024806071033083237 0 -0.035766886646319988 -0.024427437446948481 0 -0.036599007010729337 -0.022495350748476372 0 -0.034999852967744292 -0.021765859163613153 0 -0.036272409554508986 -0.02120167076085409 0 -0.035294576385149067 -0.025749246495029493 0 -0.035246667692227417 -0.026332732021539872 0 -0.035000457400858553 -0.023633676633636365 0 -0.035766886646319988 -0.024427437446948481 0 -0.034999761878239208 -0.023628624405264292 0 -0.036599007010729337 -0.022495350748476372 0 -0.034999924198616021 -0.023627678101968183 0 -0.034999852967744292 -0.021765859163613153 0 -0.036272409554508986 -0.02120167076085409 0 -0.034999898352276924 -0.01990407807087612 0 -0.036928368210179287 -0.019881189393458475 0 -0.034999852967744292 -0.021765859163613153 0 -0.036272409554508986 -0.02120167076085409 0 -0.034999898352276924 -0.01990407807087612 0 -0.034999898352276924 -0.01990407807087612 0 -0.036075561142120537 -0.018685929151023517 0 -0.036928368210179287 -0.019881189393458475 0 -0.034999898352276924 -0.01990407807087612 0 -0.036075561142120537 -0.018685929151023517 0 -0.03499983086683936 -0.018042266167968758 0 -0.036075561142120537 -0.018685929151023517 0 -0.037011904659266279 -0.01807486298223189 0 -0.036928368210179287 -0.019881189393458475 0 -0.036246863754004668 -0.016836555536954016 0 -0.036075561142120537 -0.018685929151023517 0 -0.037011904659266279 -0.01807486298223189 0 -0.036246863754004668 -0.016836555536954016 0 -0.036075561142120537 -0.018685929151023517 0 -0.03499983086683936 -0.018042266167968758 0 -0.037625538785009134 -0.016803624152300474 0 -0.038054559067873542 -0.01837520957073779 0 -0.038799836244005709 -0.017561956238820561 0 -0.037625538785009134 -0.016803624152300474 0 -0.038054559067873542 -0.01837520957073779 0 -0.037011904659266279 -0.01807486298223189 0 -0.038054559067873542 -0.01837520957073779 0 -0.037011904659266279 -0.01807486298223189 0 -0.036928368210179287 -0.019881189393458475 0 -0.038054559067873542 -0.01837520957073779 0 -0.036928368210179287 -0.019881189393458475 0 -0.038369442552853315 -0.019791307050166091 0 -0.037955889944098847 -0.021426954519354967 0 -0.036272409554508986 -0.02120167076085409 0 -0.036928368210179287 -0.019881189393458475 0 -0.037955889944098847 -0.021426954519354967 0 -0.036928368210179287 -0.019881189393458475 0 -0.038369442552853315 -0.019791307050166091 0 -0.036119582447393883 -0.024806071033083237 0 -0.03562543567659017 -0.025186783664311263 0 -0.037955889944098847 -0.021426954519354967 0 -0.038668714102814458 -0.020521147098330361 0 -0.038369442552853315 -0.019791307050166091 0 -0.038668714102814458 -0.020521147098330361 0 -0.038584757640118997 -0.02017441476536308 0 -0.038334082619603062 -0.020161195881691824 0 -0.038668714102814458 -0.020521147098330361 0 -0.038584757640118997 -0.02017441476536308 0 -0.038369442552853315 -0.019791307050166091 0 -0.038054559067873542 -0.01837520957073779 0 -0.038369442552853315 -0.019791307050166091 0 -0.039339151990200473 -0.018398026447375274 0 -0.038391810257571622 -0.019780506078030096 0 -0.038801875346770258 -0.019446886937843622 0 -0.038584757640118997 -0.02017441476536308 0 -0.038369442552853315 -0.019791307050166091 0 -0.038589193208456878 -0.020369028771118736 0 -0.038584757640118997 -0.02017441476536308 0 -0.038589193208456878 -0.020369028771118736 0 -0.038426223053100964 -0.020300371652283926 0 -0.039339151990200473 -0.018398026447375274 0 -0.038799836244005709 -0.017561956238820561 0 -0.039349889088397878 -0.017618596462862856 0 -0.038054559067873542 -0.01837520957073779 0 -0.039339151990200473 -0.018398026447375274 0 -0.038799836244005709 -0.017561956238820561 0 -0.038213342216184165 -0.020792805005602776 0 -0.038195836800018708 -0.020534667210583054 0 -0.03775038000737066 -0.020855812640429138 0 -0.039273089090996555 -0.019569719322369918 0 -0.035197476274361546 -0.023370394834717562 0 -0.038589193208456878 -0.020369028771118736 0 -0.038213342216184165 -0.020792805005602776 0 -0.038195836800018708 -0.020534667210583054 0 -0.039339151990200473 -0.018398026447375274 0 -0.039692459479582283 -0.017554908506587016 0 -0.039349889088397878 -0.017618596462862856 0 -0.038801875346770258 -0.019446886937843622 0 -0.039379165000745758 -0.019084094397880134 0 -0.039474913304612134 -0.017329472008868561 0 -0.039692459479582283 -0.017554908506587016 0 -0.039349889088397878 -0.017618596462862856 0 -0.038589193208456878 -0.020369028771118736 0 -0.038426223053100964 -0.020300371652283926 0 -0.038195836800018708 -0.020534667210583054 0 -0.038195836800018708 -0.020534667210583054 0 -0.038334082619603062 -0.020161195881691824 0 -0.037908994385369356 -0.020455763459871105 0 -0.034887947504930593 -0.025600456632530386 0 -0.031638627724246672 -0.026066321205023467 0 -0.038334082619603062 -0.020161195881691824 0 -0.037599980014991374 -0.020301617705080599 0 -0.037908994385369356 -0.020455763459871105 0 -0.038426223053100964 -0.020300371652283926 0 -0.038195836800018708 -0.020534667210583054 0 -0.038334082619603062 -0.020161195881691824 0 -0.038584757640118997 -0.02017441476536308 0 -0.038426223053100964 -0.020300371652283926 0 -0.038334082619603062 -0.020161195881691824 0 -0.03562543567659017 -0.025186783664311263 0 -0.034887947504930593 -0.025600456632530386 0 -0.032867505755638293 -0.029792852871476164 0 -0.030837477046589637 -0.031092496220697111 0 -0.031115569944262633 -0.029742086295976414 0 -0.030837477046589637 -0.031092496220697111 0 -0.029702630191173005 -0.030378888382481511 0 -0.029196672464122105 -0.03110122774892209 0 -0.030837477046589637 -0.031092496220697111 0 -0.031115569944262633 -0.029742086295976414 0 -0.029702630191173005 -0.030378888382481511 0 -0.031115569944262633 -0.029742086295976414 0 -0.029702630191173005 -0.030378888382481511 0 -0.029925900316785641 -0.029378840007624647 0 -0.029925900316785641 -0.029378840007624647 0 -0.03168038247012725 -0.02854698675785516 0 -0.02963308530322268 -0.028510930794854918 0 -0.03168038247012725 -0.02854698675785516 0 -0.030663717319188065 -0.027554825027187396 0 -0.02963308530322268 -0.028510930794854918 0 -0.03168038247012725 -0.02854698675785516 0 -0.032281641913738682 -0.027246504670991496 0 -0.030663717319188065 -0.027554825027187396 0 -0.031115569944262633 -0.029742086295976414 0 -0.029925900316785641 -0.029378840007624647 0 -0.03168038247012725 -0.02854698675785516 0 -0.032867505755638293 -0.029792852871476164 0 -0.031115569944262633 -0.029742086295976414 0 -0.03168038247012725 -0.02854698675785516 0 -0.032867505755638293 -0.029792852871476164 0 -0.03168038247012725 -0.02854698675785516 0 -0.033133315007167319 -0.028296127891408292 0 -0.034389728405231183 -0.02816387787977272 0 -0.033133315007167319 -0.028296127891408292 0 -0.03367778046128915 -0.027297953195933953 0 -0.034389728405231183 -0.02816387787977272 0 -0.032867505755638293 -0.029792852871476164 0 -0.033133315007167319 -0.028296127891408292 0 -0.033133315007167319 -0.028296127891408292 0 -0.03367778046128915 -0.027297953195933953 0 -0.032281641913738682 -0.027246504670991496 0 -0.03168038247012725 -0.02854698675785516 0 -0.033133315007167319 -0.028296127891408292 0 -0.032281641913738682 -0.027246504670991496 0 -0.032281641913738682 -0.027246504670991496 0 -0.03361648691888626 -0.026680152673450235 0 -0.032881762961750369 -0.026570696697727332 0 -0.034636868033711632 -0.026513107544575396 0 -0.03367778046128915 -0.027297953195933953 0 -0.03361648691888626 -0.026680152673450235 0 -0.03367778046128915 -0.027297953195933953 0 -0.032281641913738682 -0.027246504670991496 0 -0.03361648691888626 -0.026680152673450235 0 -0.03361648691888626 -0.026680152673450235 0 -0.032881762961750369 -0.026570696697727332 0 -0.033318638174942176 -0.02618432555260947 0 -0.034246990789080278 -0.026366177007956591 0 -0.03361648691888626 -0.026680152673450235 0 -0.033318638174942176 -0.02618432555260947 0 -0.032881762961750369 -0.026570696697727332 0 -0.032361666523708463 -0.02626423073423164 0 -0.033318638174942176 -0.02618432555260947 0 -0.032281641913738682 -0.027246504670991496 0 -0.032881762961750369 -0.026570696697727332 0 -0.032361666523708463 -0.02626423073423164 0 -0.032281641913738682 -0.027246504670991496 0 -0.031508881737905448 -0.026281263044899549 0 -0.032361666523708463 -0.02626423073423164 0 -0.03031211905637185 -0.025894484450766836 0 -0.030663717319188065 -0.027554825027187396 0 -0.029288107124966108 -0.026476946695295336 0 -0.030874260245270315 -0.026310209354527339 0 -0.030710665857292981 -0.02746555550031993 0 -0.03031211905637185 -0.025894484450766836 0 -0.029288107124966108 -0.026476946695295336 0 -0.029373047191480671 -0.025448117782637551 0 -0.032281641913738682 -0.027246504670991496 0 -0.031508881737905448 -0.026281263044899549 0 -0.030663717319188065 -0.027554825027187396 0 -0.027659174900123693 -0.027578660430868852 0 -0.02862683957770204 -0.027749955864838322 0 -0.027071993124626124 -0.028587000891396923 0 -0.027659174900123693 -0.027578660430868852 0 -0.02862683957770204 -0.027749955864838322 0 -0.02844182852281257 -0.026913000603019474 0 -0.027659174900123693 -0.027578660430868852 0 -0.026131530709789054 -0.02859369044880241 0 -0.027071993124626124 -0.028587000891396923 0 -0.030663717319188065 -0.027554825027187396 0 -0.02862683957770204 -0.027749955864838322 0 -0.02963308530322268 -0.028510930794854918 0 -0.030663717319188065 -0.027554825027187396 0 -0.02862683957770204 -0.027749955864838322 0 -0.029288107124966108 -0.026476946695295336 0 -0.02862683957770204 -0.027749955864838322 0 -0.02844182852281257 -0.026913000603019474 0 -0.029288107124966108 -0.026476946695295336 0 -0.029288107124966108 -0.026476946695295336 0 -0.028095785354030196 -0.025701361949839765 0 -0.029373047191480671 -0.025448117782637551 0 -0.02844182852281257 -0.026913000603019474 0 -0.029288107124966108 -0.026476946695295336 0 -0.028095785354030196 -0.025701361949839765 0 -0.022219303499715053 -0.034828080251185473 0 -0.02393004105622383 -0.034819952737457041 0 -0.026131530709789054 -0.02859369044880241 0 -0.027659174900123693 -0.027578660430868852 0 -0.028095785354030196 -0.025701361949839765 0 -0.026131530709789054 -0.02859369044880241 0 -0.025378587636642184 -0.030116715088803786 0 -0.026020090907695897 -0.028739814578327333 0 -0.027659174900123693 -0.027578660430868852 0 -0.02844182852281257 -0.026913000603019474 0 -0.028095785354030196 -0.025701361949839765 0 -0.02393004105622383 -0.034819952737457041 0 -0.026776727238804643 -0.029335032223034446 0 -0.026131530709789054 -0.02859369044880241 0 -0.024082983589559206 -0.03450442760993163 0 -0.024624307802703204 -0.032839370318135754 0 -0.02393004105622383 -0.034819952737457041 0 -0.022676590084023954 -0.035566989830066863 0 -0.02267401644577265 -0.036255046408906172 0 -0.022676590084023954 -0.035566989830066863 0 -0.022187027203736508 -0.035599744959068487 0 -0.022564536446951031 -0.035172545895181068 0 -0.02393004105622383 -0.034819952737457041 0 -0.022676590084023954 -0.035566989830066863 0 -0.022564536446951031 -0.035172545895181068 0 -0.022676590084023954 -0.035566989830066863 0 -0.0221646289729278 -0.035961209857957546 0 -0.02267401644577265 -0.036255046408906172 0 -0.021841460587553912 -0.035478401119315335 0 -0.022187027203736508 -0.035599744959068487 0 -0.022564536446951031 -0.035172545895181068 0 -0.022187027203736508 -0.035599744959068487 0 -0.021626158932155557 -0.035879940078413136 0 -0.0221646289729278 -0.035961209857957546 0 -0.022676590084023954 -0.035566989830066863 0 -0.022187027203736508 -0.035599744959068487 0 -0.0221646289729278 -0.035961209857957546 0 -0.021841460587553912 -0.035478401119315335 0 -0.022187027203736508 -0.035599744959068487 0 -0.021626158932155557 -0.035879940078413136 0 -0.021626158932155557 -0.035879940078413136 0 -0.0221646289729278 -0.035961209857957546 0 -0.02159714666034776 -0.036121261931508011 0 -0.021626158932155557 -0.035879940078413136 0 -0.02159714666034776 -0.036121261931508011 0 -0.021444202372261464 -0.035968366597171293 0 -0.0221646289729278 -0.035961209857957546 0 -0.022164669762274332 -0.03620592100219823 0 -0.02159714666034776 -0.036121261931508011 0 -0.022164669762274332 -0.03620592100219823 0 -0.022162359305555487 -0.036491903441841333 0 -0.02159714666034776 -0.036121261931508011 0 -0.022162359305555487 -0.036491903441841333 0 -0.02267401644577265 -0.036255046408906172 0 -0.022173392762485662 -0.036847233147619396 0 -0.0221646289729278 -0.035961209857957546 0 -0.022164669762274332 -0.03620592100219823 0 -0.02267401644577265 -0.036255046408906172 0 -0.022164669762274332 -0.03620592100219823 0 -0.022162359305555487 -0.036491903441841333 0 -0.02267401644577265 -0.036255046408906172 0 -0.026776727238804643 -0.029335032223034446 0 -0.026131530709789054 -0.02859369044880241 0 -0.026486778196538826 -0.028690262179510477 0 -0.026131530709789054 -0.02859369044880241 0 -0.026486778196538826 -0.028690262179510477 0 -0.027071993124626124 -0.028587000891396923 0 -0.024624307802703204 -0.032839370318135754 0 -0.024450473290349245 -0.032851416184635537 0 -0.026776727238804643 -0.029335032223034446 0 -0.026486778196538826 -0.028690262179510477 0 -0.026468973854302733 -0.028701689988647732 0 -0.026486778196538826 -0.028690262179510477 0 -0.026845802129945487 -0.028822742418526517 0 -0.027071993124626124 -0.028587000891396923 0 -0.026486778196538826 -0.028690262179510477 0 -0.026845802129945487 -0.028822742418526517 0 -0.026661011124156159 -0.028850016356451468 0 -0.026486778196538826 -0.028690262179510477 0 -0.026468973854302733 -0.028701689988647732 0 -0.026661011124156159 -0.028850016356451468 0 -0.026468973854302733 -0.028701689988647732 0 -0.026661011124156159 -0.028850016356451468 0 -0.026645099238187215 -0.029115816566467025 0 -0.026898401138784771 -0.029097819851700873 0 -0.026661011124156159 -0.028850016356451468 0 -0.026645099238187215 -0.029115816566467025 0 -0.026845802129945487 -0.028822742418526517 0 -0.026898401138784771 -0.029097819851700873 0 -0.027308061256548957 -0.028948297594001374 0 -0.026845802129945487 -0.028822742418526517 0 -0.026898401138784771 -0.029097819851700873 0 -0.026661011124156159 -0.028850016356451468 0 -0.02159714666034776 -0.036121261931508011 0 -0.020736101575049695 -0.035241089283236209 0 -0.021353879741547614 -0.035721967460461149 0 -0.022162359305555487 -0.036491903441841333 0 -0.02159714666034776 -0.036121261931508011 0 -0.021987966604467821 -0.036893798101810864 0 -0.021505749944745335 -0.035890812845890248 0 -0.021373794486199606 -0.036463167463786299 0 -0.022162359305555487 -0.036491903441841333 0 -0.022173392762485662 -0.036847233147619396 0 -0.021987966604467821 -0.036893798101810864 0 -0.020736101575049695 -0.035241089283236209 0 -0.021219362547022572 -0.035236719065473855 0 -0.021353879741547614 -0.035721967460461149 0 -0.020736101575049695 -0.035241089283236209 0 -0.02105587826458186 -0.034795219077375983 0 -0.021219362547022572 -0.035236719065473855 0 -0.021373794486199606 -0.036463167463786299 0 -0.022514912865336405 -0.033069444669846411 0 -0.022173392762485662 -0.036847233147619396 0 -0.021987966604467821 -0.036893798101810864 0 -0.022038056000225285 -0.037066859452517968 0 -0.020736101575049695 -0.035241089283236209 0 -0.020826488044947668 -0.034545864723117839 0 -0.020408991403741524 -0.034046524723655727 0 -0.024450473290349245 -0.032851416184635537 0 -0.022514912865336405 -0.033069444669846411 0 -0.026468973854302733 -0.028701689988647732 0 -0.026478792524139164 -0.029478010115144719 0 -0.025908436917720129 -0.03007243861354917 0 -0.020736101575049695 -0.035241089283236209 0 -0.020826488044947668 -0.034545864723117839 0 -0.02105587826458186 -0.034795219077375983 0 -0.020826488044947668 -0.034545864723117839 0 -0.021022257221655589 -0.034430682405804373 0 -0.02105587826458186 -0.034795219077375983 0 -0.020826488044947668 -0.034545864723117839 0 -0.020836367143300807 -0.034189210304819299 0 -0.020408991403741524 -0.034046524723655727 0 -0.020836367143300807 -0.034189210304819299 0 -0.021022257221655589 -0.034430682405804373 0 -0.021127036098068399 -0.034167727464458134 0 -0.020826488044947668 -0.034545864723117839 0 -0.020836367143300807 -0.034189210304819299 0 -0.021022257221655589 -0.034430682405804373 0 -0.026898401138784771 -0.029097819851700873 0 -0.02681938611366836 -0.029537977950074484 0 -0.026645099238187215 -0.029115816566467025 0 -0.02681938611366836 -0.029537977950074484 0 -0.02720380765538449 -0.029682151106226917 0 -0.027286095226453783 -0.029367710108578821 0 -0.026898401138784771 -0.029097819851700873 0 -0.02681938611366836 -0.029537977950074484 0 -0.027286095226453783 -0.029367710108578821 0 -0.026468973854302733 -0.028701689988647732 0 -0.026645099238187215 -0.029115816566467025 0 -0.026478792524139164 -0.029478010115144719 0 -0.02681938611366836 -0.029537977950074484 0 -0.026645099238187215 -0.029115816566467025 0 -0.026478792524139164 -0.029478010115144719 0 -0.02681938611366836 -0.029537977950074484 0 -0.026478792524139164 -0.029478010115144719 0 -0.026529543513387224 -0.029997601373407349 0 -0.026478792524139164 -0.029478010115144719 0 -0.026529543513387224 -0.029997601373407349 0 -0.025908436917720129 -0.03007243861354917 0 -0.02681938611366836 -0.029537977950074484 0 -0.026529543513387224 -0.029997601373407349 0 -0.027000616503899275 -0.030034861803030232 0 -0.02681938611366836 -0.029537977950074484 0 -0.027000616503899275 -0.030034861803030232 0 -0.02720380765538449 -0.029682151106226917 0 -0.027000616503899275 -0.030034861803030232 0 -0.02720380765538449 -0.029682151106226917 0 -0.027723454090050968 -0.029812102994346616 0 -0.02720380765538449 -0.029682151106226917 0 -0.027723454090050968 -0.029812102994346616 0 -0.027286095226453783 -0.029367710108578821 0 -0.027723454090050968 -0.029812102994346616 0 -0.028629594536781926 -0.029232536112794996 0 -0.028697162421619734 -0.029985223112827725 0 -0.027723454090050968 -0.029812102994346616 0 -0.028697162421619734 -0.029985223112827725 0 -0.027864976015613233 -0.030312742852455037 0 -0.027723454090050968 -0.029812102994346616 0 -0.027808984707574893 -0.029207366511249788 0 -0.028629594536781926 -0.029232536112794996 0 -0.027723454090050968 -0.029812102994346616 0 -0.027808984707574893 -0.029207366511249788 0 -0.027286095226453783 -0.029367710108578821 0 -0.027808984707574893 -0.029207366511249788 0 -0.027286095226453783 -0.029367710108578821 0 -0.027308061256548957 -0.028948297594001374 0 -0.02862683957770204 -0.027749955864838322 0 -0.028149045740583002 -0.028685022403815225 0 -0.027071993124626124 -0.028587000891396923 0 -0.026898401138784771 -0.029097819851700873 0 -0.027286095226453783 -0.029367710108578821 0 -0.027308061256548957 -0.028948297594001374 0 -0.027808984707574893 -0.029207366511249788 0 -0.027308061256548957 -0.028948297594001374 0 -0.028149045740583002 -0.028685022403815225 0 -0.027808984707574893 -0.029207366511249788 0 -0.028149045740583002 -0.028685022403815225 0 -0.028629594536781926 -0.029232536112794996 0 -0.027308061256548957 -0.028948297594001374 0 -0.028149045740583002 -0.028685022403815225 0 -0.027071993124626124 -0.028587000891396923 0 -0.026845802129945487 -0.028822742418526517 0 -0.027308061256548957 -0.028948297594001374 0 -0.027071993124626124 -0.028587000891396923 0 -0.028149045740583002 -0.028685022403815225 0 -0.02963308530322268 -0.028510930794854918 0 -0.028629594536781926 -0.029232536112794996 0 -0.02862683957770204 -0.027749955864838322 0 -0.028149045740583002 -0.028685022403815225 0 -0.02963308530322268 -0.028510930794854918 0 -0.029925900316785641 -0.029378840007624647 0 -0.02963308530322268 -0.028510930794854918 0 -0.028629594536781926 -0.029232536112794996 0 -0.029702630191173005 -0.030378888382481511 0 -0.029925900316785641 -0.029378840007624647 0 -0.028697162421619734 -0.029985223112827725 0 -0.029925900316785641 -0.029378840007624647 0 -0.028629594536781926 -0.029232536112794996 0 -0.028697162421619734 -0.029985223112827725 0 -0.029702630191173005 -0.030378888382481511 0 -0.028697162421619734 -0.029985223112827725 0 -0.028897426612443392 -0.030603933729174637 0 -0.028697162421619734 -0.029985223112827725 0 -0.028897426612443392 -0.030603933729174637 0 -0.028278970517366542 -0.030658362033518353 0 -0.028897426612443392 -0.030603933729174637 0 -0.029196672464122105 -0.03110122774892209 0 -0.028460221555287931 -0.031063806119569961 0 -0.028897426612443392 -0.030603933729174637 0 -0.028278970517366542 -0.030658362033518353 0 -0.028460221555287931 -0.031063806119569961 0 -0.029702630191173005 -0.030378888382481511 0 -0.028897426612443392 -0.030603933729174637 0 -0.029196672464122105 -0.03110122774892209 0 -0.027000616503899275 -0.030034861803030232 0 -0.027723454090050968 -0.029812102994346616 0 -0.027353699627476816 -0.030448126728517873 0 -0.027723454090050968 -0.029812102994346616 0 -0.027353699627476816 -0.030448126728517873 0 -0.027864976015613233 -0.030312742852455037 0 -0.027353699627476816 -0.030448126728517873 0 -0.027864976015613233 -0.030312742852455037 0 -0.02775489134802795 -0.03071218825671192 0 -0.028697162421619734 -0.029985223112827725 0 -0.027864976015613233 -0.030312742852455037 0 -0.028278970517366542 -0.030658362033518353 0 -0.028278970517366542 -0.030658362033518353 0 -0.027940068057198394 -0.031109712129364434 0 -0.028460221555287931 -0.031063806119569961 0 -0.028278970517366542 -0.030658362033518353 0 -0.02775489134802795 -0.03071218825671192 0 -0.027940068057198394 -0.031109712129364434 0 -0.027864976015613233 -0.030312742852455037 0 -0.028278970517366542 -0.030658362033518353 0 -0.02775489134802795 -0.03071218825671192 0 -0.027353168239291095 -0.031040710697289361 0 -0.02775489134802795 -0.03071218825671192 0 -0.027940068057198394 -0.031109712129364434 0 -0.027353699627476816 -0.030448126728517873 0 -0.027353168239291095 -0.031040710697289361 0 -0.02775489134802795 -0.03071218825671192 0 -0.027564074367772036 -0.031629049274479827 0 -0.028647056250093578 -0.031916653593519584 0 -0.027444640313543791 -0.032340618256695618 0 -0.027353168239291095 -0.031040710697289361 0 -0.027564074367772036 -0.031629049274479827 0 -0.027112464366819949 -0.031399118831876127 0 -0.027353168239291095 -0.031040710697289361 0 -0.027940068057198394 -0.031109712129364434 0 -0.027564074367772036 -0.031629049274479827 0 -0.027940068057198394 -0.031109712129364434 0 -0.028268926270226161 -0.03142892801385877 0 -0.027564074367772036 -0.031629049274479827 0 -0.027940068057198394 -0.031109712129364434 0 -0.028268926270226161 -0.03142892801385877 0 -0.028460221555287931 -0.031063806119569961 0 -0.028268926270226161 -0.03142892801385877 0 -0.027564074367772036 -0.031629049274479827 0 -0.028647056250093578 -0.031916653593519584 0 -0.030837477046589637 -0.031092496220697111 0 -0.029196672464122105 -0.03110122774892209 0 -0.028665812499958133 -0.031981284374415414 0 -0.029196672464122105 -0.03110122774892209 0 -0.028638813947394273 -0.031520624746999147 0 -0.028665812499958133 -0.031981284374415414 0 -0.029196672464122105 -0.03110122774892209 0 -0.028460221555287931 -0.031063806119569961 0 -0.028638813947394273 -0.031520624746999147 0 -0.028268926270226161 -0.03142892801385877 0 -0.028460221555287931 -0.031063806119569961 0 -0.028638813947394273 -0.031520624746999147 0 -0.030860898092111313 -0.030122212726438717 0 -0.031638627724246672 -0.026066321205023467 0 -0.028268926270226161 -0.03142892801385877 0 -0.028638813947394273 -0.031520624746999147 0 -0.028647056250093578 -0.031916653593519584 0 -0.038195836800018708 -0.020534667210583054 0 -0.037908994385369356 -0.020455763459871105 0 -0.037606009266993638 -0.02067620848533995 0 -0.031638627724246672 -0.026066321205023467 0 -0.033877419386070799 -0.023203384727488268 0 -0.037599980014991374 -0.020301617705080599 0 -0.037908994385369356 -0.020455763459871105 0 -0.037606009266993638 -0.02067620848533995 0 -0.031638627724246672 -0.026066321205023467 0 -0.027382742033871973 -0.02891806468889906 0 -0.030210166991546425 -0.026436644834359788 0 -0.02797021726938825 -0.025200257755096055 0 -0.028400093258962863 -0.027052075147847635 0 -0.030133913995216088 -0.024368215329567691 0 -0.030210166991546425 -0.026436644834359788 0 -0.02797021726938825 -0.025200257755096055 0 -0.02797021726938825 -0.025200257755096055 0 -0.028400093258962863 -0.027052075147847635 0 -0.027182416335171232 -0.026548349077663323 0 -0.030210166991546425 -0.026436644834359788 0 -0.028400093258962863 -0.027052075147847635 0 -0.029258648176307918 -0.02788913012385846 0 -0.028620706039215054 -0.028919115572524204 0 -0.028400093258962863 -0.027052075147847635 0 -0.026595593198647231 -0.027731225107512449 0 -0.028620706039215054 -0.028919115572524204 0 -0.029258648176307918 -0.02788913012385846 0 -0.030296302335059182 -0.028502527845998393 0 -0.028620706039215054 -0.028919115572524204 0 -0.028400093258962863 -0.027052075147847635 0 -0.029258648176307918 -0.02788913012385846 0 -0.030210166991546425 -0.026436644834359788 0 -0.029258648176307918 -0.02788913012385846 0 -0.030296302335059182 -0.028502527845998393 0 -0.033877419386070799 -0.023203384727488268 0 -0.035197476274361546 -0.023370394834717562 0 -0.038195836800018708 -0.020534667210583054 0 -0.037606009266993638 -0.02067620848533995 0 -0.037603701123636306 -0.021129991405206459 0 -0.038195836800018708 -0.020534667210583054 0 -0.03770243969985388 -0.020864973481599346 0 -0.03775038000737066 -0.020855812640429138 0 -0.035197476274361546 -0.023370394834717562 0 -0.035725954907139076 -0.0231471508091863 0 -0.021979391675497784 -0.030423546782015531 0 -0.021969739361001311 -0.030337687480336467 0 -0.021948493349031629 -0.030509997703470865 0 -0.024238202808276283 -0.029076562571790851 0 -0.023024711146149773 -0.028759900332747005 0 -0.026595593198647231 -0.027731225107512449 0 -0.02591466264749092 -0.026971387173137438 0 -0.024582102613340828 -0.026546916741067381 0 -0.021973272586632699 -0.030489309674763439 0 -0.021979391675497784 -0.030423546782015531 0 -0.021948493349031629 -0.030509997703470865 0 -0.021973272586632699 -0.030489309674763439 0 -0.022025425026144654 -0.030482265700713784 0 -0.021979391675497784 -0.030423546782015531 0 -0.021973272586632699 -0.030489309674763439 0 -0.022025425026144654 -0.030482265700713784 0 -0.021970966610429271 -0.030528302716849115 0 -0.022025425026144654 -0.030482265700713784 0 -0.021979391675497784 -0.030423546782015531 0 -0.022040309783650847 -0.030394097082702604 0 -0.022096135242236151 -0.030304193091163122 0 -0.022040309783650847 -0.030394097082702604 0 -0.021997503278515931 -0.030350439673621964 0 -0.021979391675497784 -0.030423546782015531 0 -0.022040309783650847 -0.030394097082702604 0 -0.021997503278515931 -0.030350439673621964 0 -0.021979391675497784 -0.030423546782015531 0 -0.021997503278515931 -0.030350439673621964 0 -0.021969739361001311 -0.030337687480336467 0 -0.021974921268011895 -0.030288082354721996 0 -0.021997503278515931 -0.030350439673621964 0 -0.021969739361001311 -0.030337687480336467 0 -0.026944830562391088 -0.027392716252680038 0 -0.024238202808276283 -0.029076562571790851 0 -0.028400093258962863 -0.027052075147847635 0 -0.026595593198647231 -0.027731225107512449 0 -0.027182416335171232 -0.026548349077663323 0 -0.026595593198647231 -0.027731225107512449 0 -0.02591466264749092 -0.026971387173137438 0 -0.027182416335171232 -0.026548349077663323 0 -0.02797021726938825 -0.025200257755096055 0 -0.02578921850078528 -0.026048342104255419 0 -0.027182416335171232 -0.026548349077663323 0 -0.02533276657410348 -0.027089051408223219 0 -0.025285781107905105 -0.029556432885836016 0 -0.02591466264749092 -0.026971387173137438 0 -0.02578921850078528 -0.026048342104255419 0 -0.027182416335171232 -0.026548349077663323 0 -0.027382742033871973 -0.02891806468889906 0 -0.025285781107905105 -0.029556432885836016 0 -0.027444640313543791 -0.032340618256695618 0 -0.026304763133575687 -0.032746532727170277 0 -0.026825560555111507 -0.031812082880047346 0 -0.02157804608244045 -0.030674865789441275 0 -0.021808823481607786 -0.030747001406921149 0 -0.021786670464579092 -0.030955242264724618 0 -0.02157804608244045 -0.030674865789441275 0 -0.021809462629658851 -0.030566565200589337 0 -0.021808823481607786 -0.030747001406921149 0 -0.02591466264749092 -0.026971387173137438 0 -0.025783814668563835 -0.026083615494202662 0 -0.024582102613340828 -0.026546916741067381 0 -0.025285781107905105 -0.029556432885836016 0 -0.023024711146149773 -0.028759900332747005 0 -0.021970966610429271 -0.030528302716849115 0 -0.021911237420694486 -0.0306159776347995 0 -0.022040997300207896 -0.030577291898142095 0 -0.022025425026144654 -0.030482265700713784 0 -0.021970966610429271 -0.030528302716849115 0 -0.022040997300207896 -0.030577291898142095 0 -0.021970966610429271 -0.030528302716849115 0 -0.021948493349031629 -0.030509997703470865 0 -0.021911237420694486 -0.0306159776347995 0 -0.021973272586632699 -0.030489309674763439 0 -0.021970966610429271 -0.030528302716849115 0 -0.021948493349031629 -0.030509997703470865 0 -0.023024711146149773 -0.028759900332747005 0 -0.022877727116182484 -0.029030817770545295 0 -0.021809462629658851 -0.030566565200589337 0 -0.021911237420694486 -0.0306159776347995 0 -0.021808823481607786 -0.030747001406921149 0 -0.021911237420694486 -0.0306159776347995 0 -0.021910527675536647 -0.03077490540234577 0 -0.022040997300207896 -0.030577291898142095 0 -0.021911237420694486 -0.0306159776347995 0 -0.021808823481607786 -0.030747001406921149 0 -0.021910527675536647 -0.03077490540234577 0 -0.021808823481607786 -0.030747001406921149 0 -0.021786670464579092 -0.030955242264724618 0 -0.021910527675536647 -0.03077490540234577 0 -0.021786670464579092 -0.030955242264724618 0 -0.021869917829676053 -0.031229292556368814 0 -0.021910527675536647 -0.03077490540234577 0 -0.02157804608244045 -0.030674865789441275 0 -0.021786670464579092 -0.030955242264724618 0 -0.021638113768283691 -0.031188291125124563 0 -0.021145419592520389 -0.032244004190932485 0 -0.021767136160679785 -0.03227435123533573 0 -0.021910527675536647 -0.03077490540234577 0 -0.021433069008128598 -0.031788107287276865 0 -0.021857270636493575 -0.030862221995036097 0 -0.025285781107905105 -0.029556432885836016 0 -0.023875226299846151 -0.031304187112990649 0 -0.021786670464579092 -0.030955242264724618 0 -0.021638113768283691 -0.031188291125124563 0 -0.021869917829676053 -0.031229292556368814 0 -0.026304763133575687 -0.032746532727170277 0 -0.026117159946169043 -0.031407809432254172 0 -0.026825560555111507 -0.031812082880047346 0 -0.027564074367772036 -0.031629049274479827 0 -0.026825560555111507 -0.031812082880047346 0 -0.027112464366819949 -0.031399118831876127 0 -0.027564074367772036 -0.031629049274479827 0 -0.027444640313543791 -0.032340618256695618 0 -0.026825560555111507 -0.031812082880047346 0 -0.026117159946169043 -0.031407809432254172 0 -0.026710747323511721 -0.031116439329557127 0 -0.026564504133570595 -0.030821831108210913 0 -0.026117159946169043 -0.031407809432254172 0 -0.026825560555111507 -0.031812082880047346 0 -0.026710747323511721 -0.031116439329557127 0 -0.027353168239291095 -0.031040710697289361 0 -0.026710747323511721 -0.031116439329557127 0 -0.027112464366819949 -0.031399118831876127 0 -0.026825560555111507 -0.031812082880047346 0 -0.026710747323511721 -0.031116439329557127 0 -0.027112464366819949 -0.031399118831876127 0 -0.027353168239291095 -0.031040710697289361 0 -0.026710747323511721 -0.031116439329557127 0 -0.026976993938316454 -0.030765038213372037 0 -0.027353699627476816 -0.030448126728517873 0 -0.027353168239291095 -0.031040710697289361 0 -0.026976993938316454 -0.030765038213372037 0 -0.026117159946169043 -0.031407809432254172 0 -0.026564504133570595 -0.030821831108210913 0 -0.026270226168838846 -0.030431745180063773 0 -0.026976993938316454 -0.030765038213372037 0 -0.026564504133570595 -0.030821831108210913 0 -0.026752581025197002 -0.030384454665522424 0 -0.026710747323511721 -0.031116439329557127 0 -0.026976993938316454 -0.030765038213372037 0 -0.026564504133570595 -0.030821831108210913 0 -0.026529543513387224 -0.029997601373407349 0 -0.026270226168838846 -0.030431745180063773 0 -0.026752581025197002 -0.030384454665522424 0 -0.026529543513387224 -0.029997601373407349 0 -0.027000616503899275 -0.030034861803030232 0 -0.026752581025197002 -0.030384454665522424 0 -0.026564504133570595 -0.030821831108210913 0 -0.026270226168838846 -0.030431745180063773 0 -0.026752581025197002 -0.030384454665522424 0 -0.027000616503899275 -0.030034861803030232 0 -0.027353699627476816 -0.030448126728517873 0 -0.026752581025197002 -0.030384454665522424 0 -0.027353699627476816 -0.030448126728517873 0 -0.026976993938316454 -0.030765038213372037 0 -0.026752581025197002 -0.030384454665522424 0 -0.021433069008128598 -0.031788107287276865 0 -0.022514912865336405 -0.033069444669846411 0 -0.021145419592520389 -0.032244004190932485 0 -0.021037050850462053 -0.033191189267707359 0 -0.020408991403741524 -0.034046524723655727 0 -0.026117159946169043 -0.031407809432254172 0 -0.026270226168838846 -0.030431745180063773 0 -0.025908436917720129 -0.03007243861354917 0 -0.021638113768283691 -0.031188291125124563 0 -0.021869917829676053 -0.031229292556368814 0 -0.021726006306432406 -0.03181672931744782 0 -0.020901695355349654 -0.034044731572043095 0 -0.021355821509637638 -0.032779602660143001 0 -0.020836367143300807 -0.034189210304819299 0 -0.021037050850462053 -0.033191189267707359 0 -0.021767136160679785 -0.03227435123533573 0 -0.020836367143300807 -0.034189210304819299 0 -0.021055299159482253 -0.033779590157961198 0 -0.020969281208822525 -0.033254839845843515 0 -0.023875226299846151 -0.031304187112990649 0 -0.022514912865336405 -0.033069444669846411 0 -0.021145419592520389 -0.032244004190932485 0 -0.021037050850462053 -0.033191189267707359 0 -0.021767136160679785 -0.03227435123533573 0 -0.026529543513387224 -0.029997601373407349 0 -0.026270226168838846 -0.030431745180063773 0 -0.025908436917720129 -0.03007243861354917 0 -0.020836367143300807 -0.034189210304819299 0 -0.021037050850462053 -0.033191189267707359 0 -0.020408991403741524 -0.034046524723655727 0 -0.020836367143300807 -0.034189210304819299 0 -0.021055299159482253 -0.033779590157961198 0 -0.021127036098068399 -0.034167727464458134 0 -0.021055299159482253 -0.033779590157961198 0 -0.021258232310865835 -0.033942988475771242 0 -0.021127036098068399 -0.034167727464458134 0 -0.021055299159482253 -0.033779590157961198 0 -0.021258232310865835 -0.033942988475771242 0 -0.021285806628057232 -0.03370554574786043 0 -0.021258232310865835 -0.033942988475771242 0 -0.021127036098068399 -0.034167727464458134 0 -0.021391384436121347 -0.034211591680622724 0 -0.021258232310865835 -0.033942988475771242 0 -0.021485092339700439 -0.033864398722435511 0 -0.021391384436121347 -0.034211591680622724 0 -0.021258232310865835 -0.033942988475771242 0 -0.021485092339700439 -0.033864398722435511 0 -0.021285806628057232 -0.03370554574786043 0 -0.021485092339700439 -0.033864398722435511 0 -0.021285806628057232 -0.03370554574786043 0 -0.021439291364532948 -0.033467976400186852 0 -0.021285806628057232 -0.03370554574786043 0 -0.021439291364532948 -0.033467976400186852 0 -0.02119135827179507 -0.033476036932007944 0 -0.021055299159482253 -0.033779590157961198 0 -0.02119135827179507 -0.033476036932007944 0 -0.020969281208822525 -0.033254839845843515 0 -0.021055299159482253 -0.033779590157961198 0 -0.021285806628057232 -0.03370554574786043 0 -0.02119135827179507 -0.033476036932007944 0 -0.022085366803467881 -0.033761690450010165 0 -0.021812232635784995 -0.033949312573186563 0 -0.021783287861369623 -0.03356039916286277 0 -0.022085366803467881 -0.033761690450010165 0 -0.021812232635784995 -0.033949312573186563 0 -0.022014515542784482 -0.034265660726619372 0 -0.021485092339700439 -0.033864398722435511 0 -0.021812232635784995 -0.033949312573186563 0 -0.021694559033242876 -0.034301021570157672 0 -0.021485092339700439 -0.033864398722435511 0 -0.021812232635784995 -0.033949312573186563 0 -0.021783287861369623 -0.03356039916286277 0 -0.021439291364532948 -0.033467976400186852 0 -0.021783287861369623 -0.03356039916286277 0 -0.021804387541331727 -0.033037416622500253 0 -0.021485092339700439 -0.033864398722435511 0 -0.021439291364532948 -0.033467976400186852 0 -0.021783287861369623 -0.03356039916286277 0 -0.021783287861369623 -0.03356039916286277 0 -0.021804387541331727 -0.033037416622500253 0 -0.022262485479696201 -0.033382304463152213 0 -0.022085366803467881 -0.033761690450010165 0 -0.021783287861369623 -0.03356039916286277 0 -0.022262485479696201 -0.033382304463152213 0 -0.021439291364532948 -0.033467976400186852 0 -0.021804387541331727 -0.033037416622500253 0 -0.021292872350633624 -0.03319954077479266 0 -0.021804387541331727 -0.033037416622500253 0 -0.021292872350633624 -0.03319954077479266 0 -0.021357099876640539 -0.032913274064129069 0 -0.021804387541331727 -0.033037416622500253 0 -0.021357099876640539 -0.032913274064129069 0 -0.021519810334722059 -0.032702433491704243 0 -0.020969281208822525 -0.033254839845843515 0 -0.021357099876640539 -0.032913274064129069 0 -0.021216432632547945 -0.032437334867507259 0 -0.021355821509637638 -0.032779602660143001 0 -0.021754573154634388 -0.031573667713455961 0 -0.02119135827179507 -0.033476036932007944 0 -0.020969281208822525 -0.033254839845843515 0 -0.021292872350633624 -0.03319954077479266 0 -0.021439291364532948 -0.033467976400186852 0 -0.02119135827179507 -0.033476036932007944 0 -0.021292872350633624 -0.03319954077479266 0 -0.020969281208822525 -0.033254839845843515 0 -0.021292872350633624 -0.03319954077479266 0 -0.021357099876640539 -0.032913274064129069 0 -0.021767136160679785 -0.03227435123533573 0 -0.021910527675536647 -0.03077490540234577 0 -0.022318801676985703 -0.030703702804161129 0 -0.021216432632547945 -0.032437334867507259 0 -0.021660034831317201 -0.032390213965774156 0 -0.021466299267108805 -0.031656459337442454 0 -0.022040997300207896 -0.030577291898142095 0 -0.022318801676985703 -0.030703702804161129 0 -0.022131130481413734 -0.030431728577125599 0 -0.021910527675536647 -0.03077490540234577 0 -0.022040997300207896 -0.030577291898142095 0 -0.022318801676985703 -0.030703702804161129 0 -0.021216432632547945 -0.032437334867507259 0 -0.021519810334722059 -0.032702433491704243 0 -0.021660034831317201 -0.032390213965774156 0 -0.021357099876640539 -0.032913274064129069 0 -0.021216432632547945 -0.032437334867507259 0 -0.021519810334722059 -0.032702433491704243 0 -0.021804387541331727 -0.033037416622500253 0 -0.021519810334722059 -0.032702433491704243 0 -0.021660034831317201 -0.032390213965774156 0 -0.021804387541331727 -0.033037416622500253 0 -0.021896895673072687 -0.032151368150610954 0 -0.021472511547683613 -0.032103129523833339 0 -0.021770860883189566 -0.032930833543266196 0 -0.021574014543109414 -0.032327988220351808 0 -0.021896895673072687 -0.032151368150610954 0 -0.021472511547683613 -0.032103129523833339 0 -0.021847818165330581 -0.031678651176929758 0 -0.021904393615311463 -0.03119105185572623 0 -0.021847818165330581 -0.031678651176929758 0 -0.021335104830159518 -0.031409471763543244 0 -0.021574014543109414 -0.032327988220351808 0 -0.021829404478071319 -0.031083547248670948 0 -0.021472511547683613 -0.032103129523833339 0 -0.021847818165330581 -0.031678651176929758 0 -0.021335104830159518 -0.031409471763543244 0 -0.022318801676985703 -0.030703702804161129 0 -0.022261770803281736 -0.03032428850104053 0 -0.022131130481413734 -0.030431728577125599 0 -0.021754573154634388 -0.031573667713455961 0 -0.021829404478071319 -0.031083547248670948 0 -0.022096135242236151 -0.030304193091163122 0 -0.022040309783650847 -0.030394097082702604 0 -0.022131130481413734 -0.030431728577125599 0 -0.022096135242236151 -0.030304193091163122 0 -0.022261770803281736 -0.03032428850104053 0 -0.022131130481413734 -0.030431728577125599 0 -0.022025425026144654 -0.030482265700713784 0 -0.022040997300207896 -0.030577291898142095 0 -0.022131130481413734 -0.030431728577125599 0 -0.022025425026144654 -0.030482265700713784 0 -0.022040309783650847 -0.030394097082702604 0 -0.022131130481413734 -0.030431728577125599 0 -0.022586947638712291 -0.031408241202231735 0 -0.022621044931993111 -0.031814401712123276 0 -0.022782516321424782 -0.031450602951326616 0 -0.022586947638712291 -0.031408241202231735 0 -0.022263750732936342 -0.031503595028652576 0 -0.022621044931993111 -0.031814401712123276 0 -0.022322920192956695 -0.031074441957603571 0 -0.022586947638712291 -0.031408241202231735 0 -0.022263750732936342 -0.031503595028652576 0 -0.021904393615311463 -0.03119105185572623 0 -0.021847818165330581 -0.031678651176929758 0 -0.022263750732936342 -0.031503595028652576 0 -0.021847818165330581 -0.031678651176929758 0 -0.022263750732936342 -0.031503595028652576 0 -0.022250667577248032 -0.031952258889104121 0 -0.022263750732936342 -0.031503595028652576 0 -0.022250667577248032 -0.031952258889104121 0 -0.022621044931993111 -0.031814401712123276 0 -0.021804387541331727 -0.033037416622500253 0 -0.021896895673072687 -0.032151368150610954 0 -0.022199135543754227 -0.032406767865713372 0 -0.021896895673072687 -0.032151368150610954 0 -0.021847818165330581 -0.031678651176929758 0 -0.022250667577248032 -0.031952258889104121 0 -0.021896895673072687 -0.032151368150610954 0 -0.022250667577248032 -0.031952258889104121 0 -0.022199135543754227 -0.032406767865713372 0 -0.022250667577248032 -0.031952258889104121 0 -0.022199135543754227 -0.032406767865713372 0 -0.02251328186192933 -0.032271223079548453 0 -0.022621044931993111 -0.031814401712123276 0 -0.022923598876977494 -0.032490607409120728 0 -0.022782516321424782 -0.031450602951326616 0 -0.02251328186192933 -0.032271223079548453 0 -0.022621044931993111 -0.031814401712123276 0 -0.022923598876977494 -0.032490607409120728 0 -0.022250667577248032 -0.031952258889104121 0 -0.02251328186192933 -0.032271223079548453 0 -0.022621044931993111 -0.031814401712123276 0 -0.02251328186192933 -0.032271223079548453 0 -0.022923598876977494 -0.032490607409120728 0 -0.022414556651355586 -0.032864275916877947 0 -0.022096102107909681 -0.032225866053031571 0 -0.022021734928233221 -0.033151894540554103 0 -0.02238289193661918 -0.032793311580807644 0 -0.022923598876977494 -0.032490607409120728 0 -0.022414556651355586 -0.032864275916877947 0 -0.022679552115407682 -0.033717701015596492 0 -0.022479284351520773 -0.032402061412532802 0 -0.022179793825663062 -0.033350941348100738 0 -0.021804387541331727 -0.033037416622500253 0 -0.022414556651355586 -0.032864275916877947 0 -0.022262485479696201 -0.033382304463152213 0 -0.021804387541331727 -0.033037416622500253 0 -0.022199135543754227 -0.032406767865713372 0 -0.022414556651355586 -0.032864275916877947 0 -0.022199135543754227 -0.032406767865713372 0 -0.02251328186192933 -0.032271223079548453 0 -0.022414556651355586 -0.032864275916877947 0 -0.022085366803467881 -0.033761690450010165 0 -0.022679552115407682 -0.033717701015596492 0 -0.022014515542784482 -0.034265660726619372 0 -0.022414556651355586 -0.032864275916877947 0 -0.022262485479696201 -0.033382304463152213 0 -0.022679552115407682 -0.033717701015596492 0 -0.022085366803467881 -0.033761690450010165 0 -0.022262485479696201 -0.033382304463152213 0 -0.022679552115407682 -0.033717701015596492 0 -0.022096102107909681 -0.032225866053031571 0 -0.021571132519674574 -0.033180817280014194 0 -0.022021734928233221 -0.033151894540554103 0 -0.021571132519674574 -0.033180817280014194 0 -0.022021734928233221 -0.033151894540554103 0 -0.02168111007601593 -0.033543558059953078 0 -0.022021734928233221 -0.033151894540554103 0 -0.021977383466103742 -0.033572850988489958 0 -0.02168111007601593 -0.033543558059953078 0 -0.021977383466103742 -0.033572850988489958 0 -0.02168111007601593 -0.033543558059953078 0 -0.021670065606605286 -0.033834930461614156 0 -0.021977383466103742 -0.033572850988489958 0 -0.021936296805889165 -0.033819427220690923 0 -0.022115452872763543 -0.033897378553210497 0 -0.021977383466103742 -0.033572850988489958 0 -0.021936296805889165 -0.033819427220690923 0 -0.021670065606605286 -0.033834930461614156 0 -0.021936296805889165 -0.033819427220690923 0 -0.021670065606605286 -0.033834930461614156 0 -0.021797176149784048 -0.034150025154221199 0 -0.021936296805889165 -0.033819427220690923 0 -0.021797176149784048 -0.034150025154221199 0 -0.02206895747531663 -0.034096929576081091 0 -0.020974942647194274 -0.035097120167111674 0 -0.02148791395984348 -0.034825459039932498 0 -0.021670065606605286 -0.033834930461614156 0 -0.021797176149784048 -0.034150025154221199 0 -0.021270885440857503 -0.033882070155528098 0 -0.020406125827611952 -0.036096037628562012 0 -0.02069025545992758 -0.036267918195941509 0 -0.020612879910055042 -0.036075554782285427 0 -0.022679552115407682 -0.033717701015596492 0 -0.022277935559409788 -0.034860363563040446 0 -0.022014515542784482 -0.034265660726619372 0 -0.02168111007601593 -0.033543558059953078 0 -0.021670065606605286 -0.033834930461614156 0 -0.021270885440857503 -0.033882070155528098 0 -0.022179793825663062 -0.033350941348100738 0 -0.02148791395984348 -0.034825459039932498 0 -0.021571132519674574 -0.033180817280014194 0 -0.02168111007601593 -0.033543558059953078 0 -0.021270885440857503 -0.033882070155528098 0 -0.022014515542784482 -0.034265660726619372 0 -0.021694559033242876 -0.034301021570157672 0 -0.021966605976974203 -0.034656136080207997 0 -0.021812232635784995 -0.033949312573186563 0 -0.022014515542784482 -0.034265660726619372 0 -0.021694559033242876 -0.034301021570157672 0 -0.021966605976974203 -0.034656136080207997 0 -0.021590937438146732 -0.034763726445326736 0 -0.021717392377605407 -0.035026244660258832 0 -0.021694559033242876 -0.034301021570157672 0 -0.021966605976974203 -0.034656136080207997 0 -0.021590937438146732 -0.034763726445326736 0 -0.02148791395984348 -0.034825459039932498 0 -0.022021307161581891 -0.034904497163973557 0 -0.022277935559409788 -0.034860363563040446 0 -0.022014515542784482 -0.034265660726619372 0 -0.021966605976974203 -0.034656136080207997 0 -0.021022257221655589 -0.034430682405804373 0 -0.021127036098068399 -0.034167727464458134 0 -0.021283612160170662 -0.034528159422576206 0 -0.021127036098068399 -0.034167727464458134 0 -0.021391384436121347 -0.034211591680622724 0 -0.021283612160170662 -0.034528159422576206 0 -0.021485092339700439 -0.033864398722435511 0 -0.021694559033242876 -0.034301021570157672 0 -0.021391384436121347 -0.034211591680622724 0 -0.021694559033242876 -0.034301021570157672 0 -0.021391384436121347 -0.034211591680622724 0 -0.02149458276583617 -0.034456888404387244 0 -0.021391384436121347 -0.034211591680622724 0 -0.02149458276583617 -0.034456888404387244 0 -0.021283612160170662 -0.034528159422576206 0 -0.021694559033242876 -0.034301021570157672 0 -0.02149458276583617 -0.034456888404387244 0 -0.021590937438146732 -0.034763726445326736 0 -0.021590937438146732 -0.034763726445326736 0 -0.021283612160170662 -0.034528159422576206 0 -0.021323809429779191 -0.034901869435221611 0 -0.02149458276583617 -0.034456888404387244 0 -0.021590937438146732 -0.034763726445326736 0 -0.021283612160170662 -0.034528159422576206 0 -0.021283612160170662 -0.034528159422576206 0 -0.021323809429779191 -0.034901869435221611 0 -0.02105587826458186 -0.034795219077375983 0 -0.021022257221655589 -0.034430682405804373 0 -0.021283612160170662 -0.034528159422576206 0 -0.02105587826458186 -0.034795219077375983 0 -0.021219362547022572 -0.035236719065473855 0 -0.021458411266186219 -0.035168718835928169 0 -0.021426599200835131 -0.035574996431904052 0 -0.021323809429779191 -0.034901869435221611 0 -0.02105587826458186 -0.034795219077375983 0 -0.021219362547022572 -0.035236719065473855 0 -0.021323809429779191 -0.034901869435221611 0 -0.021219362547022572 -0.035236719065473855 0 -0.021458411266186219 -0.035168718835928169 0 -0.021458411266186219 -0.035168718835928169 0 -0.021597876019588142 -0.035333916655638023 0 -0.021717392377605407 -0.035026244660258832 0 -0.021590937438146732 -0.034763726445326736 0 -0.021323809429779191 -0.034901869435221611 0 -0.021458411266186219 -0.035168718835928169 0 -0.021590937438146732 -0.034763726445326736 0 -0.021458411266186219 -0.035168718835928169 0 -0.021717392377605407 -0.035026244660258832 0 -0.021458411266186219 -0.035168718835928169 0 -0.021597876019588142 -0.035333916655638023 0 -0.021426599200835131 -0.035574996431904052 0 -0.021554986096385099 -0.035593999130446086 0 -0.021426599200835131 -0.035574996431904052 0 -0.021470431493549071 -0.035913567104037113 0 -0.021597876019588142 -0.035333916655638023 0 -0.021554986096385099 -0.035593999130446086 0 -0.021426599200835131 -0.035574996431904052 0 -0.021597876019588142 -0.035333916655638023 0 -0.021554986096385099 -0.035593999130446086 0 -0.021664546594042308 -0.03545597180734638 0 -0.021219362547022572 -0.035236719065473855 0 -0.021426599200835131 -0.035574996431904052 0 -0.021353879741547614 -0.035721967460461149 0 -0.022420549748897435 -0.034990867399505604 0 -0.021909907927331468 -0.035250476868149333 0 -0.021830687064892676 -0.03588301044466307 0 -0.02069025545992758 -0.036267918195941509 0 -0.020826223957518403 -0.036031996064536831 0 -0.020612879910055042 -0.036075554782285427 0 -0.02148791395984348 -0.034825459039932498 0 -0.021211818872464362 -0.036072021400029478 0 -0.022420549748897435 -0.034990867399505604 0 -0.021966605976974203 -0.034656136080207997 0 -0.021909907927331468 -0.035250476868149333 0 -0.021966605976974203 -0.034656136080207997 0 -0.021717392377605407 -0.035026244660258832 0 -0.021909907927331468 -0.035250476868149333 0 -0.021597876019588142 -0.035333916655638023 0 -0.021717392377605407 -0.035026244660258832 0 -0.021757687749296498 -0.035287430157911422 0 -0.021717392377605407 -0.035026244660258832 0 -0.021757687749296498 -0.035287430157911422 0 -0.021909907927331468 -0.035250476868149333 0 -0.021909907927331468 -0.035250476868149333 0 -0.021746180980957035 -0.035564653577183518 0 -0.021830687064892676 -0.03588301044466307 0 -0.021757687749296498 -0.035287430157911422 0 -0.021909907927331468 -0.035250476868149333 0 -0.021746180980957035 -0.035564653577183518 0 -0.021597876019588142 -0.035333916655638023 0 -0.021757687749296498 -0.035287430157911422 0 -0.021664546594042308 -0.03545597180734638 0 -0.021757687749296498 -0.035287430157911422 0 -0.021664546594042308 -0.03545597180734638 0 -0.021746180980957035 -0.035564653577183518 0 -0.021554986096385099 -0.035593999130446086 0 -0.021664546594042308 -0.03545597180734638 0 -0.021746180980957035 -0.035564653577183518 0 -0.021554986096385099 -0.035593999130446086 0 -0.021746180980957035 -0.035564653577183518 0 -0.021608133008656088 -0.035730378630590767 0 -0.021746180980957035 -0.035564653577183518 0 -0.021708595258987332 -0.035733177932621756 0 -0.021608133008656088 -0.035730378630590767 0 -0.021723851158622937 -0.035838914391859183 0 -0.021588158784865051 -0.035876712492494738 0 -0.021774059831977454 -0.035870123472853635 0 -0.021746180980957035 -0.035564653577183518 0 -0.021708595258987332 -0.035733177932621756 0 -0.021830687064892676 -0.03588301044466307 0 -0.021708595258987332 -0.035733177932621756 0 -0.021723851158622937 -0.035838914391859183 0 -0.021830687064892676 -0.03588301044466307 0 -0.021708595258987332 -0.035733177932621756 0 -0.021723851158622937 -0.035838914391859183 0 -0.021588158784865051 -0.035876712492494738 0 -0.02126596231523236 -0.036080253054563936 0 -0.021211818872464362 -0.036072021400029478 0 -0.021608133008656088 -0.035730378630590767 0 -0.021588158784865051 -0.035876712492494738 0 -0.021470431493549071 -0.035913567104037113 0 -0.021708595258987332 -0.035733177932621756 0 -0.021608133008656088 -0.035730378630590767 0 -0.021588158784865051 -0.035876712492494738 0 -0.021588158784865051 -0.035876712492494738 0 -0.021364134981687617 -0.036041697046867389 0 -0.021470431493549071 -0.035913567104037113 0 -0.021588158784865051 -0.035876712492494738 0 -0.021774059831977454 -0.035870123472853635 0 -0.021364134981687617 -0.036041697046867389 0 -0.021211818872464362 -0.036072021400029478 0 -0.021348911257735349 -0.035986210729332911 0 -0.021364134981687617 -0.036041697046867389 0 -0.021088824544384002 -0.03607184480988837 0 -0.021135421906873533 -0.03584771361170272 0 -0.021122713432923917 -0.036354463152737847 0 -0.021364134981687617 -0.036041697046867389 0 -0.021088824544384002 -0.03607184480988837 0 -0.021122713432923917 -0.036354463152737847 0 -0.021088824544384002 -0.03607184480988837 0 -0.020817129626097504 -0.036046241873250055 0 -0.021426599200835131 -0.035574996431904052 0 -0.021353879741547614 -0.035721967460461149 0 -0.021444202372261464 -0.035968366597171293 0 -0.02159714666034776 -0.036121261931508011 0 -0.021353879741547614 -0.035721967460461149 0 -0.021444202372261464 -0.035968366597171293 0 -0.021554986096385099 -0.035593999130446086 0 -0.021608133008656088 -0.035730378630590767 0 -0.021470431493549071 -0.035913567104037113 0 -0.021426599200835131 -0.035574996431904052 0 -0.021444202372261464 -0.035968366597171293 0 -0.021470431493549071 -0.035913567104037113 0 -0.021364134981687617 -0.036041697046867389 0 -0.021405130730942412 -0.035948828505956605 0 -0.021316975952143411 -0.035908110161369335 0 -0.021364134981687617 -0.036041697046867389 0 -0.021470431493549071 -0.035913567104037113 0 -0.021405130730942412 -0.035948828505956605 0 -0.021444202372261464 -0.035968366597171293 0 -0.021470431493549071 -0.035913567104037113 0 -0.021405130730942412 -0.035948828505956605 0 -0.021626158932155557 -0.035879940078413136 0 -0.021444202372261464 -0.035968366597171293 0 -0.021405130730942412 -0.035948828505956605 0 -0.021626158932155557 -0.035879940078413136 0 -0.021405130730942412 -0.035948828505956605 0 -0.021368219925944003 -0.035753142673699369 0 -0.021405130730942412 -0.035948828505956605 0 -0.021316975952143411 -0.035908110161369335 0 -0.021368219925944003 -0.035753142673699369 0 -0.021316975952143411 -0.035908110161369335 0 -0.021368219925944003 -0.035753142673699369 0 -0.021135421906873533 -0.03584771361170272 0 -0.021368219925944003 -0.035753142673699369 0 -0.021135421906873533 -0.03584771361170272 0 -0.02123654305905099 -0.035551177227475923 0 -0.021841460587553912 -0.035478401119315335 0 -0.021368219925944003 -0.035753142673699369 0 -0.021532468713926983 -0.035408843474492864 0 -0.021841460587553912 -0.035478401119315335 0 -0.021626158932155557 -0.035879940078413136 0 -0.021368219925944003 -0.035753142673699369 0 -0.021135421906873533 -0.03584771361170272 0 -0.020872915217173622 -0.035781175540262992 0 -0.020817129626097504 -0.036046241873250055 0 -0.021088824544384002 -0.03607184480988837 0 -0.021135421906873533 -0.03584771361170272 0 -0.020817129626097504 -0.036046241873250055 0 -0.021364134981687617 -0.036041697046867389 0 -0.021316975952143411 -0.035908110161369335 0 -0.021135421906873533 -0.03584771361170272 0 -0.021135421906873533 -0.03584771361170272 0 -0.020985870671617755 -0.035639996964519256 0 -0.02123654305905099 -0.035551177227475923 0 -0.021135421906873533 -0.03584771361170272 0 -0.020872915217173622 -0.035781175540262992 0 -0.020985870671617755 -0.035639996964519256 0 -0.020872915217173622 -0.035781175540262992 0 -0.020812301298766392 -0.035636646473302815 0 -0.020985870671617755 -0.035639996964519256 0 -0.020872915217173622 -0.035781175540262992 0 -0.020610157857581246 -0.035761453285733144 0 -0.020812301298766392 -0.035636646473302815 0 -0.020872915217173622 -0.035781175540262992 0 -0.020610157857581246 -0.035761453285733144 0 -0.020817129626097504 -0.036046241873250055 0 -0.020610157857581246 -0.035761453285733144 0 -0.020817129626097504 -0.036046241873250055 0 -0.020405320757264901 -0.03603675782906765 0 -0.020610157857581246 -0.035761453285733144 0 -0.02029810799577883 -0.035772911085133398 0 -0.020405320757264901 -0.03603675782906765 0 -0.020306400537593045 -0.03593857665580124 0 -0.020500300667991099 -0.035888865061513474 0 -0.020153553826863447 -0.035756597367769614 0 -0.02029810799577883 -0.035772911085133398 0 -0.020405320757264901 -0.03603675782906765 0 -0.019998227436466547 -0.035819777892141094 0 -0.020415198973016926 -0.035969899422300403 0 -0.020087069673959207 -0.035791851029537844 0 -0.020406125827611952 -0.036096037628562012 0 -0.020306400537593045 -0.03593857665580124 0 -0.020500300667991099 -0.035888865061513474 0 -0.020406125827611952 -0.036096037628562012 0 -0.020306400537593045 -0.03593857665580124 0 -0.0201086477795543 -0.035925213093925434 0 -0.021122713432923917 -0.036354463152737847 0 -0.020817129626097504 -0.036046241873250055 0 -0.020405320757264901 -0.03603675782906765 0 -0.020826223957518403 -0.036031996064536831 0 -0.020612879910055042 -0.036075554782285427 0 -0.020500300667991099 -0.035888865061513474 0 -0.020406125827611952 -0.036096037628562012 0 -0.020612879910055042 -0.036075554782285427 0 -0.020500300667991099 -0.035888865061513474 0 -0.021211818872464362 -0.036072021400029478 0 -0.020415198973016926 -0.035969899422300403 0 -0.020535535150230863 -0.035454107928959089 0 -0.020398906372308595 -0.035433548478468087 0 -0.020298308663479234 -0.035522863185207879 0 -0.020535535150230863 -0.035454107928959089 0 -0.020559174516578547 -0.035347873113201499 0 -0.020398906372308595 -0.035433548478468087 0 -0.020535535150230863 -0.035454107928959089 0 -0.020676697307054334 -0.035539827710026381 0 -0.020765805296566468 -0.035336709055709022 0 -0.020535535150230863 -0.035454107928959089 0 -0.020559174516578547 -0.035347873113201499 0 -0.020765805296566468 -0.035336709055709022 0 -0.020559174516578547 -0.035347873113201499 0 -0.020398906372308595 -0.035433548478468087 0 -0.020310730499323717 -0.03538030633674652 0 -0.020398906372308595 -0.035433548478468087 0 -0.020186527284373972 -0.035453018707297182 0 -0.020310730499323717 -0.03538030633674652 0 -0.020186527284373972 -0.035453018707297182 0 -0.020119736736434739 -0.03553042418897695 0 -0.019979119193631947 -0.035484764173074904 0 -0.020398906372308595 -0.035433548478468087 0 -0.020186527284373972 -0.035453018707297182 0 -0.020298308663479234 -0.035522863185207879 0 -0.020186527284373972 -0.035453018707297182 0 -0.020119736736434739 -0.03553042418897695 0 -0.020298308663479234 -0.035522863185207879 0 -0.020298308663479234 -0.035522863185207879 0 -0.020137144202677117 -0.035648901121921574 0 -0.02042039599688204 -0.035615829694171229 0 -0.02029810799577883 -0.035772911085133398 0 -0.020137144202677117 -0.035648901121921574 0 -0.019998227436466547 -0.035819777892141094 0 -0.020119736736434739 -0.03553042418897695 0 -0.020298308663479234 -0.035522863185207879 0 -0.020137144202677117 -0.035648901121921574 0 -0.02029810799577883 -0.035772911085133398 0 -0.020137144202677117 -0.035648901121921574 0 -0.02042039599688204 -0.035615829694171229 0 -0.020610157857581246 -0.035761453285733144 0 -0.02029810799577883 -0.035772911085133398 0 -0.02042039599688204 -0.035615829694171229 0 -0.020535535150230863 -0.035454107928959089 0 -0.020298308663479234 -0.035522863185207879 0 -0.02042039599688204 -0.035615829694171229 0 -0.020535535150230863 -0.035454107928959089 0 -0.02042039599688204 -0.035615829694171229 0 -0.020676697307054334 -0.035539827710026381 0 -0.020610157857581246 -0.035761453285733144 0 -0.02042039599688204 -0.035615829694171229 0 -0.020676697307054334 -0.035539827710026381 0 -0.020610157857581246 -0.035761453285733144 0 -0.020676697307054334 -0.035539827710026381 0 -0.020812301298766392 -0.035636646473302815 0 -0.020676697307054334 -0.035539827710026381 0 -0.020812301298766392 -0.035636646473302815 0 -0.020917972294272058 -0.03547263598255139 0 -0.020812301298766392 -0.035636646473302815 0 -0.020985870671617755 -0.035639996964519256 0 -0.020917972294272058 -0.03547263598255139 0 -0.020985870671617755 -0.035639996964519256 0 -0.020917972294272058 -0.03547263598255139 0 -0.02123654305905099 -0.035551177227475923 0 -0.020917972294272058 -0.03547263598255139 0 -0.021244019383201706 -0.035321544690276915 0 -0.021013865224771167 -0.035273564922052324 0 -0.020676697307054334 -0.035539827710026381 0 -0.020917972294272058 -0.03547263598255139 0 -0.020765805296566468 -0.035336709055709022 0 -0.021532468713926983 -0.035408843474492864 0 -0.02123654305905099 -0.035551177227475923 0 -0.021244019383201706 -0.035321544690276915 0 -0.021368219925944003 -0.035753142673699369 0 -0.021532468713926983 -0.035408843474492864 0 -0.02123654305905099 -0.035551177227475923 0 -0.020917972294272058 -0.03547263598255139 0 -0.02123654305905099 -0.035551177227475923 0 -0.021244019383201706 -0.035321544690276915 0 -0.021532468713926983 -0.035408843474492864 0 -0.021244019383201706 -0.035321544690276915 0 -0.021606913858188619 -0.03514681488523852 0 -0.021244019383201706 -0.035321544690276915 0 -0.021225829824386554 -0.035123551559541756 0 -0.021606913858188619 -0.03514681488523852 0 -0.021225829824386554 -0.035123551559541756 0 -0.021629826443613675 -0.034920130842303429 0 -0.021606913858188619 -0.03514681488523852 0 -0.021244019383201706 -0.035321544690276915 0 -0.021225829824386554 -0.035123551559541756 0 -0.021013865224771167 -0.035273564922052324 0 -0.021225829824386554 -0.035123551559541756 0 -0.020932732087558911 -0.035145202942900446 0 -0.021157971789392382 -0.03495789205309556 0 -0.021225829824386554 -0.035123551559541756 0 -0.021013865224771167 -0.035273564922052324 0 -0.020932732087558911 -0.035145202942900446 0 -0.021225829824386554 -0.035123551559541756 0 -0.021157971789392382 -0.03495789205309556 0 -0.021629826443613675 -0.034920130842303429 0 -0.020917972294272058 -0.03547263598255139 0 -0.020765805296566468 -0.035336709055709022 0 -0.021013865224771167 -0.035273564922052324 0 -0.020765805296566468 -0.035336709055709022 0 -0.021013865224771167 -0.035273564922052324 0 -0.020932732087558911 -0.035145202942900446 0 -0.020765805296566468 -0.035336709055709022 0 -0.020932732087558911 -0.035145202942900446 0 -0.020647616706825619 -0.03524659032004894 0 -0.020559174516578547 -0.035347873113201499 0 -0.020765805296566468 -0.035336709055709022 0 -0.020647616706825619 -0.03524659032004894 0 -0.020932732087558911 -0.035145202942900446 0 -0.020647616706825619 -0.03524659032004894 0 -0.020895069378445146 -0.035058521318833503 0 -0.020647616706825619 -0.03524659032004894 0 -0.020895069378445146 -0.035058521318833503 0 -0.020591861016975747 -0.03527369361382679 0 -0.020647616706825619 -0.03524659032004894 0 -0.020591861016975747 -0.03527369361382679 0 -0.020355378397887459 -0.035369009159715685 0 -0.021157971789392382 -0.03495789205309556 0 -0.020895069378445146 -0.035058521318833503 0 -0.021258635728767274 -0.03470929012991672 0 -0.021157971789392382 -0.03495789205309556 0 -0.021258635728767274 -0.03470929012991672 0 -0.021629826443613675 -0.034920130842303429 0 -0.020932732087558911 -0.035145202942900446 0 -0.021157971789392382 -0.03495789205309556 0 -0.020895069378445146 -0.035058521318833503 0 -0.020895069378445146 -0.035058521318833503 0 -0.021110974469476358 -0.034879014561229847 0 -0.020882962277603667 -0.03526294595532449 0 -0.020895069378445146 -0.035058521318833503 0 -0.021110974469476358 -0.034879014561229847 0 -0.021258635728767274 -0.03470929012991672 0 -0.020895069378445146 -0.035058521318833503 0 -0.020644425295320623 -0.035319827994329901 0 -0.020882962277603667 -0.03526294595532449 0 -0.020895069378445146 -0.035058521318833503 0 -0.020591861016975747 -0.03527369361382679 0 -0.020644425295320623 -0.035319827994329901 0 -0.020591861016975747 -0.03527369361382679 0 -0.020644425295320623 -0.035319827994329901 0 -0.020311073697587102 -0.035468463794643829 0 -0.020311073697587102 -0.035468463794643829 0 -0.020079048327067632 -0.035469306178567576 0 -0.019842613499289178 -0.035610732701943801 0 -0.020591861016975747 -0.03527369361382679 0 -0.020311073697587102 -0.035468463794643829 0 -0.020355378397887459 -0.035369009159715685 0 -0.020311073697587102 -0.035468463794643829 0 -0.020079048327067632 -0.035469306178567576 0 -0.020355378397887459 -0.035369009159715685 0 -0.020647616706825619 -0.03524659032004894 0 -0.020355378397887459 -0.035369009159715685 0 -0.020310730499323717 -0.03538030633674652 0 -0.020079048327067632 -0.035469306178567576 0 -0.020355378397887459 -0.035369009159715685 0 -0.020310730499323717 -0.03538030633674652 0 -0.020559174516578547 -0.035347873113201499 0 -0.020647616706825619 -0.03524659032004894 0 -0.020310730499323717 -0.03538030633674652 0 -0.020186527284373972 -0.035453018707297182 0 -0.020027124973589227 -0.035455259622114106 0 -0.019979119193631947 -0.035484764173074904 0 -0.020186527284373972 -0.035453018707297182 0 -0.020310730499323717 -0.03538030633674652 0 -0.020027124973589227 -0.035455259622114106 0 -0.020079048327067632 -0.035469306178567576 0 -0.020310730499323717 -0.03538030633674652 0 -0.020027124973589227 -0.035455259622114106 0 -0.020027124973589227 -0.035455259622114106 0 -0.019794263333143661 -0.035535513685180112 0 -0.019874479665549429 -0.035483135301844652 0 -0.020079048327067632 -0.035469306178567576 0 -0.020027124973589227 -0.035455259622114106 0 -0.019794263333143661 -0.035535513685180112 0 -0.020079048327067632 -0.035469306178567576 0 -0.019794263333143661 -0.035535513685180112 0 -0.019842613499289178 -0.035610732701943801 0 -0.019794263333143661 -0.035535513685180112 0 -0.019842613499289178 -0.035610732701943801 0 -0.019445600064124668 -0.035700035318665183 0 -0.019842613499289178 -0.035610732701943801 0 -0.019445600064124668 -0.035700035318665183 0 -0.019535573116697316 -0.035804404295987947 0 -0.020311073697587102 -0.035468463794643829 0 -0.019842613499289178 -0.035610732701943801 0 -0.020091554472955107 -0.035639287104090797 0 -0.019842613499289178 -0.035610732701943801 0 -0.020091554472955107 -0.035639287104090797 0 -0.019535573116697316 -0.035804404295987947 0 -0.020091554472955107 -0.035639287104090797 0 -0.019535573116697316 -0.035804404295987947 0 -0.02022231651976425 -0.03570691492561319 0 -0.019535573116697316 -0.035804404295987947 0 -0.019219726205482124 -0.035699442210814065 0 -0.02022231651976425 -0.03570691492561319 0 -0.019445600064124668 -0.035700035318665183 0 -0.019535573116697316 -0.035804404295987947 0 -0.018377525876006971 -0.036123289219168617 0 -0.019535573116697316 -0.035804404295987947 0 -0.019219726205482124 -0.035699442210814065 0 -0.018377525876006971 -0.036123289219168617 0 -0.019219726205482124 -0.035699442210814065 0 -0.017676465157805216 -0.03551490851976509 0 -0.018377525876006971 -0.036123289219168617 0 -0.019219726205482124 -0.035699442210814065 0 -0.020190086476554348 -0.035524516917217842 0 -0.02022231651976425 -0.03570691492561319 0 -0.019219726205482124 -0.035699442210814065 0 -0.018196602953057989 -0.034999698989386221 0 -0.020175872778735681 -0.034999407897156741 0 -0.019219726205482124 -0.035699442210814065 0 -0.018196602953057989 -0.034999698989386221 0 -0.017676465157805216 -0.03551490851976509 0 -0.021183267481304519 -0.03592435216238124 0 -0.021974119540178083 -0.035733313481360593 0 -0.02199437596711723 -0.034999850821374176 0 -0.020177413376338941 -0.034999880531754908 0 -0.021183267481304519 -0.03592435216238124 0 -0.02199437596711723 -0.034999850821374176 0 -0.020175872778735681 -0.034999407897156741 0 -0.020190086476554348 -0.035524516917217842 0 -0.020619715725783992 -0.035327392240094346 0 -0.020176983407774785 -0.035000092656509996 0 -0.020894974537302345 -0.035618838801973002 0 -0.019219726205482124 -0.035699442210814065 0 -0.020175872778735681 -0.034999407897156741 0 -0.020190086476554348 -0.035524516917217842 0 -0.020190086476554348 -0.035524516917217842 0 -0.020619715725783992 -0.035327392240094346 0 -0.020747855745805947 -0.035726654402250362 0 -0.020619715725783992 -0.035327392240094346 0 -0.020747855745805947 -0.035726654402250362 0 -0.021372589180087619 -0.035951702056202364 0 -0.021183267481304519 -0.03592435216238124 0 -0.021372589180087619 -0.035951702056202364 0 -0.021646158195852052 -0.035990413461295889 0 -0.021183267481304519 -0.03592435216238124 0 -0.021646158195852052 -0.035990413461295889 0 -0.021974119540178083 -0.035733313481360593 0 -0.020894974537302345 -0.035618838801973002 0 -0.021317837604119302 -0.035958717722801223 0 -0.020747855745805947 -0.035726654402250362 0 -0.021150316974346696 -0.035717349403774232 0 -0.021372589180087619 -0.035951702056202364 0 -0.020747855745805947 -0.035726654402250362 0 -0.021150316974346696 -0.035717349403774232 0 -0.020825440651751494 -0.035623534405845952 0 -0.020190086476554348 -0.035524516917217842 0 -0.020747855745805947 -0.035726654402250362 0 -0.02022231651976425 -0.03570691492561319 0 -0.020747855745805947 -0.035726654402250362 0 -0.02022231651976425 -0.03570691492561319 0 -0.020825440651751494 -0.035623534405845952 0 -0.020091554472955107 -0.035639287104090797 0 -0.02022231651976425 -0.03570691492561319 0 -0.020504824973323382 -0.035551379244098229 0 -0.02022231651976425 -0.03570691492561319 0 -0.020504824973323382 -0.035551379244098229 0 -0.020825440651751494 -0.035623534405845952 0 -0.020644425295320623 -0.035319827994329901 0 -0.020504824973323382 -0.035551379244098229 0 -0.020882962277603667 -0.03526294595532449 0 -0.020504824973323382 -0.035551379244098229 0 -0.020825440651751494 -0.035623534405845952 0 -0.020882962277603667 -0.03526294595532449 0 -0.020311073697587102 -0.035468463794643829 0 -0.020091554472955107 -0.035639287104090797 0 -0.020504824973323382 -0.035551379244098229 0 -0.020644425295320623 -0.035319827994329901 0 -0.020311073697587102 -0.035468463794643829 0 -0.020504824973323382 -0.035551379244098229 0 -0.021150316974346696 -0.035717349403774232 0 -0.021058734834810994 -0.035365381369006188 0 -0.021180721641295225 -0.035341696007065493 0 -0.021150316974346696 -0.035717349403774232 0 -0.020825440651751494 -0.035623534405845952 0 -0.021058734834810994 -0.035365381369006188 0 -0.020825440651751494 -0.035623534405845952 0 -0.020882962277603667 -0.03526294595532449 0 -0.021058734834810994 -0.035365381369006188 0 -0.021110974469476358 -0.034879014561229847 0 -0.021058734834810994 -0.035365381369006188 0 -0.021180721641295225 -0.035341696007065493 0 -0.021110974469476358 -0.034879014561229847 0 -0.020882962277603667 -0.03526294595532449 0 -0.021058734834810994 -0.035365381369006188 0 -0.021180721641295225 -0.035341696007065493 0 -0.020511076214430449 -0.035166776245624316 0 -0.021050070210625275 -0.035672950797677731 0 -0.021180721641295225 -0.035341696007065493 0 -0.020511076214430449 -0.035166776245624316 0 -0.021138357814258931 -0.034272844597686682 0 -0.021180721641295225 -0.035341696007065493 0 -0.021317585025050149 -0.035836681291232256 0 -0.021050070210625275 -0.035672950797677731 0 -0.021150316974346696 -0.035717349403774232 0 -0.021180721641295225 -0.035341696007065493 0 -0.021317585025050149 -0.035836681291232256 0 -0.020511076214430449 -0.035166776245624316 0 -0.020688016901421566 -0.035767506593858099 0 -0.020031983607710451 -0.035778416406067756 0 -0.020511076214430449 -0.035166776245624316 0 -0.020688016901421566 -0.035767506593858099 0 -0.021050070210625275 -0.035672950797677731 0 -0.023686265905785993 -0.036873053372939453 0 -0.021494411983641021 -0.036208451234093449 0 -0.022561761451063849 -0.036096738640630788 0 -0.021628577030513067 -0.036687759298485868 0 -0.021773274885445306 -0.036233320058770224 0 -0.020290421132309683 -0.036168493553886877 0 -0.020688016901421566 -0.035767506593858099 0 -0.021494411983641021 -0.036208451234093449 0 -0.020290421132309683 -0.036168493553886877 0 -0.020688016901421566 -0.035767506593858099 0 -0.020031983607710451 -0.035778416406067756 0 -0.021150316974346696 -0.035717349403774232 0 -0.021317585025050149 -0.035836681291232256 0 -0.021372589180087619 -0.035951702056202364 0 -0.020688016901421566 -0.035767506593858099 0 -0.021050070210625275 -0.035672950797677731 0 -0.021494411983641021 -0.036208451234093449 0 -0.021317585025050149 -0.035836681291232256 0 -0.021050070210625275 -0.035672950797677731 0 -0.021494411983641021 -0.036208451234093449 0 -0.021494411983641021 -0.036208451234093449 0 -0.021372589180087619 -0.035951702056202364 0 -0.021646158195852052 -0.035990413461295889 0 -0.021317585025050149 -0.035836681291232256 0 -0.021494411983641021 -0.036208451234093449 0 -0.021372589180087619 -0.035951702056202364 0 -0.021646158195852052 -0.035990413461295889 0 -0.021974119540178083 -0.035733313481360593 0 -0.022561761451063849 -0.036096738640630788 0 -0.021974119540178083 -0.035733313481360593 0 -0.022561761451063849 -0.036096738640630788 0 -0.022822263402738189 -0.035532595666375393 0 -0.021494411983641021 -0.036208451234093449 0 -0.021646158195852052 -0.035990413461295889 0 -0.022561761451063849 -0.036096738640630788 0 -0.023686265905785993 -0.036873053372939453 0 -0.022561761451063849 -0.036096738640630788 0 -0.023886168711069404 -0.035832995960431567 0 -0.022561761451063849 -0.036096738640630788 0 -0.022822263402738189 -0.035532595666375393 0 -0.023886168711069404 -0.035832995960431567 0 -0.022822263402738189 -0.035532595666375393 0 -0.023812454072429528 -0.034999597589067448 0 -0.023886168711069404 -0.035832995960431567 0 -0.021974119540178083 -0.035733313481360593 0 -0.022822263402738189 -0.035532595666375393 0 -0.02199437596711723 -0.034999850821374176 0 -0.022822263402738189 -0.035532595666375393 0 -0.023812454072429528 -0.034999597589067448 0 -0.02199437596711723 -0.034999850821374176 0 -0.025308107681798298 -0.035710438519860027 0 -0.026221934743829362 -0.035889856203493269 0 -0.02640119172900128 -0.0356466359887131 0 -0.025630224485493947 -0.034999815370891724 0 -0.025308107681798298 -0.035710438519860027 0 -0.02640119172900128 -0.0356466359887131 0 -0.025630926521459398 -0.035000002192620852 0 -0.026677117794981248 -0.035802858435826763 0 -0.023812454072429528 -0.034999597589067448 0 -0.025308107681798298 -0.035710438519860027 0 -0.023886168711069404 -0.035832995960431567 0 -0.023812454072429528 -0.034999597589067448 0 -0.025630224485493947 -0.034999815370891724 0 -0.025308107681798298 -0.035710438519860027 0 -0.021628577030513067 -0.036687759298485868 0 -0.024164040461763632 -0.034292910697277329 0 -0.023686265905785993 -0.036873053372939453 0 -0.023886168711069404 -0.035832995960431567 0 -0.025418979629811114 -0.036719963237271121 0 -0.025308107681798298 -0.035710438519860027 0 -0.023886168711069404 -0.035832995960431567 0 -0.025418979629811114 -0.036719963237271121 0 -0.024164040461763632 -0.034292910697277329 0 -0.02712349217367347 -0.031711409286340135 0 -0.025308107681798298 -0.035710438519860027 0 -0.025418979629811114 -0.036719963237271121 0 -0.026221934743829362 -0.035889856203493269 0 -0.024164040461763632 -0.034292910697277329 0 -0.026034103883399429 -0.036151656058785654 0 -0.024915663553198488 -0.027406720526361807 0 -0.024733300285102709 -0.029426837891069622 0 -0.026915251285382809 -0.028633473688301877 0 -0.024915663553198488 -0.027406720526361807 0 -0.024733300285102709 -0.029426837891069622 0 -0.023087676557266942 -0.029749787117143066 0 -0.024733300285102709 -0.029426837891069622 0 -0.025819753601835548 -0.030390860201453786 0 -0.026915251285382809 -0.028633473688301877 0 -0.020290421132309683 -0.036168493553886877 0 -0.01968470037763707 -0.036170846895210225 0 -0.020031983607710451 -0.035778416406067756 0 -0.024164040461763632 -0.034292910697277329 0 -0.021565613322465888 -0.032574573796513559 0 -0.021866924417903569 -0.031909431790818205 0 -0.023087676557266942 -0.029749787117143066 0 -0.023959640880693842 -0.031643896422013346 0 -0.024733300285102709 -0.029426837891069622 0 -0.023087676557266942 -0.029749787117143066 0 -0.023959640880693842 -0.031643896422013346 0 -0.021254078868426115 -0.033529409892303026 0 -0.021565613322465888 -0.032574573796513559 0 -0.024733300285102709 -0.029426837891069622 0 -0.023959640880693842 -0.031643896422013346 0 -0.025819753601835548 -0.030390860201453786 0 -0.023959640880693842 -0.031643896422013346 0 -0.025819753601835548 -0.030390860201453786 0 -0.02543445974030269 -0.032445012623680144 0 -0.023959640880693842 -0.031643896422013346 0 -0.02543445974030269 -0.032445012623680144 0 -0.023874980087699237 -0.033369916645923134 0 -0.02543445974030269 -0.032445012623680144 0 -0.024796672381575915 -0.033831433675338196 0 -0.023874980087699237 -0.033369916645923134 0 -0.024796672381575915 -0.033831433675338196 0 -0.023693475659444747 -0.034542361676712013 0 -0.024413953436752647 -0.035173147651543758 0 -0.024796672381575915 -0.033831433675338196 0 -0.023693475659444747 -0.034542361676712013 0 -0.023874980087699237 -0.033369916645923134 0 -0.022769341414767122 -0.03436887794725025 0 -0.023874980087699237 -0.033369916645923134 0 -0.022539254908482315 -0.0333745436511017 0 -0.022769341414767122 -0.03436887794725025 0 -0.023693475659444747 -0.034542361676712013 0 -0.023874980087699237 -0.033369916645923134 0 -0.023959640880693842 -0.031643896422013346 0 -0.023874980087699237 -0.033369916645923134 0 -0.022539254908482315 -0.0333745436511017 0 -0.021866924417903569 -0.031909431790818205 0 -0.023959640880693842 -0.031643896422013346 0 -0.022539254908482315 -0.0333745436511017 0 -0.022539254908482315 -0.0333745436511017 0 -0.021138357814258931 -0.034272844597686682 0 -0.021830065930271366 -0.034506228311920302 0 -0.021866924417903569 -0.031909431790818205 0 -0.022539254908482315 -0.0333745436511017 0 -0.021138357814258931 -0.034272844597686682 0 -0.021254078868426115 -0.033529409892303026 0 -0.021148334949379923 -0.034072517152664086 0 -0.021110974469476358 -0.034879014561229847 0 -0.021180721641295225 -0.035341696007065493 0 -0.021138357814258931 -0.034272844597686682 0 -0.021110974469476358 -0.034879014561229847 0 -0.021138357814258931 -0.034272844597686682 0 -0.021258635728767274 -0.03470929012991672 0 -0.021138357814258931 -0.034272844597686682 0 -0.021258635728767274 -0.03470929012991672 0 -0.021830065930271366 -0.034506228311920302 0 -0.021258635728767274 -0.03470929012991672 0 -0.021830065930271366 -0.034506228311920302 0 -0.021629826443613675 -0.034920130842303429 0 -0.022769341414767122 -0.03436887794725025 0 -0.021830065930271366 -0.034506228311920302 0 -0.022339719911721925 -0.03485621006194508 0 -0.022769341414767122 -0.03436887794725025 0 -0.022539254908482315 -0.0333745436511017 0 -0.021830065930271366 -0.034506228311920302 0 -0.022769341414767122 -0.03436887794725025 0 -0.022339719911721925 -0.03485621006194508 0 -0.023020884373289214 -0.034963789878496944 0 -0.022339719911721925 -0.03485621006194508 0 -0.022138000444929248 -0.035105609936585305 0 -0.022972772505063865 -0.035007020796652973 0 -0.022339719911721925 -0.03485621006194508 0 -0.022972772505063865 -0.035007020796652973 0 -0.023020884373289214 -0.034963789878496944 0 -0.021830065930271366 -0.034506228311920302 0 -0.022339719911721925 -0.03485621006194508 0 -0.021629826443613675 -0.034920130842303429 0 -0.022339719911721925 -0.03485621006194508 0 -0.021629826443613675 -0.034920130842303429 0 -0.022138000444929248 -0.035105609936585305 0 -0.021629826443613675 -0.034920130842303429 0 -0.021606913858188619 -0.03514681488523852 0 -0.022138000444929248 -0.035105609936585305 0 -0.021532468713926983 -0.035408843474492864 0 -0.021606913858188619 -0.03514681488523852 0 -0.022138000444929248 -0.035105609936585305 0 -0.021841460587553912 -0.035478401119315335 0 -0.022138000444929248 -0.035105609936585305 0 -0.022564536446951031 -0.035172545895181068 0 -0.021841460587553912 -0.035478401119315335 0 -0.021532468713926983 -0.035408843474492864 0 -0.022138000444929248 -0.035105609936585305 0 -0.022138000444929248 -0.035105609936585305 0 -0.022972772505063865 -0.035007020796652973 0 -0.022564536446951031 -0.035172545895181068 0 -0.02393004105622383 -0.034819952737457041 0 -0.022972772505063865 -0.035007020796652973 0 -0.022564536446951031 -0.035172545895181068 0 -0.02393004105622383 -0.034819952737457041 0 -0.022972772505063865 -0.035007020796652973 0 -0.023077129686380548 -0.035154147112675747 0 -0.022219303499715053 -0.034828080251185473 0 -0.02393004105622383 -0.034819952737457041 0 -0.023077129686380548 -0.035154147112675747 0 -0.022219303499715053 -0.034828080251185473 0 -0.023077129686380548 -0.035154147112675747 0 -0.02329726099536434 -0.035107244928569932 0 -0.022972772505063865 -0.035007020796652973 0 -0.023077129686380548 -0.035154147112675747 0 -0.023020884373289214 -0.034963789878496944 0 -0.025378587636642184 -0.030116715088803786 0 -0.026591880171430795 -0.030069634417743418 0 -0.029373047191480671 -0.025448117782637551 0 -0.029403324348797936 -0.024468388264438548 0 -0.029777221541510596 -0.025054840080191109 0 -0.028095785354030196 -0.025701361949839765 0 -0.029373047191480671 -0.025448117782637551 0 -0.029403324348797936 -0.024468388264438548 0 -0.022219303499715053 -0.034828080251185473 0 -0.024413953436752647 -0.035173147651543758 0 -0.02329726099536434 -0.035107244928569932 0 -0.023693475659444747 -0.034542361676712013 0 -0.024413953436752647 -0.035173147651543758 0 -0.02329726099536434 -0.035107244928569932 0 -0.023693475659444747 -0.034542361676712013 0 -0.023020884373289214 -0.034963789878496944 0 -0.02329726099536434 -0.035107244928569932 0 -0.022769341414767122 -0.03436887794725025 0 -0.023693475659444747 -0.034542361676712013 0 -0.023020884373289214 -0.034963789878496944 0 -0.023077129686380548 -0.035154147112675747 0 -0.023020884373289214 -0.034963789878496944 0 -0.02329726099536434 -0.035107244928569932 0 -0.032483169588557181 -0.025803264832915781 0 -0.032311717020733287 -0.025574012004597059 0 -0.031954181244102375 -0.025656671584134379 0 -0.032483169588557181 -0.025803264832915781 0 -0.032311717020733287 -0.025574012004597059 0 -0.032598790947396213 -0.025396962296957336 0 -0.032311717020733287 -0.025574012004597059 0 -0.031954181244102375 -0.025656671584134379 0 -0.03226979368124263 -0.025346139084762295 0 -0.029403324348797936 -0.024468388264438548 0 -0.030095396510849571 -0.024503713616580138 0 -0.029777221541510596 -0.025054840080191109 0 -0.030874260245270315 -0.026310209354527339 0 -0.031165814205686346 -0.024486620677591511 0 -0.03031211905637185 -0.025894484450766836 0 -0.030095396510849571 -0.024503713616580138 0 -0.029777221541510596 -0.025054840080191109 0 -0.03031211905637185 -0.025894484450766836 0 -0.029373047191480671 -0.025448117782637551 0 -0.029777221541510596 -0.025054840080191109 0 -0.031508881737905448 -0.026281263044899549 0 -0.032483169588557181 -0.025803264832915781 0 -0.032361666523708463 -0.02626423073423164 0 -0.031508881737905448 -0.026281263044899549 0 -0.032483169588557181 -0.025803264832915781 0 -0.031954181244102375 -0.025656671584134379 0 -0.032483169588557181 -0.025803264832915781 0 -0.033318638174942176 -0.02618432555260947 0 -0.03319374423698572 -0.025833880334659696 0 -0.032483169588557181 -0.025803264832915781 0 -0.032361666523708463 -0.02626423073423164 0 -0.033318638174942176 -0.02618432555260947 0 -0.034246990789080278 -0.026366177007956591 0 -0.033318638174942176 -0.02618432555260947 0 -0.033954973258861557 -0.026136188501057304 0 -0.033318638174942176 -0.02618432555260947 0 -0.033692643720550856 -0.0259224948090125 0 -0.03319374423698572 -0.025833880334659696 0 -0.033318638174942176 -0.02618432555260947 0 -0.033954973258861557 -0.026136188501057304 0 -0.033692643720550856 -0.0259224948090125 0 -0.033692643720550856 -0.0259224948090125 0 -0.03319374423698572 -0.025833880334659696 0 -0.033445377468873869 -0.025554057767409967 0 -0.033692643720550856 -0.0259224948090125 0 -0.033903234006326471 -0.025769410574119255 0 -0.033445377468873869 -0.025554057767409967 0 -0.032483169588557181 -0.025803264832915781 0 -0.03319374423698572 -0.025833880334659696 0 -0.032952068701552234 -0.025579597053660245 0 -0.032483169588557181 -0.025803264832915781 0 -0.032952068701552234 -0.025579597053660245 0 -0.032598790947396213 -0.025396962296957336 0 -0.03319374423698572 -0.025833880334659696 0 -0.032952068701552234 -0.025579597053660245 0 -0.033445377468873869 -0.025554057767409967 0 -0.032952068701552234 -0.025579597053660245 0 -0.032870931625482602 -0.025133576680477075 0 -0.032598790947396213 -0.025396962296957336 0 -0.032952068701552234 -0.025579597053660245 0 -0.032870931625482602 -0.025133576680477075 0 -0.033445377468873869 -0.025554057767409967 0 -0.032870931625482602 -0.025133576680477075 0 -0.033445377468873869 -0.025554057767409967 0 -0.033594170458477624 -0.02495658585919721 0 -0.033445377468873869 -0.025554057767409967 0 -0.033594170458477624 -0.02495658585919721 0 -0.033934565371157938 -0.025553976715012711 0 -0.033903234006326471 -0.025769410574119255 0 -0.033445377468873869 -0.025554057767409967 0 -0.033934565371157938 -0.025553976715012711 0 -0.033196592320223456 -0.030044817408357974 0 -0.032388019333008021 -0.029693279938725361 0 -0.03358499099519404 -0.029362069858868755 0 -0.033315220685823585 -0.027484165399104823 0 -0.031945716406389713 -0.02744943082703737 0 -0.032870931625482602 -0.025133576680477075 0 -0.033594170458477624 -0.02495658585919721 0 -0.032767896575329261 -0.024629204425713026 0 -0.033196592320223456 -0.030044817408357974 0 -0.031170001777422622 -0.030531919035912392 0 -0.032388019333008021 -0.029693279938725361 0 -0.032870931625482602 -0.025133576680477075 0 -0.032767896575329261 -0.024629204425713026 0 -0.032499871323672991 -0.024816046931518305 0 -0.032767896575329261 -0.024629204425713026 0 -0.032499871323672991 -0.024816046931518305 0 -0.032052112842062323 -0.0243997014104048 0 -0.032499871323672991 -0.024816046931518305 0 -0.032209609593489306 -0.024803285716978717 0 -0.032052112842062323 -0.0243997014104048 0 -0.032499871323672991 -0.024816046931518305 0 -0.032209609593489306 -0.024803285716978717 0 -0.032426704891665624 -0.025084880278271535 0 -0.032209609593489306 -0.024803285716978717 0 -0.032426704891665624 -0.025084880278271535 0 -0.032074090015364994 -0.025027604605457752 0 -0.032870931625482602 -0.025133576680477075 0 -0.032499871323672991 -0.024816046931518305 0 -0.032426704891665624 -0.025084880278271535 0 -0.032870931625482602 -0.025133576680477075 0 -0.032426704891665624 -0.025084880278271535 0 -0.032598790947396213 -0.025396962296957336 0 -0.032426704891665624 -0.025084880278271535 0 -0.03226979368124263 -0.025346139084762295 0 -0.032074090015364994 -0.025027604605457752 0 -0.032311717020733287 -0.025574012004597059 0 -0.03226979368124263 -0.025346139084762295 0 -0.032598790947396213 -0.025396962296957336 0 -0.032426704891665624 -0.025084880278271535 0 -0.03226979368124263 -0.025346139084762295 0 -0.032598790947396213 -0.025396962296957336 0 -0.031165814205686346 -0.024486620677591511 0 -0.029828761731681062 -0.027102674914512962 0 -0.031954181244102375 -0.025656671584134379 0 -0.03226979368124263 -0.025346139084762295 0 -0.032074090015364994 -0.025027604605457752 0 -0.026591880171430795 -0.030069634417743418 0 -0.029828761731681062 -0.027102674914512962 0 -0.024796672381575915 -0.033831433675338196 0 -0.024413953436752647 -0.035173147651543758 0 -0.02671551661930243 -0.033316951247357243 0 -0.029403324348797936 -0.024468388264438548 0 -0.030095396510849571 -0.024503713616580138 0 -0.030110741050623238 -0.023592915528792557 0 -0.032209609593489306 -0.024803285716978717 0 -0.032024382992244901 -0.025075335360428472 0 -0.032052112842062323 -0.0243997014104048 0 -0.029828761731681062 -0.027102674914512962 0 -0.029711508958079367 -0.028678502548160317 0 -0.02543445974030269 -0.032445012623680144 0 -0.024796672381575915 -0.033831433675338196 0 -0.02671551661930243 -0.033316951247357243 0 -0.02543445974030269 -0.032445012623680144 0 -0.02671551661930243 -0.033316951247357243 0 -0.027124087216958876 -0.031137647289688986 0 -0.031995253135135696 -0.024551110915796124 0 -0.029828761731681062 -0.027102674914512962 0 -0.025819753601835548 -0.030390860201453786 0 -0.028436160840906933 -0.03059117241249831 0 -0.026915251285382809 -0.028633473688301877 0 -0.025819753601835548 -0.030390860201453786 0 -0.02543445974030269 -0.032445012623680144 0 -0.027124087216958876 -0.031137647289688986 0 -0.025736933055448982 -0.030137182600148572 0 -0.029711508958079367 -0.028678502548160317 0 -0.031170001777422622 -0.030531919035912392 0 -0.028436160840906933 -0.03059117241249831 0 -0.030476174318781211 -0.029533996149118363 0 -0.028436160840906933 -0.03059117241249831 0 -0.030476174318781211 -0.029533996149118363 0 -0.02919242969823542 -0.028444310494709562 0 -0.031945716406389713 -0.02744943082703737 0 -0.029711508958079367 -0.028678502548160317 0 -0.02919242969823542 -0.028444310494709562 0 -0.02951047805460465 -0.026598606155346358 0 -0.031950621042545736 -0.028430009764739594 0 -0.030476174318781211 -0.029533996149118363 0 -0.02919242969823542 -0.028444310494709562 0 -0.031950621042545736 -0.028430009764739594 0 -0.024915663553198488 -0.027406720526361807 0 -0.026915251285382809 -0.028633473688301877 0 -0.027311775031996485 -0.026890143006104227 0 -0.028436160840906933 -0.03059117241249831 0 -0.02919242969823542 -0.028444310494709562 0 -0.026915251285382809 -0.028633473688301877 0 -0.02919242969823542 -0.028444310494709562 0 -0.026915251285382809 -0.028633473688301877 0 -0.027311775031996485 -0.026890143006104227 0 -0.026374129705861157 -0.036350153256451904 0 -0.027160000905320426 -0.036219549910531765 0 -0.02640119172900128 -0.0356466359887131 0 -0.02712349217367347 -0.031711409286340135 0 -0.02844002516612635 -0.033873984352622129 0 -0.02844002516612635 -0.033873984352622129 0 -0.026677117794981248 -0.035802858435826763 0 -0.025627091319929629 -0.036431948998236797 0 -0.026374129705861157 -0.036350153256451904 0 -0.026221934743829362 -0.035889856203493269 0 -0.026374129705861157 -0.036350153256451904 0 -0.026221934743829362 -0.035889856203493269 0 -0.02640119172900128 -0.0356466359887131 0 -0.02919242969823542 -0.028444310494709562 0 -0.027311775031996485 -0.026890143006104227 0 -0.02951047805460465 -0.026598606155346358 0 -0.028314749121820384 -0.036192037801873841 0 -0.028858785917618993 -0.03529477508563876 0 -0.026837581676154621 -0.035665098243144087 0 -0.02844002516612635 -0.033873984352622129 0 -0.029659786540689688 -0.035263984807242216 0 -0.028314749121820384 -0.036192037801873841 0 -0.028858785917618993 -0.03529477508563876 0 -0.0298480792063767 -0.035477899847113498 0 -0.027634856521134617 -0.034999340772076976 0 -0.028858785917618993 -0.03529477508563876 0 -0.026837581676154621 -0.035665098243144087 0 -0.025630699415227127 -0.035000167664026971 0 -0.027634856521134617 -0.034999340772076976 0 -0.026837581676154621 -0.035665098243144087 0 -0.029638669199352149 -0.034999072427239472 0 -0.030287948229500501 -0.035131122921535224 0 -0.031809452299730978 -0.034795749194087837 0 -0.028858785917618993 -0.03529477508563876 0 -0.029638669199352149 -0.034999072427239472 0 -0.030287948229500501 -0.035131122921535224 0 -0.027634856521134617 -0.034999340772076976 0 -0.028858785917618993 -0.03529477508563876 0 -0.029638669199352149 -0.034999072427239472 0 -0.028858785917618993 -0.03529477508563876 0 -0.030287948229500501 -0.035131122921535224 0 -0.0298480792063767 -0.035477899847113498 0 -0.029604775928786849 -0.035534934614447351 0 -0.0298480792063767 -0.035477899847113498 0 -0.030874046848741829 -0.035203083705862878 0 -0.0298480792063767 -0.035477899847113498 0 -0.031154356934697012 -0.034974059554264948 0 -0.030874046848741829 -0.035203083705862878 0 -0.030287948229500501 -0.035131122921535224 0 -0.0298480792063767 -0.035477899847113498 0 -0.031154356934697012 -0.034974059554264948 0 -0.030287948229500501 -0.035131122921535224 0 -0.031154356934697012 -0.034974059554264948 0 -0.031809452299730978 -0.034795749194087837 0 -0.031154356934697012 -0.034974059554264948 0 -0.030874046848741829 -0.035203083705862878 0 -0.032961639922382213 -0.034151277626923777 0 -0.02844002516612635 -0.033873984352622129 0 -0.031440523271271746 -0.031333462674183521 0 -0.030476174318781211 -0.029533996149118363 0 -0.031950621042545736 -0.028430009764739594 0 -0.032388019333008021 -0.029693279938725361 0 -0.031170001777422622 -0.030531919035912392 0 -0.030476174318781211 -0.029533996149118363 0 -0.032388019333008021 -0.029693279938725361 0 -0.031950621042545736 -0.028430009764739594 0 -0.032388019333008021 -0.029693279938725361 0 -0.03358499099519404 -0.029362069858868755 0 -0.030874046848741829 -0.035203083705862878 0 -0.032955970950927824 -0.034080696628408381 0 -0.032961639922382213 -0.034151277626923777 0 -0.031440523271271746 -0.031333462674183521 0 -0.033200553663043822 -0.031688954318503222 0 -0.032955970950927824 -0.034080696628408381 0 -0.032961639922382213 -0.034151277626923777 0 -0.034576092565005948 -0.032240162849309521 0 -0.032961639922382213 -0.034151277626923777 0 -0.034513303257214155 -0.032463650948854346 0 -0.034576092565005948 -0.032240162849309521 0 -0.032961639922382213 -0.034151277626923777 0 -0.033631853840357842 -0.033919068725027542 0 -0.034513303257214155 -0.032463650948854346 0 -0.031154356934697012 -0.034974059554264948 0 -0.032961639922382213 -0.034151277626923777 0 -0.031809452299730978 -0.034795749194087837 0 -0.032961639922382213 -0.034151277626923777 0 -0.031809452299730978 -0.034795749194087837 0 -0.033631853840357842 -0.033919068725027542 0 -0.031809452299730978 -0.034795749194087837 0 -0.033631853840357842 -0.033919068725027542 0 -0.033056522793668761 -0.034584994965062579 0 -0.033056522793668761 -0.034584994965062579 0 -0.031641410629591707 -0.034999191687196916 0 -0.03364425493799237 -0.034996568341834337 0 -0.031809452299730978 -0.034795749194087837 0 -0.033056522793668761 -0.034584994965062579 0 -0.031641410629591707 -0.034999191687196916 0 -0.029638669199352149 -0.034999072427239472 0 -0.031809452299730978 -0.034795749194087837 0 -0.031641410629591707 -0.034999191687196916 0 -0.034999617582512202 -0.03465734515077222 0 -0.03364372259792929 -0.034999752763691501 0 -0.035000249032396305 -0.034660124858164582 0 -0.034999493857314212 -0.034997983273093981 0 -0.033644104103689128 -0.035001005416112847 0 -0.034998186212396823 -0.034655234997941105 0 -0.03364425493799237 -0.034996568341834337 0 -0.034365877641097858 -0.034093731063218218 0 -0.033056522793668761 -0.034584994965062579 0 -0.03364425493799237 -0.034996568341834337 0 -0.034365877641097858 -0.034093731063218218 0 -0.033631853840357842 -0.033919068725027542 0 -0.033056522793668761 -0.034584994965062579 0 -0.034365877641097858 -0.034093731063218218 0 -0.033631853840357842 -0.033919068725027542 0 -0.034365877641097858 -0.034093731063218218 0 -0.034499877257602313 -0.033041228232757847 0 -0.034365877641097858 -0.034093731063218218 0 -0.034998727725058527 -0.03288398836796412 0 -0.034499877257602313 -0.033041228232757847 0 -0.034998186212396823 -0.034655234997941105 0 -0.034365877641097858 -0.034093731063218218 0 -0.034998727725058527 -0.03288398836796412 0 -0.034998727725058527 -0.03288398836796412 0 -0.034499877257602313 -0.033041228232757847 0 -0.03499907662536747 -0.031109066078939384 0 -0.033631853840357842 -0.033919068725027542 0 -0.034499877257602313 -0.033041228232757847 0 -0.034513303257214155 -0.032463650948854346 0 -0.034499877257602313 -0.033041228232757847 0 -0.034513303257214155 -0.032463650948854346 0 -0.03499907662536747 -0.031109066078939384 0 -0.034513303257214155 -0.032463650948854346 0 -0.03499907662536747 -0.031109066078939384 0 -0.034936187077443871 -0.03100580287850065 0 -0.03499907662536747 -0.031109066078939384 0 -0.034998889815607892 -0.02933489608350744 0 -0.034936187077443871 -0.03100580287850065 0 -0.034998889815607892 -0.02933489608350744 0 -0.035320823233103774 -0.029765904798974854 0 -0.034936187077443871 -0.03100580287850065 0 -0.034998889815607892 -0.02933489608350744 0 -0.035320823233103774 -0.029765904798974854 0 -0.035000180063955139 -0.027559176654101632 0 -0.034710146684661464 -0.026860895913713732 0 -0.034673342963814711 -0.026679358986327794 0 -0.034345902438423032 -0.028934112327407072 0 -0.034860127295831329 -0.028314385468739805 0 -0.03444433336759898 -0.030484368378649991 0 -0.035320823233103774 -0.029765904798974854 0 -0.034936187077443871 -0.03100580287850065 0 -0.034576092565005948 -0.032240162849309521 0 -0.034513303257214155 -0.032463650948854346 0 -0.034936187077443871 -0.03100580287850065 0 -0.034576092565005948 -0.032240162849309521 0 -0.033196592320223456 -0.030044817408357974 0 -0.03358499099519404 -0.029362069858868755 0 -0.033897903215223055 -0.029350350171098168 0 -0.033196592320223456 -0.030044817408357974 0 -0.033897903215223055 -0.029350350171098168 0 -0.034338911788796417 -0.02899189914028219 0 -0.033200553663043822 -0.031688954318503222 0 -0.03444433336759898 -0.030484368378649991 0 -0.033315220685823585 -0.027484165399104823 0 -0.034251793982434969 -0.027231640244432833 0 -0.03358499099519404 -0.029362069858868755 0 -0.034345902438423032 -0.028934112327407072 0 -0.033897903215223055 -0.029350350171098168 0 -0.034345902438423032 -0.028934112327407072 0 -0.033897903215223055 -0.029350350171098168 0 -0.034338911788796417 -0.02899189914028219 0 -0.033594170458477624 -0.02495658585919721 0 -0.034454222951911521 -0.025599660848860291 0 -0.033934565371157938 -0.025553976715012711 0 -0.034454222951911521 -0.025599660848860291 0 -0.034253802045821201 -0.025862306481351242 0 -0.034603238288977566 -0.026222447032972242 0 -0.034454222951911521 -0.025599660848860291 0 -0.034253802045821201 -0.025862306481351242 0 -0.033934565371157938 -0.025553976715012711 0 -0.033903234006326471 -0.025769410574119255 0 -0.034253802045821201 -0.025862306481351242 0 -0.033934565371157938 -0.025553976715012711 0 -0.034710146684661464 -0.026860895913713732 0 -0.034454222951911521 -0.025599660848860291 0 -0.034603238288977566 -0.026222447032972242 0 -0.034710146684661464 -0.026860895913713732 0 -0.034345902438423032 -0.028934112327407072 0 -0.034338911788796417 -0.02899189914028219 0 -0.034487790304449158 -0.026900007329677064 0 -0.034251793982434969 -0.027231640244432833 0 -0.034710146684661464 -0.026860895913713732 0 -0.034603238288977566 -0.026222447032972242 0 -0.034799414055249965 -0.026498150725287658 0 -0.034603238288977566 -0.026222447032972242 0 -0.0345767182202147 -0.02624328498241834 0 -0.034799414055249965 -0.026498150725287658 0 -0.0345767182202147 -0.02624328498241834 0 -0.034799414055249965 -0.026498150725287658 0 -0.034775104690619826 -0.026341125396479145 0 -0.033692643720550856 -0.0259224948090125 0 -0.033903234006326471 -0.025769410574119255 0 -0.034244488830821741 -0.026055085827952823 0 -0.033903234006326471 -0.025769410574119255 0 -0.034253802045821201 -0.025862306481351242 0 -0.034244488830821741 -0.026055085827952823 0 -0.034253802045821201 -0.025862306481351242 0 -0.034603238288977566 -0.026222447032972242 0 -0.034244488830821741 -0.026055085827952823 0 -0.0345767182202147 -0.02624328498241834 0 -0.034244488830821741 -0.026055085827952823 0 -0.034474942486447419 -0.026223506681730326 0 -0.034603238288977566 -0.026222447032972242 0 -0.0345767182202147 -0.02624328498241834 0 -0.034244488830821741 -0.026055085827952823 0 -0.033954973258861557 -0.026136188501057304 0 -0.033692643720550856 -0.0259224948090125 0 -0.034244488830821741 -0.026055085827952823 0 -0.034881610904634916 -0.026200844460899063 0 -0.034246990789080278 -0.026366177007956591 0 -0.034474942486447419 -0.026223506681730326 0 -0.034246990789080278 -0.026366177007956591 0 -0.033954973258861557 -0.026136188501057304 0 -0.034474942486447419 -0.026223506681730326 0 -0.033954973258861557 -0.026136188501057304 0 -0.034244488830821741 -0.026055085827952823 0 -0.034474942486447419 -0.026223506681730326 0 -0.034881610904634916 -0.026200844460899063 0 -0.034775104690619826 -0.026341125396479145 0 -0.034976331835692868 -0.026545517387386731 0 -0.0345767182202147 -0.02624328498241834 0 -0.034474942486447419 -0.026223506681730326 0 -0.034775104690619826 -0.026341125396479145 0 -0.034881610904634916 -0.026200844460899063 0 -0.034474942486447419 -0.026223506681730326 0 -0.034775104690619826 -0.026341125396479145 0 -0.035186916277566607 -0.026063333478976047 0 -0.034881610904634916 -0.026200844460899063 0 -0.034976331835692868 -0.026545517387386731 0 -0.034799414055249965 -0.026498150725287658 0 -0.034775104690619826 -0.026341125396479145 0 -0.034976331835692868 -0.026545517387386731 0 -0.035186916277566607 -0.026063333478976047 0 -0.034976331835692868 -0.026545517387386731 0 -0.034999598885298272 -0.027555570718326379 0 -0.034999005170538403 -0.025593346862403488 0 -0.035186916277566607 -0.026063333478976047 0 -0.034999598885298272 -0.027555570718326379 0 -0.034860127295831329 -0.028314385468739805 0 -0.034999651751938025 -0.027558386581639827 0 -0.034673342963814711 -0.026679358986327794 0 -0.034999598885298272 -0.027555570718326379 0 -0.034813188844467401 -0.026820912993103643 0 -0.034976331835692868 -0.026545517387386731 0 -0.034999598885298272 -0.027555570718326379 0 -0.034813188844467401 -0.026820912993103643 0 -0.034710146684661464 -0.026860895913713732 0 -0.034673342963814711 -0.026679358986327794 0 -0.034813188844467401 -0.026820912993103643 0 -0.034710146684661464 -0.026860895913713732 0 -0.034799414055249965 -0.026498150725287658 0 -0.034813188844467401 -0.026820912993103643 0 -0.034799414055249965 -0.026498150725287658 0 -0.034976331835692868 -0.026545517387386731 0 -0.034813188844467401 -0.026820912993103643 0 -0.0031297049077810908 -0.037833408346231917 0 -0.0028791341214625724 -0.037716346170735007 0 -0.0031086717820720446 -0.037832670372568419 0 -0.0031297049077810908 -0.037833408346231917 0 -0.0028791341214625724 -0.037716346170735007 0 -0.002958936386800802 -0.03776881512696257 0 -0.0028791341214625724 -0.037716346170735007 0 -0.0026568636042477414 -0.03777317441022221 0 -0.0028381336486219865 -0.037825865586406215 0 -0.0028791341214625724 -0.037716346170735007 0 -0.0029895284846597797 -0.03781756874252036 0 -0.0028381336486219865 -0.037825865586406215 0 -0.0029895284846597797 -0.03781756874252036 0 -0.0031086717820720446 -0.037832670372568419 0 -0.0031081498098440865 -0.037870040842479004 0 -0.0028791341214625724 -0.037716346170735007 0 -0.0029895284846597797 -0.03781756874252036 0 -0.0031086717820720446 -0.037832670372568419 0 -0.0031086717820720446 -0.037832670372568419 0 -0.0032080769157095167 -0.03788054609156373 0 -0.0031081498098440865 -0.037870040842479004 0 -0.0031086717820720446 -0.037832670372568419 0 -0.0032080769157095167 -0.03788054609156373 0 -0.0032684979160748809 -0.0378965745311899 0 -0.0032080769157095167 -0.03788054609156373 0 -0.0032684979160748809 -0.0378965745311899 0 -0.0033093937108544052 -0.037906257302749172 0 -0.0032684979160748809 -0.0378965745311899 0 -0.0032628447557028245 -0.037900196448404019 0 -0.0033433258245792186 -0.037937680906376399 0 -0.0032684979160748809 -0.0378965745311899 0 -0.0033433258245792186 -0.037937680906376399 0 -0.0033227648135182356 -0.037919346791326893 0 -0.0031297049077810908 -0.037833408346231917 0 -0.0032684979160748809 -0.0378965745311899 0 -0.0032628447557028245 -0.037900196448404019 0 -0.0031297049077810908 -0.037833408346231917 0 -0.0031086717820720446 -0.037832670372568419 0 -0.0032684979160748809 -0.0378965745311899 0 -0.0031297049077810908 -0.037833408346231917 0 -0.0032628447557028245 -0.037900196448404019 0 -0.0033171235603074414 -0.037965073133514611 0 -0.0032628447557028245 -0.037900196448404019 0 -0.0033638012205294758 -0.037952905882708263 0 -0.0033433258245792186 -0.037937680906376399 0 -0.0032628447557028245 -0.037900196448404019 0 -0.0033638012205294758 -0.037952905882708263 0 -0.0033171235603074414 -0.037965073133514611 0 -0.0033638012205294758 -0.037952905882708263 0 -0.0033821702513897565 -0.037955981935838191 0 -0.0033171235603074414 -0.037965073133514611 0 -0.0033171235603074414 -0.037965073133514611 0 -0.0033327213690319316 -0.038335721778151872 0 -0.0033770559495111948 -0.038122590859485939 0 -0.0032894583508703145 -0.037978773386135173 0 -0.0031566785540578842 -0.038047609778862915 0 -0.0031297049077810908 -0.037833408346231917 0 -0.0033171235603074414 -0.037965073133514611 0 -0.0030499472056131909 -0.03775783322953298 0 -0.0031297049077810908 -0.037833408346231917 0 -0.002958936386800802 -0.03776881512696257 0 -0.0030499472056131909 -0.03775783322953298 0 -0.002958936386800802 -0.03776881512696257 0 -0.0030499472056131909 -0.03775783322953298 0 -0.0029416397865916375 -0.037744226916870134 0 -0.0031566785540578842 -0.038047609778862915 0 -0.0029908153440807218 -0.038274309541214246 0 -0.0029627363883156232 -0.038706171575293519 0 -0.0026389725082860103 -0.038510892337858774 0 -0.0031013316001060908 -0.038406446543177139 0 -0.0033327213690319316 -0.038335721778151872 0 -0.0029627363883156232 -0.038706171575293519 0 -0.0031013316001060908 -0.038406446543177139 0 -0.0029627363883156232 -0.038706171575293519 0 -0.0025400814758257256 -0.038669970836835446 0 -0.0026389725082860103 -0.038510892337858774 0 -0.0029908153440807218 -0.038274309541214246 0 -0.0023459058444413022 -0.037888087499929016 0 -0.0029627363883156232 -0.038706171575293519 0 -0.0025400814758257256 -0.038669970836835446 0 -0.002284713144233657 -0.038890794938583592 0 -0.002704397780941795 -0.037592628048613227 0 -0.0023459058444413022 -0.037888087499929016 0 -0.0029416397865916375 -0.037744226916870134 0 -0.0029438848780955419 -0.037766322476172606 0 -0.002893773888956327 -0.037746132665210097 0 -0.002958936386800802 -0.03776881512696257 0 -0.0029416397865916375 -0.037744226916870134 0 -0.0029438848780955419 -0.037766322476172606 0 -0.0018409872587234774 -0.038145094314468699 0 -0.0023459058444413022 -0.037888087499929016 0 -0.0018178325862923867 -0.037684560426082161 0 -0.0019053917561403051 -0.037574898270358814 0 -0.0018784346807881242 -0.037569085623578503 0 -0.0018470442948160647 -0.038546625210893838 0 -0.002284713144233657 -0.038890794938583592 0 -0.002228531101262512 -0.038536721014907752 0 -0.0018178325862923867 -0.037684560426082161 0 -0.0019053917561403051 -0.037574898270358814 0 -0.0018433570635588052 -0.037650776579993765 0 -0.0019053917561403051 -0.037574898270358814 0 -0.0018433570635588052 -0.037650776579993765 0 -0.0018917832164271231 -0.037613540238129954 0 -0.0018745108241813744 -0.037658118833147972 0 -0.0023459058444413022 -0.037888087499929016 0 -0.0025400814758257256 -0.038669970836835446 0 -0.002284713144233657 -0.038890794938583592 0 -0.002228531101262512 -0.038536721014907752 0 -0.0024196408409148367 -0.037480716260147359 0 -0.0020861590015355536 -0.037474679201587577 0 -0.0022303736743626082 -0.037582771633939874 0 -0.0020861590015355536 -0.037474679201587577 0 -0.0020280707973478434 -0.037589466407470601 0 -0.0022303736743626082 -0.037582771633939874 0 -0.0019053917561403051 -0.037574898270358814 0 -0.0020861590015355536 -0.037474679201587577 0 -0.0020280707973478434 -0.037589466407470601 0 -0.0020280707973478434 -0.037589466407470601 0 -0.0018917832164271231 -0.037613540238129954 0 -0.0019484272272109371 -0.037614234624591278 0 -0.0019053917561403051 -0.037574898270358814 0 -0.0020280707973478434 -0.037589466407470601 0 -0.0018917832164271231 -0.037613540238129954 0 -0.0020280707973478434 -0.037589466407470601 0 -0.0020414103912355739 -0.037633908655126475 0 -0.0019484272272109371 -0.037614234624591278 0 -0.0020280707973478434 -0.037589466407470601 0 -0.0020414103912355739 -0.037633908655126475 0 -0.0021495182110609951 -0.037633113112226078 0 -0.0020280707973478434 -0.037589466407470601 0 -0.0021495182110609951 -0.037633113112226078 0 -0.0022303736743626082 -0.037582771633939874 0 -0.0021495182110609951 -0.037633113112226078 0 -0.0022303736743626082 -0.037582771633939874 0 -0.0022777702022281484 -0.037679180411104886 0 -0.0022777702022281484 -0.037679180411104886 0 -0.0021667104316423309 -0.037689946615450207 0 -0.0023024390498111772 -0.037734926317882451 0 -0.0021495182110609951 -0.037633113112226078 0 -0.0022777702022281484 -0.037679180411104886 0 -0.0021667104316423309 -0.037689946615450207 0 -0.0020414103912355739 -0.037633908655126475 0 -0.0021495182110609951 -0.037633113112226078 0 -0.0021667104316423309 -0.037689946615450207 0 -0.0021667104316423309 -0.037689946615450207 0 -0.0021280691802176149 -0.037719115032521407 0 -0.0020401049388649398 -0.037663758985309832 0 -0.0020414103912355739 -0.037633908655126475 0 -0.0021667104316423309 -0.037689946615450207 0 -0.0020401049388649398 -0.037663758985309832 0 -0.0028791341214625724 -0.037716346170735007 0 -0.0024196408409148367 -0.037480716260147359 0 -0.0024551248217984079 -0.037702444164877287 0 -0.0028655263470706879 -0.037726797820476284 0 -0.002704397780941795 -0.037592628048613227 0 -0.0028791341214625724 -0.037716346170735007 0 -0.002958936386800802 -0.03776881512696257 0 -0.0029438848780955419 -0.037766322476172606 0 -0.0024196408409148367 -0.037480716260147359 0 -0.0022303736743626082 -0.037582771633939874 0 -0.0024551248217984079 -0.037702444164877287 0 -0.0022303736743626082 -0.037582771633939874 0 -0.0022777702022281484 -0.037679180411104886 0 -0.0024551248217984079 -0.037702444164877287 0 -0.0022777702022281484 -0.037679180411104886 0 -0.0024551248217984079 -0.037702444164877287 0 -0.0023024390498111772 -0.037734926317882451 0 -0.0028791341214625724 -0.037716346170735007 0 -0.0024551248217984079 -0.037702444164877287 0 -0.0026568636042477414 -0.03777317441022221 0 -0.0026568636042477414 -0.03777317441022221 0 -0.0024211162461073511 -0.037756948333157021 0 -0.0026939203274187911 -0.037845813763699533 0 -0.0024551248217984079 -0.037702444164877287 0 -0.0026568636042477414 -0.03777317441022221 0 -0.0024211162461073511 -0.037756948333157021 0 -0.0024551248217984079 -0.037702444164877287 0 -0.0024211162461073511 -0.037756948333157021 0 -0.0023024390498111772 -0.037734926317882451 0 -0.0024211162461073511 -0.037756948333157021 0 -0.0023283680151660905 -0.037727292584586729 0 -0.0023024390498111772 -0.037734926317882451 0 -0.002317076462752264 -0.037752092083597234 0 -0.0023283680151660905 -0.037727292584586729 0 -0.0023918677233249284 -0.03751943663202794 0 -0.0024211162461073511 -0.037756948333157021 0 -0.002317076462752264 -0.037752092083597234 0 -0.0023283680151660905 -0.037727292584586729 0 -0.002317076462752264 -0.037752092083597234 0 -0.002654790065212981 -0.03799992744933163 0 -0.0026939203274187911 -0.037845813763699533 0 -0.0024211162461073511 -0.037756948333157021 0 -0.002317076462752264 -0.037752092083597234 0 -0.0026939203274187911 -0.037845813763699533 0 -0.0021667104316423309 -0.037689946615450207 0 -0.0021280691802176149 -0.037719115032521407 0 -0.0022723076951891305 -0.037740825698578333 0 -0.0021280691802176149 -0.037719115032521407 0 -0.0022723076951891305 -0.037740825698578333 0 -0.0022013070132190396 -0.037775677413614796 0 -0.0021667104316423309 -0.037689946615450207 0 -0.0022723076951891305 -0.037740825698578333 0 -0.0023024390498111772 -0.037734926317882451 0 -0.0023283680151660905 -0.037727292584586729 0 -0.0022723076951891305 -0.037740825698578333 0 -0.0023024390498111772 -0.037734926317882451 0 -0.0023918677233249284 -0.03751943663202794 0 -0.0023707138954116714 -0.037243590120385431 0 -0.0024551366479698337 -0.037253268392943087 0 -0.0023510355354616598 -0.037507173807745417 0 -0.0022769379212217978 -0.037506475502394755 0 -0.0022723076951891305 -0.037740825698578333 0 -0.0023918677233249284 -0.03751943663202794 0 -0.0022013070132190396 -0.037775677413614796 0 -0.0023283680151660905 -0.037727292584586729 0 -0.0022723076951891305 -0.037740825698578333 0 -0.0023918677233249284 -0.03751943663202794 0 -0.0023964114479266821 -0.037158883616021592 0 -0.0024551366479698337 -0.037253268392943087 0 -0.0024233376907313057 -0.037206502039824986 0 -0.0023707138954116714 -0.037243590120385431 0 -0.0023964114479266821 -0.037158883616021592 0 -0.0024551366479698337 -0.037253268392943087 0 -0.0023918677233249284 -0.03751943663202794 0 -0.0024551366479698337 -0.037253268392943087 0 -0.0024303690399968356 -0.037272414930535631 0 -0.0023918677233249284 -0.03751943663202794 0 -0.0024303690399968356 -0.037272414930535631 0 -0.0023550345288244176 -0.037372562405413541 0 -0.0024303690399968356 -0.037272414930535631 0 -0.0024249343499357229 -0.037157110214866569 0 -0.0023550345288244176 -0.037372562405413541 0 -0.0024551366479698337 -0.037253268392943087 0 -0.0024303690399968356 -0.037272414930535631 0 -0.0024869440001788917 -0.037117400367053827 0 -0.0022396583716927541 -0.036849499934176286 0 -0.0024249343499357229 -0.037157110214866569 0 -0.0024869440001788917 -0.037117400367053827 0 -0.0024303690399968356 -0.037272414930535631 0 -0.0024249343499357229 -0.037157110214866569 0 -0.0024869440001788917 -0.037117400367053827 0 0.0035784111684401968 -0.031110845513486331 0 0.00016062002562052072 -0.03482997060121093 0 -0.00050834586287111028 -0.030458041447504483 0 -0.004035867687191488 -0.032291589744863999 0 -0.0032798261360509973 -0.033621506455361966 0 -0.0024551366479698337 -0.037253268392943087 0 -0.0024869440001788917 -0.037117400367053827 0 -0.0024233376907313057 -0.037206502039824986 0 -0.00093647657726058742 -0.028583199107246157 0 -0.0032798261360509973 -0.033621506455361966 0 -0.0059228627473950721 -0.026370876766978139 0 -0.005191746531653 -0.027519075805164387 0 -0.0082025431447177548 -0.028889236240606977 0 -0.0017980699107642019 -0.037455408612500109 0 -0.0021715408890677409 -0.037233329242825533 0 -0.0018162257082746682 -0.03695127727867456 0 -0.002317076462752264 -0.037752092083597234 0 -0.0017980699107642019 -0.037455408612500109 0 -0.0021715408890677409 -0.037233329242825533 0 -0.0022940759745333312 -0.037746898214942967 0 -0.0022521434262217439 -0.037741515807986542 0 -0.002317076462752264 -0.037752092083597234 0 -0.0021715408890677409 -0.037233329242825533 0 -0.0023550345288244176 -0.037372562405413541 0 -0.002317076462752264 -0.037752092083597234 0 -0.0023918677233249284 -0.03751943663202794 0 -0.0023550345288244176 -0.037372562405413541 0 -0.0024249343499357229 -0.037157110214866569 0 -0.0021715408890677409 -0.037233329242825533 0 -0.0023550345288244176 -0.037372562405413541 0 -0.0028592092186772006 -0.031499150022452536 0 -0.0028949223164474762 -0.038421639149349006 0 -0.0028592092186772006 -0.031499150022452536 0 -0.004035867687191488 -0.032291589744863999 0 -0.0021942294847923354 -0.036692801952246723 0 -0.0024249343499357229 -0.037157110214866569 0 -0.0021715408890677409 -0.037233329242825533 0 -0.0021942294847923354 -0.036692801952246723 0 -0.0021715408890677409 -0.037233329242825533 0 -0.0018162257082746682 -0.03695127727867456 0 -0.001291498704415724 -0.03666684901260215 0 -0.0015107122628120952 -0.036771440641256106 0 -0.0013496645688946616 -0.037146244958730548 0 -0.0017980699107642019 -0.037455408612500109 0 -0.0018162257082746682 -0.03695127727867456 0 -0.0013496645688946616 -0.037146244958730548 0 -0.0018162257082746682 -0.03695127727867456 0 -0.0015107122628120952 -0.036771440641256106 0 -0.0013496645688946616 -0.037146244958730548 0 -0.004184915603194366 -0.037714476676551131 0 -0.004651930082032866 -0.037777408449390863 0 -0.0027931739953946373 -0.038175724224916996 0 -0.0044214630416054236 -0.039512501711019991 0 -0.0030654053480981378 -0.03796423135574483 0 -0.0019136384164005051 -0.037631919832981774 0 -0.004184915603194366 -0.037714476676551131 0 -0.001291498704415724 -0.03666684901260215 0 -0.0013496645688946616 -0.037146244958730548 0 -0.0008592724999588933 -0.036803018441822155 0 -0.0044214630416054236 -0.039512501711019991 0 -0.0030654053480981378 -0.03796423135574483 0 -0.0046336256818350343 -0.036956577518108588 0 -0.0030654053480981378 -0.03796423135574483 0 -0.0046336256818350343 -0.036956577518108588 0 -0.0051778014397146927 -0.036467776202625736 0 -0.0032071434827001415 -0.037853490831355009 0 -0.0040004930290564776 -0.037293518348961177 0 -0.0030654053480981378 -0.03796423135574483 0 -0.0030539564495547255 -0.037970198952675623 0 -0.0030778161541654553 -0.037982775310786372 0 -0.0029740212639056745 -0.037967657539238531 0 -0.0030121544058692405 -0.03795776928933528 0 -0.0029496360746814692 -0.037904965644968022 0 -0.0030654053480981378 -0.03796423135574483 0 -0.0029740212639056745 -0.037967657539238531 0 -0.0030121544058692405 -0.03795776928933528 0 -0.0030654053480981378 -0.03796423135574483 0 -0.0030121544058692405 -0.03795776928933528 0 -0.0030539564495547255 -0.037970198952675623 0 -0.0030121544058692405 -0.03795776928933528 0 -0.0030539564495547255 -0.037970198952675623 0 -0.0030603188436658375 -0.03794497446191112 0 -0.0022521434262217439 -0.037741515807986542 0 -0.0019136384164005051 -0.037631919832981774 0 -0.002654790065212981 -0.03799992744933163 0 -0.0028139864211596212 -0.037984463663334418 0 -0.0026939203274187911 -0.037845813763699533 0 -0.002654790065212981 -0.03799992744933163 0 -0.0027931739953946373 -0.038175724224916996 0 -0.0028139864211596212 -0.037984463663334418 0 -0.0027931739953946373 -0.038175724224916996 0 -0.0030654053480981378 -0.03796423135574483 0 -0.0028139864211596212 -0.037984463663334418 0 -0.0030654053480981378 -0.03796423135574483 0 -0.0029740212639056745 -0.037967657539238531 0 -0.0028139864211596212 -0.037984463663334418 0 -0.0029740212639056745 -0.037967657539238531 0 -0.0028139864211596212 -0.037984463663334418 0 -0.0029496360746814692 -0.037904965644968022 0 -0.0026939203274187911 -0.037845813763699533 0 -0.0029496360746814692 -0.037904965644968022 0 -0.0028381336486219865 -0.037825865586406215 0 -0.0028139864211596212 -0.037984463663334418 0 -0.0026939203274187911 -0.037845813763699533 0 -0.0029496360746814692 -0.037904965644968022 0 -0.0029496360746814692 -0.037904965644968022 0 -0.0030603188436658375 -0.03794497446191112 0 -0.0030650629524075546 -0.037904952089944398 0 -0.0030121544058692405 -0.03795776928933528 0 -0.0029496360746814692 -0.037904965644968022 0 -0.0030603188436658375 -0.03794497446191112 0 -0.0030539564495547255 -0.037970198952675623 0 -0.0030603188436658375 -0.03794497446191112 0 -0.0030753854999643498 -0.03796229713730203 0 -0.0029496360746814692 -0.037904965644968022 0 -0.0030650629524075546 -0.037904952089944398 0 -0.0029936338061462603 -0.037863418375008222 0 -0.0029496360746814692 -0.037904965644968022 0 -0.0029936338061462603 -0.037863418375008222 0 -0.0028381336486219865 -0.037825865586406215 0 -0.0030650629524075546 -0.037904952089944398 0 -0.0029936338061462603 -0.037863418375008222 0 -0.0031081498098440865 -0.037870040842479004 0 -0.0029895284846597797 -0.03781756874252036 0 -0.0029936338061462603 -0.037863418375008222 0 -0.0031081498098440865 -0.037870040842479004 0 -0.0029895284846597797 -0.03781756874252036 0 -0.0029936338061462603 -0.037863418375008222 0 -0.0028381336486219865 -0.037825865586406215 0 -0.0026568636042477414 -0.03777317441022221 0 -0.0026939203274187911 -0.037845813763699533 0 -0.0028381336486219865 -0.037825865586406215 0 -0.0032059549510527318 -0.037902868355316033 0 -0.0032311469786869399 -0.037932527967965868 0 -0.0033093937108544052 -0.037906257302749172 0 -0.0032080769157095167 -0.03788054609156373 0 -0.0032059549510527318 -0.037902868355316033 0 -0.0033093937108544052 -0.037906257302749172 0 -0.0032080769157095167 -0.03788054609156373 0 -0.0032059549510527318 -0.037902868355316033 0 -0.0031081498098440865 -0.037870040842479004 0 -0.0030650629524075546 -0.037904952089944398 0 -0.0031081498098440865 -0.037870040842479004 0 -0.0031404514218442555 -0.037908908071110865 0 -0.0032059549510527318 -0.037902868355316033 0 -0.0031081498098440865 -0.037870040842479004 0 -0.0031404514218442555 -0.037908908071110865 0 -0.005962152005369337 -0.036610210636255046 0 -0.0040004930290564776 -0.037293518348961177 0 -0.0031404514218442555 -0.037908908071110865 0 -0.0031204422183743097 -0.037944044804015961 0 -0.0031979897102344499 -0.037932532107751347 0 -0.0032059549510527318 -0.037902868355316033 0 -0.0031404514218442555 -0.037908908071110865 0 -0.0031979897102344499 -0.037932532107751347 0 -0.0031204422183743097 -0.037944044804015961 0 -0.0032411295618288544 -0.037951602881906285 0 -0.0030778161541654553 -0.037982775310786372 0 -0.0030650629524075546 -0.037904952089944398 0 -0.0031404514218442555 -0.037908908071110865 0 -0.0031204422183743097 -0.037944044804015961 0 -0.0030603188436658375 -0.03794497446191112 0 -0.0030753854999643498 -0.03796229713730203 0 -0.0031204422183743097 -0.037944044804015961 0 -0.0030753854999643498 -0.03796229713730203 0 -0.0031204422183743097 -0.037944044804015961 0 -0.0030778161541654553 -0.037982775310786372 0 -0.0030603188436658375 -0.03794497446191112 0 -0.0030650629524075546 -0.037904952089944398 0 -0.0031204422183743097 -0.037944044804015961 0 -0.005962152005369337 -0.036610210636255046 0 -0.0066673606948363176 -0.035877081490271086 0 -0.0031204422183743097 -0.037944044804015961 0 -0.0032411295618288544 -0.037951602881906285 0 -0.0031979897102344499 -0.037932532107751347 0 -0.0073533808788809147 -0.035894453264109186 0 -0.0072311665771898574 -0.035051079520332026 0 -0.0062507283721780884 -0.036524587996589239 0 -0.0032059549510527318 -0.037902868355316033 0 -0.0031979897102344499 -0.037932532107751347 0 -0.0032311469786869399 -0.037932527967965868 0 -0.0032411295618288544 -0.037951602881906285 0 -0.0031979897102344499 -0.037932532107751347 0 -0.0032751669582240951 -0.037913111685233203 0 -0.0034104362677048945 -0.037932921149977705 0 -0.0050162471443756743 -0.037654363049901982 0 -0.005962152005369337 -0.036610210636255046 0 -0.0050162471443756743 -0.037654363049901982 0 -0.0058346832571087972 -0.037451268745188671 0 -0.0069290846250248559 -0.036810187452758783 0 -0.0062061387650138976 -0.036941511205156055 0 -0.0067601653702147107 -0.037590138428229801 0 -0.0068041353112961028 -0.037579857798262187 0 -0.0067124847555043599 -0.037623255982984501 0 -0.005962152005369337 -0.036610210636255046 0 -0.0079790016133819523 -0.036878998852570455 0 -0.0079790016133819523 -0.036878998852570455 0 -0.0050162471443756743 -0.037654363049901982 0 -0.0072311665771898574 -0.035051079520332026 0 -0.0082341369536487949 -0.03444087315241183 0 -0.008057563230946958 -0.03549528628694712 0 -0.0073533808788809147 -0.035894453264109186 0 -0.0072311665771898574 -0.035051079520332026 0 -0.008057563230946958 -0.03549528628694712 0 -0.0073533808788809147 -0.035894453264109186 0 -0.008057563230946958 -0.03549528628694712 0 -0.0078703389791618845 -0.036502890798164003 0 -0.0078703389791618845 -0.036502890798164003 0 -0.0069844371013811747 -0.037283693045755781 0 -0.0062507283721780884 -0.036524587996589239 0 -0.0073533808788809147 -0.035894453264109186 0 -0.0078703389791618845 -0.036502890798164003 0 -0.0062507283721780884 -0.036524587996589239 0 -0.0069844371013811747 -0.037283693045755781 0 -0.0056767554002447066 -0.037614343145829496 0 -0.0071800328590002956 -0.038324210023555481 0 -0.0069844371013811747 -0.037283693045755781 0 -0.0079532254318047252 -0.037530307120416301 0 -0.0071800328590002956 -0.038324210023555481 0 -0.0078703389791618845 -0.036502890798164003 0 -0.0079532254318047252 -0.037530307120416301 0 -0.00906248949468926 -0.037241054632572823 0 -0.0078703389791618845 -0.036502890798164003 0 -0.0069844371013811747 -0.037283693045755781 0 -0.0079532254318047252 -0.037530307120416301 0 -0.0071599007325611926 -0.035238686015868936 0 -0.0051778014397146927 -0.036467776202625736 0 -0.0062507283721780884 -0.036524587996589239 0 -0.0030539564495547255 -0.037970198952675623 0 -0.0030753854999643498 -0.03796229713730203 0 -0.0030778161541654553 -0.037982775310786372 0 -0.0051778014397146927 -0.036467776202625736 0 -0.0062507283721780884 -0.036524587996589239 0 -0.0056767554002447066 -0.037614343145829496 0 -0.0069844371013811747 -0.037283693045755781 0 -0.0062507283721780884 -0.036524587996589239 0 -0.0056767554002447066 -0.037614343145829496 0 -0.0046336256818350343 -0.036956577518108588 0 -0.0051778014397146927 -0.036467776202625736 0 -0.0056767554002447066 -0.037614343145829496 0 -0.0046224830481924528 -0.039301044460659816 0 -0.0046336256818350343 -0.036956577518108588 0 -0.0056767554002447066 -0.037614343145829496 0 -0.0046224830481924528 -0.039301044460659816 0 -0.0056767554002447066 -0.037614343145829496 0 -0.0061255740632605287 -0.039004464743026289 0 -0.0056767554002447066 -0.037614343145829496 0 -0.0061255740632605287 -0.039004464743026289 0 -0.0071800328590002956 -0.038324210023555481 0 -0.0061742859222407584 -0.040381175406867066 0 -0.0046224830481924528 -0.039301044460659816 0 -0.0061255740632605287 -0.039004464743026289 0 -0.0079532254318047252 -0.037530307120416301 0 -0.0071800328590002956 -0.038324210023555481 0 -0.0086412586654077521 -0.038489501807515689 0 -0.0076604332366652659 -0.039756233751571682 0 -0.0061255740632605287 -0.039004464743026289 0 -0.0071800328590002956 -0.038324210023555481 0 -0.0076604332366652659 -0.039756233751571682 0 -0.0071800328590002956 -0.038324210023555481 0 -0.0086412586654077521 -0.038489501807515689 0 -0.0097635019979192481 -0.0399575981127425 0 -0.0076604332366652659 -0.039756233751571682 0 -0.0086412586654077521 -0.038489501807515689 0 -0.0097635019979192481 -0.0399575981127425 0 -0.010203044063874409 -0.038170367277778172 0 -0.0086412586654077521 -0.038489501807515689 0 -0.010203044063874409 -0.038170367277778172 0 -0.0086412586654077521 -0.038489501807515689 0 -0.00906248949468926 -0.037241054632572823 0 -0.010203044063874409 -0.038170367277778172 0 -0.00906248949468926 -0.037241054632572823 0 -0.011215029515786375 -0.036227318862829511 0 -0.0079532254318047252 -0.037530307120416301 0 -0.0086412586654077521 -0.038489501807515689 0 -0.00906248949468926 -0.037241054632572823 0 -0.00906248949468926 -0.037241054632572823 0 -0.011215029515786375 -0.036227318862829511 0 -0.0092487069924718692 -0.035652875622003984 0 -0.008057563230946958 -0.03549528628694712 0 -0.0078703389791618845 -0.036502890798164003 0 -0.0092487069924718692 -0.035652875622003984 0 -0.0078703389791618845 -0.036502890798164003 0 -0.00906248949468926 -0.037241054632572823 0 -0.0092487069924718692 -0.035652875622003984 0 -0.010203044063874409 -0.038170367277778172 0 -0.011215029515786375 -0.036227318862829511 0 -0.011830604878364914 -0.038388979426435155 0 -0.0097635019979192481 -0.0399575981127425 0 -0.010203044063874409 -0.038170367277778172 0 -0.011830604878364914 -0.038388979426435155 0 -0.010885493137451782 -0.035801938648618845 0 -0.011876203595367622 -0.034571189289982131 0 -0.013175301980977525 -0.030108498709884201 0 -0.014370736488159714 -0.030355516696052232 0 -0.014496711291689394 -0.029264140983394738 0 -0.018552850510496738 -0.030330792004450335 0 -0.018214080249480534 -0.03237094854801411 0 -0.014370736488159714 -0.030355516696052232 0 -0.014490210542153499 -0.03033418856699014 0 -0.014496711291689394 -0.029264140983394738 0 -0.013190386101870798 -0.032020707084562304 0 -0.013175301980977525 -0.030108498709884201 0 -0.014370736488159714 -0.030355516696052232 0 -0.01445335751096713 -0.030099509841374373 0 -0.014370736488159714 -0.030355516696052232 0 -0.014490210542153499 -0.03033418856699014 0 -0.022776971303503125 -0.031075223142648385 0 -0.022774061540641054 -0.031096879119892219 0 -0.022797961506257663 -0.031135249367752454 0 -0.022805994276948526 -0.031072143312587498 0 -0.022781944587010633 -0.031076482184909993 0 -0.022784661746227931 -0.031094496126716692 0 -0.022778456599249798 -0.03107237466611653 0 -0.022805994276948526 -0.031072143312587498 0 -0.022781944587010633 -0.031076482184909993 0 -0.022778456599249798 -0.03107237466611653 0 -0.022781944587010633 -0.031076482184909993 0 -0.022776971303503125 -0.031075223142648385 0 -0.022781944587010633 -0.031076482184909993 0 -0.022776971303503125 -0.031075223142648385 0 -0.022774061540641054 -0.031096879119892219 0 -0.022781944587010633 -0.031076482184909993 0 -0.022774061540641054 -0.031096879119892219 0 -0.022784661746227931 -0.031094496126716692 0 -0.02275146320049784 -0.031128807779172894 0 -0.022797961506257663 -0.031135249367752454 0 -0.02264586329784948 -0.031191107691325052 0 -0.022774061540641054 -0.031096879119892219 0 -0.022784661746227931 -0.031094496126716692 0 -0.02275146320049784 -0.031128807779172894 0 -0.022774061540641054 -0.031096879119892219 0 -0.02275146320049784 -0.031128807779172894 0 -0.022797961506257663 -0.031135249367752454 0 -0.011876203595367622 -0.034571189289982131 0 -0.018214080249480534 -0.03237094854801411 0 -0.011215029515786375 -0.036227318862829511 0 -0.011830604878364914 -0.038388979426435155 0 -0.013901223130328199 -0.036763250904672286 0 -0.011215029515786375 -0.036227318862829511 0 -0.013901223130328199 -0.036763250904672286 0 -0.013424508909695241 -0.033403916026816666 0 -0.018214080249480534 -0.03237094854801411 0 -0.016252006134501288 -0.034204052743105041 0 -0.021855651846895131 -0.031850713539047636 0 -0.0217627268147953 -0.030960112696461262 0 -0.02264586329784948 -0.031191107691325052 0 -0.018214080249480534 -0.03237094854801411 0 -0.024229364587430264 -0.030581122127614227 0 -0.0217627268147953 -0.030960112696461262 0 -0.02264586329784948 -0.031191107691325052 0 -0.022617533052936099 -0.030915663869021063 0 -0.01465576505302095 -0.038118156239822142 0 -0.015942570451665587 -0.037952654353958788 0 -0.015362965596352003 -0.037456979706105509 0 -0.016252006134501288 -0.034204052743105041 0 -0.019693770053023894 -0.034424674054777123 0 -0.016252006134501288 -0.034204052743105041 0 -0.014014438644738838 -0.037105829956563877 0 -0.01465576505302095 -0.038118156239822142 0 -0.014555977885359646 -0.037420161167459637 0 -0.015362965596352003 -0.037456979706105509 0 -0.014506892558501431 -0.036543643347612703 0 -0.011543062476523733 -0.03602348794704565 0 -0.014200038085116764 -0.03444852159060334 0 -0.011922902770170237 -0.037328165038202119 0 -0.014014438644738838 -0.037105829956563877 0 -0.016252006134501288 -0.034204052743105041 0 -0.010933707474726188 -0.035536161767884961 0 -0.012085612232922203 -0.038965227052495478 0 -0.011299424441598946 -0.038229001283219571 0 -0.012682230036902416 -0.0381114329116128 0 -0.014506892558501431 -0.036543643347612703 0 -0.011693566719807201 -0.03708508778306005 0 -0.011543062476523733 -0.03602348794704565 0 -0.012085612232922203 -0.038965227052495478 0 -0.012682230036902416 -0.0381114329116128 0 -0.013718021942733201 -0.037994337039245207 0 -0.0068041353112961028 -0.037579857798262187 0 -0.0067124847555043599 -0.037623255982984501 0 -0.0066735260497261537 -0.037783863178831298 0 -0.0050162471443756743 -0.037654363049901982 0 -0.0062584598486176909 -0.037870347099006489 0 -0.009357743893144586 -0.038131633169673468 0 -0.0062584598486176909 -0.037870347099006489 0 -0.012085612232922203 -0.038965227052495478 0 -0.010911963250701529 -0.039645711412973697 0 -0.011299424441598946 -0.038229001283219571 0 -0.011922902770170237 -0.037328165038202119 0 -0.009357743893144586 -0.038131633169673468 0 -0.011693566719807201 -0.03708508778306005 0 -0.011543062476523733 -0.03602348794704565 0 -0.0096195586315065747 -0.037156378814423754 0 -0.0082341369536487949 -0.03444087315241183 0 -0.010822187742990768 -0.033914485780592939 0 -0.0092487069924718692 -0.035652875622003984 0 -0.0088273246567502593 -0.037628886071314815 0 -0.011693566719807201 -0.03708508778306005 0 -0.0096195586315065747 -0.037156378814423754 0 -0.0079790016133819523 -0.036878998852570455 0 -0.010933707474726188 -0.035536161767884961 0 -0.0079790016133819523 -0.036878998852570455 0 -0.009357743893144586 -0.038131633169673468 0 -0.0082341369536487949 -0.03444087315241183 0 -0.008057563230946958 -0.03549528628694712 0 -0.0092487069924718692 -0.035652875622003984 0 -0.011215029515786375 -0.036227318862829511 0 -0.010822187742990768 -0.033914485780592939 0 -0.0092487069924718692 -0.035652875622003984 0 -0.011215029515786375 -0.036227318862829511 0 -0.013424508909695241 -0.033403916026816666 0 -0.010822187742990768 -0.033914485780592939 0 -0.022096102107909681 -0.032225866053031571 0 -0.022719490720970976 -0.031950074879581909 0 -0.022782516321424782 -0.031450602951326616 0 -0.022479284351520773 -0.032402061412532802 0 -0.02277573573147431 -0.031539302390117915 0 -0.022719490720970976 -0.031950074879581909 0 -0.022782516321424782 -0.031450602951326616 0 -0.022950809119042941 -0.031220303705247598 0 -0.022586947638712291 -0.031408241202231735 0 -0.022752861100206079 -0.031223588532835612 0 -0.022782516321424782 -0.031450602951326616 0 -0.022752861100206079 -0.031223588532835612 0 -0.022782516321424782 -0.031450602951326616 0 -0.022950809119042941 -0.031220303705247598 0 -0.022950809119042941 -0.031220303705247598 0 -0.022851779807730125 -0.031158941693062544 0 -0.0228935088694186 -0.031133445305099473 0 -0.022719490720970976 -0.031950074879581909 0 -0.022950809119042941 -0.031220303705247598 0 -0.023225731633041403 -0.032214427352713494 0 -0.022950809119042941 -0.031220303705247598 0 -0.022851779807730125 -0.031158941693062544 0 -0.022856957577810432 -0.031122238257412695 0 -0.022872647531151778 -0.031469354273016663 0 -0.023417156748794937 -0.031148405302597892 0 -0.022851779807730125 -0.031158941693062544 0 -0.022777002193256908 -0.031147105226883343 0 -0.022845760403338605 -0.031132270248459909 0 -0.022851779807730125 -0.031158941693062544 0 -0.022777002193256908 -0.031147105226883343 0 -0.022856957577810432 -0.031122238257412695 0 -0.022906172257286184 -0.031031945905894993 0 -0.0228935088694186 -0.031133445305099473 0 -0.022845760403338605 -0.031132270248459909 0 -0.022851779807730125 -0.031158941693062544 0 -0.0228935088694186 -0.031133445305099473 0 -0.022845760403338605 -0.031132270248459909 0 -0.022906172257286184 -0.031031945905894993 0 -0.022845760403338605 -0.031132270248459909 0 -0.022824316960948096 -0.031097656626405894 0 -0.022845760403338605 -0.031132270248459909 0 -0.022824316960948096 -0.031097656626405894 0 -0.02277201832747245 -0.031126420625890654 0 -0.022805994276948526 -0.031072143312587498 0 -0.022784661746227931 -0.031094496126716692 0 -0.022824316960948096 -0.031097656626405894 0 -0.022784661746227931 -0.031094496126716692 0 -0.022824316960948096 -0.031097656626405894 0 -0.02277201832747245 -0.031126420625890654 0 -0.022784661746227931 -0.031094496126716692 0 -0.02275146320049784 -0.031128807779172894 0 -0.02277201832747245 -0.031126420625890654 0 -0.02275146320049784 -0.031128807779172894 0 -0.02277201832747245 -0.031126420625890654 0 -0.022729826367268783 -0.031148819256951198 0 -0.02275146320049784 -0.031128807779172894 0 -0.022729826367268783 -0.031148819256951198 0 -0.02264586329784948 -0.031191107691325052 0 -0.022777002193256908 -0.031147105226883343 0 -0.022845760403338605 -0.031132270248459909 0 -0.02277201832747245 -0.031126420625890654 0 -0.022777002193256908 -0.031147105226883343 0 -0.02277201832747245 -0.031126420625890654 0 -0.022729826367268783 -0.031148819256951198 0 -0.022777002193256908 -0.031147105226883343 0 -0.022729826367268783 -0.031148819256951198 0 -0.02264586329784948 -0.031191107691325052 0 -0.022777002193256908 -0.031147105226883343 0 -0.02264586329784948 -0.031191107691325052 0 -0.022771672765699399 -0.031092236270970446 0 -0.02264586329784948 -0.031191107691325052 0 -0.022617533052936099 -0.030915663869021063 0 -0.022771672765699399 -0.031092236270970446 0 -0.022617533052936099 -0.030915663869021063 0 -0.022771672765699399 -0.031092236270970446 0 -0.022837516774985505 -0.031002702032521562 0 -0.019693770053023894 -0.034424674054777123 0 -0.020076734570081457 -0.034532439981460342 0 -0.022777002193256908 -0.031147105226883343 0 -0.022771672765699399 -0.031092236270970446 0 -0.022856957577810432 -0.031122238257412695 0 -0.022771672765699399 -0.031092236270970446 0 -0.022856957577810432 -0.031122238257412695 0 -0.022837516774985505 -0.031002702032521562 0 -0.023225731633041403 -0.032214427352713494 0 -0.02288474567823541 -0.03295286949667784 0 -0.02238289193661918 -0.032793311580807644 0 -0.023417156748794937 -0.031148405302597892 0 -0.020076734570081457 -0.034532439981460342 0 -0.023225731633041403 -0.032214427352713494 0 -0.02288474567823541 -0.03295286949667784 0 -0.023338723463379715 -0.033329575928318568 0 -0.02288474567823541 -0.03295286949667784 0 -0.023338723463379715 -0.033329575928318568 0 -0.022597360230234544 -0.03346773511650733 0 -0.02288474567823541 -0.03295286949667784 0 -0.02238289193661918 -0.032793311580807644 0 -0.022597360230234544 -0.03346773511650733 0 -0.022382019241594213 -0.032647518747851857 0 -0.021342026699915854 -0.034539553100982071 0 -0.022021734928233221 -0.033151894540554103 0 -0.02238289193661918 -0.032793311580807644 0 -0.022575465269177704 -0.033485223771584423 0 -0.022719490720970976 -0.031950074879581909 0 -0.023225731633041403 -0.032214427352713494 0 -0.02238289193661918 -0.032793311580807644 0 -0.022096102107909681 -0.032225866053031571 0 -0.022719490720970976 -0.031950074879581909 0 -0.02238289193661918 -0.032793311580807644 0 -0.021342026699915854 -0.034539553100982071 0 -0.020090612278529464 -0.034736699449234396 0 -0.022115452872763543 -0.033897378553210497 0 -0.022211459001319628 -0.03356394105818699 0 -0.02232982614120255 -0.034115804186487728 0 -0.02206895747531663 -0.034096929576081091 0 -0.022115452872763543 -0.033897378553210497 0 -0.02232982614120255 -0.034115804186487728 0 -0.021936296805889165 -0.033819427220690923 0 -0.02206895747531663 -0.034096929576081091 0 -0.022115452872763543 -0.033897378553210497 0 -0.021977383466103742 -0.033572850988489958 0 -0.022115452872763543 -0.033897378553210497 0 -0.022211459001319628 -0.03356394105818699 0 -0.022393083041244981 -0.033593854748811151 0 -0.021342026699915854 -0.034539553100982071 0 -0.022021734928233221 -0.033151894540554103 0 -0.021977383466103742 -0.033572850988489958 0 -0.022575465269177704 -0.033485223771584423 0 -0.018567485157779347 -0.036377706944919042 0 -0.018059900201510617 -0.03599062128283715 0 -0.018162060404091834 -0.035325116375834915 0 -0.020076734570081457 -0.034532439981460342 0 -0.021342026699915854 -0.034539553100982071 0 -0.017835343387376482 -0.036513437641292328 0 -0.018567485157779347 -0.036377706944919042 0 -0.018059900201510617 -0.03599062128283715 0 -0.017835343387376482 -0.036513437641292328 0 -0.018059900201510617 -0.03599062128283715 0 -0.017681892739549447 -0.035730595947822623 0 -0.018162060404091834 -0.035325116375834915 0 -0.017681892739549447 -0.035730595947822623 0 -0.017457231872121087 -0.034857506733024644 0 -0.018059900201510617 -0.03599062128283715 0 -0.018162060404091834 -0.035325116375834915 0 -0.017681892739549447 -0.035730595947822623 0 -0.017363371251971776 -0.036625236298751307 0 -0.017325491154451911 -0.034939991203501337 0 -0.017296868015093451 -0.036583831637936534 0 -0.016430040339608824 -0.036094666383758404 0 -0.017216657988206156 -0.035294978818503041 0 -0.017296868015093451 -0.036583831637936534 0 -0.016307178884558206 -0.037111408719268969 0 -0.016430040339608824 -0.036094666383758404 0 -0.020076734570081457 -0.034532439981460342 0 -0.017363371251971776 -0.036625236298751307 0 -0.017417560370839868 -0.037729638223437202 0 -0.017296868015093451 -0.036583831637936534 0 -0.016307178884558206 -0.037111408719268969 0 -0.015942570451665587 -0.037952654353958788 0 -0.017417560370839868 -0.037729638223437202 0 -0.016307178884558206 -0.037111408719268969 0 -0.015942570451665587 -0.037952654353958788 0 -0.016307178884558206 -0.037111408719268969 0 -0.015362965596352003 -0.037456979706105509 0 -0.016307178884558206 -0.037111408719268969 0 -0.01561116444846355 -0.036732266628986168 0 -0.015362965596352003 -0.037456979706105509 0 -0.016307178884558206 -0.037111408719268969 0 -0.01561116444846355 -0.036732266628986168 0 -0.016430040339608824 -0.036094666383758404 0 -0.01561116444846355 -0.036732266628986168 0 -0.016430040339608824 -0.036094666383758404 0 -0.015732494658291567 -0.035718463982333894 0 -0.016430040339608824 -0.036094666383758404 0 -0.015732494658291567 -0.035718463982333894 0 -0.016274251671472176 -0.035270938565801713 0 -0.015732494658291567 -0.035718463982333894 0 -0.016274251671472176 -0.035270938565801713 0 -0.01554518359940065 -0.034844581190277231 0 -0.01554518359940065 -0.034844581190277231 0 -0.016372466230269452 -0.034334822384610802 0 -0.015609499902971761 -0.033876342646369427 0 -0.016372466230269452 -0.034334822384610802 0 -0.016152139553635356 -0.033686498583152688 0 -0.015609499902971761 -0.033876342646369427 0 -0.016274251671472176 -0.035270938565801713 0 -0.01554518359940065 -0.034844581190277231 0 -0.016372466230269452 -0.034334822384610802 0 -0.016372466230269452 -0.034334822384610802 0 -0.017216657988206156 -0.035294978818503041 0 -0.017120014559652709 -0.033839645760036591 0 -0.017325491154451911 -0.034939991203501337 0 -0.01714866036745881 -0.033959967993610216 0 -0.017457231872121087 -0.034857506733024644 0 -0.017629496665684925 -0.034076331761742636 0 -0.017120014559652709 -0.033839645760036591 0 -0.016372466230269452 -0.034334822384610802 0 -0.017120014559652709 -0.033839645760036591 0 -0.016777728274991601 -0.033570253370465104 0 -0.016274251671472176 -0.035270938565801713 0 -0.016372466230269452 -0.034334822384610802 0 -0.017216657988206156 -0.035294978818503041 0 -0.016430040339608824 -0.036094666383758404 0 -0.016274251671472176 -0.035270938565801713 0 -0.017216657988206156 -0.035294978818503041 0 -0.020090612278529464 -0.034736699449234396 0 -0.020123557526177237 -0.034521167172164892 0 -0.02232982614120255 -0.034115804186487728 0 -0.022412603667301485 -0.034533653198199767 0 -0.0221633190147126 -0.034339973182927933 0 -0.018162060404091834 -0.035325116375834915 0 -0.017457231872121087 -0.034857506733024644 0 -0.017629496665684925 -0.034076331761742636 0 -0.020123557526177237 -0.034521167172164892 0 -0.021352439016622291 -0.035275695716900458 0 -0.019808016847078103 -0.035769743011072309 0 -0.020153553826863447 -0.035756597367769614 0 -0.0201086477795543 -0.035925213093925434 0 -0.019808016847078103 -0.035769743011072309 0 -0.020153553826863447 -0.035756597367769614 0 -0.01980441837445129 -0.035673129010188258 0 -0.020306400537593045 -0.03593857665580124 0 -0.020153553826863447 -0.035756597367769614 0 -0.0201086477795543 -0.035925213093925434 0 -0.020974942647194274 -0.035097120167111674 0 -0.021352439016622291 -0.035275695716900458 0 -0.021797176149784048 -0.034150025154221199 0 -0.02206895747531663 -0.034096929576081091 0 -0.0221633190147126 -0.034339973182927933 0 -0.02206895747531663 -0.034096929576081091 0 -0.02232982614120255 -0.034115804186487728 0 -0.0221633190147126 -0.034339973182927933 0 -0.0043139984617192144 -0.03771861784450805 0 -0.0044128288425963041 -0.037787682423768863 0 -0.0045891136922950994 -0.037390190553405936 0 -0.0086271225107732354 -0.037108336121151143 0 -0.0089002465353876896 -0.036676979281215438 0 -0.0043139984617192144 -0.03771861784450805 0 -0.0044128288425963041 -0.037787682423768863 0 -0.0042845343520584748 -0.037866395008606939 0 -0.0033652377573683257 -0.03794715943470478 0 -0.0033433258245792186 -0.037937680906376399 0 -0.0033227648135182356 -0.037919346791326893 0 -0.0033652377573683257 -0.03794715943470478 0 -0.0033227648135182356 -0.037919346791326893 0 -0.0033093937108544052 -0.037906257302749172 0 -0.0032684979160748809 -0.0378965745311899 0 -0.0033227648135182356 -0.037919346791326893 0 -0.0033093937108544052 -0.037906257302749172 0 -0.0036437898297515948 -0.037880347398653876 0 -0.0062584598486176909 -0.037870347099006489 0 -0.012481190498206693 -0.036691764067728484 0 -0.013078582345269324 -0.037318841415310701 0 -0.012682230036902416 -0.0381114329116128 0 -0.0086271225107732354 -0.037108336121151143 0 -0.0062584598486176909 -0.037870347099006489 0 -0.012481190498206693 -0.036691764067728484 0 -0.011299424441598946 -0.038229001283219571 0 -0.012682230036902416 -0.0381114329116128 0 -0.013078582345269324 -0.037318841415310701 0 -0.012682230036902416 -0.0381114329116128 0 -0.013335203145391552 -0.037778835171359125 0 -0.012682230036902416 -0.0381114329116128 0 -0.013335203145391552 -0.037778835171359125 0 -0.013718021942733201 -0.037994337039245207 0 -0.013335203145391552 -0.037778835171359125 0 -0.013718021942733201 -0.037994337039245207 0 -0.013491819792827705 -0.037546900388947542 0 -0.013078582345269324 -0.037318841415310701 0 -0.013783605400712728 -0.037221543956532911 0 -0.013491819792827705 -0.037546900388947542 0 -0.013718021942733201 -0.037994337039245207 0 -0.013783605400712728 -0.037221543956532911 0 -0.013491819792827705 -0.037546900388947542 0 -0.013078582345269324 -0.037318841415310701 0 -0.013335203145391552 -0.037778835171359125 0 -0.013491819792827705 -0.037546900388947542 0 -0.01561116444846355 -0.036732266628986168 0 -0.013718021942733201 -0.037994337039245207 0 -0.013783605400712728 -0.037221543956532911 0 -0.01561116444846355 -0.036732266628986168 0 -0.014555977885359646 -0.037420161167459637 0 -0.015362965596352003 -0.037456979706105509 0 -0.015551717995703459 -0.036962980108107342 0 -0.014014438644738838 -0.037105829956563877 0 -0.01561116444846355 -0.036732266628986168 0 -0.015732494658291567 -0.035718463982333894 0 -0.014751676629149181 -0.035628953115749054 0 -0.01561116444846355 -0.036732266628986168 0 -0.013783605400712728 -0.037221543956532911 0 -0.01388890632103406 -0.036496236261262069 0 -0.01561116444846355 -0.036732266628986168 0 -0.01388890632103406 -0.036496236261262069 0 -0.014751676629149181 -0.035628953115749054 0 -0.012481190498206693 -0.036691764067728484 0 -0.013078582345269324 -0.037318841415310701 0 -0.01388890632103406 -0.036496236261262069 0 -0.012481190498206693 -0.036691764067728484 0 -0.01388890632103406 -0.036496236261262069 0 -0.013629331498628888 -0.035310715362382603 0 -0.013078582345269324 -0.037318841415310701 0 -0.013783605400712728 -0.037221543956532911 0 -0.01388890632103406 -0.036496236261262069 0 -0.01388890632103406 -0.036496236261262069 0 -0.013629331498628888 -0.035310715362382603 0 -0.014751676629149181 -0.035628953115749054 0 -0.013629331498628888 -0.035310715362382603 0 -0.014751676629149181 -0.035628953115749054 0 -0.014644231987691377 -0.034071511259657281 0 -0.015732494658291567 -0.035718463982333894 0 -0.01554518359940065 -0.034844581190277231 0 -0.014751676629149181 -0.035628953115749054 0 -0.01554518359940065 -0.034844581190277231 0 -0.014751676629149181 -0.035628953115749054 0 -0.014644231987691377 -0.034071511259657281 0 -0.01554518359940065 -0.034844581190277231 0 -0.014644231987691377 -0.034071511259657281 0 -0.015609499902971761 -0.033876342646369427 0 -0.0089002465353876896 -0.036676979281215438 0 -0.0092874376344431568 -0.035825328579881202 0 -0.0041986137697776656 -0.037947787284352011 0 -0.0043616640603901333 -0.037927167438261439 0 -0.0042010614239916602 -0.037947327436849185 0 -0.0041986137697776656 -0.037947787284352011 0 -0.0042010614239916602 -0.037947327436849185 0 -0.0042142878762042998 -0.037976327029531499 0 -0.0039408663999332457 -0.037943605330308591 0 -0.0039849770828557229 -0.03779392102611915 0 -0.0035882070458836176 -0.038011443114611347 0 -0.0034883407600280495 -0.037977385468111829 0 -0.0039950369017236953 -0.037802638341684555 0 -0.0042010614239916602 -0.037947327436849185 0 -0.0042142878762042998 -0.037976327029531499 0 -0.0039950369017236953 -0.037802638341684555 0 -0.0036437898297515948 -0.037880347398653876 0 -0.0039408663999332457 -0.037943605330308591 0 -0.0043139984617192144 -0.03771861784450805 0 -0.0041986137697776656 -0.037947787284352011 0 -0.0042845343520584748 -0.037866395008606939 0 -0.0041986137697776656 -0.037947787284352011 0 -0.0042142878762042998 -0.037976327029531499 0 -0.0042845343520584748 -0.037866395008606939 0 -0.0044128288425963041 -0.037787682423768863 0 -0.0042142878762042998 -0.037976327029531499 0 -0.0042845343520584748 -0.037866395008606939 0 -0.0033652377573683257 -0.03794715943470478 0 -0.0035882070458836176 -0.038011443114611347 0 -0.0034273510940585014 -0.037975161767958288 0 -0.0033638012205294758 -0.037952905882708263 0 -0.0034273510940585014 -0.037975161767958288 0 -0.0034883407600280495 -0.037977385468111829 0 -0.0033638012205294758 -0.037952905882708263 0 -0.0033433258245792186 -0.037937680906376399 0 -0.0034273510940585014 -0.037975161767958288 0 -0.0033652377573683257 -0.03794715943470478 0 -0.0033433258245792186 -0.037937680906376399 0 -0.0034273510940585014 -0.037975161767958288 0 -0.0035882070458836176 -0.038011443114611347 0 -0.0034273510940585014 -0.037975161767958288 0 -0.0034883407600280495 -0.037977385468111829 0 -0.0033638012205294758 -0.037952905882708263 0 -0.0033821702513897565 -0.037955981935838191 0 -0.0034883407600280495 -0.037977385468111829 0 -0.0033821702513897565 -0.037955981935838191 0 -0.0034883407600280495 -0.037977385468111829 0 -0.0034658698833769006 -0.037891951253053904 0 -0.0034883407600280495 -0.037977385468111829 0 -0.0034658698833769006 -0.037891951253053904 0 -0.0039950369017236953 -0.037802638341684555 0 -0.0035152612813241506 -0.037948083419778976 0 -0.0032855908946195964 -0.037654256916811513 0 -0.0034658698833769006 -0.037891951253053904 0 -0.0037756098027242487 -0.037549632035019036 0 -0.0034653845960162114 -0.037450388853032236 0 -0.0037756098027242487 -0.037549632035019036 0 -0.0039950369017236953 -0.037802638341684555 0 -0.0042227935240950684 -0.037443494861732228 0 -0.0034658698833769006 -0.037891951253053904 0 -0.0037756098027242487 -0.037549632035019036 0 -0.0039950369017236953 -0.037802638341684555 0 -0.0043616640603901333 -0.037927167438261439 0 -0.0042010614239916602 -0.037947327436849185 0 -0.0043028400693382153 -0.037748861137603375 0 -0.0042010614239916602 -0.037947327436849185 0 -0.0039950369017236953 -0.037802638341684555 0 -0.0043028400693382153 -0.037748861137603375 0 -0.0043616640603901333 -0.037927167438261439 0 -0.0043028400693382153 -0.037748861137603375 0 -0.0046610332747398335 -0.037679496284807691 0 -0.0092874376344431568 -0.035825328579881202 0 -0.012454334246149772 -0.036994486958808401 0 -0.014644231987691377 -0.034071511259657281 0 -0.015609499902971761 -0.033876342646369427 0 -0.015541015685774907 -0.032916115737665605 0 -0.013216953958228599 -0.04113570945007089 0 -0.011795904365874873 -0.041056604596993271 0 -0.013466252379340956 -0.042117441394781026 0 -0.0074999545823736836 -0.039582084426787852 0 -0.012454334246149772 -0.036994486958808401 0 -0.0043028400693382153 -0.037748861137603375 0 -0.0042227935240950684 -0.037443494861732228 0 -0.0046610332747398335 -0.037679496284807691 0 -0.0039950369017236953 -0.037802638341684555 0 -0.0043028400693382153 -0.037748861137603375 0 -0.0042227935240950684 -0.037443494861732228 0 -0.011795904365874873 -0.041056604596993271 0 -0.012104831424472717 -0.040094835892698792 0 -0.010862245460586475 -0.040242583156233108 0 -0.013216953958228599 -0.04113570945007089 0 -0.011795904365874873 -0.041056604596993271 0 -0.012898118531794454 -0.040527652108349722 0 -0.013216953958228599 -0.04113570945007089 0 -0.012898118531794454 -0.040527652108349722 0 -0.013626863132162347 -0.040593199760117604 0 -0.012104831424472717 -0.040094835892698792 0 -0.012898118531794454 -0.040527652108349722 0 -0.013191096921696812 -0.039893315763557556 0 -0.011795904365874873 -0.041056604596993271 0 -0.012104831424472717 -0.040094835892698792 0 -0.012898118531794454 -0.040527652108349722 0 -0.012898118531794454 -0.040527652108349722 0 -0.013191096921696812 -0.039893315763557556 0 -0.013626863132162347 -0.040593199760117604 0 -0.013191096921696812 -0.039893315763557556 0 -0.0122397191525717 -0.039017806367910905 0 -0.013711497382748969 -0.039087638840852985 0 -0.012104831424472717 -0.040094835892698792 0 -0.013191096921696812 -0.039893315763557556 0 -0.0122397191525717 -0.039017806367910905 0 -0.012078200313492805 -0.039188093535472639 0 -0.010893150221136821 -0.03953879483027823 0 -0.011005930092828877 -0.039065725579687634 0 -0.012104831424472717 -0.040094835892698792 0 -0.0122397191525717 -0.039017806367910905 0 -0.010862245460586475 -0.040242583156233108 0 -0.012144892579584326 -0.03912047071121226 0 -0.010945687155731762 -0.040171488182152104 0 -0.012078200313492805 -0.039188093535472639 0 -0.010893150221136821 -0.03953879483027823 0 -0.010862245460586475 -0.040242583156233108 0 -0.010893150221136821 -0.03953879483027823 0 -0.010336411416525785 -0.039207717291842296 0 -0.011005930092828877 -0.039065725579687634 0 -0.010893150221136821 -0.03953879483027823 0 -0.010127167635051813 -0.040003353588440177 0 -0.010862245460586475 -0.040242583156233108 0 -0.010893150221136821 -0.03953879483027823 0 -0.010127167635051813 -0.040003353588440177 0 -0.010336411416525785 -0.039207717291842296 0 -0.010127167635051813 -0.040003353588440177 0 -0.010336411416525785 -0.039207717291842296 0 -0.0093836102902490007 -0.03898482891102751 0 -0.0038183985652927234 -0.037250003708940507 0 -0.0035309548473835394 -0.037085313965433013 0 -0.0035300413422152017 -0.037107653586685455 0 -0.010127167635051813 -0.040003353588440177 0 -0.0093836102902490007 -0.03898482891102751 0 -0.0085920653555204268 -0.038965194303899615 0 -0.0069281954384728534 -0.038555499579679915 0 -0.0067411384509882995 -0.038084473795001815 0 -0.0038183985652927234 -0.037250003708940507 0 -0.0035300413422152017 -0.037107653586685455 0 -0.0034653845960162114 -0.037450388853032236 0 -0.0037756098027242487 -0.037549632035019036 0 -0.0038183985652927234 -0.037250003708940507 0 -0.0034653845960162114 -0.037450388853032236 0 -0.011795904365874873 -0.041056604596993271 0 -0.010127167635051813 -0.040003353588440177 0 -0.010862245460586475 -0.040242583156233108 0 -0.0074999545823736836 -0.039582084426787852 0 -0.0069281954384728534 -0.038555499579679915 0 -0.0037756098027242487 -0.037549632035019036 0 -0.0042227935240950684 -0.037443494861732228 0 -0.0038183985652927234 -0.037250003708940507 0 -0.019952782465848144 -0.03559955150815252 0 -0.019865085742973045 -0.035528141258719718 0 -0.019979119193631947 -0.035484764173074904 0 -0.020119736736434739 -0.03553042418897695 0 -0.019952782465848144 -0.03559955150815252 0 -0.019979119193631947 -0.035484764173074904 0 -0.020137144202677117 -0.035648901121921574 0 -0.019988379006045404 -0.035682247985560016 0 -0.019952782465848144 -0.03559955150815252 0 -0.020119736736434739 -0.03553042418897695 0 -0.020137144202677117 -0.035648901121921574 0 -0.019952782465848144 -0.03559955150815252 0 -0.020137144202677117 -0.035648901121921574 0 -0.019998227436466547 -0.035819777892141094 0 -0.019988379006045404 -0.035682247985560016 0 -0.019998227436466547 -0.035819777892141094 0 -0.019988379006045404 -0.035682247985560016 0 -0.019888147235932643 -0.035666695122594592 0 -0.019988379006045404 -0.035682247985560016 0 -0.019952782465848144 -0.03559955150815252 0 -0.019888147235932643 -0.035666695122594592 0 -0.019952782465848144 -0.03559955150815252 0 -0.019888147235932643 -0.035666695122594592 0 -0.01983662360794463 -0.035600080361301537 0 -0.020087069673959207 -0.035791851029537844 0 -0.019822891831332987 -0.035679704033312186 0 -0.019998227436466547 -0.035819777892141094 0 -0.019888147235932643 -0.035666695122594592 0 -0.01980441837445129 -0.035673129010188258 0 -0.019888147235932643 -0.035666695122594592 0 -0.01980441837445129 -0.035673129010188258 0 -0.01983662360794463 -0.035600080361301537 0 -0.01980441837445129 -0.035673129010188258 0 -0.01983662360794463 -0.035600080361301537 0 -0.019752332214000218 -0.035610084799525821 0 -0.01983662360794463 -0.035600080361301537 0 -0.019790359840244853 -0.035548862315067632 0 -0.019752332214000218 -0.035610084799525821 0 -0.019952782465848144 -0.03559955150815252 0 -0.01983662360794463 -0.035600080361301537 0 -0.019865085742973045 -0.035528141258719718 0 -0.01983662360794463 -0.035600080361301537 0 -0.019865085742973045 -0.035528141258719718 0 -0.019790359840244853 -0.035548862315067632 0 -0.019790359840244853 -0.035548862315067632 0 -0.019722460085141745 -0.035568225427519605 0 -0.019755009206462205 -0.035532886257203952 0 -0.019722460085141745 -0.035568225427519605 0 -0.019628561591176062 -0.035566323492835054 0 -0.019755009206462205 -0.035532886257203952 0 -0.019722460085141745 -0.035568225427519605 0 -0.019678375821456845 -0.035612712112579693 0 -0.019752332214000218 -0.035610084799525821 0 -0.019790359840244853 -0.035548862315067632 0 -0.019722460085141745 -0.035568225427519605 0 -0.019752332214000218 -0.035610084799525821 0 -0.01980441837445129 -0.035673129010188258 0 -0.019752332214000218 -0.035610084799525821 0 -0.019691498528451857 -0.035686403169039808 0 -0.020123557526177237 -0.034521167172164892 0 -0.018230832319641083 -0.034652937159560304 0 -0.019808016847078103 -0.035769743011072309 0 -0.01980441837445129 -0.035673129010188258 0 -0.019691498528451857 -0.035686403169039808 0 -0.017629496665684925 -0.034076331761742636 0 -0.017120014559652709 -0.033839645760036591 0 -0.016777728274991601 -0.033570253370465104 0 -0.019678375821456845 -0.035612712112579693 0 -0.019752332214000218 -0.035610084799525821 0 -0.019691498528451857 -0.035686403169039808 0 -0.018230832319641083 -0.034652937159560304 0 -0.015779196495585009 -0.035342195648315998 0 -0.019678375821456845 -0.035612712112579693 0 -0.019691498528451857 -0.035686403169039808 0 -0.019594946358510675 -0.03563755304782603 0 -0.015609499902971761 -0.033876342646369427 0 -0.015780581421771859 -0.033080111847941289 0 -0.015541015685774907 -0.032916115737665605 0 -0.016777728274991601 -0.033570253370465104 0 -0.016152139553635356 -0.033686498583152688 0 -0.015841696583101451 -0.032939571740557907 0 -0.016372466230269452 -0.034334822384610802 0 -0.016777728274991601 -0.033570253370465104 0 -0.016152139553635356 -0.033686498583152688 0 -0.015854141069087526 -0.033194605316967114 0 -0.015779196495585009 -0.035342195648315998 0 -0.016152139553635356 -0.033686498583152688 0 -0.015609499902971761 -0.033876342646369427 0 -0.015841696583101451 -0.032939571740557907 0 -0.015779196495585009 -0.035342195648315998 0 -0.012454334246149772 -0.036994486958808401 0 -0.012454334246149772 -0.036994486958808401 0 -0.015646431713348813 -0.038604597674723684 0 -0.015779196495585009 -0.035342195648315998 0 -0.015646431713348813 -0.038604597674723684 0 -0.015191883582781689 -0.036328192420272576 0 -0.015740571880308089 -0.036707472043509159 0 -0.014786580325886976 -0.038064692551953529 0 -0.019678375821456845 -0.035612712112579693 0 -0.019594946358510675 -0.03563755304782603 0 -0.019628561591176062 -0.035566323492835054 0 -0.019722460085141745 -0.035568225427519605 0 -0.019678375821456845 -0.035612712112579693 0 -0.019628561591176062 -0.035566323492835054 0 -0.013216953958228599 -0.04113570945007089 0 -0.013466252379340956 -0.042117441394781026 0 -0.013956227603600133 -0.041453193862494103 0 -0.013956227603600133 -0.041453193862494103 0 -0.01434042975086589 -0.04004742938636062 0 -0.013626863132162347 -0.040593199760117604 0 -0.013191096921696812 -0.039893315763557556 0 -0.01434042975086589 -0.04004742938636062 0 -0.013626863132162347 -0.040593199760117604 0 -0.015646431713348813 -0.038604597674723684 0 -0.01447091191756242 -0.040294513562685888 0 -0.013216953958228599 -0.04113570945007089 0 -0.013956227603600133 -0.041453193862494103 0 -0.013626863132162347 -0.040593199760117604 0 -0.013191096921696812 -0.039893315763557556 0 -0.01434042975086589 -0.04004742938636062 0 -0.013711497382748969 -0.039087638840852985 0 -0.01434042975086589 -0.04004742938636062 0 -0.013711497382748969 -0.039087638840852985 0 -0.014766890420686227 -0.038610371778472333 0 -0.014933604380892879 -0.039578052493700382 0 -0.015498674489035795 -0.039434313637767809 0 -0.01507969735652856 -0.038525855592808918 0 -0.01447091191756242 -0.040294513562685888 0 -0.01496118179741586 -0.038422141797764549 0 -0.015646431713348813 -0.038604597674723684 0 -0.017947593348907664 -0.037282732611382582 0 -0.014718147198925249 -0.04041114541871494 0 -0.014933604380892879 -0.039578052493700382 0 -0.015498674489035795 -0.039434313637767809 0 -0.019628561591176062 -0.035566323492835054 0 -0.019807045172345519 -0.035490127401996682 0 -0.019755009206462205 -0.035532886257203952 0 -0.019807045172345519 -0.035490127401996682 0 -0.019755009206462205 -0.035532886257203952 0 -0.019807734293487443 -0.035500216707075642 0 -0.019790359840244853 -0.035548862315067632 0 -0.019755009206462205 -0.035532886257203952 0 -0.019807734293487443 -0.035500216707075642 0 -0.019865085742973045 -0.035528141258719718 0 -0.019790359840244853 -0.035548862315067632 0 -0.019807734293487443 -0.035500216707075642 0 -0.019865085742973045 -0.035528141258719718 0 -0.019830359526637836 -0.035489849747812226 0 -0.019807734293487443 -0.035500216707075642 0 -0.019830359526637836 -0.035489849747812226 0 -0.019807734293487443 -0.035500216707075642 0 -0.019788395636746729 -0.035512871034862802 0 -0.017947593348907664 -0.037282732611382582 0 -0.018113610350766765 -0.036934245959097327 0 -0.019807045172345519 -0.035490127401996682 0 -0.019788395636746729 -0.035512871034862802 0 -0.01974083872434813 -0.035695587968863324 0 -0.019788395636746729 -0.035512871034862802 0 -0.019753591152909294 -0.035525716943623581 0 -0.01974083872434813 -0.035695587968863324 0 -0.019807045172345519 -0.035490127401996682 0 -0.019807734293487443 -0.035500216707075642 0 -0.019788395636746729 -0.035512871034862802 0 -0.019830359526637836 -0.035489849747812226 0 -0.019788395636746729 -0.035512871034862802 0 -0.019753591152909294 -0.035525716943623581 0 -0.019830359526637836 -0.035489849747812226 0 -0.019753591152909294 -0.035525716943623581 0 -0.019874479665549429 -0.035483135301844652 0 -0.019794263333143661 -0.035535513685180112 0 -0.019753591152909294 -0.035525716943623581 0 -0.019874479665549429 -0.035483135301844652 0 -0.020027124973589227 -0.035455259622114106 0 -0.019874479665549429 -0.035483135301844652 0 -0.019979119193631947 -0.035484764173074904 0 -0.019830359526637836 -0.035489849747812226 0 -0.019874479665549429 -0.035483135301844652 0 -0.019979119193631947 -0.035484764173074904 0 -0.019865085742973045 -0.035528141258719718 0 -0.019830359526637836 -0.035489849747812226 0 -0.019979119193631947 -0.035484764173074904 0 -0.019445600064124668 -0.035700035318665183 0 -0.01974083872434813 -0.035695587968863324 0 -0.018377525876006971 -0.036123289219168617 0 -0.018113610350766765 -0.036934245959097327 0 -0.018460340595535533 -0.036116353929651179 0 -0.019445600064124668 -0.035700035318665183 0 -0.019753591152909294 -0.035525716943623581 0 -0.01974083872434813 -0.035695587968863324 0 -0.019794263333143661 -0.035535513685180112 0 -0.019445600064124668 -0.035700035318665183 0 -0.019753591152909294 -0.035525716943623581 0 -0.015498674489035795 -0.039434313637767809 0 -0.016635706228342505 -0.038172126756904949 0 -0.01571220635241222 -0.038029508254148407 0 -0.016635706228342505 -0.038172126756904949 0 -0.016108344361238969 -0.037428848103003648 0 -0.01571220635241222 -0.038029508254148407 0 -0.016108344361238969 -0.037428848103003648 0 -0.016538140118714972 -0.036488793740820612 0 -0.018377525876006971 -0.036123289219168617 0 -0.016635706228342505 -0.038172126756904949 0 -0.016108344361238969 -0.037428848103003648 0 -0.018377525876006971 -0.036123289219168617 0 -0.016108344361238969 -0.037428848103003648 0 -0.015843948278045059 -0.036656890192260483 0 -0.016538140118714972 -0.036488793740820612 0 -0.015248146628932414 -0.037165317214837047 0 -0.014628659280915644 -0.03767883619344687 0 -0.014766890420686227 -0.038610371778472333 0 -0.016108344361238969 -0.037428848103003648 0 -0.015248146628932414 -0.037165317214837047 0 -0.015843948278045059 -0.036656890192260483 0 -0.015248146628932414 -0.037165317214837047 0 -0.015125825956916103 -0.036688177891580874 0 -0.015843948278045059 -0.036656890192260483 0 -0.015248146628932414 -0.037165317214837047 0 -0.014628659280915644 -0.03767883619344687 0 -0.015125825956916103 -0.036688177891580874 0 -0.016108344361238969 -0.037428848103003648 0 -0.015248146628932414 -0.037165317214837047 0 -0.01571220635241222 -0.038029508254148407 0 -0.015216090835730235 -0.03730847396437114 0 -0.01496118179741586 -0.038422141797764549 0 -0.015498674489035795 -0.039434313637767809 0 -0.01571220635241222 -0.038029508254148407 0 -0.01507969735652856 -0.038525855592808918 0 -0.015248146628932414 -0.037165317214837047 0 -0.01571220635241222 -0.038029508254148407 0 -0.01507969735652856 -0.038525855592808918 0 -0.013711497382748969 -0.039087638840852985 0 -0.014766890420686227 -0.038610371778472333 0 -0.013629973327808874 -0.037853748614789323 0 -0.014628659280915644 -0.03767883619344687 0 -0.014766890420686227 -0.038610371778472333 0 -0.013629973327808874 -0.037853748614789323 0 -0.014628659280915644 -0.03767883619344687 0 -0.013629973327808874 -0.037853748614789323 0 -0.015125825956916103 -0.036688177891580874 0 -0.013345857825980627 -0.038141739099136124 0 -0.013739488176048358 -0.037266998105337609 0 -0.014677965708300995 -0.037100474511457544 0 -0.013493769720566649 -0.038001423420957588 0 -0.014907910269309793 -0.036871572538254474 0 -0.013345857825980627 -0.038141739099136124 0 -0.013739488176048358 -0.037266998105337609 0 -0.012634509284798834 -0.037329895507810081 0 -0.014213397417694519 -0.036534888185821617 0 -0.01263671482659072 -0.037360514416116833 0 -0.014311391565069451 -0.036486145802850617 0 -0.012588846699019699 -0.037423907316673367 0 -0.012944590023827893 -0.036276613549619807 0 -0.013739488176048358 -0.037266998105337609 0 -0.014311391565069451 -0.036486145802850617 0 -0.012634509284798834 -0.037329895507810081 0 -0.01372212550527877 -0.03570699123015731 0 -0.014311391565069451 -0.036486145802850617 0 -0.012944590023827893 -0.036276613549619807 0 -0.013739488176048358 -0.037266998105337609 0 -0.014311391565069451 -0.036486145802850617 0 -0.014677965708300995 -0.037100474511457544 0 -0.01372212550527877 -0.03570699123015731 0 -0.014232428758416247 -0.034999945843807098 0 -0.012251006422192515 -0.034999956167328101 0 -0.01372212550527877 -0.03570699123015731 0 -0.014941407026647653 -0.03577204444877629 0 -0.014232428758416247 -0.034999945843807098 0 -0.014941407026647653 -0.03577204444877629 0 -0.014232428758416247 -0.034999945843807098 0 -0.016214640394947032 -0.034999510521602419 0 -0.01372212550527877 -0.03570699123015731 0 -0.014941407026647653 -0.03577204444877629 0 -0.014311391565069451 -0.036486145802850617 0 -0.014941407026647653 -0.03577204444877629 0 -0.014311391565069451 -0.036486145802850617 0 -0.014677965708300995 -0.037100474511457544 0 -0.014941407026647653 -0.03577204444877629 0 -0.014677965708300995 -0.037100474511457544 0 -0.016195483567671955 -0.035734601926925 0 -0.014907910269309793 -0.036871572538254474 0 -0.016116439018676244 -0.035808803580504776 0 -0.015125825956916103 -0.036688177891580874 0 -0.015843948278045059 -0.036656890192260483 0 -0.016195483567671955 -0.035734601926925 0 -0.015843948278045059 -0.036656890192260483 0 -0.016538140118714972 -0.036488793740820612 0 -0.016195483567671955 -0.035734601926925 0 -0.014941407026647653 -0.03577204444877629 0 -0.016195483567671955 -0.035734601926925 0 -0.016214640394947032 -0.034999510521602419 0 -0.018196602953057989 -0.034999698989386221 0 -0.016214640394947032 -0.034999510521602419 0 -0.017676465157805216 -0.03551490851976509 0 -0.016195483567671955 -0.035734601926925 0 -0.016214640394947032 -0.034999510521602419 0 -0.017676465157805216 -0.03551490851976509 0 -0.016538140118714972 -0.036488793740820612 0 -0.016195483567671955 -0.035734601926925 0 -0.018377525876006971 -0.036123289219168617 0 -0.016195483567671955 -0.035734601926925 0 -0.017676465157805216 -0.03551490851976509 0 -0.018377525876006971 -0.036123289219168617 0 -0.010617269004720375 -0.037461663101818435 0 -0.0096288416831053891 -0.037473870469073974 0 -0.01074513688233476 -0.03647836975851957 0 -0.010373783154827154 -0.038454678803780444 0 -0.011356776949173069 -0.037806361878974799 0 -0.010080682317563747 -0.038353830699177402 0 -0.010966709625184042 -0.038227261336360438 0 -0.011575328330854333 -0.037751245086909475 0 -0.010617269004720375 -0.037461663101818435 0 -0.010003680441616328 -0.038482048230036731 0 -0.011575328330854333 -0.037751245086909475 0 -0.010617269004720375 -0.037461663101818435 0 -0.0096288416831053891 -0.037473870469073974 0 -0.010003680441616328 -0.038482048230036731 0 -0.0096288416831053891 -0.037473870469073974 0 -0.0083156424785860526 -0.036332779086770302 0 -0.0083656164847292023 -0.037770117430166783 0 -0.0096288416831053891 -0.037473870469073974 0 -0.0089636159645528606 -0.038421192923128268 0 -0.0083656164847292023 -0.037770117430166783 0 -0.0096288416831053891 -0.037473870469073974 0 -0.0089636159645528606 -0.038421192923128268 0 -0.010003680441616328 -0.038482048230036731 0 -0.0093836102902490007 -0.03898482891102751 0 -0.010080682317563747 -0.038353830699177402 0 -0.0085920653555204268 -0.038965194303899615 0 -0.0089636159645528606 -0.038421192923128268 0 -0.010003680441616328 -0.038482048230036731 0 -0.0084057503013966715 -0.039196892595897766 0 -0.010373783154827154 -0.038454678803780444 0 -0.0067411384509882995 -0.038084473795001815 0 -0.0093836102902490007 -0.03898482891102751 0 -0.010080682317563747 -0.038353830699177402 0 -0.010966709625184042 -0.038227261336360438 0 -0.010336411416525785 -0.039207717291842296 0 -0.0093836102902490007 -0.03898482891102751 0 -0.011018420258019029 -0.038138173427700012 0 -0.009477669131120324 -0.038945817101183139 0 -0.01096949576017189 -0.038194239091591808 0 -0.010336411416525785 -0.039207717291842296 0 -0.011005930092828877 -0.039065725579687634 0 -0.011018420258019029 -0.038138173427700012 0 -0.012078200313492805 -0.039188093535472639 0 -0.011005930092828877 -0.039065725579687634 0 -0.011550352167575328 -0.038667337089149899 0 -0.011005930092828877 -0.039065725579687634 0 -0.011550352167575328 -0.038667337089149899 0 -0.011018420258019029 -0.038138173427700012 0 -0.011550352167575328 -0.038667337089149899 0 -0.011018420258019029 -0.038138173427700012 0 -0.012094596149775158 -0.038272231016252836 0 -0.012078200313492805 -0.039188093535472639 0 -0.011550352167575328 -0.038667337089149899 0 -0.012094596149775158 -0.038272231016252836 0 -0.012144892579584326 -0.03912047071121226 0 -0.013493769720566649 -0.038001423420957588 0 -0.0122397191525717 -0.039017806367910905 0 -0.013711497382748969 -0.039087638840852985 0 -0.013629973327808874 -0.037853748614789323 0 -0.012078200313492805 -0.039188093535472639 0 -0.013345857825980627 -0.038141739099136124 0 -0.012094596149775158 -0.038272231016252836 0 -0.013345857825980627 -0.038141739099136124 0 -0.012094596149775158 -0.038272231016252836 0 -0.012634509284798834 -0.037329895507810081 0 -0.01096949576017189 -0.038194239091591808 0 -0.01263671482659072 -0.037360514416116833 0 -0.011018420258019029 -0.038138173427700012 0 -0.012094596149775158 -0.038272231016252836 0 -0.012634509284798834 -0.037329895507810081 0 -0.010966709625184042 -0.038227261336360438 0 -0.012588846699019699 -0.037423907316673367 0 -0.011575328330854333 -0.037751245086909475 0 -0.011575328330854333 -0.037751245086909475 0 -0.011202342186767376 -0.037092767269905028 0 -0.011867991754888117 -0.036680872071735787 0 -0.012588846699019699 -0.037423907316673367 0 -0.011575328330854333 -0.037751245086909475 0 -0.011867991754888117 -0.036680872071735787 0 -0.010617269004720375 -0.037461663101818435 0 -0.011575328330854333 -0.037751245086909475 0 -0.011202342186767376 -0.037092767269905028 0 -0.011202342186767376 -0.037092767269905028 0 -0.011867991754888117 -0.036680872071735787 0 -0.01074513688233476 -0.03647836975851957 0 -0.012588846699019699 -0.037423907316673367 0 -0.011867991754888117 -0.036680872071735787 0 -0.012944590023827893 -0.036276613549619807 0 -0.01372212550527877 -0.03570699123015731 0 -0.012944590023827893 -0.036276613549619807 0 -0.012251006422192515 -0.034999956167328101 0 -0.011867991754888117 -0.036680872071735787 0 -0.012944590023827893 -0.036276613549619807 0 -0.012251006422192515 -0.034999956167328101 0 -0.011867991754888117 -0.036680872071735787 0 -0.012251006422192515 -0.034999956167328101 0 -0.01074513688233476 -0.03647836975851957 0 -0.012251006422192515 -0.034999956167328101 0 -0.010269538156159878 -0.034999981065501604 0 -0.01074513688233476 -0.03647836975851957 0 -0.010269538156159878 -0.034999981065501604 0 -0.01074513688233476 -0.03647836975851957 0 -0.0095109423754336526 -0.036175907138807209 0 -0.0096288416831053891 -0.037473870469073974 0 -0.01074513688233476 -0.03647836975851957 0 -0.0095109423754336526 -0.036175907138807209 0 -0.010617269004720375 -0.037461663101818435 0 -0.011202342186767376 -0.037092767269905028 0 -0.01074513688233476 -0.03647836975851957 0 -0.0096288416831053891 -0.037473870469073974 0 -0.0095109423754336526 -0.036175907138807209 0 -0.0083562189622588996 -0.036396180474276632 0 -0.0096473506749119187 -0.037477860847054088 0 -0.0080818413132478836 -0.03621404348820402 0 -0.010269538156159878 -0.034999981065501604 0 -0.0095109423754336526 -0.036175907138807209 0 -0.0082881613082802334 -0.034999984952158593 0 -0.0082880759575919023 -0.034999995432852857 0 -0.0075091245439208405 -0.03570792210811298 0 -0.0083258990266609247 -0.036412474196637803 0 -0.0095109423754336526 -0.036175907138807209 0 -0.0082881613082802334 -0.034999984952158593 0 -0.0083562189622588996 -0.036396180474276632 0 -0.0082881698028040105 -0.035000554489594049 0 -0.0080818413132478836 -0.03621404348820402 0 -0.0070668646640947583 -0.035520924434882202 0 -0.0080818413132478836 -0.03621404348820402 0 -0.0082880759575919023 -0.034999995432852857 0 -0.0066827313669074731 -0.034999995906403611 0 -0.0075091245439208405 -0.03570792210811298 0 -0.0066827705421277127 -0.035000196619250377 0 -0.0070668646640947583 -0.035520924434882202 0 -0.0066808067653217245 -0.034999969167407059 0 -0.0062527726364920398 -0.035650616213694537 0 -0.0066670313873893371 -0.035472967483135769 0 -0.0062527726364920398 -0.035650616213694537 0 -0.0066670313873893371 -0.035472967483135769 0 -0.0065400787492763931 -0.035997564588949149 0 -0.0065400787492763931 -0.035997564588949149 0 -0.0057222289103848389 -0.036147159661216552 0 -0.006014384045348019 -0.036443874120485255 0 -0.0062527726364920398 -0.035650616213694537 0 -0.0065400787492763931 -0.035997564588949149 0 -0.0057222289103848389 -0.036147159661216552 0 -0.0065400787492763931 -0.035997564588949149 0 -0.0063920319183028854 -0.036400167817364978 0 -0.006014384045348019 -0.036443874120485255 0 -0.0065400787492763931 -0.035997564588949149 0 -0.0067034370213105484 -0.036559351771227828 0 -0.0063920319183028854 -0.036400167817364978 0 -0.0080818413132478836 -0.03621404348820402 0 -0.0077698830704038477 -0.037352712330377062 0 -0.0065400787492763931 -0.035997564588949149 0 -0.0070862790060530903 -0.035875158395658233 0 -0.0067034370213105484 -0.036559351771227828 0 -0.0066670313873893371 -0.035472967483135769 0 -0.0065400787492763931 -0.035997564588949149 0 -0.0070862790060530903 -0.035875158395658233 0 -0.0046998606320074717 -0.03499967645542483 0 -0.005444454931881202 -0.03568373515169402 0 -0.0043097327123464277 -0.036010178157193019 0 -0.0066808067653217245 -0.034999969167407059 0 -0.0046998606320074717 -0.03499967645542483 0 -0.005444454931881202 -0.03568373515169402 0 -0.0066808067653217245 -0.034999969167407059 0 -0.0062527726364920398 -0.035650616213694537 0 -0.005444454931881202 -0.03568373515169402 0 -0.005444454931881202 -0.03568373515169402 0 -0.0057222289103848389 -0.036147159661216552 0 -0.0048764103171290559 -0.036470376224412578 0 -0.0062527726364920398 -0.035650616213694537 0 -0.005444454931881202 -0.03568373515169402 0 -0.0057222289103848389 -0.036147159661216552 0 -0.005444454931881202 -0.03568373515169402 0 -0.0043097327123464277 -0.036010178157193019 0 -0.0048764103171290559 -0.036470376224412578 0 -0.0043097327123464277 -0.036010178157193019 0 -0.0048764103171290559 -0.036470376224412578 0 -0.0038379712862069452 -0.036724431535054849 0 -0.0048764103171290559 -0.036470376224412578 0 -0.0050722538170496758 -0.036970879235187486 0 -0.0043718685709289822 -0.037103684963269858 0 -0.0048764103171290559 -0.036470376224412578 0 -0.0043718685709289822 -0.037103684963269858 0 -0.0038379712862069452 -0.036724431535054849 0 -0.0057222289103848389 -0.036147159661216552 0 -0.0048764103171290559 -0.036470376224412578 0 -0.0053872857578492733 -0.036583852812019972 0 -0.0048764103171290559 -0.036470376224412578 0 -0.0050722538170496758 -0.036970879235187486 0 -0.0053872857578492733 -0.036583852812019972 0 -0.0053872857578492733 -0.036583852812019972 0 -0.006014384045348019 -0.036443874120485255 0 -0.0057129807593934616 -0.036830686575162655 0 -0.0057222289103848389 -0.036147159661216552 0 -0.0053872857578492733 -0.036583852812019972 0 -0.006014384045348019 -0.036443874120485255 0 -0.0050722538170496758 -0.036970879235187486 0 -0.0053514671859022228 -0.037219790928337063 0 -0.0057129807593934616 -0.036830686575162655 0 -0.0050722538170496758 -0.036970879235187486 0 -0.0053872857578492733 -0.036583852812019972 0 -0.0057129807593934616 -0.036830686575162655 0 -0.0053514671859022228 -0.037219790928337063 0 -0.0047697094553212794 -0.037402820967045697 0 -0.0051448978863560093 -0.037761944360263637 0 -0.0047697094553212794 -0.037402820967045697 0 -0.0051448978863560093 -0.037761944360263637 0 -0.004395455249167745 -0.037783674841742186 0 -0.0050722538170496758 -0.036970879235187486 0 -0.0053514671859022228 -0.037219790928337063 0 -0.0047697094553212794 -0.037402820967045697 0 -0.0050722538170496758 -0.036970879235187486 0 -0.0047697094553212794 -0.037402820967045697 0 -0.0043718685709289822 -0.037103684963269858 0 -0.0043718685709289822 -0.037103684963269858 0 -0.0035963098441202344 -0.037371991534581192 0 -0.0038379712862069452 -0.036724431535054849 0 -0.0047697094553212794 -0.037402820967045697 0 -0.0041573256490680284 -0.037574223961444865 0 -0.004395455249167745 -0.037783674841742186 0 -0.0047697094553212794 -0.037402820967045697 0 -0.0043718685709289822 -0.037103684963269858 0 -0.0041573256490680284 -0.037574223961444865 0 -0.0043718685709289822 -0.037103684963269858 0 -0.0041573256490680284 -0.037574223961444865 0 -0.0035963098441202344 -0.037371991534581192 0 -0.0070862790060530903 -0.035875158395658233 0 -0.0071017305132169903 -0.03680731910290512 0 -0.0067034370213105484 -0.036559351771227828 0 -0.0067646950647667486 -0.036955843409939446 0 -0.0067034370213105484 -0.036559351771227828 0 -0.006549777328187744 -0.037067352251488751 0 -0.0067646950647667486 -0.036955843409939446 0 -0.0071017305132169903 -0.03680731910290512 0 -0.0067034370213105484 -0.036559351771227828 0 -0.0067646950647667486 -0.036955843409939446 0 -0.006549777328187744 -0.037067352251488751 0 -0.0067860022139886742 -0.037187581298049555 0 -0.0067646950647667486 -0.036955843409939446 0 -0.0071017305132169903 -0.03680731910290512 0 -0.0067860022139886742 -0.037187581298049555 0 -0.0067034370213105484 -0.036559351771227828 0 -0.0063920319183028854 -0.036400167817364978 0 -0.0062073739713800003 -0.036654361159851621 0 -0.0063920319183028854 -0.036400167817364978 0 -0.0062073739713800003 -0.036654361159851621 0 -0.006014384045348019 -0.036443874120485255 0 -0.0062073739713800003 -0.036654361159851621 0 -0.006014384045348019 -0.036443874120485255 0 -0.0057129807593934616 -0.036830686575162655 0 -0.0062073739713800003 -0.036654361159851621 0 -0.0057129807593934616 -0.036830686575162655 0 -0.0061702551182247906 -0.037069878773196986 0 -0.0053514671859022228 -0.037219790928337063 0 -0.0057129807593934616 -0.036830686575162655 0 -0.0061702551182247906 -0.037069878773196986 0 -0.0067034370213105484 -0.036559351771227828 0 -0.0062073739713800003 -0.036654361159851621 0 -0.0061702551182247906 -0.037069878773196986 0 -0.0067034370213105484 -0.036559351771227828 0 -0.0062703078779438298 -0.037092163308189582 0 -0.006549777328187744 -0.037067352251488751 0 -0.006634690677455468 -0.036414110714454419 0 -0.0052193900636144557 -0.037219147841916912 0 -0.0052193900636144557 -0.037219147841916912 0 -0.0042586625318963515 -0.037841345777643531 0 -0.006549777328187744 -0.037067352251488751 0 -0.0063790866091834805 -0.037295159095818001 0 -0.0067860022139886742 -0.037187581298049555 0 -0.0053514671859022228 -0.037219790928337063 0 -0.0061702551182247906 -0.037069878773196986 0 -0.0051448978863560093 -0.037761944360263637 0 -0.0062703078779438298 -0.037092163308189582 0 -0.0063790866091834805 -0.037295159095818001 0 -0.0065738803510834339 -0.037958063866503113 0 -0.0036555250354805566 -0.037631453797079092 0 -0.0037549162343313027 -0.037934287042165789 0 -0.0034343412158616467 -0.037906636375486961 0 -0.0062703078779438298 -0.037092163308189582 0 -0.006549777328187744 -0.037067352251488751 0 -0.0063790866091834805 -0.037295159095818001 0 -0.0052193900636144557 -0.037219147841916912 0 -0.0043178799856967501 -0.03792031942837016 0 -0.0071017305132169903 -0.03680731910290512 0 -0.0067860022139886742 -0.037187581298049555 0 -0.0071374391794182569 -0.037829227872048961 0 -0.0077698830704038477 -0.037352712330377062 0 -0.0067411384509882995 -0.038084473795001815 0 -0.0063790866091834805 -0.037295159095818001 0 -0.0070086017318768522 -0.037757993035692723 0 -0.0065738803510834339 -0.037958063866503113 0 -0.0064854169720677543 -0.037356290870256811 0 -0.0067411384509882995 -0.038084473795001815 0 -0.0089636159645528606 -0.038421192923128268 0 -0.0083656164847292023 -0.037770117430166783 0 -0.0084057503013966715 -0.039196892595897766 0 -0.0063790866091834805 -0.037295159095818001 0 -0.0067860022139886742 -0.037187581298049555 0 -0.0071374391794182569 -0.037829227872048961 0 -0.0067411384509882995 -0.038084473795001815 0 -0.0066086407739547057 -0.037927136833477315 0 -0.0035300413422152017 -0.037107653586685455 0 -0.0034096379406440354 -0.037141998251651598 0 -0.0034653845960162114 -0.037450388853032236 0 -0.0067411384509882995 -0.038084473795001815 0 -0.0043178799856967501 -0.03792031942837016 0 -0.0035316563887066335 -0.037084924763591369 0 -0.0035300413422152017 -0.037107653586685455 0 -0.0034096379406440354 -0.037141998251651598 0 -0.0034083208360896167 -0.038080339017568937 0 -0.0033803683539405183 -0.038043452873363748 0 -0.003406979379277857 -0.038072146467575188 0 -0.0043178799856967501 -0.03792031942837016 0 -0.0032855908946195964 -0.037654256916811513 0 -0.0034083208360896167 -0.038080339017568937 0 -0.003406979379277857 -0.038072146467575188 0 -0.0034017410351680042 -0.038059458100528062 0 -0.0037549162343313027 -0.037934287042165789 0 -0.0034017410351680042 -0.038059458100528062 0 -0.0034343412158616467 -0.037906636375486961 0 -0.0043178799856967501 -0.03792031942837016 0 -0.0031227338077123266 -0.038136534030050108 0 -0.0034017410351680042 -0.038059458100528062 0 -0.0034343412158616467 -0.037906636375486961 0 -0.0033185119228228469 -0.038096408627297913 0 -0.0042586625318963515 -0.037841345777643531 0 -0.0037455623017995593 -0.0380997757492961 0 -0.0051448978863560093 -0.037761944360263637 0 -0.004395455249167745 -0.037783674841742186 0 -0.0041180168075199298 -0.038188176254672815 0 -0.0041573256490680284 -0.037574223961444865 0 -0.003839919903720122 -0.037920993305166663 0 -0.0035963098441202344 -0.037371991534581192 0 -0.0041573256490680284 -0.037574223961444865 0 -0.004395455249167745 -0.037783674841742186 0 -0.003839919903720122 -0.037920993305166663 0 -0.004395455249167745 -0.037783674841742186 0 -0.003839919903720122 -0.037920993305166663 0 -0.0041180168075199298 -0.038188176254672815 0 -0.0041180168075199298 -0.038188176254672815 0 -0.0032804458493880004 -0.038258846020344336 0 -0.0034616704777224315 -0.038088861052345629 0 -0.0033185119228228469 -0.038096408627297913 0 -0.0033581281276883913 -0.038142805874537646 0 -0.0032804458493880004 -0.038258846020344336 0 -0.0037455623017995593 -0.0380997757492961 0 -0.0033667836884311761 -0.038251964334253208 0 -0.003839919903720122 -0.037920993305166663 0 -0.0041180168075199298 -0.038188176254672815 0 -0.0034616704777224315 -0.038088861052345629 0 -0.0034017410351680042 -0.038059458100528062 0 -0.0033185119228228469 -0.038096408627297913 0 -0.0033581281276883913 -0.038142805874537646 0 -0.003406979379277857 -0.038072146467575188 0 -0.0034017410351680042 -0.038059458100528062 0 -0.0033581281276883913 -0.038142805874537646 0 -0.0033581281276883913 -0.038142805874537646 0 -0.0033770559495111948 -0.038122590859485939 0 -0.0032978119905994075 -0.038257104476465693 0 -0.003406979379277857 -0.038072146467575188 0 -0.0033581281276883913 -0.038142805874537646 0 -0.0033770559495111948 -0.038122590859485939 0 -0.0033581281276883913 -0.038142805874537646 0 -0.0032978119905994075 -0.038257104476465693 0 -0.0032804458493880004 -0.038258846020344336 0 -0.0033327213690319316 -0.038335721778151872 0 -0.0032978119905994075 -0.038257104476465693 0 -0.0031013316001060908 -0.038406446543177139 0 -0.0032978119905994075 -0.038257104476465693 0 -0.0031013316001060908 -0.038406446543177139 0 -0.0032804458493880004 -0.038258846020344336 0 -0.0033327213690319316 -0.038335721778151872 0 -0.0033770559495111948 -0.038122590859485939 0 -0.0032978119905994075 -0.038257104476465693 0 -0.0033171235603074414 -0.037965073133514611 0 -0.0033770559495111948 -0.038122590859485939 0 -0.003381657284769557 -0.038009233130107678 0 -0.0033821702513897565 -0.037955981935838191 0 -0.0033171235603074414 -0.037965073133514611 0 -0.003381657284769557 -0.038009233130107678 0 -0.0033821702513897565 -0.037955981935838191 0 -0.0034658698833769006 -0.037891951253053904 0 -0.003381657284769557 -0.038009233130107678 0 -0.0034658698833769006 -0.037891951253053904 0 -0.0033803683539405183 -0.038043452873363748 0 -0.003381657284769557 -0.038009233130107678 0 -0.0033803683539405183 -0.038043452873363748 0 -0.003406979379277857 -0.038072146467575188 0 -0.003381657284769557 -0.038009233130107678 0 -0.003406979379277857 -0.038072146467575188 0 -0.0033770559495111948 -0.038122590859485939 0 -0.003381657284769557 -0.038009233130107678 0 -0.0023992437116593297 -0.038236309168032598 0 -0.0023044262927651182 -0.038362308045099713 0 -0.0027763106001666132 -0.03833973372161225 0 -0.0023992437116593297 -0.038236309168032598 0 -0.0019630093394180392 -0.038258620360195464 0 -0.0023044262927651182 -0.038362308045099713 0 -0.0023992437116593297 -0.038236309168032598 0 -0.0019630093394180392 -0.038258620360195464 0 -0.0021329725754918615 -0.03804884646714158 0 -0.0019630093394180392 -0.038258620360195464 0 -0.0016019651731134885 -0.038136615564186217 0 -0.0017486093769341967 -0.038222925211198105 0 -0.0019630093394180392 -0.038258620360195464 0 -0.0021329725754918615 -0.03804884646714158 0 -0.0017434758516487196 -0.038078208162338062 0 -0.0019630093394180392 -0.038258620360195464 0 -0.0017434758516487196 -0.038078208162338062 0 -0.0016019651731134885 -0.038136615564186217 0 -0.0018470442948160647 -0.038546625210893838 0 -0.0019630093394180392 -0.038258620360195464 0 -0.002228531101262512 -0.038536721014907752 0 -0.0018470442948160647 -0.038546625210893838 0 -0.0019630093394180392 -0.038258620360195464 0 -0.0017486093769341967 -0.038222925211198105 0 -0.0019630093394180392 -0.038258620360195464 0 -0.002228531101262512 -0.038536721014907752 0 -0.0023044262927651182 -0.038362308045099713 0 -0.0025400814758257256 -0.038669970836835446 0 -0.002228531101262512 -0.038536721014907752 0 -0.0026389725082860103 -0.038510892337858774 0 -0.002228531101262512 -0.038536721014907752 0 -0.0023044262927651182 -0.038362308045099713 0 -0.0026389725082860103 -0.038510892337858774 0 -0.0023044262927651182 -0.038362308045099713 0 -0.0026389725082860103 -0.038510892337858774 0 -0.0027763106001666132 -0.03833973372161225 0 -0.0026389725082860103 -0.038510892337858774 0 -0.0031013316001060908 -0.038406446543177139 0 -0.0027763106001666132 -0.03833973372161225 0 -0.0032804458493880004 -0.038258846020344336 0 -0.0027763106001666132 -0.03833973372161225 0 -0.0029317939684184416 -0.038157023203491229 0 -0.0031013316001060908 -0.038406446543177139 0 -0.0032804458493880004 -0.038258846020344336 0 -0.0027763106001666132 -0.03833973372161225 0 -0.0023992437116593297 -0.038236309168032598 0 -0.0027763106001666132 -0.03833973372161225 0 -0.0029317939684184416 -0.038157023203491229 0 -0.0029317939684184416 -0.038157023203491229 0 -0.002491042771089145 -0.037896459791829186 0 -0.0032341239303267789 -0.037783696968511971 0 -0.0023992437116593297 -0.038236309168032598 0 -0.0029317939684184416 -0.038157023203491229 0 -0.002491042771089145 -0.037896459791829186 0 -0.0029317939684184416 -0.038157023203491229 0 -0.0034616704777224315 -0.038088861052345629 0 -0.0032341239303267789 -0.037783696968511971 0 -0.0032804458493880004 -0.038258846020344336 0 -0.0029317939684184416 -0.038157023203491229 0 -0.0034616704777224315 -0.038088861052345629 0 -0.003839919903720122 -0.037920993305166663 0 -0.0032341239303267789 -0.037783696968511971 0 -0.0035963098441202344 -0.037371991534581192 0 -0.003839919903720122 -0.037920993305166663 0 -0.0034616704777224315 -0.038088861052345629 0 -0.0032341239303267789 -0.037783696968511971 0 -0.0032341239303267789 -0.037783696968511971 0 -0.0035963098441202344 -0.037371991534581192 0 -0.0028743697627554915 -0.037465952104045012 0 -0.002491042771089145 -0.037896459791829186 0 -0.0022962943845303966 -0.037344470815666747 0 -0.0028743697627554915 -0.037465952104045012 0 -0.002491042771089145 -0.037896459791829186 0 -0.0032341239303267789 -0.037783696968511971 0 -0.0028743697627554915 -0.037465952104045012 0 -0.002491042771089145 -0.037896459791829186 0 -0.0018440984786486109 -0.037515464955120641 0 -0.0017695557807846194 -0.037839222779475851 0 -0.002491042771089145 -0.037896459791829186 0 -0.0018440984786486109 -0.037515464955120641 0 -0.0022962943845303966 -0.037344470815666747 0 -0.0023992437116593297 -0.038236309168032598 0 -0.002491042771089145 -0.037896459791829186 0 -0.0021329725754918615 -0.03804884646714158 0 -0.002491042771089145 -0.037896459791829186 0 -0.0021329725754918615 -0.03804884646714158 0 -0.0017695557807846194 -0.037839222779475851 0 -0.0021329725754918615 -0.03804884646714158 0 -0.0017434758516487196 -0.038078208162338062 0 -0.0017695557807846194 -0.037839222779475851 0 -0.0017695557807846194 -0.037839222779475851 0 -0.0014207591026978233 -0.0379497823630571 0 -0.001243643797049091 -0.037609944744914428 0 -0.0017434758516487196 -0.038078208162338062 0 -0.0017695557807846194 -0.037839222779475851 0 -0.0014207591026978233 -0.0379497823630571 0 -0.0018440984786486109 -0.037515464955120641 0 -0.0017695557807846194 -0.037839222779475851 0 -0.001243643797049091 -0.037609944744914428 0 -0.0018440984786486109 -0.037515464955120641 0 -0.0012818963688286361 -0.037169583146912058 0 -0.001243643797049091 -0.037609944744914428 0 -0.0012818963688286361 -0.037169583146912058 0 -0.001812433182702775 -0.036977177471903676 0 -0.0011640339331637762 -0.036638356092242204 0 -0.0018440984786486109 -0.037515464955120641 0 -0.0012818963688286361 -0.037169583146912058 0 -0.001812433182702775 -0.036977177471903676 0 -0.0018440984786486109 -0.037515464955120641 0 -0.001812433182702775 -0.036977177471903676 0 -0.0022962943845303966 -0.037344470815666747 0 -0.001812433182702775 -0.036977177471903676 0 -0.0022962943845303966 -0.037344470815666747 0 -0.0027376713803739542 -0.036931806812955034 0 -0.001812433182702775 -0.036977177471903676 0 -0.0027376713803739542 -0.036931806812955034 0 -0.0016026319330317658 -0.036339569156069992 0 -0.001812433182702775 -0.036977177471903676 0 -0.0011640339331637762 -0.036638356092242204 0 -0.0016026319330317658 -0.036339569156069992 0 -0.0011640339331637762 -0.036638356092242204 0 -0.00071151974615158093 -0.036187633307093868 0 -0.0016026319330317658 -0.036339569156069992 0 -0.0022962943845303966 -0.037344470815666747 0 -0.0028743697627554915 -0.037465952104045012 0 -0.0027376713803739542 -0.036931806812955034 0 -0.0035963098441202344 -0.037371991534581192 0 -0.0028743697627554915 -0.037465952104045012 0 -0.0027376713803739542 -0.036931806812955034 0 -0.0027376713803739542 -0.036931806812955034 0 -0.0030053753049049114 -0.036169629778745459 0 -0.0016026319330317658 -0.036339569156069992 0 -0.0027376713803739542 -0.036931806812955034 0 -0.0038379712862069452 -0.036724431535054849 0 -0.0030053753049049114 -0.036169629778745459 0 -0.0035963098441202344 -0.037371991534581192 0 -0.0027376713803739542 -0.036931806812955034 0 -0.0038379712862069452 -0.036724431535054849 0 -0.0043097327123464277 -0.036010178157193019 0 -0.0038379712862069452 -0.036724431535054849 0 -0.0030053753049049114 -0.036169629778745459 0 -0.0043097327123464277 -0.036010178157193019 0 -0.0030053753049049114 -0.036169629778745459 0 -0.0036838798825517974 -0.035565055091093568 0 -0.0030053753049049114 -0.036169629778745459 0 -0.0027167671932372618 -0.034999760665394168 0 -0.0036838798825517974 -0.035565055091093568 0 -0.0030053753049049114 -0.036169629778745459 0 -0.0027167671932372618 -0.034999760665394168 0 -0.0017322608916224655 -0.035653841779911911 0 -0.0046998606320074717 -0.03499967645542483 0 -0.0043097327123464277 -0.036010178157193019 0 -0.0036838798825517974 -0.035565055091093568 0 -0.0046998606320074717 -0.03499967645542483 0 -0.0027167671932372618 -0.034999760665394168 0 -0.0036838798825517974 -0.035565055091093568 0 -0.00071151974615158093 -0.036187633307093868 0 -0.0016026319330317658 -0.036339569156069992 0 -0.00060977316716224962 -0.035653032329214032 0 -0.0016026319330317658 -0.036339569156069992 0 -0.0017322608916224655 -0.035653841779911911 0 -0.00060977316716224962 -0.035653032329214032 0 -0.0030053753049049114 -0.036169629778745459 0 -0.0016026319330317658 -0.036339569156069992 0 -0.0017322608916224655 -0.035653841779911911 0 -0.0027167671932372618 -0.034999760665394168 0 -0.0017322608916224655 -0.035653841779911911 0 -0.00073489722791913537 -0.03499988582134201 0 -0.0017322608916224655 -0.035653841779911911 0 -0.00060977316716224962 -0.035653032329214032 0 -0.00073489722791913537 -0.03499988582134201 0 -0.00060977316716224962 -0.035653032329214032 0 -0.00073489722791913537 -0.03499988582134201 0 0.00024708607122663975 -0.035301769333800213 0 -0.00060977316716224962 -0.035653032329214032 0 0.00024708607122663975 -0.035301769333800213 0 -7.2364773949504474e-05 -0.035893911764153415 0 -0.00073489722791913537 -0.03499988582134201 0 0.00024708607122663975 -0.035301769333800213 0 0.0012483313926413401 -0.03500000636355715 0 -0.00071151974615158093 -0.036187633307093868 0 -7.2364773949504474e-05 -0.035893911764153415 0 -0.00047679988128854911 -0.036540385716154755 0 -0.00071151974615158093 -0.036187633307093868 0 -0.00060977316716224962 -0.035653032329214032 0 -7.2364773949504474e-05 -0.035893911764153415 0 -7.2364773949504474e-05 -0.035893911764153415 0 4.8790056892417913e-05 -0.036237363043062527 0 -0.00047679988128854911 -0.036540385716154755 0 -7.2364773949504474e-05 -0.035893911764153415 0 4.8790056892417913e-05 -0.036237363043062527 0 0.00021246972774673659 -0.035831741451605698 0 0.0020851178473762998 -0.036037285363281213 0 0.0012483313926413401 -0.03500000636355715 0 0.0032319816247311536 -0.034999943110724872 0 0.0002717148429899767 -0.03534944977821726 0 0.0010872604734706612 -0.035920129679716493 0 0.00024708607122663975 -0.035301769333800213 0 0.0020851178473762998 -0.036037285363281213 0 0.0012483313926413401 -0.03500000636355715 0 0.00024708607122663975 -0.035301769333800213 0 -7.2364773949504474e-05 -0.035893911764153415 0 0.00021246972774673659 -0.035831741451605698 0 0.0020851178473762998 -0.036037285363281213 0 0.0032319816247311536 -0.034999943110724872 0 0.0033296641610740976 -0.035905840113238927 0 0.0032319816247311536 -0.034999943110724872 0 0.0043216855469846837 -0.035831358018089274 0 0.0052148411662890299 -0.034999810728751676 0 0.0032319816247311536 -0.034999943110724872 0 0.0033296641610740976 -0.035905840113238927 0 0.0043216855469846837 -0.035831358018089274 0 0.0041398887006260402 -0.035799006259669898 0 0.0025606456590125085 -0.03623368740495915 0 0.0033296641610740976 -0.035905840113238927 0 0.0043216855469846837 -0.035831358018089274 0 0.0037329902963931403 -0.036762888595054784 0 0.0020851178473762998 -0.036037285363281213 0 0.0033296641610740976 -0.035905840113238927 0 0.0037329902963931403 -0.036762888595054784 0 0.00021246972774673659 -0.035831741451605698 0 0.0008247032986003481 -0.036133728476760885 0 0.0004851981922503298 -0.036443722896872234 0 0.0010872604734706612 -0.035920129679716493 0 0.0025606456590125085 -0.03623368740495915 0 4.8790056892417913e-05 -0.036237363043062527 0 0.00021246972774673659 -0.035831741451605698 0 0.0004851981922503298 -0.036443722896872234 0 0.00062295678557635942 -0.036506660057006264 0 0.0004851981922503298 -0.036443722896872234 0 3.4427549477234669e-05 -0.036734404778283387 0 4.8790056892417913e-05 -0.036237363043062527 0 0.0004851981922503298 -0.036443722896872234 0 3.4427549477234669e-05 -0.036734404778283387 0 0.0008247032986003481 -0.036133728476760885 0 0.000593161805311698 -0.036491729696170129 0 0.0004851981922503298 -0.036443722896872234 0 -9.2383782796594065e-05 -0.036864144589265624 0 0.0001280116285714391 -0.036852377822123084 0 0.0015325100044326836 -0.035889648657542676 0 0.0016944734707195358 -0.036373465779620626 0 0.0024506929079854494 -0.036307762031299248 0 -9.2383782796594065e-05 -0.036864144589265624 0 0.00032841038314651122 -0.037165341206747221 0 0.0011805193587595413 -0.03644831953669745 0 0.0016944734707195358 -0.036373465779620626 0 0.0019848708241117907 -0.036791658593304438 0 0.0025606456590125085 -0.03623368740495915 0 -9.2383782796594065e-05 -0.036864144589265624 0 0.0015325100044326836 -0.035889648657542676 0 0.0011805193587595413 -0.03644831953669745 0 0.0016944734707195358 -0.036373465779620626 0 -0.00160631158348376 -0.037430412366347664 0 -0.0015779725667606672 -0.037635789419117875 0 -0.0014252524115165473 -0.037501473412691853 0 -0.0015779725667606672 -0.037635789419117875 0 -0.0014252524115165473 -0.037501473412691853 0 -0.001432340355471009 -0.037689003009858182 0 -9.2383782796594065e-05 -0.036864144589265624 0 -0.00089362014038281076 -0.037482512529992691 0 -0.00160631158348376 -0.037430412366347664 0 -0.0015779725667606672 -0.037635789419117875 0 -0.0017343390509196599 -0.037664787284332008 0 0.00062295678557635942 -0.036506660057006264 0 6.3816432938552847e-05 -0.03724710190411254 0 3.4427549477234669e-05 -0.036734404778283387 0 6.3816432938552847e-05 -0.03724710190411254 0 -0.0006231449651816507 -0.037144751878737607 0 3.4427549477234669e-05 -0.036734404778283387 0 -0.0012818963688286361 -0.037169583146912058 0 -0.0006231449651816507 -0.037144751878737607 0 -0.001243643797049091 -0.037609944744914428 0 -0.0012818963688286361 -0.037169583146912058 0 -0.0006231449651816507 -0.037144751878737607 0 -0.00047679988128854911 -0.036540385716154755 0 -0.0011640339331637762 -0.036638356092242204 0 -0.00071151974615158093 -0.036187633307093868 0 -0.00047679988128854911 -0.036540385716154755 0 -0.0012818963688286361 -0.037169583146912058 0 -0.0011640339331637762 -0.036638356092242204 0 -0.00047679988128854911 -0.036540385716154755 0 4.8790056892417913e-05 -0.036237363043062527 0 -0.00047679988128854911 -0.036540385716154755 0 3.4427549477234669e-05 -0.036734404778283387 0 -0.0006231449651816507 -0.037144751878737607 0 -0.00047679988128854911 -0.036540385716154755 0 3.4427549477234669e-05 -0.036734404778283387 0 0.0082733309388188826 -0.036296587767284137 0 0.0088789290199973621 -0.035821611535546249 0 0.0093082590466599582 -0.036251488560068622 0 0.0082733309388188826 -0.036296587767284137 0 0.0088789290199973621 -0.035821611535546249 0 0.0079457632699820088 -0.035635113075760373 0 0.0088789290199973621 -0.035821611535546249 0 0.0079457632699820088 -0.035635113075760373 0 0.0091806450561840655 -0.0349996662959993 0 0.0079457632699820088 -0.035635113075760373 0 0.0071978596632147418 -0.034999674816550488 0 0.0091806450561840655 -0.0349996662959993 0 0.0079457632699820088 -0.035635113075760373 0 0.0071978596632147418 -0.034999674816550488 0 0.006590559874863817 -0.035704150104492453 0 0.0079457632699820088 -0.035635113075760373 0 0.0072010882923492156 -0.036121040611419228 0 0.006590559874863817 -0.035704150104492453 0 0.0082733309388188826 -0.036296587767284137 0 0.0079457632699820088 -0.035635113075760373 0 0.0072010882923492156 -0.036121040611419228 0 0.0082733309388188826 -0.036296587767284137 0 0.0072010882923492156 -0.036121040611419228 0 0.0074149257410043492 -0.036659822596875571 0 0.0072010882923492156 -0.036121040611419228 0 0.0063690597497637249 -0.036539111923571767 0 0.0074149257410043492 -0.036659822596875571 0 0.0063690597497637249 -0.036539111923571767 0 0.0055498395743878333 -0.035977968713621529 0 0.0053827885878537157 -0.037074585527367032 0 0.0063690597497637249 -0.036539111923571767 0 0.006590559874863817 -0.035704150104492453 0 0.0055498395743878333 -0.035977968713621529 0 0.0072010882923492156 -0.036121040611419228 0 0.0063690597497637249 -0.036539111923571767 0 0.006590559874863817 -0.035704150104492453 0 0.0071978596632147418 -0.034999674816550488 0 0.006590559874863817 -0.035704150104492453 0 0.0052148411662890299 -0.034999810728751676 0 0.006590559874863817 -0.035704150104492453 0 0.0052148411662890299 -0.034999810728751676 0 0.0055498395743878333 -0.035977968713621529 0 0.0043216855469846837 -0.035831358018089274 0 0.0052148411662890299 -0.034999810728751676 0 0.0055498395743878333 -0.035977968713621529 0 0.0025606456590125085 -0.03623368740495915 0 0.0038428336147788948 -0.036753820666525487 0 0.0043216855469846837 -0.035831358018089274 0 0.0055498395743878333 -0.035977968713621529 0 0.0053827885878537157 -0.037074585527367032 0 0.0043216855469846837 -0.035831358018089274 0 0.0038952679894018087 -0.036553813290214225 0 0.0053827885878537157 -0.037074585527367032 0 0.0016944734707195358 -0.036373465779620626 0 0.0024506929079854494 -0.036307762031299248 0 0.0019848708241117907 -0.036791658593304438 0 0.0024506929079854494 -0.036307762031299248 0 0.0019848708241117907 -0.036791658593304438 0 0.0027863965804635939 -0.037127021774333011 0 0.00032841038314651122 -0.037165341206747221 0 0.00041587153198778385 -0.037299884128712796 0 -0.0014252524115165473 -0.037501473412691853 0 -0.0012232870565039315 -0.037546267193170869 0 -0.001432340355471009 -0.037689003009858182 0 0.00041587153198778385 -0.037299884128712796 0 0.0038133730525885452 -0.036340175541716389 0 0.0027863965804635939 -0.037127021774333011 0 0.0033639426238299399 -0.036716671314366144 0 0.0035858544542559058 -0.037459480120471081 0 0.0063690597497637249 -0.036539111923571767 0 0.0053827885878537157 -0.037074585527367032 0 0.0069571980648968842 -0.037215501770027803 0 0.0038428336147788948 -0.036753820666525487 0 0.0059203141540041509 -0.036181436243300794 0 0.0024506929079854494 -0.036307762031299248 0 0.0027863965804635939 -0.037127021774333011 0 0.0033639426238299399 -0.036716671314366144 0 0.0053827885878537157 -0.037074585527367032 0 0.0069571980648968842 -0.037215501770027803 0 0.0070559903813103633 -0.037483799449209924 0 0.0063690597497637249 -0.036539111923571767 0 0.0074149257410043492 -0.036659822596875571 0 0.0069571980648968842 -0.037215501770027803 0 0.0074149257410043492 -0.036659822596875571 0 0.0075559374544066664 -0.037068627769526477 0 0.0069571980648968842 -0.037215501770027803 0 0.0082733309388188826 -0.036296587767284137 0 0.0074149257410043492 -0.036659822596875571 0 0.0081530837592254587 -0.03687288255761486 0 0.0074149257410043492 -0.036659822596875571 0 0.0075559374544066664 -0.037068627769526477 0 0.0081530837592254587 -0.03687288255761486 0 0.0075559374544066664 -0.037068627769526477 0 0.0069571980648968842 -0.037215501770027803 0 0.0070894819431307505 -0.03740290983234934 0 0.0062275131311758328 -0.036793995930210432 0 0.0059203141540041509 -0.036181436243300794 0 0.0075559374544066664 -0.037068627769526477 0 0.0070894819431307505 -0.03740290983234934 0 0.0085833903263855416 -0.037482362152405038 0 0.0060742579297296513 -0.034020792936238019 0 0.0079691075053992897 -0.034860416020915892 0 0.006594203597335215 -0.03573827902830834 0 0.0059203141540041509 -0.036181436243300794 0 0.0038133730525885452 -0.036340175541716389 0 0.0059203141540041509 -0.036181436243300794 0 0.0083380066963608373 -0.036135567520457247 0 0.0079691075053992897 -0.034860416020915892 0 0.0084227585668643998 -0.035797080765387963 0 0.0099545104673516155 -0.035755611421384233 0 0.0079691075053992897 -0.034860416020915892 0 0.0084227585668643998 -0.035797080765387963 0 0.006594203597335215 -0.03573827902830834 0 0.0085833903263855416 -0.037482362152405038 0 0.00893730968370407 -0.036806779044346781 0 0.0094393223419365745 -0.037117482392051114 0 0.0085833903263855416 -0.037482362152405038 0 0.00893730968370407 -0.036806779044346781 0 0.0081530837592254587 -0.03687288255761486 0 0.0075559374544066664 -0.037068627769526477 0 0.0085833903263855416 -0.037482362152405038 0 0.0081530837592254587 -0.03687288255761486 0 0.0082733309388188826 -0.036296587767284137 0 0.00893730968370407 -0.036806779044346781 0 0.0081530837592254587 -0.03687288255761486 0 0.0082733309388188826 -0.036296587767284137 0 0.00893730968370407 -0.036806779044346781 0 0.0093082590466599582 -0.036251488560068622 0 0.0090639760879463651 -0.036871280925269125 0 0.0080789765713513897 -0.038092259554715104 0 0.010027790723081572 -0.037541069991160005 0 0.0047087665796102856 -0.037063419154191174 0 0.011157124632967527 -0.037103539573544134 0 0.0090639760879463651 -0.036871280925269125 0 0.0079246247686333739 -0.037590291548333425 0 0.0080789765713513897 -0.038092259554715104 0 0.0041677001798212038 -0.037814191803103775 0 0.0047087665796102856 -0.037063419154191174 0 0.0092063667011356588 -0.036868009634936846 0 0.0041677001798212038 -0.037814191803103775 0 0.0096096237306049128 -0.036661183468752835 0 0.0038133730525885452 -0.036340175541716389 0 0.0086576652120736817 -0.037410718764550981 0 0.0059469684302868881 -0.035438399234335914 0 0.006895373706711564 -0.038562409674493134 0 0.0086576652120736817 -0.037410718764550981 0 0.0088647134614484313 -0.036729440044440918 0 0.0059469684302868881 -0.035438399234335914 0 0.0088647134614484313 -0.036729440044440918 0 0.0084227585668643998 -0.035797080765387963 0 0.006594203597335215 -0.03573827902830834 0 0.0088647134614484313 -0.036729440044440918 0 0.0084227585668643998 -0.035797080765387963 0 0.0094016875536813444 -0.036196095362990705 0 -0.0009690004856146169 -0.037610336596814647 0 -0.00086180671015845896 -0.03791892521596648 0 -0.0010915279970428967 -0.037808270197862467 0 0.0038133730525885452 -0.036340175541716389 0 0.0041677001798212038 -0.037814191803103775 0 -0.00086180671015845896 -0.03791892521596648 0 -0.0010915279970428967 -0.037808270197862467 0 -0.0011307854905000729 -0.038057190588555653 0 -0.0013134393320928675 -0.03783315289568831 0 -0.0014468750964083496 -0.037944107308621335 0 -0.0011307854905000729 -0.038057190588555653 0 -0.0010915279970428967 -0.037808270197862467 0 -0.0013134393320928675 -0.03783315289568831 0 -0.0011307854905000729 -0.038057190588555653 0 -0.0012232870565039315 -0.037546267193170869 0 -0.0009690004856146169 -0.037610336596814647 0 -0.0012214842373304969 -0.037698925971545311 0 -0.0010915279970428967 -0.037808270197862467 0 -0.0012214842373304969 -0.037698925971545311 0 -0.0013134393320928675 -0.03783315289568831 0 -0.0009690004856146169 -0.037610336596814647 0 -0.0010915279970428967 -0.037808270197862467 0 -0.0012214842373304969 -0.037698925971545311 0 -0.001432340355471009 -0.037689003009858182 0 -0.0014767839367796462 -0.037848951989702208 0 -0.0013134393320928675 -0.03783315289568831 0 -0.0012214842373304969 -0.037698925971545311 0 -0.001432340355471009 -0.037689003009858182 0 -0.0013134393320928675 -0.03783315289568831 0 -0.0012232870565039315 -0.037546267193170869 0 -0.0012214842373304969 -0.037698925971545311 0 -0.001432340355471009 -0.037689003009858182 0 -0.0014767839367796462 -0.037848951989702208 0 -0.0014468750964083496 -0.037944107308621335 0 -0.0016062069362122191 -0.037950280722027885 0 -0.0014767839367796462 -0.037848951989702208 0 -0.0013134393320928675 -0.03783315289568831 0 -0.0014468750964083496 -0.037944107308621335 0 -0.0014468750964083496 -0.037944107308621335 0 -0.0014342461345033953 -0.038085540455693893 0 -0.0011307854905000729 -0.038057190588555653 0 -0.002097606506752192 -0.038025251194247447 0 -0.0021258894375670774 -0.03794643654138373 0 -0.0023156847368872016 -0.038085819094079376 0 -0.0014468750964083496 -0.037944107308621335 0 -0.0014342461345033953 -0.038085540455693893 0 -0.0015669234753556446 -0.037992341847554095 0 -0.001964539670049152 -0.037704512076314367 0 -0.0018843502136383467 -0.037730842263899021 0 -0.0021258894375670774 -0.03794643654138373 0 -0.0019624574838812167 -0.037922442268670836 0 -0.0018714293460332404 -0.037729891284327105 0 -0.0018455379604503548 -0.037556480028733755 0 -0.0018714293460332404 -0.037729891284327105 0 -0.0018548702507293444 -0.037648195096586123 0 -0.002097606506752192 -0.038025251194247447 0 -0.0021258894375670774 -0.03794643654138373 0 -0.0019624574838812167 -0.037922442268670836 0 -0.0018455379604503548 -0.037556480028733755 0 -0.0017977789489741465 -0.037598354204852892 0 -0.0018548702507293444 -0.037648195096586123 0 -0.0017977789489741465 -0.037598354204852892 0 -0.0017222725804274029 -0.037452712281818401 0 -0.0017169586125149671 -0.03757222964930234 0 -0.0018455379604503548 -0.037556480028733755 0 -0.0017977789489741465 -0.037598354204852892 0 -0.0017222725804274029 -0.037452712281818401 0 -0.001964539670049152 -0.037704512076314367 0 -0.0019098616080709427 -0.038219672776255868 0 -0.0017145282281471705 -0.03802558293886011 0 -0.0019098616080709427 -0.038219672776255868 0 0.0035351822684694762 -0.036058838326319377 0 -0.00090180688897367322 -0.038962141528878606 0 0.0040103451590573031 -0.037636087390858226 0 -0.0017222725804274029 -0.037452712281818401 0 -0.0016344441860495951 -0.037503433839323141 0 -0.0015578127905249764 -0.037412093912805054 0 -0.0019098616080709427 -0.038219672776255868 0 0.0047087665796102856 -0.037063419154191174 0 0.0041677001798212038 -0.037814191803103775 0 -0.0019098616080709427 -0.038219672776255868 0 -0.0016344441860495951 -0.037503433839323141 0 -0.0017169586125149671 -0.03757222964930234 0 -0.0016501626291400128 -0.037612509021584972 0 -0.0017222725804274029 -0.037452712281818401 0 -0.0016344441860495951 -0.037503433839323141 0 -0.0017169586125149671 -0.03757222964930234 0 -0.0016344441860495951 -0.037503433839323141 0 -0.0015580321564447679 -0.03754334787938203 0 -0.0016501626291400128 -0.037612509021584972 0 -0.0016344441860495951 -0.037503433839323141 0 -0.0015580321564447679 -0.03754334787938203 0 -0.0015578127905249764 -0.037412093912805054 0 0.004079892457523028 -0.037830778494233004 0 0.0047087665796102856 -0.037063419154191174 0 0.0098664526004636609 -0.037921697923343906 0 0.0095431961441350115 -0.037073669708926414 0 0.010243220654498609 -0.037446775113709502 0 0.0095431961441350115 -0.037073669708926414 0 0.010243220654498609 -0.037446775113709502 0 0.010526987738579557 -0.036818844962565177 0 -0.0017754319173202131 -0.037926082743498075 0 -0.0017227702743519441 -0.037972836437558263 0 -0.0016939804605949442 -0.037844723566491115 0 -0.0017754319173202131 -0.037926082743498075 0 -0.0017227702743519441 -0.037972836437558263 0 -0.0017098277740013304 -0.038040399271761734 0 -0.00073952068389984249 -0.037910289075308939 0 -0.0014207591026978233 -0.0379497823630571 0 -0.001243643797049091 -0.037609944744914428 0 -0.0017434758516487196 -0.038078208162338062 0 -0.0014207591026978233 -0.0379497823630571 0 -0.0016019651731134885 -0.038136615564186217 0 -0.00073952068389984249 -0.037910289075308939 0 -0.0014207591026978233 -0.0379497823630571 0 -0.0016019651731134885 -0.038136615564186217 0 -0.0012352492427465721 -0.037869982942031484 0 -0.0015372232575609193 -0.038102355149744437 0 -0.0006231449651816507 -0.037144751878737607 0 -0.00073952068389984249 -0.037910289075308939 0 -0.001243643797049091 -0.037609944744914428 0 -0.0017343390509196599 -0.037664787284332008 0 -0.0017754319173202131 -0.037926082743498075 0 -0.0016939804605949442 -0.037844723566491115 0 6.3816432938552847e-05 -0.03724710190411254 0 -0.0006231449651816507 -0.037144751878737607 0 -0.00073952068389984249 -0.037910289075308939 0 -0.00089362014038281076 -0.037482512529992691 0 -0.0012352492427465721 -0.037869982942031484 0 -0.0015779725667606672 -0.037635789419117875 0 -0.0016939804605949442 -0.037844723566491115 0 -0.001584677841857482 -0.037840048312488814 0 -0.0015779725667606672 -0.037635789419117875 0 -0.0017343390509196599 -0.037664787284332008 0 -0.0016939804605949442 -0.037844723566491115 0 -0.001432340355471009 -0.037689003009858182 0 -0.0014767839367796462 -0.037848951989702208 0 -0.001584677841857482 -0.037840048312488814 0 -0.0015779725667606672 -0.037635789419117875 0 -0.001432340355471009 -0.037689003009858182 0 -0.001584677841857482 -0.037840048312488814 0 -0.001584677841857482 -0.037840048312488814 0 -0.0016985578726110482 -0.037949645816745377 0 -0.0016062069362122191 -0.037950280722027885 0 -0.0014767839367796462 -0.037848951989702208 0 -0.001584677841857482 -0.037840048312488814 0 -0.0016062069362122191 -0.037950280722027885 0 -0.0017227702743519441 -0.037972836437558263 0 -0.0016939804605949442 -0.037844723566491115 0 -0.0016985578726110482 -0.037949645816745377 0 -0.0016939804605949442 -0.037844723566491115 0 -0.001584677841857482 -0.037840048312488814 0 -0.0016985578726110482 -0.037949645816745377 0 -0.0017227702743519441 -0.037972836437558263 0 -0.0016985578726110482 -0.037949645816745377 0 -0.0017491358429645889 -0.037965990099466176 0 -0.0016985578726110482 -0.037949645816745377 0 -0.0017125993209291235 -0.03796431806601451 0 -0.0017491358429645889 -0.037965990099466176 0 -0.0017125993209291235 -0.03796431806601451 0 -0.0017491358429645889 -0.037965990099466176 0 -0.001764224781955602 -0.03796578288228613 0 -0.0017145282281471705 -0.03802558293886011 0 -0.0017636854341831687 -0.03798928256620026 0 -0.0014342461345033953 -0.038085540455693893 0 -0.0015669234753556446 -0.037992341847554095 0 -0.001764224781955602 -0.03796578288228613 0 -0.0016062069362122191 -0.037950280722027885 0 -0.0015669234753556446 -0.037992341847554095 0 -0.001764224781955602 -0.03796578288228613 0 -0.0017125993209291235 -0.03796431806601451 0 -0.0016062069362122191 -0.037950280722027885 0 -0.001764224781955602 -0.03796578288228613 0 -0.0014468750964083496 -0.037944107308621335 0 -0.0016062069362122191 -0.037950280722027885 0 -0.0015669234753556446 -0.037992341847554095 0 -0.0016985578726110482 -0.037949645816745377 0 -0.0017125993209291235 -0.03796431806601451 0 -0.0016062069362122191 -0.037950280722027885 0 -0.002097606506752192 -0.038025251194247447 0 -0.0019624574838812167 -0.037922442268670836 0 -0.001764224781955602 -0.03796578288228613 0 -0.0019624574838812167 -0.037922442268670836 0 -0.001764224781955602 -0.03796578288228613 0 -0.0018714293460332404 -0.037729891284327105 0 -0.001764224781955602 -0.03796578288228613 0 -0.0018714293460332404 -0.037729891284327105 0 -0.001792410885296679 -0.037827219286361076 0 -0.0017491358429645889 -0.037965990099466176 0 -0.001792410885296679 -0.037827219286361076 0 -0.0017977155403182002 -0.037802726367278688 0 -0.0017491358429645889 -0.037965990099466176 0 -0.001764224781955602 -0.03796578288228613 0 -0.001792410885296679 -0.037827219286361076 0 -0.0017528588693789256 -0.037936515880771252 0 -0.0017857182024409507 -0.037788781441750907 0 -0.0017977155403182002 -0.037802726367278688 0 -0.0017491358429645889 -0.037965990099466176 0 -0.0017528588693789256 -0.037936515880771252 0 -0.0017977155403182002 -0.037802726367278688 0 -0.0017528588693789256 -0.037936515880771252 0 -0.0016801519450574157 -0.038026113757229557 0 -0.0017857182024409507 -0.037788781441750907 0 -0.0017528588693789256 -0.037936515880771252 0 -0.0017098277740013304 -0.038040399271761734 0 -0.0016801519450574157 -0.038026113757229557 0 -0.0017491358429645889 -0.037965990099466176 0 -0.0017528588693789256 -0.037936515880771252 0 -0.0017098277740013304 -0.038040399271761734 0 -0.0017227702743519441 -0.037972836437558263 0 -0.0017491358429645889 -0.037965990099466176 0 -0.0017098277740013304 -0.038040399271761734 0 -0.0017754319173202131 -0.037926082743498075 0 -0.0017098277740013304 -0.038040399271761734 0 -0.0016019651731134885 -0.038136615564186217 0 -0.0017098277740013304 -0.038040399271761734 0 -0.0016019651731134885 -0.038136615564186217 0 -0.0016801519450574157 -0.038026113757229557 0 -0.0016019651731134885 -0.038136615564186217 0 -0.0017486093769341967 -0.038222925211198105 0 -0.0016801519450574157 -0.038026113757229557 0 -0.0018178325862923867 -0.037684560426082161 0 -0.0016801519450574157 -0.038026113757229557 0 -0.0017824317908568164 -0.037746871315102945 0 -0.0018409872587234774 -0.038145094314468699 0 -0.0017343113281387398 -0.038057335178263617 0 -0.0018470442948160647 -0.038546625210893838 0 -0.0017486093769341967 -0.038222925211198105 0 -0.0016801519450574157 -0.038026113757229557 0 -0.0016801519450574157 -0.038026113757229557 0 -0.0017824317908568164 -0.037746871315102945 0 -0.0017857182024409507 -0.037788781441750907 0 -0.0018178325862923867 -0.037684560426082161 0 -0.0017824317908568164 -0.037746871315102945 0 -0.0018433570635588052 -0.037650776579993765 0 -0.0017824317908568164 -0.037746871315102945 0 -0.001825987438180294 -0.03767500838231283 0 -0.0017857182024409507 -0.037788781441750907 0 -0.001825987438180294 -0.03767500838231283 0 -0.0018433570635588052 -0.037650776579993765 0 -0.0018917832164271231 -0.037613540238129954 0 -0.0017824317908568164 -0.037746871315102945 0 -0.001825987438180294 -0.03767500838231283 0 -0.0018433570635588052 -0.037650776579993765 0 -0.0017857182024409507 -0.037788781441750907 0 -0.0018222606013677597 -0.037691958749709743 0 -0.0017977155403182002 -0.037802726367278688 0 -0.001825987438180294 -0.03767500838231283 0 -0.0017857182024409507 -0.037788781441750907 0 -0.0018222606013677597 -0.037691958749709743 0 -0.0018222606013677597 -0.037691958749709743 0 -0.0018345251795158801 -0.037680511069607084 0 -0.0017977155403182002 -0.037802726367278688 0 -0.001825987438180294 -0.03767500838231283 0 -0.0018222606013677597 -0.037691958749709743 0 -0.0018733265883095116 -0.037623469067848969 0 -0.0018222606013677597 -0.037691958749709743 0 -0.0018457828317079449 -0.03764837750407788 0 -0.0018345251795158801 -0.037680511069607084 0 -0.0018222606013677597 -0.037691958749709743 0 -0.0018457828317079449 -0.03764837750407788 0 -0.0018733265883095116 -0.037623469067848969 0 -0.0018457828317079449 -0.03764837750407788 0 -0.0018733265883095116 -0.037623469067848969 0 -0.0018607381314505783 -0.037619892381714745 0 -0.001825987438180294 -0.03767500838231283 0 -0.0018917832164271231 -0.037613540238129954 0 -0.0018733265883095116 -0.037623469067848969 0 -0.0018917832164271231 -0.037613540238129954 0 -0.0018733265883095116 -0.037623469067848969 0 -0.0019484272272109371 -0.037614234624591278 0 -0.0020414103912355739 -0.037633908655126475 0 -0.001948754951787529 -0.037626906966304254 0 -0.0020401049388649398 -0.037663758985309832 0 -0.0020414103912355739 -0.037633908655126475 0 -0.0019484272272109371 -0.037614234624591278 0 -0.001948754951787529 -0.037626906966304254 0 -0.0018733265883095116 -0.037623469067848969 0 -0.0019484272272109371 -0.037614234624591278 0 -0.001948754951787529 -0.037626906966304254 0 -0.0018733265883095116 -0.037623469067848969 0 -0.001948754951787529 -0.037626906966304254 0 -0.0018915953846438999 -0.037619370549401357 0 -0.0018607381314505783 -0.037619892381714745 0 -0.0018915953846438999 -0.037619370549401357 0 -0.0018539466547426559 -0.037592249242456612 0 -0.0018733265883095116 -0.037623469067848969 0 -0.0018607381314505783 -0.037619892381714745 0 -0.0018915953846438999 -0.037619370549401357 0 -0.001948754951787529 -0.037626906966304254 0 -0.0018915953846438999 -0.037619370549401357 0 -0.0019395510208209824 -0.037658289558915148 0 -0.0018915953846438999 -0.037619370549401357 0 -0.0019395510208209824 -0.037658289558915148 0 -0.0018575981511965841 -0.037627740103416921 0 -0.0019395510208209824 -0.037658289558915148 0 -0.0018575981511965841 -0.037627740103416921 0 -0.0019642482215549732 -0.037738535375532276 0 -0.0019395510208209824 -0.037658289558915148 0 -0.0020401049388649398 -0.037663758985309832 0 -0.0019642482215549732 -0.037738535375532276 0 -0.001948754951787529 -0.037626906966304254 0 -0.0019395510208209824 -0.037658289558915148 0 -0.0020401049388649398 -0.037663758985309832 0 -0.0019493661309108209 -0.03747799430580722 0 -0.002076829685818145 -0.037457314303931705 0 -0.00190099191694914 -0.037485312120295253 0 -0.0022822291670796472 -0.037238534538588303 0 -0.0019745235329927313 -0.037282329535206167 0 -0.00190099191694914 -0.037485312120295253 0 -0.0018575981511965841 -0.037627740103416921 0 -0.0018539466547426559 -0.037592249242456612 0 -0.0018915953846438999 -0.037619370549401357 0 -0.0018575981511965841 -0.037627740103416921 0 -0.0018539466547426559 -0.037592249242456612 0 -0.0018607381314505783 -0.037619892381714745 0 -0.0018539466547426559 -0.037592249242456612 0 -0.0018505083983891555 -0.03762980922954267 0 -0.0018539466547426559 -0.037592249242456612 0 -0.0018728822770198328 -0.03758210135187879 0 -0.0018505083983891555 -0.03762980922954267 0 -0.00190099191694914 -0.037485312120295253 0 -0.0018728822770198328 -0.03758210135187879 0 -0.0018866992407199118 -0.037608378002948077 0 -0.00190099191694914 -0.037485312120295253 0 -0.0018539466547426559 -0.037592249242456612 0 -0.0018728822770198328 -0.03758210135187879 0 -0.0018658300277571245 -0.037632410874337871 0 -0.0018457053951947649 -0.037693628122308726 0 -0.0018734290525725945 -0.037656685064337711 0 -0.0018658300277571245 -0.037632410874337871 0 -0.0018734290525725945 -0.037656685064337711 0 -0.0018866992407199118 -0.037608378002948077 0 -0.0018728822770198328 -0.03758210135187879 0 -0.0018658300277571245 -0.037632410874337871 0 -0.0018866992407199118 -0.037608378002948077 0 -0.0018728822770198328 -0.03758210135187879 0 -0.0018658300277571245 -0.037632410874337871 0 -0.0018505083983891555 -0.03762980922954267 0 -0.0018658300277571245 -0.037632410874337871 0 -0.0018505083983891555 -0.03762980922954267 0 -0.0018457053951947649 -0.037693628122308726 0 -0.0018505083983891555 -0.03762980922954267 0 -0.0018345251795158801 -0.037680511069607084 0 -0.0018457053951947649 -0.037693628122308726 0 -0.0018457828317079449 -0.03764837750407788 0 -0.0018607381314505783 -0.037619892381714745 0 -0.0018505083983891555 -0.03762980922954267 0 -0.0018457828317079449 -0.03764837750407788 0 -0.0018505083983891555 -0.03762980922954267 0 -0.0018345251795158801 -0.037680511069607084 0 -0.0018345251795158801 -0.037680511069607084 0 -0.0018457053951947649 -0.037693628122308726 0 -0.0017977155403182002 -0.037802726367278688 0 -0.001792410885296679 -0.037827219286361076 0 -0.0018457053951947649 -0.037693628122308726 0 -0.0017977155403182002 -0.037802726367278688 0 -0.0018714293460332404 -0.037729891284327105 0 -0.0018457053951947649 -0.037693628122308726 0 -0.0018734290525725945 -0.037656685064337711 0 -0.0018714293460332404 -0.037729891284327105 0 -0.001792410885296679 -0.037827219286361076 0 -0.0018457053951947649 -0.037693628122308726 0 -0.0018714293460332404 -0.037729891284327105 0 -0.0018734290525725945 -0.037656685064337711 0 -0.0018548702507293444 -0.037648195096586123 0 -0.0017977789489741465 -0.037598354204852892 0 -0.0018548702507293444 -0.037648195096586123 0 -0.0018355650435181437 -0.037635436757578612 0 -0.0018734290525725945 -0.037656685064337711 0 -0.0018548702507293444 -0.037648195096586123 0 -0.0018355650435181437 -0.037635436757578612 0 -0.0018355650435181437 -0.037635436757578612 0 -0.0017528060583457332 -0.037668933404348744 0 -0.0018866992407199118 -0.037608378002948077 0 -0.0017977789489741465 -0.037598354204852892 0 -0.001752010226652235 -0.037620358181517252 0 -0.0018355650435181437 -0.037635436757578612 0 -0.0017977789489741465 -0.037598354204852892 0 -0.0017169586125149671 -0.03757222964930234 0 -0.001752010226652235 -0.037620358181517252 0 -0.001752010226652235 -0.037620358181517252 0 -0.0018355650435181437 -0.037635436757578612 0 -0.0017528060583457332 -0.037668933404348744 0 -0.0018734290525725945 -0.037656685064337711 0 -0.0018355650435181437 -0.037635436757578612 0 -0.0018866992407199118 -0.037608378002948077 0 -0.0015580321564447679 -0.03754334787938203 0 -0.0016501626291400128 -0.037612509021584972 0 -0.0015309256023657027 -0.037648416413190729 0 0.004079892457523028 -0.037830778494233004 0 0.0044398229411568967 -0.037651723884049547 0 -0.0017169586125149671 -0.03757222964930234 0 -0.001752010226652235 -0.037620358181517252 0 -0.0016501626291400128 -0.037612509021584972 0 -0.001752010226652235 -0.037620358181517252 0 -0.0016501626291400128 -0.037612509021584972 0 -0.0017528060583457332 -0.037668933404348744 0 0.001698977462191842 -0.034573059809146815 0 0.0013409978211382301 -0.035517138520066112 0 0.0004607710870185592 -0.035391590177809781 0 0.0044398229411568967 -0.037651723884049547 0 -0.0014450897908449753 -0.036447761626717888 0 -0.0016501626291400128 -0.037612509021584972 0 -0.0015309256023657027 -0.037648416413190729 0 -0.0017528060583457332 -0.037668933404348744 0 0.001698977462191842 -0.034573059809146815 0 0.0013409978211382301 -0.035517138520066112 0 0.0019801224000634506 -0.035522667987515542 0 0.0013409978211382301 -0.035517138520066112 0 0.0004607710870185592 -0.035391590177809781 0 0.0012490483085399265 -0.036143376734921059 0 0.0013409978211382301 -0.035517138520066112 0 0.0012490483085399265 -0.036143376734921059 0 0.0018754571104697103 -0.03607209370069378 0 0.0004607710870185592 -0.035391590177809781 0 0.00068168832294111239 -0.036631876565815846 0 -6.2170750171036899e-05 -0.036529045750120469 0 0.0004607710870185592 -0.035391590177809781 0 0.00068168832294111239 -0.036631876565815846 0 0.0012490483085399265 -0.036143376734921059 0 0.00068168832294111239 -0.036631876565815846 0 -6.2170750171036899e-05 -0.036529045750120469 0 3.7831089305161035e-05 -0.037252386549615227 0 0.00068168832294111239 -0.036631876565815846 0 0.0012016239512878759 -0.036633682401166622 0 0.0012634328948021025 -0.037078257999564677 0 0.00068168832294111239 -0.036631876565815846 0 0.0012490483085399265 -0.036143376734921059 0 0.0012016239512878759 -0.036633682401166622 0 0.0012016239512878759 -0.036633682401166622 0 0.0016167140078797691 -0.036870919764929039 0 0.0016923220276681109 -0.036509377880654045 0 0.0012490483085399265 -0.036143376734921059 0 0.0018754571104697103 -0.03607209370069378 0 0.0016923220276681109 -0.036509377880654045 0 0.0012490483085399265 -0.036143376734921059 0 0.0012016239512878759 -0.036633682401166622 0 0.0016923220276681109 -0.036509377880654045 0 -0.0017528060583457332 -0.037668933404348744 0 -0.0018866992407199118 -0.037608378002948077 0 -0.0019001502431223209 -0.037555461314429162 0 -0.00190099191694914 -0.037485312120295253 0 -0.0018866992407199118 -0.037608378002948077 0 -0.0019001502431223209 -0.037555461314429162 0 -0.0014450897908449753 -0.036447761626717888 0 -0.0011834644826615526 -0.036883421928232775 0 -6.2170750171036899e-05 -0.036529045750120469 0 -0.00080393823219801681 -0.036261136410389951 0 -0.00069476789131799272 -0.037108119164203104 0 0.0004607710870185592 -0.035391590177809781 0 -6.2170750171036899e-05 -0.036529045750120469 0 -0.00080393823219801681 -0.036261136410389951 0 -0.0011834644826615526 -0.036883421928232775 0 -0.0019903532928667524 -0.037278691220379079 0 -0.00190099191694914 -0.037485312120295253 0 -0.0019001502431223209 -0.037555461314429162 0 -0.0019745235329927313 -0.037282329535206167 0 -0.00080393823219801681 -0.036261136410389951 0 -0.0012671466620161986 -0.037485294995058017 0 -0.00069476789131799272 -0.037108119164203104 0 -0.00080393823219801681 -0.036261136410389951 0 -0.0012671466620161986 -0.037485294995058017 0 -0.0019745235329927313 -0.037282329535206167 0 -0.0012671466620161986 -0.037485294995058017 0 -0.00069476789131799272 -0.037108119164203104 0 -0.00087926521824205762 -0.037854216347472644 0 -6.2170750171036899e-05 -0.036529045750120469 0 -0.00069476789131799272 -0.037108119164203104 0 3.7831089305161035e-05 -0.037252386549615227 0 3.7831089305161035e-05 -0.037252386549615227 0 -0.00047674005626242855 -0.037511607007775699 0 -0.00030722149605611751 -0.037879326576401889 0 -0.00069476789131799272 -0.037108119164203104 0 -0.00047674005626242855 -0.037511607007775699 0 -0.00087926521824205762 -0.037854216347472644 0 -0.00069476789131799272 -0.037108119164203104 0 3.7831089305161035e-05 -0.037252386549615227 0 -0.00047674005626242855 -0.037511607007775699 0 -0.00047674005626242855 -0.037511607007775699 0 -0.00030722149605611751 -0.037879326576401889 0 -0.00087926521824205762 -0.037854216347472644 0 -0.00030722149605611751 -0.037879326576401889 0 -0.00104531581781866 -0.038291093459067976 0 8.6459683522945878e-05 -0.038532353163763418 0 -0.00030722149605611751 -0.037879326576401889 0 -0.00104531581781866 -0.038291093459067976 0 -0.00087926521824205762 -0.037854216347472644 0 -0.0018571724565173168 -0.036224134667744101 0 -0.0028820923901485152 -0.037630664634914934 0 -0.0012671466620161986 -0.037485294995058017 0 -0.0010463064926678701 -0.038202301438126703 0 -0.00087926521824205762 -0.037854216347472644 0 -0.0012671466620161986 -0.037485294995058017 0 -0.0010463064926678701 -0.038202301438126703 0 -0.0020102314362850692 -0.037880803948810826 0 -0.0018571724565173168 -0.036224134667744101 0 -0.0016001591355304702 -0.03776952389226277 0 0.0013398504947802589 -0.037498530422359413 0 0.0016933702872724311 -0.037204346234717897 0 0.0017899539388181297 -0.037560456362648327 0 0.0013398504947802589 -0.037498530422359413 0 0.0016933702872724311 -0.037204346234717897 0 0.0012634328948021025 -0.037078257999564677 0 0.0016933702872724311 -0.037204346234717897 0 0.0016167140078797691 -0.036870919764929039 0 0.0012634328948021025 -0.037078257999564677 0 0.0012016239512878759 -0.036633682401166622 0 0.0016167140078797691 -0.036870919764929039 0 0.0012634328948021025 -0.037078257999564677 0 0.00068168832294111239 -0.036631876565815846 0 0.0012634328948021025 -0.037078257999564677 0 0.00075654169454484612 -0.037363223167609344 0 0.0013398504947802589 -0.037498530422359413 0 0.0012634328948021025 -0.037078257999564677 0 0.00075654169454484612 -0.037363223167609344 0 0.00068168832294111239 -0.036631876565815846 0 3.7831089305161035e-05 -0.037252386549615227 0 0.00075654169454484612 -0.037363223167609344 0 3.7831089305161035e-05 -0.037252386549615227 0 0.00075654169454484612 -0.037363223167609344 0 0.00048088287097826897 -0.037949216770853084 0 3.7831089305161035e-05 -0.037252386549615227 0 -0.00030722149605611751 -0.037879326576401889 0 0.00048088287097826897 -0.037949216770853084 0 -0.00030722149605611751 -0.037879326576401889 0 0.00048088287097826897 -0.037949216770853084 0 8.6459683522945878e-05 -0.038532353163763418 0 0.00075654169454484612 -0.037363223167609344 0 0.00048088287097826897 -0.037949216770853084 0 0.0011011518015281582 -0.037927222963294545 0 0.0011011518015281582 -0.037927222963294545 0 0.0013764697870826859 -0.038324548245389403 0 0.0012122716280476354 -0.038762499019016829 0 0.00048088287097826897 -0.037949216770853084 0 0.0011011518015281582 -0.037927222963294545 0 0.0012122716280476354 -0.038762499019016829 0 0.0013398504947802589 -0.037498530422359413 0 0.00075654169454484612 -0.037363223167609344 0 0.0011011518015281582 -0.037927222963294545 0 0.0011011518015281582 -0.037927222963294545 0 0.0013764697870826859 -0.038324548245389403 0 0.0014865094564412776 -0.037882271146989534 0 0.0013764697870826859 -0.038324548245389403 0 0.001594990956874831 -0.038059841798748703 0 0.0018241274102024137 -0.038133341347130457 0 0.0013764697870826859 -0.038324548245389403 0 0.001594990956874831 -0.038059841798748703 0 0.0014865094564412776 -0.037882271146989534 0 0.0013398504947802589 -0.037498530422359413 0 0.0011011518015281582 -0.037927222963294545 0 0.0014865094564412776 -0.037882271146989534 0 0.0014865094564412776 -0.037882271146989534 0 0.0017899539388181297 -0.037560456362648327 0 0.0017006139522800865 -0.037895237020275863 0 0.0013398504947802589 -0.037498530422359413 0 0.0014865094564412776 -0.037882271146989534 0 0.0017899539388181297 -0.037560456362648327 0 0.001594990956874831 -0.038059841798748703 0 0.0014865094564412776 -0.037882271146989534 0 0.0017006139522800865 -0.037895237020275863 0 0.0011162602971790095 -0.029597170868629067 0 0.0012886642946526108 -0.029635283626463393 0 0.0016248458228151547 -0.028827819465380152 0 0.0091906066197048313 -0.028826552410002263 0 0.0092351148671292321 -0.028407885304929246 0 0.0089137499076846552 -0.028664206508604337 0 0.0053852552620412978 -0.030971542146328544 0 0.0012369402929376682 -0.033219663943679457 0 0.0031693395628349477 -0.035853765447381079 0 0.003420596672386885 -0.035906604887163199 0 0.0027664494078518715 -0.036738596867284638 0 0.0013764697870826859 -0.038324548245389403 0 0.0012122716280476354 -0.038762499019016829 0 0.0018241274102024137 -0.038133341347130457 0 0.0012369402929376682 -0.033219663943679457 0 0.001997731937143323 -0.037685754932200638 0 0.00048088287097826897 -0.037949216770853084 0 0.0012122716280476354 -0.038762499019016829 0 8.6459683522945878e-05 -0.038532353163763418 0 -0.0019111799950520857 -0.031862194079597256 0 -0.0021556224694920692 -0.031822035043618135 0 -0.0020845210602915909 -0.031990186319666221 0 0.0012369402929376682 -0.033219663943679457 0 -0.0012788833962564419 -0.035208762735182704 0 -0.0021556224694920692 -0.031822035043618135 0 -0.0020845210602915909 -0.031990186319666221 0 -0.0022702487528948431 -0.031966891425297864 0 0.0012369402929376682 -0.033219663943679457 0 7.6998156391271797e-05 -0.03049469129836473 0 0.0016248458228151547 -0.028827819465380152 0 0.0018417708544901754 -0.028899423991698182 0 0.0021140966830870645 -0.028088054096211016 0 0.0012886642946526108 -0.029635283626463393 0 0.0016248458228151547 -0.028827819465380152 0 0.0018417708544901754 -0.028899423991698182 0 7.6998156391271797e-05 -0.03049469129836473 0 -0.0043287434767305538 -0.025794114989799496 0 0.0053852552620412978 -0.030971542146328544 0 0.005744239757196571 -0.028518794289597211 0 0.0091906066197048313 -0.028826552410002263 0 0.0093883470067765117 -0.028278318665793535 0 0.0092351148671292321 -0.028407885304929246 0 0.0093883470067765117 -0.028278318665793535 0 0.0092351148671292321 -0.028407885304929246 0 0.0093101121081791121 -0.028200810164183084 0 0.0092351148671292321 -0.028407885304929246 0 0.0092392153328407344 -0.028227389557333695 0 0.0093101121081791121 -0.028200810164183084 0 -0.0043242951597909545 -0.037009281134307022 0 -0.0041359337610990679 -0.036462233656978711 0 -0.003759373344445698 -0.036784635832682787 0 -0.0024167951507184085 -0.031915355229193164 0 -0.0023050443008890303 -0.031880615494850384 0 -0.0022702487528948431 -0.031966891425297864 0 -0.0023573135757471372 -0.031809153790048041 0 -0.0024167951507184085 -0.031915355229193164 0 -0.0023050443008890303 -0.031880615494850384 0 -0.0018571724565173168 -0.036224134667744101 0 -0.0033635914805654958 -0.034277959904100909 0 -0.0018571724565173168 -0.036224134667744101 0 -0.0012788833962564419 -0.035208762735182704 0 -0.0023573135757471372 -0.031809153790048041 0 -0.0021556224694920692 -0.031822035043618135 0 -0.0023050443008890303 -0.031880615494850384 0 -0.0021556224694920692 -0.031822035043618135 0 -0.0023050443008890303 -0.031880615494850384 0 -0.0022702487528948431 -0.031966891425297864 0 -0.0020845210602915909 -0.031990186319666221 0 -0.0022702487528948431 -0.031966891425297864 0 -0.0022455533340295275 -0.032088884735000774 0 -0.0022702487528948431 -0.031966891425297864 0 -0.0024845563249152125 -0.032020354267195197 0 -0.0022455533340295275 -0.032088884735000774 0 -0.0024167951507184085 -0.031915355229193164 0 -0.0022702487528948431 -0.031966891425297864 0 -0.0024845563249152125 -0.032020354267195197 0 -0.0033635914805654958 -0.034277959904100909 0 -0.0061590967554243517 -0.030794152276109654 0 -0.0061590967554243517 -0.030794152276109654 0 -0.0053522657100148092 -0.035721292313250268 0 -0.011785491835524284 -0.032525940366580283 0 -0.0072445264022237138 -0.034414633139958094 0 -0.0081988164165618833 -0.030853822620725401 0 -0.0039430738630727357 -0.035887996669706795 0 -0.003622001636434188 -0.036451308777908351 0 -0.0031018500385921661 -0.036300700185920604 0 -0.0041359337610990679 -0.036462233656978711 0 -0.0039430738630727357 -0.035887996669706795 0 -0.003622001636434188 -0.036451308777908351 0 -0.0041359337610990679 -0.036462233656978711 0 -0.003622001636434188 -0.036451308777908351 0 -0.003759373344445698 -0.036784635832682787 0 -0.003622001636434188 -0.036451308777908351 0 -0.003759373344445698 -0.036784635832682787 0 -0.0031919882885433062 -0.036798488296981874 0 -0.003759373344445698 -0.036784635832682787 0 -0.0031919882885433062 -0.036798488296981874 0 -0.0035477949691209406 -0.037219525462817316 0 -0.003622001636434188 -0.036451308777908351 0 -0.0031919882885433062 -0.036798488296981874 0 -0.0031018500385921661 -0.036300700185920604 0 -0.0031919882885433062 -0.036798488296981874 0 -0.0031018500385921661 -0.036300700185920604 0 -0.0027958494264811421 -0.036813918680658919 0 -0.0072445264022237138 -0.034414633139958094 0 -0.0081988164165618833 -0.030853822620725401 0 -0.0052581089126806958 -0.031668497436792474 0 -0.0072445264022237138 -0.034414633139958094 0 -0.0037504350939494518 -0.034183992392815783 0 -0.0025130833836403518 -0.036508854994618721 0 -0.0072445264022237138 -0.034414633139958094 0 -0.0037504350939494518 -0.034183992392815783 0 -0.0052581089126806958 -0.031668497436792474 0 -0.0037504350939494518 -0.034183992392815783 0 -0.0024509014644906969 -0.032629336981218005 0 -0.0052581089126806958 -0.031668497436792474 0 -0.0037504350939494518 -0.034183992392815783 0 -0.0024509014644906969 -0.032629336981218005 0 -0.0019557961361460455 -0.035853327400131134 0 -0.0024509014644906969 -0.032629336981218005 0 0.00016062002562052072 -0.03482997060121093 0 -0.00050834586287111028 -0.030458041447504483 0 -0.0024509014644906969 -0.032629336981218005 0 0.00016062002562052072 -0.03482997060121093 0 -0.0019557961361460455 -0.035853327400131134 0 -0.0032798261360509973 -0.033621506455361966 0 -0.0014938138382963857 -0.034773239033309214 0 -0.0023964114479266821 -0.037158883616021592 0 -0.0024233376907313057 -0.037206502039824986 0 -0.0023687627616147569 -0.037083168436318432 0 -0.0024233376907313057 -0.037206502039824986 0 -0.0022987495990605266 -0.036939106422275464 0 -0.0023687627616147569 -0.037083168436318432 0 -0.0032798261360509973 -0.033621506455361966 0 -0.0023470451436196469 -0.03686116230492497 0 -0.0002638138221042588 -0.035211024468428519 0 -0.0019557961361460455 -0.035853327400131134 0 -0.0022987495990605266 -0.036939106422275464 0 -0.0019557961361460455 -0.035853327400131134 0 -0.0022987495990605266 -0.036939106422275464 0 -0.0025130833836403518 -0.036508854994618721 0 -0.0022987495990605266 -0.036939106422275464 0 -0.0023687627616147569 -0.037083168436318432 0 -0.0023675752401965417 -0.037124107664252649 0 -0.0022987495990605266 -0.036939106422275464 0 -0.0024909622102603705 -0.037075912784769474 0 -0.0023675752401965417 -0.037124107664252649 0 -0.0023964114479266821 -0.037158883616021592 0 -0.0023687627616147569 -0.037083168436318432 0 -0.0023675752401965417 -0.037124107664252649 0 -0.0053522657100148092 -0.035721292313250268 0 -0.0026013619377567728 -0.036363948281299262 0 -0.0031018500385921661 -0.036300700185920604 0 -0.0025130833836403518 -0.036508854994618721 0 -0.0027958494264811421 -0.036813918680658919 0 -0.0037504350939494518 -0.034183992392815783 0 -0.0019557961361460455 -0.035853327400131134 0 -0.0025130833836403518 -0.036508854994618721 0 -0.0025130833836403518 -0.036508854994618721 0 -0.0027958494264811421 -0.036813918680658919 0 -0.0024909622102603705 -0.037075912784769474 0 -0.0022987495990605266 -0.036939106422275464 0 -0.0025130833836403518 -0.036508854994618721 0 -0.0024909622102603705 -0.037075912784769474 0 -0.0027958494264811421 -0.036813918680658919 0 -0.0026051376536510244 -0.03741616765382294 0 -0.0024909622102603705 -0.037075912784769474 0 -0.0026051376536510244 -0.03741616765382294 0 -0.0024535941584897959 -0.037251499761542406 0 -0.0025185206520195887 -0.037350756923401791 0 -0.0026051376536510244 -0.03741616765382294 0 -0.0024909622102603705 -0.037075912784769474 0 -0.0024535941584897959 -0.037251499761542406 0 -0.0023707138954116714 -0.037243590120385431 0 -0.0023964114479266821 -0.037158883616021592 0 -0.0023675752401965417 -0.037124107664252649 0 -0.0023707138954116714 -0.037243590120385431 0 -0.0024535941584897959 -0.037251499761542406 0 -0.0025185206520195887 -0.037350756923401791 0 -0.0023707138954116714 -0.037243590120385431 0 -0.0023675752401965417 -0.037124107664252649 0 -0.0024535941584897959 -0.037251499761542406 0 -0.0024909622102603705 -0.037075912784769474 0 -0.0023675752401965417 -0.037124107664252649 0 -0.0024535941584897959 -0.037251499761542406 0 -0.0021280691802176149 -0.037719115032521407 0 -0.0022013070132190396 -0.037775677413614796 0 -0.0019642482215549732 -0.037738535375532276 0 -0.0021280691802176149 -0.037719115032521407 0 -0.0020401049388649398 -0.037663758985309832 0 -0.0019642482215549732 -0.037738535375532276 0 -0.0022769379212217978 -0.037506475502394755 0 -0.0022397699301516015 -0.03753341775052859 0 -0.002076829685818145 -0.037457314303931705 0 -0.0022397699301516015 -0.03753341775052859 0 -0.0022822291670796472 -0.037238534538588303 0 -0.0026051376536510244 -0.03741616765382294 0 -0.0025185206520195887 -0.037350756923401791 0 -0.0022822291670796472 -0.037238534538588303 0 -0.0026051376536510244 -0.03741616765382294 0 -0.002247373791565057 -0.037411407967668772 0 -0.0022822291670796472 -0.037238534538588303 0 -0.002247373791565057 -0.037411407967668772 0 -0.0019745235329927313 -0.037282329535206167 0 -0.002247373791565057 -0.037411407967668772 0 -0.0019745235329927313 -0.037282329535206167 0 -0.0020102314362850692 -0.037880803948810826 0 -0.0012671466620161986 -0.037485294995058017 0 -0.0019745235329927313 -0.037282329535206167 0 -0.0020102314362850692 -0.037880803948810826 0 -0.0043242951597909545 -0.037009281134307022 0 -0.003759373344445698 -0.036784635832682787 0 -0.0035477949691209406 -0.037219525462817316 0 -0.0025654985937304175 -0.037449137921967336 0 -0.0028820923901485152 -0.037630664634914934 0 -0.0026051376536510244 -0.03741616765382294 0 -0.002247373791565057 -0.037411407967668772 0 -0.0020102314362850692 -0.037880803948810826 0 -0.0031919882885433062 -0.036798488296981874 0 -0.0026051376536510244 -0.03741616765382294 0 -0.0035477949691209406 -0.037219525462817316 0 -0.0031919882885433062 -0.036798488296981874 0 -0.0027958494264811421 -0.036813918680658919 0 -0.0026051376536510244 -0.03741616765382294 0 0.020666559725328763 -0.033307906980976319 0 0.020238351404482883 -0.033731575507196243 0 0.020198373061907096 -0.032988657736094537 0 0.02004738413236842 -0.035344983781762665 0 0.019990159877822381 -0.035363005354796223 0 0.020000928434589324 -0.035293220690931069 0 0.02004738413236842 -0.035344983781762665 0 0.020000928434589324 -0.035293220690931069 0 0.020145834815512575 -0.035223767745594561 0 0.020000928434589324 -0.035293220690931069 0 0.020145834815512575 -0.035223767745594561 0 0.019956386645849668 -0.035121663726270978 0 0.020542569884681162 -0.034146206304991149 0 0.020238351404482883 -0.033731575507196243 0 0.019994341271076896 -0.034358410287427935 0 0.020435812611006972 -0.034673010661497174 0 0.020326372464577337 -0.034588768587805796 0 0.020666559725328763 -0.033307906980976319 0 0.020542569884681162 -0.034146206304991149 0 0.020238351404482883 -0.033731575507196243 0 0.020238351404482883 -0.033731575507196243 0 0.019602148931952147 -0.033478785296103014 0 0.019994341271076896 -0.034358410287427935 0 0.019602148931952147 -0.033478785296103014 0 0.019994341271076896 -0.034358410287427935 0 0.019127590663678119 -0.034304059404303609 0 0.019234800015300677 -0.032896610766326641 0 0.019602148931952147 -0.033478785296103014 0 0.019724827208130784 -0.032489126572678995 0 0.019234800015300677 -0.032896610766326641 0 0.019602148931952147 -0.033478785296103014 0 0.018712473516386545 -0.033366862407171863 0 0.019602148931952147 -0.033478785296103014 0 0.020198373061907096 -0.032988657736094537 0 0.019724827208130784 -0.032489126572678995 0 0.020238351404482883 -0.033731575507196243 0 0.019602148931952147 -0.033478785296103014 0 0.020198373061907096 -0.032988657736094537 0 0.020198373061907096 -0.032988657736094537 0 0.019724827208130784 -0.032489126572678995 0 0.020667989485881551 -0.032479716270565478 0 0.020264647711002635 -0.032276311840171316 0 0.019259685917992979 -0.032169228411238988 0 0.020035534763000185 -0.032083735721704303 0 0.019326022604690532 -0.031637252204470119 0 0.01861071873368227 -0.032323783215130582 0 0.020264647711002635 -0.032276311840171316 0 0.018484281461867258 -0.032337968462183911 0 0.019234800015300677 -0.032896610766326641 0 0.019724827208130784 -0.032489126572678995 0 0.01861071873368227 -0.032323783215130582 0 0.020035534763000185 -0.032083735721704303 0 0.019326022604690532 -0.031637252204470119 0 0.019921868939040892 -0.031144125110610456 0 0.019326022604690532 -0.031637252204470119 0 0.019921868939040892 -0.031144125110610456 0 0.019214104360792156 -0.03104868749526583 0 0.020035534763000185 -0.032083735721704303 0 0.020702519792048023 -0.031142289023333835 0 0.021387339382091065 -0.031958013121349084 0 0.020035534763000185 -0.032083735721704303 0 0.019921868939040892 -0.031144125110610456 0 0.020702519792048023 -0.031142289023333835 0 0.018833501682488478 -0.027895953946529883 0 0.019259685917992979 -0.032169228411238988 0 0.019794508882874762 -0.029863721189303968 0 0.019259685917992979 -0.032169228411238988 0 0.018901675286623638 -0.02893237501031411 0 0.018839267486464681 -0.028961222587880201 0 0.018849986237614448 -0.028949593822912453 0 0.018839267486464681 -0.028961222587880201 0 0.01886827133354068 -0.029007833828087408 0 0.018874556935790106 -0.028979922281427352 0 0.020666559725328763 -0.033307906980976319 0 0.020198373061907096 -0.032988657736094537 0 0.020667989485881551 -0.032479716270565478 0 0.020435812611006972 -0.034673010661497174 0 0.019259685917992979 -0.032169228411238988 0 0.016327397551661203 -0.033558663773915948 0 0.016946453326849079 -0.034160695952409018 0 0.015948356293078936 -0.034229112287663767 0 0.01816363300192626 -0.034871437308580923 0 0.019259685917992979 -0.032169228411238988 0 0.02004738413236842 -0.035344983781762665 0 0.019990159877822381 -0.035363005354796223 0 0.020018226253602906 -0.035323177380221268 0 0.019259685917992979 -0.032169228411238988 0 0.017868917916687582 -0.031710856832823472 0 0.01886827133354068 -0.029007833828087408 0 0.018874556935790106 -0.028979922281427352 0 0.018862706959007984 -0.028941504558637202 0 0.018874556935790106 -0.028979922281427352 0 0.018862706959007984 -0.028941504558637202 0 0.018919563651895933 -0.028967633234562785 0 0.018839267486464681 -0.028961222587880201 0 0.018874556935790106 -0.028979922281427352 0 0.018919563651895933 -0.028967633234562785 0 0.018823971886836915 -0.028953965424733299 0 0.018862706959007984 -0.028941504558637202 0 0.018919563651895933 -0.028967633234562785 0 0.018823971886836915 -0.028953965424733299 0 0.018717341866564999 -0.028917480680308864 0 0.01879444973519807 -0.028964666876320131 0 0.018823971886836915 -0.028953965424733299 0 0.018862706959007984 -0.028941504558637202 0 0.018717341866564999 -0.028917480680308864 0 0.017868917916687582 -0.031710856832823472 0 0.013246543486986338 -0.029836999245282957 0 0.013246543486986338 -0.029836999245282957 0 0.013741610723547642 -0.028076516413200733 0 0.015948356293078936 -0.034229112287663767 0 0.015007607061178128 -0.034259802027026727 0 0.015537192710067132 -0.033639642461523435 0 0.015007607061178128 -0.034259802027026727 0 0.014827613977447548 -0.033673863384426406 0 0.015537192710067132 -0.033639642461523435 0 0.016327397551661203 -0.033558663773915948 0 0.015948356293078936 -0.034229112287663767 0 0.015537192710067132 -0.033639642461523435 0 0.0092351148671292321 -0.028407885304929246 0 0.0092392153328407344 -0.028227389557333695 0 0.0092584934959622812 -0.02833045722050985 0 0.0092351148671292321 -0.028407885304929246 0 0.008428715110469857 -0.028467837563746733 0 0.0089137499076846552 -0.028664206508604337 0 0.0095011593248749502 -0.028376223754746334 0 0.0079439834226821653 -0.028478580519764745 0 0.0092392153328407344 -0.028227389557333695 0 0.0092584934959622812 -0.02833045722050985 0 0.0092259867481645514 -0.028176276511550663 0 0.0092584934959622812 -0.02833045722050985 0 0.0089222652518222752 -0.028497666354272994 0 0.0092259867481645514 -0.028176276511550663 0 0.0089222652518222752 -0.028497666354272994 0 0.0092259867481645514 -0.028176276511550663 0 0.0085822342698663526 -0.027663296943405035 0 0.0079439834226821653 -0.028478580519764745 0 0.013246543486986338 -0.029836999245282957 0 0.008428715110469857 -0.028467837563746733 0 0.0073664434516680427 -0.028549698175300672 0 0.0081228130037733146 -0.029098677851351108 0 0.0073664434516680427 -0.028549698175300672 0 0.0081228130037733146 -0.029098677851351108 0 0.0076536382139998334 -0.029717550729860008 0 0.013246543486986338 -0.029836999245282957 0 0.011213843240733082 -0.031550409603972152 0 0.0081228130037733146 -0.029098677851351108 0 0.0087380324748231823 -0.028893670575151235 0 0.0087018269382146216 -0.03001114407747512 0 0.0093892761448827345 -0.029063831966761895 0 0.0087380324748231823 -0.028893670575151235 0 0.0087018269382146216 -0.03001114407747512 0 0.0081228130037733146 -0.029098677851351108 0 0.0087018269382146216 -0.03001114407747512 0 0.0076536382139998334 -0.029717550729860008 0 0.008428715110469857 -0.028467837563746733 0 0.0081228130037733146 -0.029098677851351108 0 0.0087380324748231823 -0.028893670575151235 0 0.0053852552620412978 -0.030971542146328544 0 0.0053652848290135806 -0.03373804756498118 0 0.0053852552620412978 -0.030971542146328544 0 0.0089702887826325906 -0.030014267068581915 0 0.008428715110469857 -0.028467837563746733 0 0.0087380324748231823 -0.028893670575151235 0 0.0089137499076846552 -0.028664206508604337 0 0.0091906066197048313 -0.028826552410002263 0 0.0087380324748231823 -0.028893670575151235 0 0.0089137499076846552 -0.028664206508604337 0 0.0087018269382146216 -0.03001114407747512 0 0.0076536382139998334 -0.029717550729860008 0 0.0079965452171271035 -0.030971232767108562 0 0.0027664494078518715 -0.036738596867284638 0 0.0025841486228053785 -0.036785878157649193 0 0.0024120435587664259 -0.037317744072672764 0 0.0018563191828469571 -0.037775741105661724 0 0.0018241274102024137 -0.038133341347130457 0 0.0021256854805889258 -0.037511407386950774 0 0.0017899539388181297 -0.037560456362648327 0 0.0018563191828469571 -0.037775741105661724 0 0.0021256854805889258 -0.037511407386950774 0 0.0018563191828469571 -0.037775741105661724 0 0.0017006139522800865 -0.037895237020275863 0 0.0018241274102024137 -0.038133341347130457 0 0.0017899539388181297 -0.037560456362648327 0 0.0018563191828469571 -0.037775741105661724 0 0.0017006139522800865 -0.037895237020275863 0 0.0031693395628349477 -0.035853765447381079 0 0.0027664494078518715 -0.036738596867284638 0 0.0025841486228053785 -0.036785878157649193 0 0.001594990956874831 -0.038059841798748703 0 0.0017006139522800865 -0.037895237020275863 0 0.0018241274102024137 -0.038133341347130457 0 0.0053652848290135806 -0.03373804756498118 0 0.0090570958955851558 -0.034566345308740969 0 0.001997731937143323 -0.037685754932200638 0 0.0024635687242353889 -0.037255988074317535 0 0.0025841486228053785 -0.036785878157649193 0 0.0023837196309784035 -0.037399638918121966 0 0.0024120435587664259 -0.037317744072672764 0 0.0018241274102024137 -0.038133341347130457 0 0.0021256854805889258 -0.037511407386950774 0 0.0024120435587664259 -0.037317744072672764 0 0.011213843240733082 -0.031550409603972152 0 0.0090570958955851558 -0.034566345308740969 0 0.014827613977447548 -0.033673863384426406 0 0.014648556932624299 -0.033122123448334588 0 0.015186878582882162 -0.033182755049685111 0 0.0090570958955851558 -0.034566345308740969 0 0.014319729992503454 -0.036955604990050191 0 0.014648556932624299 -0.033122123448334588 0 0.015186878582882162 -0.033182755049685111 0 0.015192866650154176 -0.032490497265981765 0 0.0090570958955851558 -0.034566345308740969 0 0.0063189830923481589 -0.037620950854274367 0 0.0023837196309784035 -0.037399638918121966 0 0.0020369353577764158 -0.036757537711744129 0 0.0022630886397452241 -0.036487991553305107 0 0.0023837196309784035 -0.037399638918121966 0 0.0024120435587664259 -0.037317744072672764 0 0.0021030528137039005 -0.037258780645603888 0 0.0023837196309784035 -0.037399638918121966 0 0.0019731923840128982 -0.037031187062393202 0 0.0021030528137039005 -0.037258780645603888 0 0.0021256854805889258 -0.037511407386950774 0 0.0024120435587664259 -0.037317744072672764 0 0.0021030528137039005 -0.037258780645603888 0 0.0023837196309784035 -0.037399638918121966 0 0.0019731923840128982 -0.037031187062393202 0 0.0020369353577764158 -0.036757537711744129 0 0.0016167140078797691 -0.036870919764929039 0 0.0019731923840128982 -0.037031187062393202 0 0.0020369353577764158 -0.036757537711744129 0 0.0016933702872724311 -0.037204346234717897 0 0.0016167140078797691 -0.036870919764929039 0 0.0019731923840128982 -0.037031187062393202 0 0.0016933702872724311 -0.037204346234717897 0 0.0019731923840128982 -0.037031187062393202 0 0.0021030528137039005 -0.037258780645603888 0 0.0017899539388181297 -0.037560456362648327 0 0.0021256854805889258 -0.037511407386950774 0 0.0021030528137039005 -0.037258780645603888 0 0.0016933702872724311 -0.037204346234717897 0 0.0017899539388181297 -0.037560456362648327 0 0.0021030528137039005 -0.037258780645603888 0 0.01816363300192626 -0.034871437308580923 0 0.018022749134784036 -0.033773152834821303 0 0.016327397551661203 -0.033558663773915948 0 0.015537192710067132 -0.033639642461523435 0 0.01573901628128889 -0.033008030128526489 0 0.015537192710067132 -0.033639642461523435 0 0.015186878582882162 -0.033182755049685111 0 0.01573901628128889 -0.033008030128526489 0 0.014827613977447548 -0.033673863384426406 0 0.015537192710067132 -0.033639642461523435 0 0.015186878582882162 -0.033182755049685111 0 0.015186878582882162 -0.033182755049685111 0 0.01573901628128889 -0.033008030128526489 0 0.015192866650154176 -0.032490497265981765 0 0.018022749134784036 -0.033773152834821303 0 0.014319729992503454 -0.036955604990050191 0 0.020000928434589324 -0.035293220690931069 0 0.019808142050119017 -0.0353104338060614 0 0.019956386645849668 -0.035121663726270978 0 0.019990159877822381 -0.035363005354796223 0 0.020000928434589324 -0.035293220690931069 0 0.019808142050119017 -0.0353104338060614 0 0.019808142050119017 -0.0353104338060614 0 0.019574762033383965 -0.035193928242263237 0 0.019956386645849668 -0.035121663726270978 0 0.013058589269962881 -0.041592645244999379 0 0.011756640109844825 -0.041864594614521307 0 0.01186966730401978 -0.041284455921648318 0 0.011991296142009571 -0.042715572964404189 0 0.013058589269962881 -0.041592645244999379 0 0.011756640109844825 -0.041864594614521307 0 0.014319729992503454 -0.036955604990050191 0 0.01658716308378733 -0.03857653684516775 0 0.019816593628934759 -0.034965667278355018 0 0.020081406431375202 -0.034929240086184178 0 0.019956386645849668 -0.035121663726270978 0 0.019574762033383965 -0.035193928242263237 0 0.019816593628934759 -0.034965667278355018 0 0.019956386645849668 -0.035121663726270978 0 0.0018754571104697103 -0.03607209370069378 0 0.0016923220276681109 -0.036509377880654045 0 0.0019672322628645931 -0.036457743942584518 0 0.0018754571104697103 -0.03607209370069378 0 0.0019672322628645931 -0.036457743942584518 0 0.0022630886397452241 -0.036487991553305107 0 0.0016167140078797691 -0.036870919764929039 0 0.0016923220276681109 -0.036509377880654045 0 0.0020369353577764158 -0.036757537711744129 0 0.0016923220276681109 -0.036509377880654045 0 0.0020369353577764158 -0.036757537711744129 0 0.0019672322628645931 -0.036457743942584518 0 0.0020369353577764158 -0.036757537711744129 0 0.0019672322628645931 -0.036457743942584518 0 0.0022630886397452241 -0.036487991553305107 0 0.010508204240800548 -0.037932494712952382 0 0.010480696601627065 -0.037978454418965128 0 0.010480630874460908 -0.038242396769993831 0 0.0098518044400823027 -0.037971301479514455 0 0.010480696601627065 -0.037978454418965128 0 0.010357926041889801 -0.038556024282015142 0 0.0098518044400823027 -0.037971301479514455 0 0.010508204240800548 -0.037932494712952382 0 0.010480696601627065 -0.037978454418965128 0 0.010332066564863586 -0.037301554734819296 0 0.0098518044400823027 -0.037971301479514455 0 0.010508204240800548 -0.037932494712952382 0 0.014319729992503454 -0.036955604990050191 0 0.010485520156594898 -0.039943841144628907 0 0.011991296142009571 -0.042715572964404189 0 0.011756640109844825 -0.041864594614521307 0 0.01088068819571813 -0.041652868937085405 0 0.011756640109844825 -0.041864594614521307 0 0.01088068819571813 -0.041652868937085405 0 0.0114556237359185 -0.041426784964618601 0 0.011756640109844825 -0.041864594614521307 0 0.0114556237359185 -0.041426784964618601 0 0.01186966730401978 -0.041284455921648318 0 0.01041152959632613 -0.03847815368739986 0 0.010460150379788813 -0.038476919682614193 0 0.010480478217162378 -0.038488077287587401 0 0.010508204240800548 -0.037932494712952382 0 0.010480630874460908 -0.038242396769993831 0 0.010567769322044031 -0.03844070144718232 0 0.0063189830923481589 -0.037620950854274367 0 0.0063075758047245519 -0.036760730818633666 0 0.010561782292532173 -0.037530644833339295 0 0.010485520156594898 -0.039943841144628907 0 0.010480696601627065 -0.037978454418965128 0 0.01041152959632613 -0.03847815368739986 0 0.010480630874460908 -0.038242396769993831 0 0.0018754571104697103 -0.03607209370069378 0 0.0022630886397452241 -0.036487991553305107 0 0.0019801224000634506 -0.035522667987515542 0 0.010480630874460908 -0.038242396769993831 0 0.010475747898524044 -0.038378062242245006 0 0.010567769322044031 -0.03844070144718232 0 0.01041152959632613 -0.03847815368739986 0 0.010480630874460908 -0.038242396769993831 0 0.010457732442453059 -0.038444397974214027 0 0.010475747898524044 -0.038378062242245006 0 0.010457732442453059 -0.038444397974214027 0 0.010481556576295178 -0.038455677444500423 0 0.010480630874460908 -0.038242396769993831 0 0.010475747898524044 -0.038378062242245006 0 0.010457732442453059 -0.038444397974214027 0 0.01041152959632613 -0.03847815368739986 0 0.010457732442453059 -0.038444397974214027 0 0.010460150379788813 -0.038476919682614193 0 0.010457732442453059 -0.038444397974214027 0 0.010481556576295178 -0.038455677444500423 0 0.010460150379788813 -0.038476919682614193 0 0.010481556576295178 -0.038455677444500423 0 0.010460150379788813 -0.038476919682614193 0 0.010498796732121249 -0.038479461692988513 0 0.010481556576295178 -0.038455677444500423 0 0.010567769322044031 -0.03844070144718232 0 0.010498796732121249 -0.038479461692988513 0 0.010475747898524044 -0.038378062242245006 0 0.010481556576295178 -0.038455677444500423 0 0.010567769322044031 -0.03844070144718232 0 0.0013409978211382301 -0.035517138520066112 0 0.0018754571104697103 -0.03607209370069378 0 0.0019801224000634506 -0.035522667987515542 0 0.010440075050599705 -0.038497642074841978 0 0.010567769322044031 -0.03844070144718232 0 0.010496518525171398 -0.038490144580492575 0 0.0044398229411568967 -0.037651723884049547 0 0.0063075758047245519 -0.036760730818633666 0 0.010440075050599705 -0.038497642074841978 0 0.010471312149111504 -0.038490685484790489 0 0.010496518525171398 -0.038490144580492575 0 0.010567769322044031 -0.03844070144718232 0 0.010496518525171398 -0.038490144580492575 0 0.010498796732121249 -0.038479461692988513 0 0.010496518525171398 -0.038490144580492575 0 0.010498796732121249 -0.038479461692988513 0 0.010513642035023238 -0.038497929894488268 0 0.010498796732121249 -0.038479461692988513 0 0.010480478217162378 -0.038488077287587401 0 0.010513642035023238 -0.038497929894488268 0 0.010460150379788813 -0.038476919682614193 0 0.010498796732121249 -0.038479461692988513 0 0.010480478217162378 -0.038488077287587401 0 0.010513642035023238 -0.038497929894488268 0 0.010500677930034744 -0.038497235384907159 0 0.010556419027384807 -0.038489026258141171 0 0.010471312149111504 -0.038490685484790489 0 0.010496518525171398 -0.038490144580492575 0 0.010500677930034744 -0.038497235384907159 0 0.010496518525171398 -0.038490144580492575 0 0.010513642035023238 -0.038497929894488268 0 0.010500677930034744 -0.038497235384907159 0 0.010471312149111504 -0.038490685484790489 0 0.010500677930034744 -0.038497235384907159 0 0.010556419027384807 -0.038489026258141171 0 0.010485520156594898 -0.039943841144628907 0 0.010888388482617866 -0.039358466733205109 0 0.01088068819571813 -0.041652868937085405 0 0.011397293064825094 -0.040985765850316172 0 0.011052635577573097 -0.040277006105189604 0 0.01041152959632613 -0.03847815368739986 0 0.010480478217162378 -0.038488077287587401 0 0.010698574181142667 -0.038484389169554739 0 0.010480478217162378 -0.038488077287587401 0 0.010513642035023238 -0.038497929894488268 0 0.010698574181142667 -0.038484389169554739 0 0.010513642035023238 -0.038497929894488268 0 0.010698574181142667 -0.038484389169554739 0 0.010556419027384807 -0.038489026258141171 0 0.01088068819571813 -0.041652868937085405 0 0.011397293064825094 -0.040985765850316172 0 0.0114556237359185 -0.041426784964618601 0 0.011397293064825094 -0.040985765850316172 0 0.0114556237359185 -0.041426784964618601 0 0.01186966730401978 -0.041284455921648318 0 0.011397293064825094 -0.040985765850316172 0 0.011052635577573097 -0.040277006105189604 0 0.011916741469248957 -0.040469479648475179 0 0.011397293064825094 -0.040985765850316172 0 0.01186966730401978 -0.041284455921648318 0 0.011916741469248957 -0.040469479648475179 0 0.010888388482617866 -0.039358466733205109 0 0.01116258735439077 -0.038253189553631099 0 0.011052635577573097 -0.040277006105189604 0 0.011916741469248957 -0.040469479648475179 0 0.011213601977243024 -0.038683953086150878 0 0.010657604252586401 -0.038228448054335569 0 0.010698574181142667 -0.038484389169554739 0 0.011084246933916363 -0.037908282159324742 0 0.010657604252586401 -0.038228448054335569 0 0.010698574181142667 -0.038484389169554739 0 0.010556419027384807 -0.038489026258141171 0 0.0098664526004636609 -0.037921697923343906 0 0.010129569878541203 -0.038632119185488353 0 0.010429664571516525 -0.038434748239847612 0 0.010657604252586401 -0.038228448054335569 0 0.010429664571516525 -0.038434748239847612 0 0.010475860355355788 -0.037939970655215385 0 0.010657604252586401 -0.038228448054335569 0 0.010556419027384807 -0.038489026258141171 0 0.010429664571516525 -0.038434748239847612 0 0.010471312149111504 -0.038490685484790489 0 0.010556419027384807 -0.038489026258141171 0 0.010429664571516525 -0.038434748239847612 0 0.0044398229411568967 -0.037651723884049547 0 0.0097954841753097408 -0.036911095579837239 0 0.010440075050599705 -0.038497642074841978 0 0.010471312149111504 -0.038490685484790489 0 0.010429664571516525 -0.038434748239847612 0 0.013058589269962881 -0.041592645244999379 0 0.012884501082115581 -0.039811884038356012 0 0.014435241916215221 -0.040412714148332002 0 0.01658716308378733 -0.03857653684516775 0 0.017262262720040018 -0.037592522095641422 0 0.013058589269962881 -0.041592645244999379 0 0.01186966730401978 -0.041284455921648318 0 0.011916741469248957 -0.040469479648475179 0 0.013058589269962881 -0.041592645244999379 0 0.011916741469248957 -0.040469479648475179 0 0.012884501082115581 -0.039811884038356012 0 0.011916741469248957 -0.040469479648475179 0 0.012884501082115581 -0.039811884038356012 0 0.011213601977243024 -0.038683953086150878 0 0.012884501082115581 -0.039811884038356012 0 0.014435241916215221 -0.040412714148332002 0 0.014141668766128575 -0.0388445353962577 0 0.017262262720040018 -0.037592522095641422 0 0.0184461441970863 -0.036757478477437114 0 0.02004445983345754 -0.034881962221393351 0 0.020159038943155173 -0.034919229608354863 0 0.020124623702080749 -0.034825878059787041 0 0.02004445983345754 -0.034881962221393351 0 0.020159038943155173 -0.034919229608354863 0 0.020152594174353521 -0.03494732703192991 0 0.02004445983345754 -0.034881962221393351 0 0.020152594174353521 -0.03494732703192991 0 0.020081406431375202 -0.034929240086184178 0 0.019816593628934759 -0.034965667278355018 0 0.02004445983345754 -0.034881962221393351 0 0.020081406431375202 -0.034929240086184178 0 0.020081406431375202 -0.034929240086184178 0 0.020249786243976695 -0.034906678964767658 0 0.019956386645849668 -0.035121663726270978 0 0.020152594174353521 -0.03494732703192991 0 0.020249786243976695 -0.034906678964767658 0 0.020071470877949946 -0.034838426236676219 0 0.020152594174353521 -0.03494732703192991 0 0.020081406431375202 -0.034929240086184178 0 0.020249786243976695 -0.034906678964767658 0 0.020249786243976695 -0.034906678964767658 0 0.019994341271076896 -0.034358410287427935 0 0.020071470877949946 -0.034838426236676219 0 0.020326372464577337 -0.034588768587805796 0 0.02027506651613405 -0.034895868517756855 0 0.020542569884681162 -0.034146206304991149 0 0.020249786243976695 -0.034906678964767658 0 0.019994341271076896 -0.034358410287427935 0 0.020145834815512575 -0.035223767745594561 0 0.020249786243976695 -0.034906678964767658 0 0.019956386645849668 -0.035121663726270978 0 0.019994341271076896 -0.034358410287427935 0 0.019771720731192766 -0.034724193029805228 0 0.019127590663678119 -0.034304059404303609 0 0.019994341271076896 -0.034358410287427935 0 0.020071470877949946 -0.034838426236676219 0 0.019771720731192766 -0.034724193029805228 0 0.020071470877949946 -0.034838426236676219 0 0.019771720731192766 -0.034724193029805228 0 0.020044007662609269 -0.035006397902274007 0 0.021907717727707589 -0.0343826070659203 0 0.022202015361192807 -0.03387875245437235 0 0.019498620411615861 -0.035015044371318881 0 0.019771720731192766 -0.034724193029805228 0 0.020044007662609269 -0.035006397902274007 0 0.019498620411615861 -0.035015044371318881 0 0.019771720731192766 -0.034724193029805228 0 0.019127590663678119 -0.034304059404303609 0 0.021907717727707589 -0.0343826070659203 0 0.01945291160109773 -0.034838955538071786 0 0.021907717727707589 -0.0343826070659203 0 0.020634460550609898 -0.034883427970358864 0 0.021588567525085253 -0.035080565562567487 0 0.021296077027500519 -0.034686026364488677 0 0.021739833401639777 -0.034734971639289666 0 0.020201522601814199 -0.035041193209182607 0 0.020044007662609269 -0.035006397902274007 0 0.020229130065995467 -0.03489864098279967 0 0.020152594174353521 -0.03494732703192991 0 0.020071470877949946 -0.034838426236676219 0 0.020044007662609269 -0.035006397902274007 0 0.020159038943155173 -0.034919229608354863 0 0.020152594174353521 -0.03494732703192991 0 0.020044007662609269 -0.035006397902274007 0 0.020159038943155173 -0.034919229608354863 0 0.020044007662609269 -0.035006397902274007 0 0.020229130065995467 -0.03489864098279967 0 0.020159038943155173 -0.034919229608354863 0 0.020229130065995467 -0.03489864098279967 0 0.020246584910071416 -0.034858658284803876 0 0.021296077027500519 -0.034686026364488677 0 0.021443577474972372 -0.034494313362616089 0 0.021739833401639777 -0.034734971639289666 0 0.021296077027500519 -0.034686026364488677 0 0.020423679657019835 -0.034738665553411804 0 0.021443577474972372 -0.034494313362616089 0 0.020634460550609898 -0.034883427970358864 0 0.020487718055098629 -0.034625098095969434 0 0.021087840275766892 -0.034241667849173575 0 0.020423679657019835 -0.034738665553411804 0 0.021443577474972372 -0.034494313362616089 0 0.021087840275766892 -0.034241667849173575 0 0.019933210248814701 -0.035003305854547119 0 0.020423679657019835 -0.034738665553411804 0 0.019933210248814701 -0.035003305854547119 0 0.020423679657019835 -0.034738665553411804 0 0.020124623702080749 -0.034825878059787041 0 0.020229130065995467 -0.03489864098279967 0 0.020246584910071416 -0.034858658284803876 0 0.020423679657019835 -0.034738665553411804 0 0.020246584910071416 -0.034858658284803876 0 0.020423679657019835 -0.034738665553411804 0 0.020124623702080749 -0.034825878059787041 0 0.020159038943155173 -0.034919229608354863 0 0.020246584910071416 -0.034858658284803876 0 0.020124623702080749 -0.034825878059787041 0 0.014435241916215221 -0.040412714148332002 0 0.016724283451864809 -0.038842737043576603 0 0.014141668766128575 -0.0388445353962577 0 0.016724283451864809 -0.038842737043576603 0 0.014141668766128575 -0.0388445353962577 0 0.015047051248087872 -0.037450442641287003 0 0.015047051248087872 -0.037450442641287003 0 0.016910215252926311 -0.035521051236083068 0 0.013410814520347807 -0.036127651299422733 0 0.014141668766128575 -0.0388445353962577 0 0.015047051248087872 -0.037450442641287003 0 0.013463927002530377 -0.037554608109528535 0 0.015047051248087872 -0.037450442641287003 0 0.013463927002530377 -0.037554608109528535 0 0.013410814520347807 -0.036127651299422733 0 0.019933210248814701 -0.035003305854547119 0 0.016724283451864809 -0.038842737043576603 0 0.016910215252926311 -0.035521051236083068 0 0.019847364476248863 -0.035111680928808911 0 0.0184461441970863 -0.036757478477437114 0 0.016724283451864809 -0.038842737043576603 0 0.015047051248087872 -0.037450442641287003 0 0.016910215252926311 -0.035521051236083068 0 0.016910215252926311 -0.035521051236083068 0 0.017519275407575297 -0.032533728277212404 0 0.01896984470606251 -0.033874125661841073 0 0.019933210248814701 -0.035003305854547119 0 0.016910215252926311 -0.035521051236083068 0 0.01896984470606251 -0.033874125661841073 0 0.016910215252926311 -0.035521051236083068 0 0.017519275407575297 -0.032533728277212404 0 0.013410814520347807 -0.036127651299422733 0 0.015557217197350722 -0.034380498164289827 0 0.013545024865842754 -0.035999668624643835 0 0.013167783364774104 -0.036057731563600766 0 0.013726517449141693 -0.035932415842231065 0 0.013410814520347807 -0.036127651299422733 0 0.013167783364774104 -0.036057731563600766 0 0.013726517449141693 -0.035932415842231065 0 0.013325950150467706 -0.035428956703163185 0 0.017519275407575297 -0.032533728277212404 0 0.019916912030947701 -0.032922149496813352 0 0.020055317120782911 -0.031703013304949838 0 0.017519275407575297 -0.032533728277212404 0 0.019916912030947701 -0.032922149496813352 0 0.01896984470606251 -0.033874125661841073 0 0.021064743696358228 -0.03300527195240241 0 0.021335230791332021 -0.032207096590600788 0 0.021743755704389484 -0.03281009191421768 0 0.019916912030947701 -0.032922149496813352 0 0.021064743696358228 -0.03300527195240241 0 0.020617853123507959 -0.03247099560444619 0 0.019916912030947701 -0.032922149496813352 0 0.021064743696358228 -0.03300527195240241 0 0.02071909194597641 -0.033927752236036418 0 0.021087840275766892 -0.034241667849173575 0 0.019933210248814701 -0.035003305854547119 0 0.02071909194597641 -0.033927752236036418 0 0.021087840275766892 -0.034241667849173575 0 0.02071909194597641 -0.033927752236036418 0 0.021445180360678096 -0.033480055436071243 0 0.021064743696358228 -0.03300527195240241 0 0.02071909194597641 -0.033927752236036418 0 0.021445180360678096 -0.033480055436071243 0 0.019933210248814701 -0.035003305854547119 0 0.02071909194597641 -0.033927752236036418 0 0.01896984470606251 -0.033874125661841073 0 0.019916912030947701 -0.032922149496813352 0 0.02071909194597641 -0.033927752236036418 0 0.01896984470606251 -0.033874125661841073 0 0.010243220654498609 -0.037446775113709502 0 0.010802930277186635 -0.037406917117018337 0 0.010526987738579557 -0.036818844962565177 0 0.010243220654498609 -0.037446775113709502 0 0.010475860355355788 -0.037939970655215385 0 0.010802930277186635 -0.037406917117018337 0 0.0098664526004636609 -0.037921697923343906 0 0.010429664571516525 -0.038434748239847612 0 0.010475860355355788 -0.037939970655215385 0 0.0098664526004636609 -0.037921697923343906 0 0.010243220654498609 -0.037446775113709502 0 0.010475860355355788 -0.037939970655215385 0 0.010475860355355788 -0.037939970655215385 0 0.011084246933916363 -0.037908282159324742 0 0.010802930277186635 -0.037406917117018337 0 0.010657604252586401 -0.038228448054335569 0 0.010475860355355788 -0.037939970655215385 0 0.011084246933916363 -0.037908282159324742 0 0.01116258735439077 -0.038253189553631099 0 0.011443688785685892 -0.037191812391174882 0 0.011084246933916363 -0.037908282159324742 0 0.010802930277186635 -0.037406917117018337 0 0.011472507100050955 -0.037115066800836448 0 0.010802930277186635 -0.037406917117018337 0 0.011098835960420952 -0.036998899555914407 0 0.010526987738579557 -0.036818844962565177 0 0.010802930277186635 -0.037406917117018337 0 0.011472507100050955 -0.037115066800836448 0 0.011098835960420952 -0.036998899555914407 0 0.011213601977243024 -0.038683953086150878 0 0.011472507100050955 -0.037115066800836448 0 0.011963948623572069 -0.037780472823410481 0 0.011472507100050955 -0.037115066800836448 0 0.011963948623572069 -0.037780472823410481 0 0.012468045065820041 -0.037051197354657048 0 0.011963948623572069 -0.037780472823410481 0 0.012626561132464374 -0.038304704813611437 0 0.012468045065820041 -0.037051197354657048 0 0.012884501082115581 -0.039811884038356012 0 0.011213601977243024 -0.038683953086150878 0 0.012626561132464374 -0.038304704813611437 0 0.011213601977243024 -0.038683953086150878 0 0.011963948623572069 -0.037780472823410481 0 0.012626561132464374 -0.038304704813611437 0 0.012884501082115581 -0.039811884038356012 0 0.014141668766128575 -0.0388445353962577 0 0.012626561132464374 -0.038304704813611437 0 0.014141668766128575 -0.0388445353962577 0 0.012626561132464374 -0.038304704813611437 0 0.013463927002530377 -0.037554608109528535 0 0.012626561132464374 -0.038304704813611437 0 0.013463927002530377 -0.037554608109528535 0 0.012468045065820041 -0.037051197354657048 0 0.013463927002530377 -0.037554608109528535 0 0.012468045065820041 -0.037051197354657048 0 0.013410814520347807 -0.036127651299422733 0 0.012468045065820041 -0.037051197354657048 0 0.013410814520347807 -0.036127651299422733 0 0.012427430826907568 -0.036417057756355488 0 0.013167783364774104 -0.036057731563600766 0 0.013410814520347807 -0.036127651299422733 0 0.012427430826907568 -0.036417057756355488 0 0.013070340567703757 -0.036179345061820377 0 0.012327014427476943 -0.035666296667441873 0 0.013167783364774104 -0.036057731563600766 0 0.012673705093702092 -0.035305539892088809 0 0.013325950150467706 -0.035428956703163185 0 0.013167783364774104 -0.036057731563600766 0 0.011861591514301958 -0.036418553624168459 0 0.011792246123897787 -0.036309230277301575 0 0.013167783364774104 -0.036057731563600766 0 0.012427430826907568 -0.036417057756355488 0 0.011861591514301958 -0.036418553624168459 0 0.013167783364774104 -0.036057731563600766 0 0.011792246123897787 -0.036309230277301575 0 0.011880202121790584 -0.036205291144012011 0 0.011861591514301958 -0.036418553624168459 0 0.011792246123897787 -0.036309230277301575 0 0.011250087625099298 -0.036526369569667143 0 0.011861591514301958 -0.036418553624168459 0 0.011248183750831295 -0.036601112117742557 0 0.011250087625099298 -0.036526369569667143 0 0.011861591514301958 -0.036418553624168459 0 0.011568664757451519 -0.036705164238214009 0 0.011248183750831295 -0.036601112117742557 0 0.012427430826907568 -0.036417057756355488 0 0.011568664757451519 -0.036705164238214009 0 0.011968461836540666 -0.036812874893416343 0 0.012427430826907568 -0.036417057756355488 0 0.011861591514301958 -0.036418553624168459 0 0.011568664757451519 -0.036705164238214009 0 0.011472507100050955 -0.037115066800836448 0 0.012468045065820041 -0.037051197354657048 0 0.011968461836540666 -0.036812874893416343 0 0.012468045065820041 -0.037051197354657048 0 0.012427430826907568 -0.036417057756355488 0 0.011968461836540666 -0.036812874893416343 0 0.011472507100050955 -0.037115066800836448 0 0.011568664757451519 -0.036705164238214009 0 0.011968461836540666 -0.036812874893416343 0 0.011568664757451519 -0.036705164238214009 0 0.011098835960420952 -0.036998899555914407 0 0.010526987738579557 -0.036818844962565177 0 0.011104655620803098 -0.036820554709973835 0 0.011157124632967527 -0.037103539573544134 0 0.011568664757451519 -0.036705164238214009 0 0.010593322117980301 -0.036804130578359809 0 0.010027790723081572 -0.037541069991160005 0 0.011472507100050955 -0.037115066800836448 0 0.011568664757451519 -0.036705164238214009 0 0.011098835960420952 -0.036998899555914407 0 0.011248183750831295 -0.036601112117742557 0 0.010023962575023188 -0.037291687058198693 0 0.010700163084930494 -0.036810320081891772 0 0.010593322117980301 -0.036804130578359809 0 0.011248183750831295 -0.036601112117742557 0 0.010096579719043115 -0.036293303858661037 0 0.011568664757451519 -0.036705164238214009 0 0.010593322117980301 -0.036804130578359809 0 0.011248183750831295 -0.036601112117742557 0 0.011248183750831295 -0.036601112117742557 0 0.010096579719043115 -0.036293303858661037 0 0.0099545104673516155 -0.035755611421384233 0 0.011048312814773172 -0.036634377363960607 0 0.00992021057518464 -0.036479718134994892 0 0.011248183750831295 -0.036601112117742557 0 0.010700163084930494 -0.036810320081891772 0 0.011250087625099298 -0.036526369569667143 0 0.010593322117980301 -0.036804130578359809 0 0.010096579719043115 -0.036293303858661037 0 0.0099529433004105789 -0.036872406708742984 0 0.010096579719043115 -0.036293303858661037 0 0.0099545104673516155 -0.035755611421384233 0 0.0094016875536813444 -0.036196095362990705 0 0.0084227585668643998 -0.035797080765387963 0 0.0099545104673516155 -0.035755611421384233 0 0.0094016875536813444 -0.036196095362990705 0 0.0090639760879463651 -0.036871280925269125 0 0.010096579719043115 -0.036293303858661037 0 0.0099529433004105789 -0.036872406708742984 0 0.0086576652120736817 -0.037410718764550981 0 0.0088647134614484313 -0.036729440044440918 0 0.010096579719043115 -0.036293303858661037 0 0.0088647134614484313 -0.036729440044440918 0 0.010096579719043115 -0.036293303858661037 0 0.0094016875536813444 -0.036196095362990705 0 0.0092063667011356588 -0.036868009634936846 0 0.0098150832030465974 -0.036489128096019542 0 0.0090639760879463651 -0.036871280925269125 0 0.0099529433004105789 -0.036872406708742984 0 0.010027790723081572 -0.037541069991160005 0 0.010593322117980301 -0.036804130578359809 0 0.0099529433004105789 -0.036872406708742984 0 0.010027790723081572 -0.037541069991160005 0 0.00893730968370407 -0.036806779044346781 0 0.0098282939127294112 -0.036601887293439314 0 0.0093082590466599582 -0.036251488560068622 0 0.0098282939127294112 -0.036601887293439314 0 0.010081647659698415 -0.036167646170223479 0 0.0093082590466599582 -0.036251488560068622 0 0.00893730968370407 -0.036806779044346781 0 0.0098282939127294112 -0.036601887293439314 0 0.0094393223419365745 -0.037117482392051114 0 0.0083380066963608373 -0.036135567520457247 0 0.00992021057518464 -0.036479718134994892 0 0.0085833903263855416 -0.037482362152405038 0 0.010023962575023188 -0.037291687058198693 0 0.0094393223419365745 -0.037117482392051114 0 0.010023962575023188 -0.037291687058198693 0 0.0094393223419365745 -0.037117482392051114 0 0.0099466761142988826 -0.037050761046715973 0 0.010023962575023188 -0.037291687058198693 0 0.010274541886072196 -0.036944200254398235 0 0.010700163084930494 -0.036810320081891772 0 0.010023962575023188 -0.037291687058198693 0 0.0099466761142988826 -0.037050761046715973 0 0.010274541886072196 -0.036944200254398235 0 0.0099466761142988826 -0.037050761046715973 0 0.010274541886072196 -0.036944200254398235 0 0.010152801793020005 -0.036817185179370882 0 0.0098282939127294112 -0.036601887293439314 0 0.010152801793020005 -0.036817185179370882 0 0.010430979825246985 -0.036583508334839698 0 0.0098282939127294112 -0.036601887293439314 0 0.0094393223419365745 -0.037117482392051114 0 0.010152801793020005 -0.036817185179370882 0 0.0094393223419365745 -0.037117482392051114 0 0.0099466761142988826 -0.037050761046715973 0 0.010152801793020005 -0.036817185179370882 0 0.010430979825246985 -0.036583508334839698 0 0.010853529591757139 -0.036516289757563242 0 0.010471229410950692 -0.036358130867959956 0 0.010430979825246985 -0.036583508334839698 0 0.010504571357839986 -0.036731565513550335 0 0.010853529591757139 -0.036516289757563242 0 0.010152801793020005 -0.036817185179370882 0 0.010430979825246985 -0.036583508334839698 0 0.010504571357839986 -0.036731565513550335 0 0.010504571357839986 -0.036731565513550335 0 0.010700163084930494 -0.036810320081891772 0 0.010853529591757139 -0.036516289757563242 0 0.010274541886072196 -0.036944200254398235 0 0.010504571357839986 -0.036731565513550335 0 0.010700163084930494 -0.036810320081891772 0 0.010274541886072196 -0.036944200254398235 0 0.010152801793020005 -0.036817185179370882 0 0.010504571357839986 -0.036731565513550335 0 0.010700163084930494 -0.036810320081891772 0 0.010853529591757139 -0.036516289757563242 0 0.011250087625099298 -0.036526369569667143 0 0.010853529591757139 -0.036516289757563242 0 0.010471229410950692 -0.036358130867959956 0 0.011091389970766573 -0.036204955356290931 0 0.0098282939127294112 -0.036601887293439314 0 0.010430979825246985 -0.036583508334839698 0 0.010471229410950692 -0.036358130867959956 0 0.010471229410950692 -0.036358130867959956 0 0.010081647659698415 -0.036167646170223479 0 0.010698041753571658 -0.036021158538631221 0 0.0098282939127294112 -0.036601887293439314 0 0.010471229410950692 -0.036358130867959956 0 0.010081647659698415 -0.036167646170223479 0 0.010471229410950692 -0.036358130867959956 0 0.011091389970766573 -0.036204955356290931 0 0.010698041753571658 -0.036021158538631221 0 0.011091389970766573 -0.036204955356290931 0 0.011880202121790584 -0.036205291144012011 0 0.011196767068715814 -0.035927068108120276 0 0.012327014427476943 -0.035666296667441873 0 0.011667632472973283 -0.035725205592902612 0 0.011091389970766573 -0.036204955356290931 0 0.011196767068715814 -0.035927068108120276 0 0.010698041753571658 -0.036021158538631221 0 0.010853529591757139 -0.036516289757563242 0 0.011091389970766573 -0.036204955356290931 0 0.01138077444328032 -0.036355987592677608 0 0.011091389970766573 -0.036204955356290931 0 0.01138077444328032 -0.036355987592677608 0 0.011880202121790584 -0.036205291144012011 0 0.011792246123897787 -0.036309230277301575 0 0.01138077444328032 -0.036355987592677608 0 0.011250087625099298 -0.036526369569667143 0 0.010853529591757139 -0.036516289757563242 0 0.01138077444328032 -0.036355987592677608 0 0.011250087625099298 -0.036526369569667143 0 0.011792246123897787 -0.036309230277301575 0 0.01138077444328032 -0.036355987592677608 0 0.011880202121790584 -0.036205291144012011 0 0.012673705093702092 -0.035305539892088809 0 0.012227620060383594 -0.034450162743528759 0 0.013287884891404349 -0.034419265969333292 0 0.011667632472973283 -0.035725205592902612 0 0.013581346032815605 -0.035760923239316296 0 0.012513953518653056 -0.03617039909029051 0 0.01158478321351372 -0.037155700147444043 0 0.013579752812943392 -0.037153925213488752 0 0.012513953518653056 -0.03617039909029051 0 0.011745729289762703 -0.035632479533863254 0 0.01314624735104522 -0.035000009932467976 0 0.011745729289762703 -0.035632479533863254 0 0.01110116773438464 -0.036218790074046291 0 0.010595615216412071 -0.035230014030653047 0 0.011163025998836213 -0.034999896782815745 0 0.011745729289762703 -0.035632479533863254 0 0.01314624735104522 -0.035000009932467976 0 0.012513953518653056 -0.03617039909029051 0 0.011745729289762703 -0.035632479533863254 0 0.01110116773438464 -0.036218790074046291 0 0.011163025998836213 -0.034999896782815745 0 0.011745729289762703 -0.035632479533863254 0 0.010595615216412071 -0.035230014030653047 0 0.012513953518653056 -0.03617039909029051 0 0.01110116773438464 -0.036218790074046291 0 0.01158478321351372 -0.037155700147444043 0 0.010996769940649567 -0.035999452234851563 0 0.011667632472973283 -0.035725205592902612 0 0.011667632472973283 -0.035725205592902612 0 0.010702446138815333 -0.035916620385666766 0 0.010757210190960789 -0.035708635607294772 0 0.01094281495219647 -0.036017850857000634 0 0.010698041753571658 -0.036021158538631221 0 0.010757210190960789 -0.035708635607294772 0 0.010698041753571658 -0.036021158538631221 0 0.010333472351864173 -0.035868507066716349 0 0.010081647659698415 -0.036167646170223479 0 0.010698041753571658 -0.036021158538631221 0 0.010333472351864173 -0.035868507066716349 0 0.010081647659698415 -0.036167646170223479 0 0.010333472351864173 -0.035868507066716349 0 0.009698062102416553 -0.03580101995682608 0 0.010333472351864173 -0.035868507066716349 0 0.010185865723766495 -0.035566794704532119 0 0.009698062102416553 -0.03580101995682608 0 0.010757210190960789 -0.035708635607294772 0 0.010333472351864173 -0.035868507066716349 0 0.010185865723766495 -0.035566794704532119 0 0.011163025998836213 -0.034999896782815745 0 0.010595615216412071 -0.035230014030653047 0 0.0091806450561840655 -0.0349996662959993 0 0.010595615216412071 -0.035230014030653047 0 0.010185865723766495 -0.035566794704532119 0 0.0091806450561840655 -0.0349996662959993 0 0.010757210190960789 -0.035708635607294772 0 0.010595615216412071 -0.035230014030653047 0 0.010185865723766495 -0.035566794704532119 0 0.010996769940649567 -0.035999452234851563 0 0.010626834120027908 -0.035311404302653442 0 0.010185865723766495 -0.035566794704532119 0 0.0091806450561840655 -0.0349996662959993 0 0.009698062102416553 -0.03580101995682608 0 0.0088789290199973621 -0.035821611535546249 0 0.0091806450561840655 -0.0349996662959993 0 0.009698062102416553 -0.03580101995682608 0 0.0088789290199973621 -0.035821611535546249 0 0.009698062102416553 -0.03580101995682608 0 0.0093082590466599582 -0.036251488560068622 0 0.010081647659698415 -0.036167646170223479 0 0.009698062102416553 -0.03580101995682608 0 0.0093082590466599582 -0.036251488560068622 0 0.014800156737457148 -0.035186748977635199 0 0.014474521165384344 -0.034316330706063158 0 0.015873305087647074 -0.03427938981168991 0 0.014800156737457148 -0.035186748977635199 0 0.013893083219109745 -0.035087488459134765 0 0.014474521165384344 -0.034316330706063158 0 0.021335230791332021 -0.032207096590600788 0 0.020055317120782911 -0.031703013304949838 0 0.021712539948052806 -0.030541877492380267 0 0.017501237510924833 -0.033148599336517669 0 0.018525057546229125 -0.033884872461939088 0 0.021335230791332021 -0.032207096590600788 0 0.020617853123507959 -0.03247099560444619 0 0.020055317120782911 -0.031703013304949838 0 0.021064743696358228 -0.03300527195240241 0 0.021335230791332021 -0.032207096590600788 0 0.020617853123507959 -0.03247099560444619 0 0.019916912030947701 -0.032922149496813352 0 0.020617853123507959 -0.03247099560444619 0 0.020055317120782911 -0.031703013304949838 0 0.015557217197350722 -0.034380498164289827 0 0.017501237510924833 -0.033148599336517669 0 0.013726517449141693 -0.035932415842231065 0 0.013893083219109745 -0.035087488459134765 0 0.013325950150467706 -0.035428956703163185 0 0.013726517449141693 -0.035932415842231065 0 0.014800156737457148 -0.035186748977635199 0 0.013893083219109745 -0.035087488459134765 0 0.012673705093702092 -0.035305539892088809 0 0.013325950150467706 -0.035428956703163185 0 0.013287884891404349 -0.034419265969333292 0 0.013893083219109745 -0.035087488459134765 0 0.013325950150467706 -0.035428956703163185 0 0.013287884891404349 -0.034419265969333292 0 0.013893083219109745 -0.035087488459134765 0 0.013287884891404349 -0.034419265969333292 0 0.014474521165384344 -0.034316330706063158 0 0.014535340560179542 -0.036202616734604044 0 0.013579752812943392 -0.037153925213488752 0 0.015572972029400873 -0.037150026936248158 0 0.013581346032815605 -0.035760923239316296 0 0.014607341184627327 -0.035981732515679134 0 0.012513953518653056 -0.03617039909029051 0 0.014535340560179542 -0.036202616734604044 0 0.013579752812943392 -0.037153925213488752 0 0.012513953518653056 -0.03617039909029051 0 0.014535340560179542 -0.036202616734604044 0 0.01314624735104522 -0.035000009932467976 0 0.014535340560179542 -0.036202616734604044 0 0.01314624735104522 -0.035000009932467976 0 0.015129044123536882 -0.034999980738622587 0 0.015129044123536882 -0.034999980738622587 0 0.016574136144071838 -0.03623078766598882 0 0.017111966473207996 -0.03499998277480372 0 0.014535340560179542 -0.036202616734604044 0 0.015129044123536882 -0.034999980738622587 0 0.016574136144071838 -0.03623078766598882 0 0.014535340560179542 -0.036202616734604044 0 0.015572972029400873 -0.037150026936248158 0 0.016574136144071838 -0.03623078766598882 0 0.014607341184627327 -0.035981732515679134 0 0.018525057546229125 -0.033884872461939088 0 0.016574136144071838 -0.03623078766598882 0 0.017739776440469198 -0.035962855615028225 0 0.017575372980180349 -0.037136846074448247 0 0.015572972029400873 -0.037150026936248158 0 0.016574136144071838 -0.03623078766598882 0 0.017575372980180349 -0.037136846074448247 0 0.016574136144071838 -0.03623078766598882 0 0.017111966473207996 -0.03499998277480372 0 0.017739776440469198 -0.035962855615028225 0 0.017739776440469198 -0.035962855615028225 0 0.019094817901351372 -0.034999988270049062 0 0.018343873261847918 -0.036443542125275487 0 0.017111966473207996 -0.03499998277480372 0 0.017739776440469198 -0.035962855615028225 0 0.019094817901351372 -0.034999988270049062 0 0.019094999374352231 -0.034999961520348587 0 0.019163792530711377 -0.035659901259788303 0 0.018478137573681632 -0.036304748655729087 0 0.019093775786321838 -0.035001740881080351 0 0.019401987088104516 -0.035449861957919639 0 0.019094999374352231 -0.034999961520348587 0 0.019163792530711377 -0.035659901259788303 0 0.019960602460094429 -0.035000012394522065 0 0.020471373171027849 -0.034898215362157869 0 0.01996102262379032 -0.035000025345497808 0 0.021921299958200659 -0.033950492769066087 0 0.022215666257990568 -0.033858459830513964 0 0.021878102853071089 -0.033464150057722193 0 0.021365280134454292 -0.032937849164363639 0 0.022141545642419585 -0.033528651159116844 0 0.021674620267446518 -0.034445348172847494 0 0.021921299958200659 -0.033950492769066087 0 0.021206948855971661 -0.034430594102530278 0 0.021674620267446518 -0.034445348172847494 0 0.021921299958200659 -0.033950492769066087 0 0.022160603294442333 -0.034003737744515747 0 0.020471373171027849 -0.034898215362157869 0 0.019401987088104516 -0.035449861957919639 0 0.021921299958200659 -0.033950492769066087 0 0.022160603294442333 -0.034003737744515747 0 0.022215666257990568 -0.033858459830513964 0 0.017739776440469198 -0.035962855615028225 0 0.018343873261847918 -0.036443542125275487 0 0.017575372980180349 -0.037136846074448247 0 0.019401987088104516 -0.035449861957919639 0 0.021365280134454292 -0.032937849164363639 0 0.019401987088104516 -0.035449861957919639 0 0.018525057546229125 -0.033884872461939088 0 0.019351882041594305 -0.034673294798873391 0 0.0197811592354382 -0.033809151168421876 0 0.020279316163713656 -0.033806243665712284 0 0.021365280134454292 -0.032937849164363639 0 0.018525057546229125 -0.033884872461939088 0 0.021335230791332021 -0.032207096590600788 0 0.021992793359887689 -0.032663109171690727 0 0.021972785312932279 -0.032545893010392658 0 0.021684726568469224 -0.031690513406756139 0 0.021365280134454292 -0.032937849164363639 0 0.021335230791332021 -0.032207096590600788 0 0.022145343739541724 -0.030546078700769773 0 0.021712539948052806 -0.030541877492380267 0 0.021972785312932279 -0.032545893010392658 0 0.022164642819475493 -0.032835975880372979 0 0.021878102853071089 -0.033464150057722193 0 0.021992793359887689 -0.032663109171690727 0 0.021972785312932279 -0.032545893010392658 0 0.021878102853071089 -0.033464150057722193 0 0.021972785312932279 -0.032545893010392658 0 0.022164642819475493 -0.032835975880372979 0 0.022148667480684631 -0.03278031957642244 0 0.022164642819475493 -0.032835975880372979 0 0.022148667480684631 -0.03278031957642244 0 0.022411028109729163 -0.03275767151021735 0 0.021335230791332021 -0.032207096590600788 0 0.021972785312932279 -0.032545893010392658 0 0.021743755704389484 -0.03281009191421768 0 0.021972785312932279 -0.032545893010392658 0 0.021743755704389484 -0.03281009191421768 0 0.022148667480684631 -0.03278031957642244 0 0.022447079775464035 -0.032794780673701944 0 0.022751110127432198 -0.032565320037218445 0 0.022347647787198846 -0.033067234209047829 0 0.022447079775464035 -0.032794780673701944 0 0.022751110127432198 -0.032565320037218445 0 0.022679265760397933 -0.032629504679581894 0 0.022447079775464035 -0.032794780673701944 0 0.022411028109729163 -0.03275767151021735 0 0.022679265760397933 -0.032629504679581894 0 0.022447079775464035 -0.032794780673701944 0 0.022164642819475493 -0.032835975880372979 0 0.022411028109729163 -0.03275767151021735 0 0.022447079775464035 -0.032794780673701944 0 0.022164642819475493 -0.032835975880372979 0 0.022183237272131038 -0.033159145261231579 0 0.022164642819475493 -0.032835975880372979 0 0.022183237272131038 -0.033159145261231579 0 0.021878102853071089 -0.033464150057722193 0 0.022183237272131038 -0.033159145261231579 0 0.021946521000772309 -0.033776752720957912 0 0.021878102853071089 -0.033464150057722193 0 0.022183237272131038 -0.033159145261231579 0 0.022347647787198846 -0.033067234209047829 0 0.021946521000772309 -0.033776752720957912 0 0.022447079775464035 -0.032794780673701944 0 0.022183237272131038 -0.033159145261231579 0 0.022347647787198846 -0.033067234209047829 0 0.022347647787198846 -0.033067234209047829 0 0.021946521000772309 -0.033776752720957912 0 0.022107637238793363 -0.033363335487427474 0 0.021946521000772309 -0.033776752720957912 0 0.021206948855971661 -0.034430594102530278 0 0.021693831572478017 -0.0345055661138595 0 0.021946521000772309 -0.033776752720957912 0 0.021693831572478017 -0.0345055661138595 0 0.021884818832041686 -0.034100074628356472 0 0.021946521000772309 -0.033776752720957912 0 0.021878102853071089 -0.033464150057722193 0 0.021206948855971661 -0.034430594102530278 0 0.021921299958200659 -0.033950492769066087 0 0.021878102853071089 -0.033464150057722193 0 0.021206948855971661 -0.034430594102530278 0 0.021206948855971661 -0.034430594102530278 0 0.019965881964680961 -0.034999383560316781 0 0.021321386505379347 -0.034999230175202949 0 0.021674620267446518 -0.034445348172847494 0 0.021206948855971661 -0.034430594102530278 0 0.019965881964680961 -0.034999383560316781 0 0.021206948855971661 -0.034430594102530278 0 0.021693831572478017 -0.0345055661138595 0 0.021321386505379347 -0.034999230175202949 0 0.021693831572478017 -0.0345055661138595 0 0.021321386505379347 -0.034999230175202949 0 0.022023054151280221 -0.034668110032975333 0 0.022680354354573485 -0.034999354974244667 0 0.022023054151280221 -0.034668110032975333 0 0.021477390575679753 -0.034117704104025266 0 0.021321386505379347 -0.034999230175202949 0 0.022680354354573485 -0.034999354974244667 0 0.022023054151280221 -0.034668110032975333 0 0.022682179823817126 -0.035002779057913956 0 0.023326345990812177 -0.033183542207742056 0 0.022683811069689256 -0.034999545577200766 0 0.023931012580465025 -0.0354384805006141 0 0.024554974555664941 -0.034999352903825789 0 0.022683811069689256 -0.034999545577200766 0 0.023931012580465025 -0.0354384805006141 0 0.023506075963677764 -0.036144042255150763 0 0.023931012580465025 -0.0354384805006141 0 0.023506075963677764 -0.036144042255150763 0 0.025545392454342192 -0.03616966741534991 0 0.023326345990812177 -0.033183542207742056 0 0.022071324176469006 -0.033433338929962662 0 0.021653160760390061 -0.033815416448207264 0 0.021884818832041686 -0.034100074628356472 0 0.022107637238793363 -0.033363335487427474 0 0.021946521000772309 -0.033776752720957912 0 0.021884818832041686 -0.034100074628356472 0 0.022107637238793363 -0.033363335487427474 0 0.021693831572478017 -0.0345055661138595 0 0.022023054151280221 -0.034668110032975333 0 0.021884818832041686 -0.034100074628356472 0 0.022023054151280221 -0.034668110032975333 0 0.021477390575679753 -0.034117704104025266 0 0.021884818832041686 -0.034100074628356472 0 0.024554974555664941 -0.034999352903825789 0 0.025565147991786438 -0.035285052147919022 0 0.026427230846046441 -0.034999398098488524 0 0.025565147991786438 -0.035285052147919022 0 0.026427230846046441 -0.034999398098488524 0 0.027113626491588997 -0.035202758079771489 0 0.023931012580465025 -0.0354384805006141 0 0.024554974555664941 -0.034999352903825789 0 0.025565147991786438 -0.035285052147919022 0 0.023931012580465025 -0.0354384805006141 0 0.025565147991786438 -0.035285052147919022 0 0.025545392454342192 -0.03616966741534991 0 0.025565147991786438 -0.035285052147919022 0 0.025545392454342192 -0.03616966741534991 0 0.027113626491588997 -0.035202758079771489 0 0.02588398815233782 -0.032332066716168846 0 0.027682520868569555 -0.032282287722400015 0 0.025545392454342192 -0.03616966741534991 0 0.027113626491588997 -0.035202758079771489 0 0.027861036381433897 -0.034944657997787072 0 0.026142036031653906 -0.028864517703068384 0 0.02618154887724429 -0.030376581456464626 0 0.024321497858874108 -0.029660661193121857 0 0.026142036031653906 -0.028864517703068384 0 0.02618154887724429 -0.030376581456464626 0 0.027058219532963619 -0.0301479892197246 0 0.026142036031653906 -0.028864517703068384 0 0.027058219532963619 -0.0301479892197246 0 0.027853905297276407 -0.029820074802944276 0 0.027058219532963619 -0.0301479892197246 0 0.027395430503610839 -0.030635680529079359 0 0.027853905297276407 -0.029820074802944276 0 0.02618154887724429 -0.030376581456464626 0 0.027058219532963619 -0.0301479892197246 0 0.027395430503610839 -0.030635680529079359 0 0.021653160760390061 -0.033815416448207264 0 0.022107637238793363 -0.033363335487427474 0 0.022376172827500471 -0.032686271037000884 0 0.022347647787198846 -0.033067234209047829 0 0.022107637238793363 -0.033363335487427474 0 0.022376172827500471 -0.032686271037000884 0 0.023326345990812177 -0.033183542207742056 0 0.02588398815233782 -0.032332066716168846 0 0.023326345990812177 -0.033183542207742056 0 0.023355053440308759 -0.030803858406655719 0 0.024180503889662783 -0.028142316496731452 0 0.026142036031653906 -0.028864517703068384 0 0.024321497858874108 -0.029660661193121857 0 0.023355053440308759 -0.030803858406655719 0 0.024038759696627127 -0.031956847102071542 0 0.02618154887724429 -0.030376581456464626 0 0.024321497858874108 -0.029660661193121857 0 0.025394236744673462 -0.031072511593204649 0 0.022751110127432198 -0.032565320037218445 0 0.022347647787198846 -0.033067234209047829 0 0.022376172827500471 -0.032686271037000884 0 0.022751110127432198 -0.032565320037218445 0 0.022376172827500471 -0.032686271037000884 0 0.023196468807264732 -0.032187278729098871 0 0.022751110127432198 -0.032565320037218445 0 0.023090692331874673 -0.032355030631923125 0 0.023196468807264732 -0.032187278729098871 0 0.023090692331874673 -0.032355030631923125 0 0.023606573692347643 -0.032083503605846941 0 0.023196468807264732 -0.032187278729098871 0 0.022376172827500471 -0.032686271037000884 0 0.023196468807264732 -0.032187278729098871 0 0.02419679845514806 -0.031658021443445442 0 0.023090692331874673 -0.032355030631923125 0 0.023606573692347643 -0.032083503605846941 0 0.023421345980682646 -0.032508061886448537 0 0.023606573692347643 -0.032083503605846941 0 0.02419679845514806 -0.031658021443445442 0 0.024266122608951946 -0.032093885565216564 0 0.023606573692347643 -0.032083503605846941 0 0.023196468807264732 -0.032187278729098871 0 0.02419679845514806 -0.031658021443445442 0 0.024321497858874108 -0.029660661193121857 0 0.025394236744673462 -0.031072511593204649 0 0.02419679845514806 -0.031658021443445442 0 0.025394236744673462 -0.031072511593204649 0 0.02419679845514806 -0.031658021443445442 0 0.025168362553470196 -0.031868678581620409 0 0.02419679845514806 -0.031658021443445442 0 0.024266122608951946 -0.032093885565216564 0 0.025168362553470196 -0.031868678581620409 0 0.024266122608951946 -0.032093885565216564 0 0.025168362553470196 -0.031868678581620409 0 0.025727428074312386 -0.031833954811163481 0 0.024266122608951946 -0.032093885565216564 0 0.023421345980682646 -0.032508061886448537 0 0.023582030902693171 -0.033053193918587784 0 0.023606573692347643 -0.032083503605846941 0 0.024266122608951946 -0.032093885565216564 0 0.023421345980682646 -0.032508061886448537 0 0.02618154887724429 -0.030376581456464626 0 0.027395430503610839 -0.030635680529079359 0 0.026511858126219021 -0.031052389120566366 0 0.027395430503610839 -0.030635680529079359 0 0.026511858126219021 -0.031052389120566366 0 0.027238336026874435 -0.030985115593112747 0 0.02618154887724429 -0.030376581456464626 0 0.025394236744673462 -0.031072511593204649 0 0.026511858126219021 -0.031052389120566366 0 0.025394236744673462 -0.031072511593204649 0 0.026511858126219021 -0.031052389120566366 0 0.025913386356515956 -0.031471646466701114 0 0.025394236744673462 -0.031072511593204649 0 0.025168362553470196 -0.031868678581620409 0 0.025913386356515956 -0.031471646466701114 0 0.025168362553470196 -0.031868678581620409 0 0.025913386356515956 -0.031471646466701114 0 0.026025611113034378 -0.0316969822861169 0 0.025913386356515956 -0.031471646466701114 0 0.026629079587272196 -0.031356376674286673 0 0.026025611113034378 -0.0316969822861169 0 0.026511858126219021 -0.031052389120566366 0 0.025913386356515956 -0.031471646466701114 0 0.026629079587272196 -0.031356376674286673 0 0.026629079587272196 -0.031356376674286673 0 0.027238336026874435 -0.030985115593112747 0 0.027520843705205609 -0.031073852550580247 0 0.026511858126219021 -0.031052389120566366 0 0.026629079587272196 -0.031356376674286673 0 0.027238336026874435 -0.030985115593112747 0 0.026629079587272196 -0.031356376674286673 0 0.026870759829776353 -0.031422047244525748 0 0.027520843705205609 -0.031073852550580247 0 0.026870759829776353 -0.031422047244525748 0 0.027189585159201817 -0.031478937282046093 0 0.027520843705205609 -0.031073852550580247 0 0.026025611113034378 -0.0316969822861169 0 0.026381917313030093 -0.031685388904478154 0 0.025727428074312386 -0.031833954811163481 0 0.026629079587272196 -0.031356376674286673 0 0.026870759829776353 -0.031422047244525748 0 0.026025611113034378 -0.0316969822861169 0 0.026870759829776353 -0.031422047244525748 0 0.026025611113034378 -0.0316969822861169 0 0.026381917313030093 -0.031685388904478154 0 0.026381917313030093 -0.031685388904478154 0 0.025727428074312386 -0.031833954811163481 0 0.02643119156527067 -0.031938919744070121 0 0.026381917313030093 -0.031685388904478154 0 0.027189585159201817 -0.031478937282046093 0 0.02643119156527067 -0.031938919744070121 0 0.026870759829776353 -0.031422047244525748 0 0.026381917313030093 -0.031685388904478154 0 0.027189585159201817 -0.031478937282046093 0 0.024266122608951946 -0.032093885565216564 0 0.023582030902693171 -0.033053193918587784 0 0.024289796247442048 -0.033597418506465075 0 0.023582030902693171 -0.033053193918587784 0 0.024289796247442048 -0.033597418506465075 0 0.023688028749897616 -0.033556859978613032 0 0.024374192594981487 -0.032036035141941796 0 0.024946615385612925 -0.03266694860303658 0 0.025168362553470196 -0.031868678581620409 0 0.026025611113034378 -0.0316969822861169 0 0.025727428074312386 -0.031833954811163481 0 0.024946615385612925 -0.03266694860303658 0 0.025260486663873562 -0.033067122002763301 0 0.024289796247442048 -0.033597418506465075 0 0.023688028749897616 -0.033556859978613032 0 0.024018050632113007 -0.033892959001559538 0 0.023688028749897616 -0.033556859978613032 0 0.023401714354282614 -0.033750348965568243 0 0.024018050632113007 -0.033892959001559538 0 0.023401714354282614 -0.033750348965568243 0 0.023219934059541335 -0.034034158432072928 0 0.024018050632113007 -0.033892959001559538 0 0.023688028749897616 -0.033556859978613032 0 0.023401714354282614 -0.033750348965568243 0 0.023205008528920278 -0.033365836090794132 0 0.023582030902693171 -0.033053193918587784 0 0.023688028749897616 -0.033556859978613032 0 0.023205008528920278 -0.033365836090794132 0 0.023401714354282614 -0.033750348965568243 0 0.023205008528920278 -0.033365836090794132 0 0.022895216071633914 -0.033666418574066811 0 0.023205008528920278 -0.033365836090794132 0 0.023090629038529535 -0.032948656470897841 0 0.022793012829151769 -0.03325047977063697 0 0.023582030902693171 -0.033053193918587784 0 0.023205008528920278 -0.033365836090794132 0 0.023090629038529535 -0.032948656470897841 0 0.022600103967457083 -0.03351209442269986 0 0.022895216071633914 -0.033666418574066811 0 0.022319444220608182 -0.033797575651807611 0 0.022600103967457083 -0.03351209442269986 0 0.022409981742101546 -0.033330963037999727 0 0.022793012829151769 -0.03325047977063697 0 0.022600103967457083 -0.03351209442269986 0 0.022895216071633914 -0.033666418574066811 0 0.022793012829151769 -0.03325047977063697 0 0.023205008528920278 -0.033365836090794132 0 0.022895216071633914 -0.033666418574066811 0 0.022793012829151769 -0.03325047977063697 0 0.022895216071633914 -0.033666418574066811 0 0.022583388804785793 -0.034097547987717296 0 0.022319444220608182 -0.033797575651807611 0 0.023401714354282614 -0.033750348965568243 0 0.022895216071633914 -0.033666418574066811 0 0.023219934059541335 -0.034034158432072928 0 0.022895216071633914 -0.033666418574066811 0 0.022583388804785793 -0.034097547987717296 0 0.023219934059541335 -0.034034158432072928 0 0.022583388804785793 -0.034097547987717296 0 0.022072569298353141 -0.034172556032144939 0 0.022170224621607039 -0.034433103162669183 0 0.022583388804785793 -0.034097547987717296 0 0.022072569298353141 -0.034172556032144939 0 0.022319444220608182 -0.033797575651807611 0 0.022072569298353141 -0.034172556032144939 0 0.021710745035548214 -0.034116751503629542 0 0.022319444220608182 -0.033797575651807611 0 0.022072569298353141 -0.034172556032144939 0 0.021443577474972372 -0.034494313362616089 0 0.021710745035548214 -0.034116751503629542 0 0.022072569298353141 -0.034172556032144939 0 0.021443577474972372 -0.034494313362616089 0 0.022170224621607039 -0.034433103162669183 0 0.021087840275766892 -0.034241667849173575 0 0.021443577474972372 -0.034494313362616089 0 0.021710745035548214 -0.034116751503629542 0 0.021087840275766892 -0.034241667849173575 0 0.021710745035548214 -0.034116751503629542 0 0.021873750977395124 -0.03368697669567499 0 0.021873750977395124 -0.03368697669567499 0 0.022319444220608182 -0.033797575651807611 0 0.022409981742101546 -0.033330963037999727 0 0.021710745035548214 -0.034116751503629542 0 0.021873750977395124 -0.03368697669567499 0 0.022319444220608182 -0.033797575651807611 0 0.022600103967457083 -0.03351209442269986 0 0.022319444220608182 -0.033797575651807611 0 0.022409981742101546 -0.033330963037999727 0 0.021873750977395124 -0.03368697669567499 0 0.022409981742101546 -0.033330963037999727 0 0.022034311177576676 -0.033171130081161612 0 0.022409981742101546 -0.033330963037999727 0 0.022034311177576676 -0.033171130081161612 0 0.022352722879189595 -0.032998340962735614 0 0.021087840275766892 -0.034241667849173575 0 0.021873750977395124 -0.03368697669567499 0 0.021445180360678096 -0.033480055436071243 0 0.021873750977395124 -0.03368697669567499 0 0.022034311177576676 -0.033171130081161612 0 0.021445180360678096 -0.033480055436071243 0 0.021064743696358228 -0.03300527195240241 0 0.021445180360678096 -0.033480055436071243 0 0.021743755704389484 -0.03281009191421768 0 0.022034311177576676 -0.033171130081161612 0 0.021445180360678096 -0.033480055436071243 0 0.021743755704389484 -0.03281009191421768 0 0.022034311177576676 -0.033171130081161612 0 0.022352722879189595 -0.032998340962735614 0 0.022148667480684631 -0.03278031957642244 0 0.022034311177576676 -0.033171130081161612 0 0.021743755704389484 -0.03281009191421768 0 0.022148667480684631 -0.03278031957642244 0 0.022352722879189595 -0.032998340962735614 0 0.022148667480684631 -0.03278031957642244 0 0.022411028109729163 -0.03275767151021735 0 0.022352722879189595 -0.032998340962735614 0 0.022411028109729163 -0.03275767151021735 0 0.022656468392057479 -0.032890095151900507 0 0.022411028109729163 -0.03275767151021735 0 0.022679265760397933 -0.032629504679581894 0 0.022656468392057479 -0.032890095151900507 0 0.023090692331874673 -0.032355030631923125 0 0.022679265760397933 -0.032629504679581894 0 0.02295999404215774 -0.03263669903710284 0 0.022751110127432198 -0.032565320037218445 0 0.023090692331874673 -0.032355030631923125 0 0.022679265760397933 -0.032629504679581894 0 0.023090692331874673 -0.032355030631923125 0 0.023421345980682646 -0.032508061886448537 0 0.02295999404215774 -0.03263669903710284 0 0.022679265760397933 -0.032629504679581894 0 0.02295999404215774 -0.03263669903710284 0 0.022656468392057479 -0.032890095151900507 0 0.02295999404215774 -0.03263669903710284 0 0.023090629038529535 -0.032948656470897841 0 0.022656468392057479 -0.032890095151900507 0 0.023421345980682646 -0.032508061886448537 0 0.02295999404215774 -0.03263669903710284 0 0.023090629038529535 -0.032948656470897841 0 0.023421345980682646 -0.032508061886448537 0 0.023582030902693171 -0.033053193918587784 0 0.023090629038529535 -0.032948656470897841 0 0.023090629038529535 -0.032948656470897841 0 0.022793012829151769 -0.03325047977063697 0 0.022656468392057479 -0.032890095151900507 0 0.022409981742101546 -0.033330963037999727 0 0.022793012829151769 -0.03325047977063697 0 0.022656468392057479 -0.032890095151900507 0 0.022409981742101546 -0.033330963037999727 0 0.022352722879189595 -0.032998340962735614 0 0.022656468392057479 -0.032890095151900507 0 0.034060285618907428 -0.031087203388853412 0 0.034996300486193337 -0.031278452843333492 0 0.033089900010550365 -0.032115066628357711 0 0.034060285618907428 -0.031087203388853412 0 0.033089900010550365 -0.032115066628357711 0 0.03318339223490771 -0.031759532440062799 0 0.033089900010550365 -0.032115066628357711 0 0.032518063180357222 -0.032930756747974424 0 0.03318339223490771 -0.031759532440062799 0 0.034999653685561988 -0.03128008670217694 0 0.034101860969556169 -0.0326545315416788 0 0.034998126494383573 -0.034999055500305999 0 0.034010996410846608 -0.034669062355574813 0 0.032046142654920048 -0.034998600097509151 0 0.034999268163443696 -0.031282712640907095 0 0.03510186360331858 -0.033087257059256768 0 0.034998126494383573 -0.034999055500305999 0 0.03510186360331858 -0.033087257059256768 0 0.034998126494383573 -0.034999055500305999 0 0.034010996410846608 -0.034669062355574813 0 0.033089900010550365 -0.032115066628357711 0 0.032135541022884316 -0.033570080527629553 0 0.032518063180357222 -0.032930756747974424 0 0.034101860969556169 -0.0326545315416788 0 0.033070292094676726 -0.034040594684876135 0 0.032135541022884316 -0.033570080527629553 0 0.032009967658628471 -0.034105823478501683 0 0.032518063180357222 -0.032930756747974424 0 0.033070292094676726 -0.034040594684876135 0 0.032042074209707685 -0.034999535467487825 0 0.032135541022884316 -0.033570080527629553 0 0.032039688320224212 -0.034997561116380076 0 0.032009967658628471 -0.034105823478501683 0 0.032009967658628471 -0.034105823478501683 0 0.031070237775031807 -0.034327074139530678 0 0.030171805326792218 -0.034999141349728959 0 0.032039688320224212 -0.034997561116380076 0 0.032009967658628471 -0.034105823478501683 0 0.030171805326792218 -0.034999141349728959 0 0.032009967658628471 -0.034105823478501683 0 0.031984880155288428 -0.033615162615078846 0 0.032518063180357222 -0.032930756747974424 0 0.032009967658628471 -0.034105823478501683 0 0.031984880155288428 -0.033615162615078846 0 0.031070237775031807 -0.034327074139530678 0 0.031984880155288428 -0.033615162615078846 0 0.032727407979306324 -0.032488126370420603 0 0.031900202402307946 -0.033571278901079277 0 0.031984880155288428 -0.033615162615078846 0 0.032518063180357222 -0.032930756747974424 0 0.032727407979306324 -0.032488126370420603 0 0.032518063180357222 -0.032930756747974424 0 0.03318339223490771 -0.031759532440062799 0 0.032727407979306324 -0.032488126370420603 0 0.032727407979306324 -0.032488126370420603 0 0.031900202402307946 -0.033571278901079277 0 0.032620132516419854 -0.032762468387808281 0 0.030879591455405749 -0.034359988174430249 0 0.031900202402307946 -0.033571278901079277 0 0.032620132516419854 -0.032762468387808281 0 0.029393399700345574 -0.033572043840167536 0 0.030616291421403697 -0.031613222765872313 0 0.028584167989607792 -0.031350022837581017 0 0.027916648862449062 -0.032924703704027676 0 0.028619492270901728 -0.030400796122492437 0 0.030879591455405749 -0.034359988174430249 0 0.03091228177284926 -0.034299690669447325 0 0.028388820664389341 -0.03488059795271984 0 0.031984880155288428 -0.033615162615078846 0 0.03091228177284926 -0.034299690669447325 0 0.031900202402307946 -0.033571278901079277 0 0.030879591455405749 -0.034359988174430249 0 0.03091228177284926 -0.034299690669447325 0 0.031900202402307946 -0.033571278901079277 0 0.031984880155288428 -0.033615162615078846 0 0.03091228177284926 -0.034299690669447325 0 0.031070237775031807 -0.034327074139530678 0 0.03091228177284926 -0.034299690669447325 0 0.031070237775031807 -0.034327074139530678 0 0.02996528533021256 -0.034634110548419313 0 0.031070237775031807 -0.034327074139530678 0 0.030171805326792218 -0.034999141349728959 0 0.02996528533021256 -0.034634110548419313 0 0.02996528533021256 -0.034634110548419313 0 0.028388820664389341 -0.03488059795271984 0 0.028298616172974161 -0.034998520527728949 0 0.030171805326792218 -0.034999141349728959 0 0.02996528533021256 -0.034634110548419313 0 0.028298616172974161 -0.034998520527728949 0 0.03091228177284926 -0.034299690669447325 0 0.02996528533021256 -0.034634110548419313 0 0.028388820664389341 -0.03488059795271984 0 0.028388820664389341 -0.03488059795271984 0 0.028298616172974161 -0.034998520527728949 0 0.026427230846046441 -0.034999398098488524 0 0.028388820664389341 -0.03488059795271984 0 0.026427230846046441 -0.034999398098488524 0 0.027113626491588997 -0.035202758079771489 0 0.028388820664389341 -0.03488059795271984 0 0.027113626491588997 -0.035202758079771489 0 0.028365922325798071 -0.033966597775643842 0 0.027113626491588997 -0.035202758079771489 0 0.028365922325798071 -0.033966597775643842 0 0.027861036381433897 -0.034944657997787072 0 0.029393399700345574 -0.033572043840167536 0 0.028566049846541569 -0.034612106948313515 0 0.027916648862449062 -0.032924703704027676 0 0.028388820664389341 -0.03488059795271984 0 0.028365922325798071 -0.033966597775643842 0 0.028584167989607792 -0.031350022837581017 0 0.027853905297276407 -0.029820074802944276 0 0.028275863188037754 -0.030682052503377258 0 0.028584167989607792 -0.031350022837581017 0 0.027916648862449062 -0.032924703704027676 0 0.028365922325798071 -0.033966597775643842 0 0.028300134483935032 -0.031454513125146591 0 0.027682520868569555 -0.032282287722400015 0 0.028584167989607792 -0.031350022837581017 0 0.028365922325798071 -0.033966597775643842 0 0.027861036381433897 -0.034944657997787072 0 0.027395430503610839 -0.030635680529079359 0 0.027853905297276407 -0.029820074802944276 0 0.028275863188037754 -0.030682052503377258 0 0.027395430503610839 -0.030635680529079359 0 0.028275863188037754 -0.030682052503377258 0 0.028034630856886227 -0.030721741354701924 0 0.027395430503610839 -0.030635680529079359 0 0.027238336026874435 -0.030985115593112747 0 0.028034630856886227 -0.030721741354701924 0 0.028275863188037754 -0.030682052503377258 0 0.02870538541090361 -0.03035784526205447 0 0.028034630856886227 -0.030721741354701924 0 0.028584167989607792 -0.031350022837581017 0 0.028275863188037754 -0.030682052503377258 0 0.02870538541090361 -0.03035784526205447 0 0.02870538541090361 -0.03035784526205447 0 0.028034630856886227 -0.030721741354701924 0 0.028551746257227978 -0.030512937631550989 0 0.028034630856886227 -0.030721741354701924 0 0.027520843705205609 -0.031073852550580247 0 0.028551746257227978 -0.030512937631550989 0 0.027238336026874435 -0.030985115593112747 0 0.028034630856886227 -0.030721741354701924 0 0.027520843705205609 -0.031073852550580247 0 0.027189585159201817 -0.031478937282046093 0 0.027520843705205609 -0.031073852550580247 0 0.028313697086747906 -0.030930940857137653 0 0.027189585159201817 -0.031478937282046093 0 0.028313697086747906 -0.030930940857137653 0 0.027739659993170459 -0.03153218019702534 0 0.028313697086747906 -0.030930940857137653 0 0.029366874036938218 -0.03050830908272013 0 0.02826428382683532 -0.031750400616550864 0 0.027520843705205609 -0.031073852550580247 0 0.028313697086747906 -0.030930940857137653 0 0.028551746257227978 -0.030512937631550989 0 0.028313697086747906 -0.030930940857137653 0 0.028551746257227978 -0.030512937631550989 0 0.029366874036938218 -0.03050830908272013 0 0.028551746257227978 -0.030512937631550989 0 0.029366874036938218 -0.03050830908272013 0 0.029420953103441536 -0.029910126075319201 0 0.029366874036938218 -0.03050830908272013 0 0.030967930482231721 -0.029650886359062961 0 0.030825637540822775 -0.030323082321574952 0 0.029420953103441536 -0.029910126075319201 0 0.030481912519045997 -0.029159140278286113 0 0.030967930482231721 -0.029650886359062961 0 0.029366874036938218 -0.03050830908272013 0 0.029420953103441536 -0.029910126075319201 0 0.030967930482231721 -0.029650886359062961 0 0.029420953103441536 -0.029910126075319201 0 0.029040392975425353 -0.029993478750981215 0 0.030481912519045997 -0.029159140278286113 0 0.02870538541090361 -0.03035784526205447 0 0.029420953103441536 -0.029910126075319201 0 0.029040392975425353 -0.029993478750981215 0 0.02870538541090361 -0.03035784526205447 0 0.028551746257227978 -0.030512937631550989 0 0.029420953103441536 -0.029910126075319201 0 0.028584167989607792 -0.031350022837581017 0 0.028619492270901728 -0.030400796122492437 0 0.029040392975425353 -0.029993478750981215 0 0.028584167989607792 -0.031350022837581017 0 0.02870538541090361 -0.03035784526205447 0 0.029040392975425353 -0.029993478750981215 0 0.028619492270901728 -0.030400796122492437 0 0.029040392975425353 -0.029993478750981215 0 0.030481912519045997 -0.029159140278286113 0 0.030616291421403697 -0.031613222765872313 0 0.032038908559813478 -0.03009648952103789 0 0.032727407979306324 -0.032488126370420603 0 0.033357545399382724 -0.030949911577428272 0 0.033555825100590464 -0.030940967982502076 0 0.032727407979306324 -0.032488126370420603 0 0.032620132516419854 -0.032762468387808281 0 0.033555825100590464 -0.030940967982502076 0 0.03318339223490771 -0.031759532440062799 0 0.033357545399382724 -0.030949911577428272 0 0.033918457067835327 -0.029999824762178297 0 0.03318339223490771 -0.031759532440062799 0 0.032727407979306324 -0.032488126370420603 0 0.033357545399382724 -0.030949911577428272 0 0.033357545399382724 -0.030949911577428272 0 0.033555825100590464 -0.030940967982502076 0 0.033262012210599767 -0.029071551323922327 0 0.033357545399382724 -0.030949911577428272 0 0.033262012210599767 -0.029071551323922327 0 0.033918457067835327 -0.029999824762178297 0 0.032038908559813478 -0.03009648952103789 0 0.033061186390134889 -0.029324594723720048 0 0.030481912519045997 -0.029159140278286113 0 0.030967930482231721 -0.029650886359062961 0 0.033262012210599767 -0.029071551323922327 0 0.030967930482231721 -0.029650886359062961 0 0.033131620661251103 -0.029052948449707131 0 0.033262012210599767 -0.029071551323922327 0 0.030967930482231721 -0.029650886359062961 0 0.033131620661251103 -0.029052948449707131 0 0.030825637540822775 -0.030323082321574952 0 0.033131620661251103 -0.029052948449707131 0 0.033262012210599767 -0.029071551323922327 0 0.03470775322409328 -0.027919814202077689 0 0.033262012210599767 -0.029071551323922327 0 0.034439940705294506 -0.028704864249824762 0 0.033918457067835327 -0.029999824762178297 0 0.033262012210599767 -0.029071551323922327 0 0.034439940705294506 -0.028704864249824762 0 0.03470775322409328 -0.027919814202077689 0 0.03470775322409328 -0.027919814202077689 0 0.034998697663675027 -0.027713940928308631 0 0.034999491469831293 -0.025931300918783966 0 0.034439940705294506 -0.028704864249824762 0 0.03470775322409328 -0.027919814202077689 0 0.034998697663675027 -0.027713940928308631 0 0.034439940705294506 -0.028704864249824762 0 0.034998697663675027 -0.027713940928308631 0 0.03499901599462469 -0.029497479543564836 0 0.034439940705294506 -0.028704864249824762 0 0.03499901599462469 -0.029497479543564836 0 0.033918457067835327 -0.029999824762178297 0 0.034060285618907428 -0.031087203388853412 0 0.03318339223490771 -0.031759532440062799 0 0.033918457067835327 -0.029999824762178297 0 0.034060285618907428 -0.031087203388853412 0 0.034996300486193337 -0.031278452843333492 0 0.03499901599462469 -0.029497479543564836 0 0.034060285618907428 -0.031087203388853412 0 0.03499901599462469 -0.029497479543564836 0 0.033918457067835327 -0.029999824762178297 0 0.035285088993284253 -0.022632099502445716 0 0.034972940042516852 -0.021947801324810931 0 0.035000310977153115 -0.021767312205865127 0 0.03514985677195083 -0.023406283322355118 0 0.03452834702399999 -0.022767581247784524 0 0.035285088993284253 -0.022632099502445716 0 0.034994061094275206 -0.022776799787159935 0 0.035000310977153115 -0.021767312205865127 0 0.03514985677195083 -0.023406283322355118 0 0.03499470707904398 -0.022779313865513687 0 0.033758482718887019 -0.024144857905190952 0 0.034527640085343779 -0.023651440082780126 0 0.034890372890346771 -0.024307039899530022 0 0.03514985677195083 -0.023406283322355118 0 0.032551253355816483 -0.028488258674244808 0 0.033758482718887019 -0.024144857905190952 0 0.034527640085343779 -0.023651440082780126 0 0.034100083608473795 -0.023355554496452283 0 0.034922179239686664 -0.024729860351785329 0 0.035093563911019643 -0.025003221840899946 0 0.035737329532675666 -0.024680189770628261 0 0.035093563911019643 -0.025003221840899946 0 0.03586607512704889 -0.025536410535612813 0 0.035737329532675666 -0.024680189770628261 0 0.035533479158295411 -0.022837192934844344 0 0.034994585504060524 -0.022778706798178044 0 0.034999987238523489 -0.024146380710523937 0 0.034922179239686664 -0.024729860351785329 0 0.035093563911019643 -0.025003221840899946 0 0.034998364086223296 -0.024151440706814933 0 0.03514985677195083 -0.023406283322355118 0 0.034999955436033785 -0.024146686812771968 0 0.034998364086223296 -0.024151440706814933 0 0.034944911667027498 -0.026697443733309005 0 0.034976150260658763 -0.025935049727097044 0 0.035093563911019643 -0.025003221840899946 0 0.034998364086223296 -0.024151440706814933 0 0.034976150260658763 -0.025935049727097044 0 0.034998364086223296 -0.024151440706814933 0 0.034999491469831293 -0.025931300918783966 0 0.034944911667027498 -0.026697443733309005 0 0.03470775322409328 -0.027919814202077689 0 0.034999491469831293 -0.025931300918783966 0 0.034944911667027498 -0.026697443733309005 0 0.03470775322409328 -0.027919814202077689 0 0.034944911667027498 -0.026697443733309005 0 0.035031398098961261 -0.028187942131690211 0 0.033131620661251103 -0.029052948449707131 0 0.03470775322409328 -0.027919814202077689 0 0.035031398098961261 -0.028187942131690211 0 0.035127430822788283 -0.028200391540764907 0 0.035088886274027002 -0.028493383940498468 0 0.034944911667027498 -0.026697443733309005 0 0.035031398098961261 -0.028187942131690211 0 0.034976150260658763 -0.025935049727097044 0 0.035093563911019643 -0.025003221840899946 0 0.034976150260658763 -0.025935049727097044 0 0.03586607512704889 -0.025536410535612813 0 0.035031398098961261 -0.028187942131690211 0 0.034976150260658763 -0.025935049727097044 0 0.03586607512704889 -0.025536410535612813 0 0.035031398098961261 -0.028187942131690211 0 0.034685783931706085 -0.031414959825980804 0 0.032599741744720571 -0.030207948169090018 0 0.034685783931706085 -0.031414959825980804 0 0.032599741744720571 -0.030207948169090018 0 0.032565755513003038 -0.031925126420181568 0 0.033131620661251103 -0.029052948449707131 0 0.035031398098961261 -0.028187942131690211 0 0.032599741744720571 -0.030207948169090018 0 0.033131620661251103 -0.029052948449707131 0 0.032599741744720571 -0.030207948169090018 0 0.030825637540822775 -0.030323082321574952 0 0.032599741744720571 -0.030207948169090018 0 0.032565755513003038 -0.031925126420181568 0 0.030558276636540014 -0.031578191201831841 0 0.032599741744720571 -0.030207948169090018 0 0.030558276636540014 -0.031578191201831841 0 0.030825637540822775 -0.030323082321574952 0 0.031186454330015979 -0.033159417554218619 0 0.032565755513003038 -0.031925126420181568 0 0.030558276636540014 -0.031578191201831841 0 0.031186454330015979 -0.033159417554218619 0 0.032565755513003038 -0.031925126420181568 0 0.034280366017358933 -0.033424160110673153 0 0.028610309329212935 -0.033682299704017461 0 0.032551253355816483 -0.028488258674244808 0 0.034685783931706085 -0.031414959825980804 0 0.032565755513003038 -0.031925126420181568 0 0.034280366017358933 -0.033424160110673153 0 0.035088886274027002 -0.028493383940498468 0 0.032551253355816483 -0.028488258674244808 0 0.025670696676538311 -0.033015758069128036 0 0.026582882143368722 -0.032381933450727117 0 0.025665127815947208 -0.031466568290697029 0 0.032551253355816483 -0.028488258674244808 0 0.029905111322031865 -0.027285192401012986 0 0.034527640085343779 -0.023651440082780126 0 0.034890372890346771 -0.024307039899530022 0 0.034944403670035887 -0.02294718553621879 0 0.027129677842841003 -0.033181987273594192 0 0.025670696676538311 -0.033015758069128036 0 0.026582882143368722 -0.032381933450727117 0 0.027129677842841003 -0.033181987273594192 0 0.026582882143368722 -0.032381933450727117 0 0.028062730512254337 -0.032492692462954088 0 0.027129677842841003 -0.033181987273594192 0 0.028062730512254337 -0.032492692462954088 0 0.028620950421860469 -0.032861524985104307 0 0.028062730512254337 -0.032492692462954088 0 0.028620950421860469 -0.032861524985104307 0 0.028371024406466838 -0.03271816383203726 0 0.028610309329212935 -0.033682299704017461 0 0.02883564691030464 -0.032795913486339978 0 0.031186454330015979 -0.033159417554218619 0 0.028620950421860469 -0.032861524985104307 0 0.030558276636540014 -0.031578191201831841 0 0.028620950421860469 -0.032861524985104307 0 0.030558276636540014 -0.031578191201831841 0 0.029444872246598638 -0.031275351819567608 0 0.030558276636540014 -0.031578191201831841 0 0.030825637540822775 -0.030323082321574952 0 0.029444872246598638 -0.031275351819567608 0 0.029366874036938218 -0.03050830908272013 0 0.030825637540822775 -0.030323082321574952 0 0.029444872246598638 -0.031275351819567608 0 0.029366874036938218 -0.03050830908272013 0 0.029444872246598638 -0.031275351819567608 0 0.02826428382683532 -0.031750400616550864 0 0.028620950421860469 -0.032861524985104307 0 0.029444872246598638 -0.031275351819567608 0 0.02826428382683532 -0.031750400616550864 0 0.028313697086747906 -0.030930940857137653 0 0.02826428382683532 -0.031750400616550864 0 0.027739659993170459 -0.03153218019702534 0 0.02826428382683532 -0.031750400616550864 0 0.027739659993170459 -0.03153218019702534 0 0.027241098371890784 -0.031942164624816638 0 0.027189585159201817 -0.031478937282046093 0 0.027739659993170459 -0.03153218019702534 0 0.027241098371890784 -0.031942164624816638 0 0.02826428382683532 -0.031750400616550864 0 0.027241098371890784 -0.031942164624816638 0 0.027249127845539966 -0.032532848403712601 0 0.02826428382683532 -0.031750400616550864 0 0.028062889184112184 -0.032575859830142141 0 0.027249127845539966 -0.032532848403712601 0 0.028062889184112184 -0.032575859830142141 0 0.027602516602519594 -0.032855186578991676 0 0.027249127845539966 -0.032532848403712601 0 0.028620950421860469 -0.032861524985104307 0 0.02826428382683532 -0.031750400616550864 0 0.028062889184112184 -0.032575859830142141 0 0.028620950421860469 -0.032861524985104307 0 0.028062889184112184 -0.032575859830142141 0 0.028371024406466838 -0.03271816383203726 0 0.028371024406466838 -0.03271816383203726 0 0.027602516602519594 -0.032855186578991676 0 0.027911115313353316 -0.032866798595659406 0 0.028062889184112184 -0.032575859830142141 0 0.028371024406466838 -0.03271816383203726 0 0.027602516602519594 -0.032855186578991676 0 0.027602516602519594 -0.032855186578991676 0 0.027911115313353316 -0.032866798595659406 0 0.027143190559609703 -0.033189792373032684 0 0.027911115313353316 -0.032866798595659406 0 0.027429702452086622 -0.033332111273731757 0 0.027143190559609703 -0.033189792373032684 0 0.028371024406466838 -0.03271816383203726 0 0.027911115313353316 -0.032866798595659406 0 0.028872582540674346 -0.032372484990292896 0 0.02897974231101777 -0.032308703938039716 0 0.029432819514797062 -0.031465227622945673 0 0.028872582540674346 -0.032372484990292896 0 0.027833533829658582 -0.0332196342522268 0 0.027934768808244186 -0.033892342711752413 0 0.027911115313353316 -0.032866798595659406 0 0.028872582540674346 -0.032372484990292896 0 0.027833533829658582 -0.0332196342522268 0 0.027911115313353316 -0.032866798595659406 0 0.027833533829658582 -0.0332196342522268 0 0.027429702452086622 -0.033332111273731757 0 0.027833533829658582 -0.0332196342522268 0 0.027429702452086622 -0.033332111273731757 0 0.027484636643229119 -0.033653130325490832 0 0.027484636643229119 -0.033653130325490832 0 0.027647743910976873 -0.033912197061883545 0 0.027934768808244186 -0.033892342711752413 0 0.027833533829658582 -0.0332196342522268 0 0.027484636643229119 -0.033653130325490832 0 0.027934768808244186 -0.033892342711752413 0 0.027647743910976873 -0.033912197061883545 0 0.027934768808244186 -0.033892342711752413 0 0.027281863612190895 -0.033269065870178485 0 0.029432819514797062 -0.031465227622945673 0 0.029521799898512995 -0.030215666353589236 0 0.03096555979078432 -0.029429712668405102 0 0.02979415211193305 -0.027794655789524437 0 0.032034234405338348 -0.026431312839495277 0 0.028872582540674346 -0.032372484990292896 0 0.03096555979078432 -0.029429712668405102 0 0.029046216814544851 -0.030124038586027146 0 0.03096555979078432 -0.029429712668405102 0 0.029046216814544851 -0.030124038586027146 0 0.02979415211193305 -0.027794655789524437 0 0.029046216814544851 -0.030124038586027146 0 0.02979415211193305 -0.027794655789524437 0 0.028274379579683984 -0.028606751644574095 0 0.029046216814544851 -0.030124038586027146 0 0.028274379579683984 -0.028606751644574095 0 0.027753491472328751 -0.030517588233218939 0 0.02979415211193305 -0.027794655789524437 0 0.028274379579683984 -0.028606751644574095 0 0.028451590991277441 -0.026572953297181665 0 0.028274379579683984 -0.028606751644574095 0 0.027171681682353403 -0.027399927457411717 0 0.026604237852577119 -0.029246935444314261 0 0.028274379579683984 -0.028606751644574095 0 0.027171681682353403 -0.027399927457411717 0 0.028451590991277441 -0.026572953297181665 0 0.027753491472328751 -0.030517588233218939 0 0.026444419912028484 -0.030550450157517089 0 0.026604237852577119 -0.029246935444314261 0 0.028274379579683984 -0.028606751644574095 0 0.027753491472328751 -0.030517588233218939 0 0.026604237852577119 -0.029246935444314261 0 0.028062730512254337 -0.032492692462954088 0 0.028872582540674346 -0.032372484990292896 0 0.027295809882141604 -0.031598670747274522 0 0.028872582540674346 -0.032372484990292896 0 0.027753491472328751 -0.030517588233218939 0 0.027295809882141604 -0.031598670747274522 0 0.027753491472328751 -0.030517588233218939 0 0.027295809882141604 -0.031598670747274522 0 0.026444419912028484 -0.030550450157517089 0 0.028872582540674346 -0.032372484990292896 0 0.029046216814544851 -0.030124038586027146 0 0.027753491472328751 -0.030517588233218939 0 0.028062730512254337 -0.032492692462954088 0 0.028371024406466838 -0.03271816383203726 0 0.028872582540674346 -0.032372484990292896 0 0.026582882143368722 -0.032381933450727117 0 0.028062730512254337 -0.032492692462954088 0 0.027295809882141604 -0.031598670747274522 0 0.026582882143368722 -0.032381933450727117 0 0.027295809882141604 -0.031598670747274522 0 0.025665127815947208 -0.031466568290697029 0 0.025665127815947208 -0.031466568290697029 0 0.026444419912028484 -0.030550450157517089 0 0.025600223743102862 -0.029503715045679866 0 0.034944403670035887 -0.02294718553621879 0 0.034725034393010439 -0.022611462164499479 0 0.034704535202167631 -0.022666656215899427 0 0.029905111322031865 -0.027285192401012986 0 0.030629405196305377 -0.026026309534920345 0 0.027295809882141604 -0.031598670747274522 0 0.025665127815947208 -0.031466568290697029 0 0.026444419912028484 -0.030550450157517089 0 0.026444419912028484 -0.030550450157517089 0 0.026604237852577119 -0.029246935444314261 0 0.025600223743102862 -0.029503715045679866 0 0.026604237852577119 -0.029246935444314261 0 0.026272899789635588 -0.028497379570860785 0 0.025600223743102862 -0.029503715045679866 0 0.027171681682353403 -0.027399927457411717 0 0.026604237852577119 -0.029246935444314261 0 0.025413462855095038 -0.027309286984248088 0 0.026272899789635588 -0.028497379570860785 0 0.025600223743102862 -0.029503715045679866 0 0.025829684219561222 -0.027622806347887094 0 0.026479141446161446 -0.029020541495123283 0 0.026009683845552412 -0.027893390766811139 0 0.030629405196305377 -0.026026309534920345 0 0.027489987905690051 -0.024984116110707253 0 0.034725034393010439 -0.022611462164499479 0 0.034680917651611534 -0.022563652728493901 0 0.03466897471016895 -0.022562550552900344 0 0.034725034393010439 -0.022611462164499479 0 0.03468382135653468 -0.022656699304323267 0 0.034704535202167631 -0.022666656215899427 0 0.034725034393010439 -0.022611462164499479 0 0.03468382135653468 -0.022656699304323267 0 0.034680917651611534 -0.022563652728493901 0 0.035480075927840429 -0.020803568687241453 0 0.03610214996291955 -0.019718479590126323 0 0.036345870124740061 -0.018833266543112605 0 0.035936107098020732 -0.017166192119385307 0 0.036951113972089084 -0.017382764882410268 0 0.036345870124740061 -0.018833266543112605 0 0.034999929193587055 -0.017792317231427431 0 0.035936107098020732 -0.017166192119385307 0 0.036345870124740061 -0.018833266543112605 0 0.034999929193587055 -0.017792317231427431 0 0.034999981409923754 -0.019778698577329452 0 0.035480075927840429 -0.020803568687241453 0 0.035285076104179268 -0.021408348370897674 0 0.036345870124740061 -0.018833266543112605 0 0.034999981409923754 -0.019778698577329452 0 0.035690214221727939 -0.020304288174501136 0 0.034999981409923754 -0.019778698577329452 0 0.035690214221727939 -0.020304288174501136 0 0.034999999722645121 -0.021765094702469422 0 0.034944403670035887 -0.02294718553621879 0 0.034616967120016481 -0.022630996089040879 0 0.034704535202167631 -0.022666656215899427 0 0.03468382135653468 -0.022656699304323267 0 0.034616967120016481 -0.022630996089040879 0 0.034704535202167631 -0.022666656215899427 0 0.03468382135653468 -0.022656699304323267 0 0.03491005563596155 -0.022564121688226375 0 0.034616967120016481 -0.022630996089040879 0 0.034944403670035887 -0.02294718553621879 0 0.034616967120016481 -0.022630996089040879 0 0.034582436066863384 -0.023143097281245282 0 0.034527640085343779 -0.023651440082780126 0 0.034944403670035887 -0.02294718553621879 0 0.034582436066863384 -0.023143097281245282 0 0.034600797014103596 -0.022613240440471583 0 0.03452834702399999 -0.022767581247784524 0 0.03491005563596155 -0.022564121688226375 0 0.034616967120016481 -0.022630996089040879 0 0.034972940042516852 -0.021947801324810931 0 0.034616967120016481 -0.022630996089040879 0 0.034582436066863384 -0.023143097281245282 0 0.034100083608473795 -0.023355554496452283 0 0.034527640085343779 -0.023651440082780126 0 0.034582436066863384 -0.023143097281245282 0 0.034100083608473795 -0.023355554496452283 0 0.035285076104179268 -0.021408348370897674 0 0.035000056885673578 -0.021765121365851653 0 0.03491005563596155 -0.022564121688226375 0 0.034972940042516852 -0.021947801324810931 0 0.035000310977153115 -0.021767312205865127 0 0.024630199037399866 -0.034087478538816322 0 0.024258545121453833 -0.034221080681497956 0 0.023834489797015131 -0.034748802302736144 0 0.022532698206959852 -0.035066680120133226 0 0.022938924463549764 -0.034442660132464234 0 0.023834489797015131 -0.034748802302736144 0 0.023804490831221305 -0.034189819905061827 0 0.024807438205124207 -0.033867964912491305 0 0.025654930746910626 -0.03352776740557413 0 0.025699567355416612 -0.033560152180959701 0 0.025628879487315431 -0.033607630682603036 0 0.025654930746910626 -0.03352776740557413 0 0.025450688336821018 -0.0335811595993133 0 0.025628879487315431 -0.033607630682603036 0 0.025654930746910626 -0.03352776740557413 0 0.025450688336821018 -0.0335811595993133 0 0.025385365902209661 -0.03338650721116454 0 0.025450688336821018 -0.0335811595993133 0 0.025195348318624966 -0.033551511850386607 0 0.025385365902209661 -0.03338650721116454 0 0.025085701781729641 -0.033318335894749557 0 0.025195348318624966 -0.033551511850386607 0 0.025385365902209661 -0.03338650721116454 0 0.021907717727707589 -0.0343826070659203 0 0.024258545121453833 -0.034221080681497956 0 0.022532698206959852 -0.035066680120133226 0 0.022170224621607039 -0.034433103162669183 0 0.022938924463549764 -0.034442660132464234 0 0.021588567525085253 -0.035080565562567487 0 0.022532698206959852 -0.035066680120133226 0 0.021739833401639777 -0.034734971639289666 0 0.022532698206959852 -0.035066680120133226 0 0.021739833401639777 -0.034734971639289666 0 0.022170224621607039 -0.034433103162669183 0 0.021443577474972372 -0.034494313362616089 0 0.021739833401639777 -0.034734971639289666 0 0.022170224621607039 -0.034433103162669183 0 0.022583388804785793 -0.034097547987717296 0 0.022170224621607039 -0.034433103162669183 0 0.022938924463549764 -0.034442660132464234 0 0.023219934059541335 -0.034034158432072928 0 0.022938924463549764 -0.034442660132464234 0 0.023804490831221305 -0.034189819905061827 0 0.022583388804785793 -0.034097547987717296 0 0.023219934059541335 -0.034034158432072928 0 0.022938924463549764 -0.034442660132464234 0 0.023834489797015131 -0.034748802302736144 0 0.022938924463549764 -0.034442660132464234 0 0.023804490831221305 -0.034189819905061827 0 0.023219934059541335 -0.034034158432072928 0 0.023804490831221305 -0.034189819905061827 0 0.024018050632113007 -0.033892959001559538 0 0.024289796247442048 -0.033597418506465075 0 0.024018050632113007 -0.033892959001559538 0 0.024558234825636516 -0.033913057112416232 0 0.025727428074312386 -0.031833954811163481 0 0.025887800226767635 -0.032124475360120426 0 0.02643119156527067 -0.031938919744070121 0 0.024558234825636516 -0.033913057112416232 0 0.024807438205124207 -0.033867964912491305 0 0.025651366789318123 -0.033402003345520175 0 0.025260486663873562 -0.033067122002763301 0 0.02559235207847424 -0.033460618347360395 0 0.025887800226767635 -0.032124475360120426 0 0.02652825749328078 -0.032501180594224355 0 0.025651366789318123 -0.033402003345520175 0 0.023804490831221305 -0.034189819905061827 0 0.024018050632113007 -0.033892959001559538 0 0.024807438205124207 -0.033867964912491305 0 0.024018050632113007 -0.033892959001559538 0 0.024558234825636516 -0.033913057112416232 0 0.024807438205124207 -0.033867964912491305 0 0.027189585159201817 -0.031478937282046093 0 0.027241098371890784 -0.031942164624816638 0 0.02643119156527067 -0.031938919744070121 0 0.027241098371890784 -0.031942164624816638 0 0.02643119156527067 -0.031938919744070121 0 0.02652825749328078 -0.032501180594224355 0 0.025887800226767635 -0.032124475360120426 0 0.02643119156527067 -0.031938919744070121 0 0.02652825749328078 -0.032501180594224355 0 0.027241098371890784 -0.031942164624816638 0 0.02652825749328078 -0.032501180594224355 0 0.027249127845539966 -0.032532848403712601 0 0.027602516602519594 -0.032855186578991676 0 0.027249127845539966 -0.032532848403712601 0 0.026860227111143883 -0.033066413757578926 0 0.027249127845539966 -0.032532848403712601 0 0.026473079343450435 -0.032997603840054707 0 0.026860227111143883 -0.033066413757578926 0 0.02652825749328078 -0.032501180594224355 0 0.027249127845539966 -0.032532848403712601 0 0.026473079343450435 -0.032997603840054707 0 0.02652825749328078 -0.032501180594224355 0 0.026473079343450435 -0.032997603840054707 0 0.025651366789318123 -0.033402003345520175 0 0.026473079343450435 -0.032997603840054707 0 0.026199891996235396 -0.033341363463390887 0 0.025651366789318123 -0.033402003345520175 0 0.026199891996235396 -0.033341363463390887 0 0.026099958629460639 -0.033460790237191347 0 0.026553217003550931 -0.033344032519509105 0 0.026199891996235396 -0.033341363463390887 0 0.026860227111143883 -0.033066413757578926 0 0.026553217003550931 -0.033344032519509105 0 0.026473079343450435 -0.032997603840054707 0 0.026199891996235396 -0.033341363463390887 0 0.026860227111143883 -0.033066413757578926 0 0.027602516602519594 -0.032855186578991676 0 0.026860227111143883 -0.033066413757578926 0 0.027143190559609703 -0.033189792373032684 0 0.024630199037399866 -0.034087478538816322 0 0.025338943642850924 -0.033832881340278557 0 0.023834489797015131 -0.034748802302736144 0 0.024807438205124207 -0.033867964912491305 0 0.025435930886297187 -0.033760175513777753 0 0.024807438205124207 -0.033867964912491305 0 0.025651366789318123 -0.033402003345520175 0 0.025435930886297187 -0.033760175513777753 0 0.025651366789318123 -0.033402003345520175 0 0.025787472798642283 -0.033528175114211731 0 0.025435930886297187 -0.033760175513777753 0 0.026199891996235396 -0.033341363463390887 0 0.025651366789318123 -0.033402003345520175 0 0.025787472798642283 -0.033528175114211731 0 0.026199891996235396 -0.033341363463390887 0 0.025787472798642283 -0.033528175114211731 0 0.026099958629460639 -0.033460790237191347 0 0.025787472798642283 -0.033528175114211731 0 0.025777786465921215 -0.033552537600920723 0 0.026099958629460639 -0.033460790237191347 0 0.025787472798642283 -0.033528175114211731 0 0.025435930886297187 -0.033760175513777753 0 0.025777786465921215 -0.033552537600920723 0 0.025654930746910626 -0.03352776740557413 0 0.025435930886297187 -0.033760175513777753 0 0.025699567355416612 -0.033560152180959701 0 0.025435930886297187 -0.033760175513777753 0 0.025699567355416612 -0.033560152180959701 0 0.025777786465921215 -0.033552537600920723 0 0.025699567355416612 -0.033560152180959701 0 0.025877961420312845 -0.033586913266153685 0 0.025758330370274345 -0.033680147310994092 0 0.025699567355416612 -0.033560152180959701 0 0.025877961420312845 -0.033586913266153685 0 0.025777786465921215 -0.033552537600920723 0 0.025777786465921215 -0.033552537600920723 0 0.026099958629460639 -0.033460790237191347 0 0.026164633725322045 -0.033555982075896156 0 0.025877961420312845 -0.033586913266153685 0 0.025777786465921215 -0.033552537600920723 0 0.026164633725322045 -0.033555982075896156 0 0.025877961420312845 -0.033586913266153685 0 0.026164633725322045 -0.033555982075896156 0 0.025955384603483792 -0.033706315168414443 0 0.026164633725322045 -0.033555982075896156 0 0.026541925261070066 -0.033669932351837913 0 0.026218562626276372 -0.03375509441544481 0 0.026164633725322045 -0.033555982075896156 0 0.025955384603483792 -0.033706315168414443 0 0.026218562626276372 -0.03375509441544481 0 0.025955384603483792 -0.033706315168414443 0 0.025871498172431336 -0.03383060009640447 0 0.025758330370274345 -0.033680147310994092 0 0.025877961420312845 -0.033586913266153685 0 0.025955384603483792 -0.033706315168414443 0 0.025758330370274345 -0.033680147310994092 0 0.026860227111143883 -0.033066413757578926 0 0.027143190559609703 -0.033189792373032684 0 0.026553217003550931 -0.033344032519509105 0 0.027143190559609703 -0.033189792373032684 0 0.026553217003550931 -0.033344032519509105 0 0.026571888877064024 -0.033500318532331985 0 0.026099958629460639 -0.033460790237191347 0 0.026164633725322045 -0.033555982075896156 0 0.026553217003550931 -0.033344032519509105 0 0.026164633725322045 -0.033555982075896156 0 0.026553217003550931 -0.033344032519509105 0 0.026571888877064024 -0.033500318532331985 0 0.026164633725322045 -0.033555982075896156 0 0.026541925261070066 -0.033669932351837913 0 0.026571888877064024 -0.033500318532331985 0 0.026541925261070066 -0.033669932351837913 0 0.026571888877064024 -0.033500318532331985 0 0.026955872613466835 -0.033552750944283408 0 0.027143190559609703 -0.033189792373032684 0 0.026571888877064024 -0.033500318532331985 0 0.026955872613466835 -0.033552750944283408 0 0.027429702452086622 -0.033332111273731757 0 0.027143190559609703 -0.033189792373032684 0 0.026955872613466835 -0.033552750944283408 0 0.027429702452086622 -0.033332111273731757 0 0.027484636643229119 -0.033653130325490832 0 0.026955872613466835 -0.033552750944283408 0 0.027484636643229119 -0.033653130325490832 0 0.027647743910976873 -0.033912197061883545 0 0.02688314250007303 -0.033871209308049939 0 0.027484636643229119 -0.033653130325490832 0 0.026955872613466835 -0.033552750944283408 0 0.02688314250007303 -0.033871209308049939 0 0.026541925261070066 -0.033669932351837913 0 0.02688314250007303 -0.033871209308049939 0 0.026370205866500764 -0.034019894523006682 0 0.026541925261070066 -0.033669932351837913 0 0.026955872613466835 -0.033552750944283408 0 0.02688314250007303 -0.033871209308049939 0 0.02688314250007303 -0.033871209308049939 0 0.026370205866500764 -0.034019894523006682 0 0.026729715823272941 -0.034441023358471178 0 0.027677431766337433 -0.033891886730288139 0 0.028083733934192907 -0.033560050150156784 0 0.027647743910976873 -0.033912197061883545 0 0.02688314250007303 -0.033871209308049939 0 0.026729715823272941 -0.034441023358471178 0 0.025955384603483792 -0.033706315168414443 0 0.02606582638531952 -0.03390798010264915 0 0.025871498172431336 -0.03383060009640447 0 0.02606582638531952 -0.03390798010264915 0 0.025871498172431336 -0.03383060009640447 0 0.025861226424785798 -0.033998223999709892 0 0.025955384603483792 -0.033706315168414443 0 0.02606582638531952 -0.03390798010264915 0 0.026218562626276372 -0.03375509441544481 0 0.02606582638531952 -0.03390798010264915 0 0.026218562626276372 -0.03375509441544481 0 0.026370205866500764 -0.034019894523006682 0 0.026541925261070066 -0.033669932351837913 0 0.026218562626276372 -0.03375509441544481 0 0.026370205866500764 -0.034019894523006682 0 0.02606582638531952 -0.03390798010264915 0 0.026370205866500764 -0.034019894523006682 0 0.026013301863004028 -0.034213495616341245 0 0.026370205866500764 -0.034019894523006682 0 0.026013301863004028 -0.034213495616341245 0 0.026319741215700364 -0.034315651430445612 0 0.02606582638531952 -0.03390798010264915 0 0.025861226424785798 -0.033998223999709892 0 0.026013301863004028 -0.034213495616341245 0 0.025691966346175626 -0.034114072768478561 0 0.025861226424785798 -0.033998223999709892 0 0.026013301863004028 -0.034213495616341245 0 0.025691966346175626 -0.034114072768478561 0 0.025861226424785798 -0.033998223999709892 0 0.025703135902400604 -0.03387914466498454 0 0.025691966346175626 -0.034114072768478561 0 0.025521149121370917 -0.033952491799718494 0 0.025703135902400604 -0.03387914466498454 0 0.025691966346175626 -0.034114072768478561 0 0.025521149121370917 -0.033952491799718494 0 0.025417932320652183 -0.034247768346904205 0 0.025521149121370917 -0.033952491799718494 0 0.025582497591234248 -0.033756490897220388 0 0.025422592787890549 -0.033809843059397639 0 0.025521149121370917 -0.033952491799718494 0 0.025703135902400604 -0.03387914466498454 0 0.025582497591234248 -0.033756490897220388 0 0.025871498172431336 -0.03383060009640447 0 0.025703135902400604 -0.03387914466498454 0 0.025758330370274345 -0.033680147310994092 0 0.025871498172431336 -0.03383060009640447 0 0.025861226424785798 -0.033998223999709892 0 0.025703135902400604 -0.03387914466498454 0 0.025703135902400604 -0.03387914466498454 0 0.025758330370274345 -0.033680147310994092 0 0.025582497591234248 -0.033756490897220388 0 0.025758330370274345 -0.033680147310994092 0 0.025582497591234248 -0.033756490897220388 0 0.025628879487315431 -0.033607630682603036 0 0.025582497591234248 -0.033756490897220388 0 0.025628879487315431 -0.033607630682603036 0 0.025473022576872239 -0.033694135190977977 0 0.025582497591234248 -0.033756490897220388 0 0.025473022576872239 -0.033694135190977977 0 0.025422592787890549 -0.033809843059397639 0 0.025450688336821018 -0.0335811595993133 0 0.025628879487315431 -0.033607630682603036 0 0.025473022576872239 -0.033694135190977977 0 0.025699567355416612 -0.033560152180959701 0 0.025758330370274345 -0.033680147310994092 0 0.025628879487315431 -0.033607630682603036 0 0.022202015361192807 -0.03387875245437235 0 0.021985436977314195 -0.033540658154022532 0 0.025450688336821018 -0.0335811595993133 0 0.025195348318624966 -0.033551511850386607 0 0.025275522124872152 -0.033731929480597174 0 0.019602148931952147 -0.033478785296103014 0 0.019127590663678119 -0.034304059404303609 0 0.018712473516386545 -0.033366862407171863 0 0.025450688336821018 -0.0335811595993133 0 0.025473022576872239 -0.033694135190977977 0 0.025275522124872152 -0.033731929480597174 0 0.025473022576872239 -0.033694135190977977 0 0.025422592787890549 -0.033809843059397639 0 0.025275522124872152 -0.033731929480597174 0 0.019234800015300677 -0.032896610766326641 0 0.018712473516386545 -0.033366862407171863 0 0.01861071873368227 -0.032323783215130582 0 0.021985436977314195 -0.033540658154022532 0 0.0217963027928363 -0.033006997940300355 0 0.018712473516386545 -0.033366862407171863 0 0.01861071873368227 -0.032323783215130582 0 0.018245726625347493 -0.032011207688720199 0 0.01861071873368227 -0.032323783215130582 0 0.018245726625347493 -0.032011207688720199 0 0.018807693243966441 -0.031621439311439577 0 0.025422592787890549 -0.033809843059397639 0 0.025275522124872152 -0.033731929480597174 0 0.025324376138428476 -0.03395587788112249 0 0.025521149121370917 -0.033952491799718494 0 0.025422592787890549 -0.033809843059397639 0 0.025324376138428476 -0.03395587788112249 0 0.025521149121370917 -0.033952491799718494 0 0.025324376138428476 -0.03395587788112249 0 0.025417932320652183 -0.034247768346904205 0 0.0217963027928363 -0.033006997940300355 0 0.021721744155481899 -0.03223004580591679 0 0.018245726625347493 -0.032011207688720199 0 0.018598034450064811 -0.031058986220792024 0 0.017962649059135593 -0.030445211455921887 0 0.019326022604690532 -0.031637252204470119 0 0.01861071873368227 -0.032323783215130582 0 0.018807693243966441 -0.031621439311439577 0 0.018245726625347493 -0.032011207688720199 0 0.018807693243966441 -0.031621439311439577 0 0.018598034450064811 -0.031058986220792024 0 0.019214104360792156 -0.03104868749526583 0 0.018807693243966441 -0.031621439311439577 0 0.018598034450064811 -0.031058986220792024 0 0.019326022604690532 -0.031637252204470119 0 0.019214104360792156 -0.03104868749526583 0 0.018807693243966441 -0.031621439311439577 0 0.018598034450064811 -0.031058986220792024 0 0.018744439154744434 -0.030243423927159143 0 0.017962649059135593 -0.030445211455921887 0 0.019214104360792156 -0.03104868749526583 0 0.018598034450064811 -0.031058986220792024 0 0.018744439154744434 -0.030243423927159143 0 0.018744439154744434 -0.030243423927159143 0 0.017962649059135593 -0.030445211455921887 0 0.018431194366943182 -0.029552243858107358 0 0.021721744155481899 -0.03223004580591679 0 0.021456242385643278 -0.032586340142728598 0 0.017962649059135593 -0.030445211455921887 0 0.018431194366943182 -0.029552243858107358 0 0.0179436626998591 -0.029356784006043881 0 0.018744439154744434 -0.030243423927159143 0 0.018431194366943182 -0.029552243858107358 0 0.019063967636191493 -0.029394902190771618 0 0.018431194366943182 -0.029552243858107358 0 0.018683821095686556 -0.029046675728933647 0 0.019063967636191493 -0.029394902190771618 0 0.018431194366943182 -0.029552243858107358 0 0.018683821095686556 -0.029046675728933647 0 0.018159081043556104 -0.02890479282960649 0 0.018431194366943182 -0.029552243858107358 0 0.018159081043556104 -0.02890479282960649 0 0.0179436626998591 -0.029356784006043881 0 0.018159081043556104 -0.02890479282960649 0 0.018736287678879696 -0.028608106536421991 0 0.017977687312392777 -0.028514632023205703 0 0.018683821095686556 -0.029046675728933647 0 0.018159081043556104 -0.02890479282960649 0 0.018736287678879696 -0.028608106536421991 0 0.018683821095686556 -0.029046675728933647 0 0.018736287678879696 -0.028608106536421991 0 0.019046664859736245 -0.029073251985540862 0 0.032593241928829966 -0.029216818463641735 0 0.031842994936165055 -0.030070946540200198 0 0.031981693312431454 -0.029059235662051028 0 0.024656267030466063 -0.028320012605075884 0 0.029544155659226072 -0.032770847962635734 0 0.025645337958329472 -0.034670308948574632 0 0.025710562446477788 -0.034563638589995532 0 0.025885235266228251 -0.034614539578143089 0 0.018159081043556104 -0.02890479282960649 0 0.017865362018054307 -0.028610778551090257 0 0.0179436626998591 -0.029356784006043881 0 0.024656267030466063 -0.028320012605075884 0 0.021456242385643278 -0.032586340142728598 0 0.018159081043556104 -0.02890479282960649 0 0.017865362018054307 -0.028610778551090257 0 0.017977687312392777 -0.028514632023205703 0 0.025552863832651086 -0.034514434323513907 0 0.025710562446477788 -0.034563638589995532 0 0.025769965626823762 -0.034420536934237397 0 0.025645337958329472 -0.034670308948574632 0 0.025552863832651086 -0.034514434323513907 0 0.025710562446477788 -0.034563638589995532 0 0.025710562446477788 -0.034563638589995532 0 0.025885235266228251 -0.034614539578143089 0 0.025769965626823762 -0.034420536934237397 0 0.025417932320652183 -0.034247768346904205 0 0.025552863832651086 -0.034514434323513907 0 0.025769965626823762 -0.034420536934237397 0 0.025691966346175626 -0.034114072768478561 0 0.025417932320652183 -0.034247768346904205 0 0.025769965626823762 -0.034420536934237397 0 0.025691966346175626 -0.034114072768478561 0 0.025769965626823762 -0.034420536934237397 0 0.026013301863004028 -0.034213495616341245 0 0.026013301863004028 -0.034213495616341245 0 0.026319741215700364 -0.034315651430445612 0 0.026211127963896769 -0.034543676124965159 0 0.026319741215700364 -0.034315651430445612 0 0.026211127963896769 -0.034543676124965159 0 0.026729715823272941 -0.034441023358471178 0 0.025769965626823762 -0.034420536934237397 0 0.026013301863004028 -0.034213495616341245 0 0.026211127963896769 -0.034543676124965159 0 0.025885235266228251 -0.034614539578143089 0 0.025769965626823762 -0.034420536934237397 0 0.026211127963896769 -0.034543676124965159 0 0.027647743910976873 -0.033912197061883545 0 0.028103056078294473 -0.032609240189528488 0 0.029406467501434858 -0.032720316284237799 0 0.028103056078294473 -0.032609240189528488 0 0.029406467501434858 -0.032720316284237799 0 0.02877791709927317 -0.03154093921727491 0 0.026370205866500764 -0.034019894523006682 0 0.026319741215700364 -0.034315651430445612 0 0.026729715823272941 -0.034441023358471178 0 0.028414255972720955 -0.032873444143768284 0 0.028083733934192907 -0.033560050150156784 0 0.030848531863204399 -0.031271063405386525 0 0.029406467501434858 -0.032720316284237799 0 0.029919650222262499 -0.030790554512804397 0 0.029406467501434858 -0.032720316284237799 0 0.02877791709927317 -0.03154093921727491 0 0.029919650222262499 -0.030790554512804397 0 0.02877791709927317 -0.03154093921727491 0 0.029024421102839242 -0.030364842561655492 0 0.027565832636776227 -0.031379524620835562 0 0.028103056078294473 -0.032609240189528488 0 0.02877791709927317 -0.03154093921727491 0 0.027565832636776227 -0.031379524620835562 0 0.031680118035148842 -0.026001387780378676 0 0.031203458673869498 -0.02585255238211296 0 0.034835177695548877 -0.021277596180144503 0 0.034067758504095783 -0.020211001543743747 0 0.033396464322349752 -0.021502823029226476 0 0.034835177695548877 -0.021277596180144503 0 0.033052995970682258 -0.022697107664672814 0 0.033396464322349752 -0.021502823029226476 0 0.034835177695548877 -0.021277596180144503 0 0.035113428345806184 -0.020416058261272317 0 0.034067758504095783 -0.020211001543743747 0 0.031680118035148842 -0.026001387780378676 0 0.033402929907071249 -0.025153224500729453 0 0.034835177695548877 -0.021277596180144503 0 0.035113428345806184 -0.020416058261272317 0 0.036119520910820352 -0.020066028179826903 0 0.02877791709927317 -0.03154093921727491 0 0.029024421102839242 -0.030364842561655492 0 0.029919650222262499 -0.030790554512804397 0 0.029024421102839242 -0.030364842561655492 0 0.029919650222262499 -0.030790554512804397 0 0.030337794391869913 -0.029574634207691568 0 0.035765568385940458 -0.020016949166881987 0 0.035113428345806184 -0.020416058261272317 0 0.036119520910820352 -0.020066028179826903 0 0.035765568385940458 -0.020016949166881987 0 0.035912626732277353 -0.019239298761511089 0 0.036752220101078939 -0.018884434956116698 0 0.035912626732277353 -0.019239298761511089 0 0.035525397842700458 -0.019587583854487597 0 0.035759856674952684 -0.018912016898607845 0 0.035765568385940458 -0.020016949166881987 0 0.035912626732277353 -0.019239298761511089 0 0.035525397842700458 -0.019587583854487597 0 0.035525397842700458 -0.019587583854487597 0 0.035113428345806184 -0.020416058261272317 0 0.034840066657007764 -0.019496340323726737 0 0.035525397842700458 -0.019587583854487597 0 0.034840066657007764 -0.019496340323726737 0 0.035759856674952684 -0.018912016898607845 0 0.035765568385940458 -0.020016949166881987 0 0.035525397842700458 -0.019587583854487597 0 0.035113428345806184 -0.020416058261272317 0 0.034840066657007764 -0.019496340323726737 0 0.034067758504095783 -0.020211001543743747 0 0.033608729633355837 -0.018490887826953673 0 0.035113428345806184 -0.020416058261272317 0 0.034840066657007764 -0.019496340323726737 0 0.034067758504095783 -0.020211001543743747 0 0.031842994936165055 -0.030070946540200198 0 0.03077956315715339 -0.030224138946193305 0 0.031208843575919194 -0.029665402512720616 0 0.031842994936165055 -0.030070946540200198 0 0.030848531863204399 -0.031271063405386525 0 0.03077956315715339 -0.030224138946193305 0 0.029544155659226072 -0.032770847962635734 0 0.028414255972720955 -0.032873444143768284 0 0.030848531863204399 -0.031271063405386525 0 0.029919650222262499 -0.030790554512804397 0 0.03077956315715339 -0.030224138946193305 0 0.029919650222262499 -0.030790554512804397 0 0.03077956315715339 -0.030224138946193305 0 0.030337794391869913 -0.029574634207691568 0 0.03077956315715339 -0.030224138946193305 0 0.030337794391869913 -0.029574634207691568 0 0.031208843575919194 -0.029665402512720616 0 0.036119520910820352 -0.020066028179826903 0 0.036498671032725798 -0.019679046430473471 0 0.036189236766499967 -0.019669468313247156 0 0.033402929907071249 -0.025153224500729453 0 0.031892077890070938 -0.020845037770280492 0 0.030337794391869913 -0.029574634207691568 0 0.031208843575919194 -0.029665402512720616 0 0.031307022240898888 -0.029007288165504335 0 0.035599364777449571 -0.020072841461295166 0 0.034671814221448556 -0.016664833322093786 0 0.035765568385940458 -0.020016949166881987 0 0.036119520910820352 -0.020066028179826903 0 0.036189236766499967 -0.019669468313247156 0 0.031208843575919194 -0.029665402512720616 0 0.031307022240898888 -0.029007288165504335 0 0.031981693312431454 -0.029059235662051028 0 0.031842994936165055 -0.030070946540200198 0 0.031208843575919194 -0.029665402512720616 0 0.031981693312431454 -0.029059235662051028 0 0.031892077890070938 -0.020845037770280492 0 0.029954760828619705 -0.017505687053673964 0 0.030809656584616218 -0.0148491403765099 0 0.030664550970491877 -0.01595175324548137 0 0.030071201995064599 -0.015311091881000136 0 0.03044916417320848 -0.019360004732107569 0 0.028583253576112699 -0.01931681068629593 0 0.02887877819521974 -0.020375333020965176 0 0.030809656584616218 -0.0148491403765099 0 0.031658973520231018 -0.014876103321082797 0 0.030664550970491877 -0.01595175324548137 0 0.031892077890070938 -0.020845037770280492 0 0.030859940765968888 -0.024077415479610276 0 0.034671814221448556 -0.016664833322093786 0 0.033043471015868998 -0.014009560545563664 0 0.031892077890070938 -0.020845037770280492 0 0.034671814221448556 -0.016664833322093786 0 0.034150352211354901 -0.013075064650581269 0 0.034461180432118065 -0.012994425480743638 0 0.034122515231132897 -0.012698527078152206 0 0.034230041499969846 -0.013352172224221153 0 0.034150352211354901 -0.013075064650581269 0 0.034461180432118065 -0.012994425480743638 0 0.036709055708965634 -0.018524676705171321 0 0.035338534442511831 -0.016130103191261888 0 0.033608729633355837 -0.018490887826953673 0 0.034840066657007764 -0.019496340323726737 0 0.035759856674952684 -0.018912016898607845 0 0.033608729633355837 -0.018490887826953673 0 0.035254871855762648 -0.017235852774672673 0 0.034136696278747859 -0.018867301645607047 0 0.034230041499969846 -0.013352172224221153 0 0.034150352211354901 -0.013075064650581269 0 0.034053535006851786 -0.013353789003254238 0 0.035254871855762648 -0.017235852774672673 0 0.034560564711076838 -0.014292608467576939 0 0.035912626732277353 -0.019239298761511089 0 0.036752220101078939 -0.018884434956116698 0 0.035693538517847276 -0.018861050579158288 0 0.034671814221448556 -0.016664833322093786 0 0.035254871855762648 -0.017235852774672673 0 0.035723434336443358 -0.018210457308694056 0 0.035254871855762648 -0.017235852774672673 0 0.034150352211354901 -0.013075064650581269 0 0.034053535006851786 -0.013353789003254238 0 0.033883160139671485 -0.013014686318034031 0 0.034150352211354901 -0.013075064650581269 0 0.033883160139671485 -0.013014686318034031 0 0.034122515231132897 -0.012698527078152206 0 0.035338534442511831 -0.016130103191261888 0 0.033608729633355837 -0.018490887826953673 0 0.0330557805846061 -0.015875286704234437 0 0.035338534442511831 -0.016130103191261888 0 0.034013573445649002 -0.013805704037356557 0 0.0330557805846061 -0.015875286704234437 0 0.033883160139671485 -0.013014686318034031 0 0.033732885766434684 -0.01268396236107695 0 0.034122515231132897 -0.012698527078152206 0 0.034560564711076838 -0.014292608467576939 0 0.033718491846579005 -0.013659798576994914 0 0.034122515231132897 -0.012698527078152206 0 0.034263844377211479 -0.01228663115281054 0 0.033936779352915898 -0.012325022478771909 0 0.033732885766434684 -0.01268396236107695 0 0.034122515231132897 -0.012698527078152206 0 0.033936779352915898 -0.012325022478771909 0 0.033732885766434684 -0.01268396236107695 0 0.033588432161603329 -0.012358044313262736 0 0.033936779352915898 -0.012325022478771909 0 0.034461180432118065 -0.012994425480743638 0 0.034407688989732017 -0.01256490021456735 0 0.034666690228977337 -0.01266910844042392 0 0.034461180432118065 -0.012994425480743638 0 0.034122515231132897 -0.012698527078152206 0 0.034407688989732017 -0.01256490021456735 0 0.034122515231132897 -0.012698527078152206 0 0.034407688989732017 -0.01256490021456735 0 0.034263844377211479 -0.01228663115281054 0 0.028052796491097421 -0.014295777462850715 0 0.032106987733616456 -0.0085893335688048845 0 0.034407688989732017 -0.01256490021456735 0 0.034666690228977337 -0.01266910844042392 0 0.034564593417757111 -0.012231839693619172 0 0.028052796491097421 -0.014295777462850715 0 0.023651413962217722 -0.016431438270653183 0 0.030664550970491877 -0.01595175324548137 0 0.029703517124068154 -0.017003037836288638 0 0.029946925179762125 -0.016012011783154315 0 0.033043471015868998 -0.014009560545563664 0 0.028052796491097421 -0.014295777462850715 0 0.019925268347857593 -0.015145348215644422 0 0.019858946583903605 -0.014968716391388168 0 0.020104090336459837 -0.014827865745494672 0 0.020199821887761881 -0.015160973146476188 0 0.019925268347857593 -0.015145348215644422 0 0.020104090336459837 -0.014827865745494672 0 0.019925268347857593 -0.015145348215644422 0 0.019782798261715986 -0.015152833578530206 0 0.019858946583903605 -0.014968716391388168 0 0.020199821887761881 -0.015160973146476188 0 0.019925268347857593 -0.015145348215644422 0 0.01990149828890769 -0.015433446654594684 0 0.028052796491097421 -0.014295777462850715 0 0.021341696825149904 -0.012780076559523412 0 0.01957484177228198 -0.015677464612056581 0 0.021341696825149904 -0.012780076559523412 0 0.01969208552309765 -0.015148501691035984 0 0.019861881664154556 -0.014734227708564834 0 0.019411358544081991 -0.014615914326925957 0 0.019925268347857593 -0.015145348215644422 0 0.01969208552309765 -0.015148501691035984 0 0.01990149828890769 -0.015433446654594684 0 0.01990143198889972 -0.015090096935443376 0 0.019861881664154556 -0.014734227708564834 0 0.020220516216921461 -0.01488937422854902 0 0.01969208552309765 -0.015148501691035984 0 0.01990143198889972 -0.015090096935443376 0 0.019861881664154556 -0.014734227708564834 0 0.020093804664874114 -0.015598428342397689 0 0.019682845065323102 -0.015274543652991711 0 0.01950718757621147 -0.015744683777310378 0 0.01990143198889972 -0.015090096935443376 0 0.020093804664874114 -0.015598428342397689 0 0.020220516216921461 -0.01488937422854902 0 0.01990143198889972 -0.015090096935443376 0 0.020093804664874114 -0.015598428342397689 0 0.019682845065323102 -0.015274543652991711 0 0.019925268347857593 -0.015145348215644422 0 0.01969208552309765 -0.015148501691035984 0 0.019782798261715986 -0.015152833578530206 0 0.01969208552309765 -0.015148501691035984 0 0.01990143198889972 -0.015090096935443376 0 0.019682845065323102 -0.015274543652991711 0 0.01969208552309765 -0.015148501691035984 0 0.019782798261715986 -0.015152833578530206 0 0.019682845065323102 -0.015274543652991711 0 0.019682845065323102 -0.015274543652991711 0 0.01950718757621147 -0.015744683777310378 0 0.019041587844029328 -0.015756668642776712 0 0.019782798261715986 -0.015152833578530206 0 0.019682845065323102 -0.015274543652991711 0 0.019858946583903605 -0.014968716391388168 0 0.019809952483944612 -0.015166116696526597 0 0.019027152267579922 -0.015677521024797778 0 0.01950718757621147 -0.015744683777310378 0 0.01918383578357408 -0.016229052227603891 0 0.019041587844029328 -0.015756668642776712 0 0.01950718757621147 -0.015744683777310378 0 0.01918383578357408 -0.016229052227603891 0 0.019722020947675879 -0.016067873196036007 0 0.01918383578357408 -0.016229052227603891 0 0.019722020947675879 -0.016067873196036007 0 0.019678418949201471 -0.016464036833390872 0 0.020093804664874114 -0.015598428342397689 0 0.019722020947675879 -0.016067873196036007 0 0.020209644600992331 -0.016323676650319873 0 0.020093804664874114 -0.015598428342397689 0 0.01950718757621147 -0.015744683777310378 0 0.019722020947675879 -0.016067873196036007 0 0.019722020947675879 -0.016067873196036007 0 0.020209644600992331 -0.016323676650319873 0 0.019678418949201471 -0.016464036833390872 0 0.020209644600992331 -0.016323676650319873 0 0.020031681215662601 -0.016978343245864953 0 0.019678418949201471 -0.016464036833390872 0 0.020031681215662601 -0.016978343245864953 0 0.01922770867542228 -0.016716004182764473 0 0.019678418949201471 -0.016464036833390872 0 0.019084651305159558 -0.022889343418470834 0 0.020269205202232299 -0.022783648080874117 0 0.020031681215662601 -0.016978343245864953 0 0.01922770867542228 -0.016716004182764473 0 0.018931869373727761 -0.016990387599131788 0 0.01918383578357408 -0.016229052227603891 0 0.01922770867542228 -0.016716004182764473 0 0.019678418949201471 -0.016464036833390872 0 0.01918383578357408 -0.016229052227603891 0 0.01922770867542228 -0.016716004182764473 0 0.018855117909850429 -0.016562652609722273 0 0.020688375585440816 -0.018308303165933865 0 0.020269205202232299 -0.022783648080874117 0 0.018855117909850429 -0.016562652609722273 0 0.018713427514102054 -0.017002971684352983 0 0.018488252763667268 -0.016189808833518452 0 0.024992862992269761 -0.022649029688420568 0 0.023651413962217722 -0.016431438270653183 0 0.01922770867542228 -0.016716004182764473 0 0.018934887266074545 -0.017000154122015897 0 0.018855117909850429 -0.016562652609722273 0 0.018934887266074545 -0.017000154122015897 0 0.018855117909850429 -0.016562652609722273 0 0.018713427514102054 -0.017002971684352983 0 0.032593241928829966 -0.029216818463641735 0 0.032547166391213363 -0.029069874240995476 0 0.031981693312431454 -0.029059235662051028 0 0.024393834205889014 -0.022602321710297121 0 0.022717618534390843 -0.023955953032614132 0 0.024786985797445323 -0.024000930556639058 0 0.020269205202232299 -0.022783648080874117 0 0.024992862992269761 -0.022649029688420568 0 0.024656267030466063 -0.028320012605075884 0 0.020269205202232299 -0.022783648080874117 0 0.024656267030466063 -0.028320012605075884 0 0.024992862992269761 -0.022649029688420568 0 0.026737917046948237 -0.019286630848204762 0 0.02887877819521974 -0.020375333020965176 0 0.027329286651229606 -0.021377423277199645 0 0.026737917046948237 -0.019286630848204762 0 0.028583253576112699 -0.01931681068629593 0 0.02887877819521974 -0.020375333020965176 0 0.024992862992269761 -0.022649029688420568 0 0.030859940765968888 -0.024077415479610276 0 0.029703517124068154 -0.017003037836288638 0 0.029946925179762125 -0.016012011783154315 0 0.029350323803173803 -0.015772653861489724 0 0.030071201995064599 -0.015311091881000136 0 0.029946925179762125 -0.016012011783154315 0 0.029350323803173803 -0.015772653861489724 0 0.029954760828619705 -0.017505687053673964 0 0.023651413962217722 -0.016431438270653183 0 0.030664550970491877 -0.01595175324548137 0 0.030071201995064599 -0.015311091881000136 0 0.029946925179762125 -0.016012011783154315 0 0.01918383578357408 -0.016229052227603891 0 0.018855117909850429 -0.016562652609722273 0 0.018488252763667268 -0.016189808833518452 0 0.01918383578357408 -0.016229052227603891 0 0.019041587844029328 -0.015756668642776712 0 0.018488252763667268 -0.016189808833518452 0 0.019027152267579922 -0.015677521024797778 0 0.023651413962217722 -0.016431438270653183 0 0.034999852515112562 -0.013820020070657123 0 0.036372501813206837 -0.014318809565684215 0 0.035962688568470395 -0.014979528540726626 0 0.034999852515112562 -0.013820020070657123 0 0.036372501813206837 -0.014318809565684215 0 0.036112636841938432 -0.012683229422566987 0 0.036372501813206837 -0.014318809565684215 0 0.037659968567595459 -0.013381567359915119 0 0.036112636841938432 -0.012683229422566987 0 0.036372501813206837 -0.014318809565684215 0 0.035962688568470395 -0.014979528540726626 0 0.036958808242293528 -0.01505671112206714 0 0.035962688568470395 -0.014979528540726626 0 0.03638270073638248 -0.01604468518245511 0 0.036958808242293528 -0.01505671112206714 0 0.036406441015055732 -0.014648167567025265 0 0.036679347382451176 -0.015757962987311882 0 0.034999852515112562 -0.013820020070657123 0 0.035962688568470395 -0.014979528540726626 0 0.034999927837998684 -0.015805960661267056 0 0.035962688568470395 -0.014979528540726626 0 0.034999927837998684 -0.015805960661267056 0 0.03638270073638248 -0.01604468518245511 0 0.034999927837998684 -0.015805960661267056 0 0.035936107098020732 -0.017166192119385307 0 0.03638270073638248 -0.01604468518245511 0 0.034999929193587055 -0.017792317231427431 0 0.034999927837998684 -0.015805960661267056 0 0.035936107098020732 -0.017166192119385307 0 0.036951113972089084 -0.017382764882410268 0 0.03638270073638248 -0.01604468518245511 0 0.037510744712846607 -0.015998757822364908 0 0.035936107098020732 -0.017166192119385307 0 0.036951113972089084 -0.017382764882410268 0 0.03638270073638248 -0.01604468518245511 0 0.03638270073638248 -0.01604468518245511 0 0.037510744712846607 -0.015998757822364908 0 0.036958808242293528 -0.01505671112206714 0 0.033789944366615421 -0.020066102100358252 0 0.036679347382451176 -0.015757962987311882 0 0.023955038171553318 -0.023193989367428464 0 0.024735352038939548 -0.024992068678997139 0 0.024915116820703419 -0.023808467033377041 0 0.034680917651611534 -0.022563652728493901 0 0.03465441468359335 -0.022520918617723238 0 0.03466897471016895 -0.022562550552900344 0 0.03610214996291955 -0.019718479590126323 0 0.033789944366615421 -0.020066102100358252 0 0.033789944366615421 -0.020066102100358252 0 0.027489987905690051 -0.024984116110707253 0 0.025413462855095038 -0.027309286984248088 0 0.02454658281268516 -0.025331402886125155 0 0.026753643683422066 -0.025162648258221135 0 0.02454658281268516 -0.025331402886125155 0 0.024915116820703419 -0.023808467033377041 0 0.026753643683422066 -0.025162648258221135 0 0.027171681682353403 -0.027399927457411717 0 0.025413462855095038 -0.027309286984248088 0 0.026753643683422066 -0.025162648258221135 0 0.026009683845552412 -0.027893390766811139 0 0.027489987905690051 -0.024984116110707253 0 0.027489987905690051 -0.024984116110707253 0 0.025876258742842471 -0.024421552791219173 0 0.023955038171553318 -0.023193989367428464 0 0.024915116820703419 -0.023808467033377041 0 0.02554697593486634 -0.020162444653578866 0 0.026544388594240843 -0.022539733899441375 0 0.024915116820703419 -0.023808467033377041 0 0.026753643683422066 -0.025162648258221135 0 0.026544388594240843 -0.022539733899441375 0 0.02554697593486634 -0.020162444653578866 0 0.027638328364863716 -0.020614243544829481 0 0.026544388594240843 -0.022539733899441375 0 0.024915116820703419 -0.023808467033377041 0 0.02554697593486634 -0.020162444653578866 0 0.036574973023690671 -0.016517405846113237 0 0.03733688311338889 -0.014767708275436456 0 0.038806661855625278 -0.015202379285868576 0 0.037362384143050813 -0.0187882766659184 0 0.036574973023690671 -0.016517405846113237 0 0.038806661855625278 -0.015202379285868576 0 0.033789944366615421 -0.020066102100358252 0 0.031647199625064827 -0.018045879660323456 0 0.036372501813206837 -0.014318809565684215 0 0.036574973023690671 -0.016517405846113237 0 0.03733688311338889 -0.014767708275436456 0 0.03733688311338889 -0.014767708275436456 0 0.038806661855625278 -0.015202379285868576 0 0.037659968567595459 -0.013381567359915119 0 0.036372501813206837 -0.014318809565684215 0 0.03733688311338889 -0.014767708275436456 0 0.037659968567595459 -0.013381567359915119 0 0.038806661855625278 -0.015202379285868576 0 0.039607412625273591 -0.012741638460660813 0 0.037659968567595459 -0.013381567359915119 0 0.02554697593486634 -0.020162444653578866 0 0.027638328364863716 -0.020614243544829481 0 0.026979997140162512 -0.017522527565049274 0 0.031647199625064827 -0.018045879660323456 0 0.033425019368840798 -0.014999824454716438 0 0.027638328364863716 -0.020614243544829481 0 0.029053765853532681 -0.018196057260913241 0 0.026979997140162512 -0.017522527565049274 0 0.029654182199562451 -0.020438049207434372 0 0.027638328364863716 -0.020614243544829481 0 0.029053765853532681 -0.018196057260913241 0 0.029654182199562451 -0.020438049207434372 0 0.030772945276554692 -0.01904109116195507 0 0.029053765853532681 -0.018196057260913241 0 0.029654182199562451 -0.020438049207434372 0 0.029045371689820455 -0.021784691195119013 0 0.03100520914855567 -0.021231527053185872 0 0.029045371689820455 -0.021784691195119013 0 0.02995084122140872 -0.023343679332489372 0 0.03100520914855567 -0.021231527053185872 0 0.029654182199562451 -0.020438049207434372 0 0.029045371689820455 -0.021784691195119013 0 0.027638328364863716 -0.020614243544829481 0 0.026544388594240843 -0.022539733899441375 0 0.027638328364863716 -0.020614243544829481 0 0.027988653771595245 -0.023108457371987488 0 0.029045371689820455 -0.021784691195119013 0 0.027638328364863716 -0.020614243544829481 0 0.027988653771595245 -0.023108457371987488 0 0.026544388594240843 -0.022539733899441375 0 0.027988653771595245 -0.023108457371987488 0 0.026753643683422066 -0.025162648258221135 0 0.027988653771595245 -0.023108457371987488 0 0.026753643683422066 -0.025162648258221135 0 0.028393786227800592 -0.024794403113154919 0 0.026753643683422066 -0.025162648258221135 0 0.028451590991277441 -0.026572953297181665 0 0.028393786227800592 -0.024794403113154919 0 0.027171681682353403 -0.027399927457411717 0 0.026753643683422066 -0.025162648258221135 0 0.028451590991277441 -0.026572953297181665 0 0.029834570725070422 -0.025676027405409314 0 0.028393786227800592 -0.024794403113154919 0 0.02995084122140872 -0.023343679332489372 0 0.02979415211193305 -0.027794655789524437 0 0.029834570725070422 -0.025676027405409314 0 0.028451590991277441 -0.026572953297181665 0 0.029834570725070422 -0.025676027405409314 0 0.028451590991277441 -0.026572953297181665 0 0.028393786227800592 -0.024794403113154919 0 0.027988653771595245 -0.023108457371987488 0 0.028393786227800592 -0.024794403113154919 0 0.02995084122140872 -0.023343679332489372 0 0.029045371689820455 -0.021784691195119013 0 0.027988653771595245 -0.023108457371987488 0 0.02995084122140872 -0.023343679332489372 0 0.02995084122140872 -0.023343679332489372 0 0.031848860035330821 -0.022724395620510662 0 0.03160402684316084 -0.024242952933948441 0 0.029834570725070422 -0.025676027405409314 0 0.02995084122140872 -0.023343679332489372 0 0.03160402684316084 -0.024242952933948441 0 0.02995084122140872 -0.023343679332489372 0 0.031848860035330821 -0.022724395620510662 0 0.03100520914855567 -0.021231527053185872 0 0.029834570725070422 -0.025676027405409314 0 0.03130916730616002 -0.02481691677931458 0 0.032034234405338348 -0.026431312839495277 0 0.02979415211193305 -0.027794655789524437 0 0.029834570725070422 -0.025676027405409314 0 0.032034234405338348 -0.026431312839495277 0 0.029904574197799339 -0.025609919438755284 0 0.031784037957326115 -0.024326727145049607 0 0.028103056078294473 -0.032609240189528488 0 0.027281863612190895 -0.033269065870178485 0 0.027565832636776227 -0.031379524620835562 0 0.029521799898512995 -0.030215666353589236 0 0.031203458673869498 -0.02585255238211296 0 0.03130916730616002 -0.02481691677931458 0 0.032034234405338348 -0.026431312839495277 0 0.032758077892258687 -0.02384838717980254 0 0.027647743910976873 -0.033912197061883545 0 0.028103056078294473 -0.032609240189528488 0 0.027281863612190895 -0.033269065870178485 0 0.031784037957326115 -0.024326727145049607 0 0.031203458673869498 -0.02585255238211296 0 0.031848860035330821 -0.022724395620510662 0 0.03160402684316084 -0.024242952933948441 0 0.033089187162018342 -0.023017185078781071 0 0.031848860035330821 -0.022724395620510662 0 0.033089187162018342 -0.023017185078781071 0 0.033396464322349752 -0.021502823029226476 0 0.033396464322349752 -0.021502823029226476 0 0.03100520914855567 -0.021231527053185872 0 0.032515066978592376 -0.020070668387256751 0 0.031848860035330821 -0.022724395620510662 0 0.033396464322349752 -0.021502823029226476 0 0.03100520914855567 -0.021231527053185872 0 0.031203458673869498 -0.02585255238211296 0 0.033360114216516447 -0.021016303275108422 0 0.034067758504095783 -0.020211001543743747 0 0.033396464322349752 -0.021502823029226476 0 0.032515066978592376 -0.020070668387256751 0 0.029654182199562451 -0.020438049207434372 0 0.03100520914855567 -0.021231527053185872 0 0.030772945276554692 -0.01904109116195507 0 0.03100520914855567 -0.021231527053185872 0 0.030772945276554692 -0.01904109116195507 0 0.032515066978592376 -0.020070668387256751 0 0.030772945276554692 -0.01904109116195507 0 0.032515066978592376 -0.020070668387256751 0 0.033608729633355837 -0.018490887826953673 0 0.034067758504095783 -0.020211001543743747 0 0.032515066978592376 -0.020070668387256751 0 0.033608729633355837 -0.018490887826953673 0 0.033608729633355837 -0.018490887826953673 0 0.030939373531269267 -0.016862996658203663 0 0.0330557805846061 -0.015875286704234437 0 0.030772945276554692 -0.01904109116195507 0 0.033608729633355837 -0.018490887826953673 0 0.030939373531269267 -0.016862996658203663 0 0.030939373531269267 -0.016862996658203663 0 0.0330557805846061 -0.015875286704234437 0 0.031446557707558956 -0.014157825450389874 0 0.034013573445649002 -0.013805704037356557 0 0.0330557805846061 -0.015875286704234437 0 0.031446557707558956 -0.014157825450389874 0 0.034013573445649002 -0.013805704037356557 0 0.031446557707558956 -0.014157825450389874 0 0.032739403378223043 -0.011518921957406 0 0.033718491846579005 -0.013659798576994914 0 0.035927761875998464 -0.0090356979461739539 0 0.031446557707558956 -0.014157825450389874 0 0.029752105671158845 -0.01193731175389749 0 0.032739403378223043 -0.011518921957406 0 0.037057631091447413 -0.0093853862912086829 0 0.035927761875998464 -0.0090356979461739539 0 0.031446557707558956 -0.014157825450389874 0 0.029752105671158845 -0.01193731175389749 0 0.028356670061882885 -0.014764876898157713 0 0.037057631091447413 -0.0093853862912086829 0 0.034107167728092087 -0.013011296135377758 0 0.041260157169244936 -0.0087627162144508844 0 0.039744188811750097 -0.0089534828789666551 0 0.040422156158328219 -0.010685487198253128 0 0.037057631091447413 -0.0093853862912086829 0 0.040104203568328181 -0.0086370864820340242 0 0.039744188811750097 -0.0089534828789666551 0 0.040422156158328219 -0.010685487198253128 0 0.038641435831039884 -0.010932680423203441 0 0.028356670061882885 -0.014764876898157713 0 0.029053765853532681 -0.018196057260913241 0 0.026979997140162512 -0.017522527565049274 0 0.034107167728092087 -0.013011296135377758 0 0.033425019368840798 -0.014999824454716438 0 0.040422156158328219 -0.010685487198253128 0 0.039607412625273591 -0.012741638460660813 0 0.038641435831039884 -0.010932680423203441 0 0.030939373531269267 -0.016862996658203663 0 0.028356670061882885 -0.014764876898157713 0 0.029053765853532681 -0.018196057260913241 0 0.030939373531269267 -0.016862996658203663 0 0.031446557707558956 -0.014157825450389874 0 0.028356670061882885 -0.014764876898157713 0 0.030772945276554692 -0.01904109116195507 0 0.030939373531269267 -0.016862996658203663 0 0.029053765853532681 -0.018196057260913241 0 0.039607412625273591 -0.012741638460660813 0 0.037659968567595459 -0.013381567359915119 0 0.038641435831039884 -0.010932680423203441 0 0.037659968567595459 -0.013381567359915119 0 0.03712850691129703 -0.011666294195532117 0 0.038641435831039884 -0.010932680423203441 0 0.03712850691129703 -0.011666294195532117 0 0.038641435831039884 -0.010932680423203441 0 0.037381027195400339 -0.010358886240653552 0 0.039744188811750097 -0.0089534828789666551 0 0.038641435831039884 -0.010932680423203441 0 0.038096129292759955 -0.0091035150107031376 0 0.039095217576268472 -0.0085400430864281587 0 0.038096129292759955 -0.0091035150107031376 0 0.038228661008968955 -0.0080369874005613573 0 0.040104203568328181 -0.0086370864820340242 0 0.037894496529995984 -0.0090899037124178815 0 0.038096129292759955 -0.0091035150107031376 0 0.036467568404436303 -0.009476738491560539 0 0.036998350091122123 -0.007829877799577261 0 0.038096129292759955 -0.0091035150107031376 0 0.037381027195400339 -0.010358886240653552 0 0.036467568404436303 -0.009476738491560539 0 0.038641435831039884 -0.010932680423203441 0 0.038096129292759955 -0.0091035150107031376 0 0.037381027195400339 -0.010358886240653552 0 0.037381027195400339 -0.010358886240653552 0 0.036467568404436303 -0.009476738491560539 0 0.036110313541667015 -0.01097562880698558 0 0.036467568404436303 -0.009476738491560539 0 0.034999888143480228 -0.0098467539420167092 0 0.034999953398389169 -0.007860383653143347 0 0.036467568404436303 -0.009476738491560539 0 0.034999888143480228 -0.0098467539420167092 0 0.036110313541667015 -0.01097562880698558 0 0.034999888143480228 -0.0098467539420167092 0 0.034999800524795725 -0.011833372878264517 0 0.036110313541667015 -0.01097562880698558 0 0.034999800524795725 -0.011833372878264517 0 0.036110313541667015 -0.01097562880698558 0 0.036112636841938432 -0.012683229422566987 0 0.03712850691129703 -0.011666294195532117 0 0.036110313541667015 -0.01097562880698558 0 0.036112636841938432 -0.012683229422566987 0 0.03712850691129703 -0.011666294195532117 0 0.037381027195400339 -0.010358886240653552 0 0.036110313541667015 -0.01097562880698558 0 0.037659968567595459 -0.013381567359915119 0 0.03712850691129703 -0.011666294195532117 0 0.036112636841938432 -0.012683229422566987 0 0.034999852515112562 -0.013820020070657123 0 0.034999800524795725 -0.011833372878264517 0 0.036112636841938432 -0.012683229422566987 0 0.036240053563951366 -0.0051006659059452571 0 0.034999940997272161 -0.0058740883263832108 0 0.034999901755825333 -0.0038877724625348904 0 0.036240053563951366 -0.0051006659059452571 0 0.037286741944631614 -0.0048927656057640807 0 0.036630446025731976 -0.0039704936290597161 0 0.036240053563951366 -0.0051006659059452571 0 0.037273175321008378 -0.0062229627117716298 0 0.037286741944631614 -0.0048927656057640807 0 0.036240053563951366 -0.0051006659059452571 0 0.036033401053881704 -0.0067733501926635241 0 0.037273175321008378 -0.0062229627117716298 0 0.036240053563951366 -0.0051006659059452571 0 0.034999940997272161 -0.0058740883263832108 0 0.036033401053881704 -0.0067733501926635241 0 0.034999940997272161 -0.0058740883263832108 0 0.034999953398389169 -0.007860383653143347 0 0.036033401053881704 -0.0067733501926635241 0 0.034999953398389169 -0.007860383653143347 0 0.036998350091122123 -0.007829877799577261 0 0.036033401053881704 -0.0067733501926635241 0 0.036467568404436303 -0.009476738491560539 0 0.034999953398389169 -0.007860383653143347 0 0.036998350091122123 -0.007829877799577261 0 0.036998350091122123 -0.007829877799577261 0 0.036033401053881704 -0.0067733501926635241 0 0.037273175321008378 -0.0062229627117716298 0 0.036998350091122123 -0.007829877799577261 0 0.037963860111156787 -0.0071800671475814445 0 0.037273175321008378 -0.0062229627117716298 0 0.037963860111156787 -0.0071800671475814445 0 0.038450320527613061 -0.0064948312987465626 0 0.037273175321008378 -0.0062229627117716298 0 0.036998350091122123 -0.007829877799577261 0 0.037963860111156787 -0.0071800671475814445 0 0.038228661008968955 -0.0080369874005613573 0 0.038096129292759955 -0.0091035150107031376 0 0.036998350091122123 -0.007829877799577261 0 0.038228661008968955 -0.0080369874005613573 0 0.039095217576268472 -0.0085400430864281587 0 0.038228661008968955 -0.0080369874005613573 0 0.038743412431847452 -0.0072962459620915278 0 0.037963860111156787 -0.0071800671475814445 0 0.038228661008968955 -0.0080369874005613573 0 0.038743412431847452 -0.0072962459620915278 0 0.037963860111156787 -0.0071800671475814445 0 0.038743412431847452 -0.0072962459620915278 0 0.038450320527613061 -0.0064948312987465626 0 0.038743412431847452 -0.0072962459620915278 0 0.038450320527613061 -0.0064948312987465626 0 0.039214935898866987 -0.0067124277542097094 0 0.038450320527613061 -0.0064948312987465626 0 0.038237692493414077 -0.0053455571569507847 0 0.039255579428691741 -0.0060304157029780134 0 0.038450320527613061 -0.0064948312987465626 0 0.037273175321008378 -0.0062229627117716298 0 0.038237692493414077 -0.0053455571569507847 0 0.037286741944631614 -0.0048927656057640807 0 0.038237692493414077 -0.0053455571569507847 0 0.037808551242315962 -0.0040165812608134559 0 0.037273175321008378 -0.0062229627117716298 0 0.037286741944631614 -0.0048927656057640807 0 0.038237692493414077 -0.0053455571569507847 0 0.038237692493414077 -0.0053455571569507847 0 0.039437111028658031 -0.0049090651417757602 0 0.038671549093150202 -0.0043659656550063672 0 0.038237692493414077 -0.0053455571569507847 0 0.038671549093150202 -0.0043659656550063672 0 0.037808551242315962 -0.0040165812608134559 0 0.038237692493414077 -0.0053455571569507847 0 0.039437111028658031 -0.0049090651417757602 0 0.039255579428691741 -0.0060304157029780134 0 0.040169461836651876 -0.0055960783169411955 0 0.039292892697524381 -0.0060532914700242076 0 0.039437111028658031 -0.0049090651417757602 0 0.040450481725600673 -0.0053019807871881562 0 0.039255579428691741 -0.0060304157029780134 0 0.039437111028658031 -0.0049090651417757602 0 0.040450481725600673 -0.0053019807871881562 0 0.040484878107760781 -0.0041140786858875509 0 0.040450481725600673 -0.0053019807871881562 0 0.041513537922051223 -0.0046353938413644198 0 0.040484878107760781 -0.0041140786858875509 0 0.039651024801646242 -0.0060779969620842339 0 0.039808924459127711 -0.0063787659083131389 0 0.040017337726654542 -0.0058882208037253558 0 0.040169461836651876 -0.0055960783169411955 0 0.039988975638403597 -0.0059405848852871947 0 0.039651024801646242 -0.0060779969620842339 0 0.039579919749564346 -0.0062965867471386034 0 0.039808924459127711 -0.0063787659083131389 0 0.039808924459127711 -0.0063787659083131389 0 0.039670965792846076 -0.006668763337217682 0 0.039908441951402522 -0.0066771328247121594 0 0.039579919749564346 -0.0062965867471386034 0 0.039808924459127711 -0.0063787659083131389 0 0.039670965792846076 -0.006668763337217682 0 0.039579919749564346 -0.0062965867471386034 0 0.039214935898866987 -0.0067124277542097094 0 0.039670965792846076 -0.006668763337217682 0 0.039579919749564346 -0.0062965867471386034 0 0.039255579428691741 -0.0060304157029780134 0 0.039214935898866987 -0.0067124277542097094 0 0.039651024801646242 -0.0060779969620842339 0 0.039579919749564346 -0.0062965867471386034 0 0.039255579428691741 -0.0060304157029780134 0 0.038450320527613061 -0.0064948312987465626 0 0.039255579428691741 -0.0060304157029780134 0 0.039214935898866987 -0.0067124277542097094 0 0.039214935898866987 -0.0067124277542097094 0 0.039496231817828513 -0.007433234176956828 0 0.039670965792846076 -0.006668763337217682 0 0.038743412431847452 -0.0072962459620915278 0 0.039214935898866987 -0.0067124277542097094 0 0.039496231817828513 -0.007433234176956828 0 0.03993976155607154 -0.0081864231443430566 0 0.039095217576268472 -0.0085400430864281587 0 0.039496231817828513 -0.007433234176956828 0 0.039095217576268472 -0.0085400430864281587 0 0.038743412431847452 -0.0072962459620915278 0 0.039496231817828513 -0.007433234176956828 0 0.03993976155607154 -0.0081864231443430566 0 0.039496231817828513 -0.007433234176956828 0 0.040136818690206334 -0.0074190444795126228 0 0.039496231817828513 -0.007433234176956828 0 0.039808820674117562 -0.0070648030956668327 0 0.040136818690206334 -0.0074190444795126228 0 0.037057631091447413 -0.0093853862912086829 0 0.040185263011788784 -0.0063577009253385297 0 0.039496231817828513 -0.007433234176956828 0 0.039808820674117562 -0.0070648030956668327 0 0.039670965792846076 -0.006668763337217682 0 0.039808820674117562 -0.0070648030956668327 0 0.039960110256532497 -0.0069149527639046013 0 0.040136818690206334 -0.0074190444795126228 0 0.039808820674117562 -0.0070648030956668327 0 0.039670965792846076 -0.006668763337217682 0 0.039908441951402522 -0.0066771328247121594 0 0.039808820674117562 -0.0070648030956668327 0 0.039908441951402522 -0.0066771328247121594 0 0.039960110256532497 -0.0069149527639046013 0 0.039908441951402522 -0.0066771328247121594 0 0.039994194732548276 -0.0066135972809073674 0 0.039960110256532497 -0.0069149527639046013 0 0.039908441951402522 -0.0066771328247121594 0 0.039994194732548276 -0.0066135972809073674 0 0.03997720567611418 -0.0066708685463198886 0 0.039658889104658819 -0.0065946873581083608 0 0.039994194732548276 -0.0066135972809073674 0 0.039811574215192921 -0.0062941166272089833 0 0.039658889104658819 -0.0065946873581083608 0 0.039994194732548276 -0.0066135972809073674 0 0.03997720567611418 -0.0066708685463198886 0 0.039658889104658819 -0.0065946873581083608 0 0.039811574215192921 -0.0062941166272089833 0 0.039468709846217503 -0.0063712399504064002 0 0.039994194732548276 -0.0066135972809073674 0 0.039811574215192921 -0.0062941166272089833 0 0.039934300167438326 -0.0062052707113118199 0 0.039929167811663994 -0.0068466512201947952 0 0.040185263011788784 -0.0063577009253385297 0 0.039994194732548276 -0.0066135972809073674 0 0.039960110256532497 -0.0069149527639046013 0 0.040136818690206334 -0.0074190444795126228 0 0.039961605438464241 -0.0061101515404305643 0 0.039934300167438326 -0.0062052707113118199 0 0.039695800294891906 -0.0061309735489676418 0 0.039811574215192921 -0.0062941166272089833 0 0.039934300167438326 -0.0062052707113118199 0 0.039695800294891906 -0.0061309735489676418 0 0.039811574215192921 -0.0062941166272089833 0 0.039350537351005702 -0.005477187020300334 0 0.039199615327414485 -0.0060585629341907612 0 0.039350537351005702 -0.005477187020300334 0 0.039199615327414485 -0.0060585629341907612 0 0.038273267532364909 -0.0056116906142825405 0 0.039912133349602176 -0.0057557154463207536 0 0.035927761875998464 -0.0090356979461739539 0 0.039811574215192921 -0.0062941166272089833 0 0.039199615327414485 -0.0060585629341907612 0 0.039468709846217503 -0.0063712399504064002 0 0.039199615327414485 -0.0060585629341907612 0 0.039468709846217503 -0.0063712399504064002 0 0.039182360216424218 -0.0065902448136125717 0 0.039658889104658819 -0.0065946873581083608 0 0.039182360216424218 -0.0065902448136125717 0 0.039444618015574723 -0.0068386069031269635 0 0.039658889104658819 -0.0065946873581083608 0 0.039468709846217503 -0.0063712399504064002 0 0.039182360216424218 -0.0065902448136125717 0 0.039182360216424218 -0.0065902448136125717 0 0.038945805617685333 -0.0070431355612248945 0 0.039444618015574723 -0.0068386069031269635 0 0.038945805617685333 -0.0070431355612248945 0 0.039444618015574723 -0.0068386069031269635 0 0.03948051870553404 -0.0072787983726353145 0 0.039808924459127711 -0.0063787659083131389 0 0.03997720567611418 -0.0066708685463198886 0 0.040017337726654542 -0.0058882208037253558 0 0.039444618015574723 -0.0068386069031269635 0 0.03997720567611418 -0.0066708685463198886 0 0.03948051870553404 -0.0072787983726353145 0 0.039658889104658819 -0.0065946873581083608 0 0.039444618015574723 -0.0068386069031269635 0 0.03997720567611418 -0.0066708685463198886 0 0.039808924459127711 -0.0063787659083131389 0 0.039908441951402522 -0.0066771328247121594 0 0.03997720567611418 -0.0066708685463198886 0 0.03997720567611418 -0.0066708685463198886 0 0.040047121240279683 -0.007815981884202133 0 0.03948051870553404 -0.0072787983726353145 0 0.040015713343427219 -0.0070524565235718338 0 0.039988975638403597 -0.0059405848852871947 0 0.040047121240279683 -0.007815981884202133 0 0.039422795580007594 -0.0077430014829326819 0 0.03948051870553404 -0.0072787983726353145 0 0.03904336908814255 -0.0075351323804555706 0 0.039038110718957138 -0.0079604281821429694 0 0.038684835970881799 -0.0077234585141201023 0 0.039422795580007594 -0.0077430014829326819 0 0.03904336908814255 -0.0075351323804555706 0 0.039038110718957138 -0.0079604281821429694 0 0.038945805617685333 -0.0070431355612248945 0 0.03904336908814255 -0.0075351323804555706 0 0.03948051870553404 -0.0072787983726353145 0 0.039422795580007594 -0.0077430014829326819 0 0.03904336908814255 -0.0075351323804555706 0 0.03948051870553404 -0.0072787983726353145 0 0.039038110718957138 -0.0079604281821429694 0 0.039367870076398442 -0.0081249437485145948 0 0.038297400210512575 -0.0086641957499633705 0 0.039672244247751752 -0.0072930472884325595 0 0.038641746521313081 -0.0054100142572627479 0 0.039422795580007594 -0.0077430014829326819 0 0.039038110718957138 -0.0079604281821429694 0 0.03941912470473042 -0.0081673428560113028 0 0.038897473481393413 -0.0050299911520570199 0 0.039732209428741921 -0.0045263483751749991 0 0.038726703552972128 -0.0039787638601784369 0 0.040047121240279683 -0.007815981884202133 0 0.039422795580007594 -0.0077430014829326819 0 0.03941912470473042 -0.0081673428560113028 0 0.039988975638403597 -0.0059405848852871947 0 0.038818573753616366 -0.0023052824328568208 0 0.037965428135576865 -0.0010589566220426535 0 0.037903864360113129 -0.00094819498719230411 0 0.037811980015040318 -0.00096511653124910148 0 0.038641746521313081 -0.0054100142572627479 0 0.038818573753616366 -0.0023052824328568208 0 0.039988975638403597 -0.0059405848852871947 0 0.038641746521313081 -0.0054100142572627479 0 0.037903864360113129 -0.00094819498719230411 0 0.037962897261253875 -0.00085000981435367367 0 0.037796004039626428 -0.00080908965074281448 0 0.037903864360113129 -0.00094819498719230411 0 0.037811980015040318 -0.00096511653124910148 0 0.037796004039626428 -0.00080908965074281448 0 0.037965428135576865 -0.0010589566220426535 0 0.037962897261253875 -0.00085000981435367367 0 0.03816184016301253 -0.00089140630883709551 0 0.037965428135576865 -0.0010589566220426535 0 0.037903864360113129 -0.00094819498719230411 0 0.037962897261253875 -0.00085000981435367367 0 0.037962897261253875 -0.00085000981435367367 0 0.038026585843099862 -0.00067919818045735197 0 0.038102629377584692 -0.00075407956166676198 0 0.037962897261253875 -0.00085000981435367367 0 0.038026585843099862 -0.00067919818045735197 0 0.037887730848732419 -0.00072546468697641205 0 0.038026585843099862 -0.00067919818045735197 0 0.037882126679324293 -0.00061293799021651721 0 0.037887730848732419 -0.00072546468697641205 0 0.038139518195770411 -0.00047461604245060051 0 0.038026585843099862 -0.00067919818045735197 0 0.037882126679324293 -0.00061293799021651721 0 0.038138203849181478 -0.00047608688704465861 0 0.03803228835207817 -0.00053392232763348072 0 0.037882126679324293 -0.00061293799021651721 0 0.037887730848732419 -0.00072546468697641205 0 0.037801388186662149 -0.00069192545834593523 0 0.037887730848732419 -0.00072546468697641205 0 0.037796004039626428 -0.00080908965074281448 0 0.037801388186662149 -0.00069192545834593523 0 0.037962897261253875 -0.00085000981435367367 0 0.037887730848732419 -0.00072546468697641205 0 0.037796004039626428 -0.00080908965074281448 0 0.037807532430631362 -0.00059169971405731946 0 0.037819385278385693 -0.00078707949379420994 0 0.037860419292625951 -0.00084658489660979297 0 0.037759488129645337 -0.0007755845346451392 0 0.037801388186662149 -0.00069192545834593523 0 0.037860419292625951 -0.00084658489660979297 0 0.037759488129645337 -0.0007755845346451392 0 0.037674349956464785 -0.00086774309292040827 0 0.037759488129645337 -0.0007755845346451392 0 0.037801388186662149 -0.00069192545834593523 0 0.037708749026343018 -0.00070808681721046078 0 0.03803228835207817 -0.00053392232763348072 0 0.037837161914169241 -0.00065205796242273682 0 0.038089038668282997 -0.00037324272890446963 0 0.038166502778699235 -0.00044074067109005138 0 0.038036678808713455 -0.00062621862801016915 0 0.037882126679324293 -0.00061293799021651721 0 0.037801388186662149 -0.00069192545834593523 0 0.037708749026343018 -0.00070808681721046078 0 0.038089038668282997 -0.00037324272890446963 0 0.037933714502849797 -0.00040437419102714808 0 0.038036678808713455 -0.00062621862801016915 0 0.037933714502849797 -0.00040437419102714808 0 0.038036678808713455 -0.00062621862801016915 0 0.037783052314940328 -0.00066141133920450713 0 0.037708749026343018 -0.00070808681721046078 0 0.037674349956464785 -0.00086774309292040827 0 0.037497701454009727 -0.00077123238665384095 0 0.037759488129645337 -0.0007755845346451392 0 0.037708749026343018 -0.00070808681721046078 0 0.037674349956464785 -0.00086774309292040827 0 0.039898250187600605 -0.0032750052374382211 0 0.039587766870960682 -0.0023805322146468995 0 0.038823325757162366 -0.0026934126168132446 0 0.039898250187600605 -0.0032750052374382211 0 0.03932440398257233 -0.0038893612924667544 0 0.038823325757162366 -0.0026934126168132446 0 0.037893508050732647 -0.0010055282140283759 0 0.037860419292625951 -0.00084658489660979297 0 0.037674349956464785 -0.00086774309292040827 0 0.038818573753616366 -0.0023052824328568208 0 0.037807532430631362 -0.00059169971405731946 0 0.038818573753616366 -0.0023052824328568208 0 0.038791185482678313 -0.0016316879900707055 0 0.041285993024009766 -0.0033050489727796967 0 0.039898250187600605 -0.0032750052374382211 0 0.039587766870960682 -0.0023805322146468995 0 0.041285993024009766 -0.0033050489727796967 0 0.039898250187600605 -0.0032750052374382211 0 0.040484878107760781 -0.0041140786858875509 0 0.041513537922051223 -0.0046353938413644198 0 0.041285993024009766 -0.0033050489727796967 0 0.040484878107760781 -0.0041140786858875509 0 0.039437111028658031 -0.0049090651417757602 0 0.040484878107760781 -0.0041140786858875509 0 0.03932440398257233 -0.0038893612924667544 0 0.039898250187600605 -0.0032750052374382211 0 0.040484878107760781 -0.0041140786858875509 0 0.03932440398257233 -0.0038893612924667544 0 0.039437111028658031 -0.0049090651417757602 0 0.03932440398257233 -0.0038893612924667544 0 0.038671549093150202 -0.0043659656550063672 0 0.03932440398257233 -0.0038893612924667544 0 0.038500241346900187 -0.0035854807980520934 0 0.038823325757162366 -0.0026934126168132446 0 0.038500241346900187 -0.0035854807980520934 0 0.037808551242315962 -0.0040165812608134559 0 0.03798857755962709 -0.0028707695428837007 0 0.03932440398257233 -0.0038893612924667544 0 0.038500241346900187 -0.0035854807980520934 0 0.038671549093150202 -0.0043659656550063672 0 0.038500241346900187 -0.0035854807980520934 0 0.038671549093150202 -0.0043659656550063672 0 0.037808551242315962 -0.0040165812608134559 0 0.037808551242315962 -0.0040165812608134559 0 0.037223587471788118 -0.0031566934630262093 0 0.036630446025731976 -0.0039704936290597161 0 0.037808551242315962 -0.0040165812608134559 0 0.037223587471788118 -0.0031566934630262093 0 0.03798857755962709 -0.0028707695428837007 0 0.037286741944631614 -0.0048927656057640807 0 0.037808551242315962 -0.0040165812608134559 0 0.036630446025731976 -0.0039704936290597161 0 0.037223587471788118 -0.0031566934630262093 0 0.037512163930005109 -0.00248008090948051 0 0.03798857755962709 -0.0028707695428837007 0 0.036950125620012701 -0.0022555587804006867 0 0.037512163930005109 -0.00248008090948051 0 0.037394165184382919 -0.0019097300379796759 0 0.037223587471788118 -0.0031566934630262093 0 0.036950125620012701 -0.0022555587804006867 0 0.037512163930005109 -0.00248008090948051 0 0.037512163930005109 -0.00248008090948051 0 0.03798857755962709 -0.0028707695428837007 0 0.037852094908100056 -0.0020727597567771123 0 0.03798857755962709 -0.0028707695428837007 0 0.038823325757162366 -0.0026934126168132446 0 0.037852094908100056 -0.0020727597567771123 0 0.038500241346900187 -0.0035854807980520934 0 0.03798857755962709 -0.0028707695428837007 0 0.038823325757162366 -0.0026934126168132446 0 0.038823325757162366 -0.0026934126168132446 0 0.037913048898987667 -0.0014039007131310033 0 0.037852094908100056 -0.0020727597567771123 0 0.037837161914169241 -0.00065205796242273682 0 0.037624411547958571 -0.0010841784166198015 0 0.038791185482678313 -0.0016316879900707055 0 0.037624411547958571 -0.0010841784166198015 0 0.039587766870960682 -0.0023805322146468995 0 0.038823325757162366 -0.0026934126168132446 0 0.037913048898987667 -0.0014039007131310033 0 0.038036678808713455 -0.00062621862801016915 0 0.037783052314940328 -0.00066141133920450713 0 0.037547325737355822 -0.0010606866890743333 0 0.037933714502849797 -0.00040437419102714808 0 0.037783052314940328 -0.00066141133920450713 0 0.037606493489853968 -0.00050415915712092598 0 0.037783052314940328 -0.00066141133920450713 0 0.037587650694237876 -0.00079810835321216553 0 0.037547325737355822 -0.0010606866890743333 0 0.037587650694237876 -0.00079810835321216553 0 0.037606493489853968 -0.00050415915712092598 0 0.037388085920074858 -0.00078991403014384539 0 0.037783052314940328 -0.00066141133920450713 0 0.037587650694237876 -0.00079810835321216553 0 0.037606493489853968 -0.00050415915712092598 0 0.037606493489853968 -0.00050415915712092598 0 0.037104746373977281 -0.00051153074663273194 0 0.037388085920074858 -0.00078991403014384539 0 0.037587650694237876 -0.00079810835321216553 0 0.037505231844395179 -0.00096125204068186099 0 0.037547325737355822 -0.0010606866890743333 0 0.037587650694237876 -0.00079810835321216553 0 0.037388085920074858 -0.00078991403014384539 0 0.037505231844395179 -0.00096125204068186099 0 0.037388085920074858 -0.00078991403014384539 0 0.037179904964036094 -0.0010021381988760858 0 0.037448179669458778 -0.00113980336287826 0 0.037388085920074858 -0.00078991403014384539 0 0.037505231844395179 -0.00096125204068186099 0 0.037448179669458778 -0.00113980336287826 0 0.037104746373977281 -0.00051153074663273194 0 0.037179904964036094 -0.0010021381988760858 0 0.036835101030278927 -0.0012493218953151166 0 0.037104746373977281 -0.00051153074663273194 0 0.037388085920074858 -0.00078991403014384539 0 0.037179904964036094 -0.0010021381988760858 0 0.037179904964036094 -0.0010021381988760858 0 0.037453245531524848 -0.0014701480142551651 0 0.036835101030278927 -0.0012493218953151166 0 0.037453245531524848 -0.0014701480142551651 0 0.037394165184382919 -0.0019097300379796759 0 0.036835101030278927 -0.0012493218953151166 0 0.037569117773496793 -0.0010899789408476712 0 0.037624411547958571 -0.0010841784166198015 0 0.037505231844395179 -0.00096125204068186099 0 0.037448179669458778 -0.00113980336287826 0 0.037547325737355822 -0.0010606866890743333 0 0.037448179669458778 -0.00113980336287826 0 0.037453245531524848 -0.0014701480142551651 0 0.037875498249000668 -0.001357100510823987 0 0.037179904964036094 -0.0010021381988760858 0 0.037448179669458778 -0.00113980336287826 0 0.037453245531524848 -0.0014701480142551651 0 0.037453245531524848 -0.0014701480142551651 0 0.037913048898987667 -0.0014039007131310033 0 0.037652095551490398 -0.0017185978457996596 0 0.037563778935307303 -0.0011993326129771248 0 0.037624411547958571 -0.0010841784166198015 0 0.037913048898987667 -0.0014039007131310033 0 0.037652095551490398 -0.0017185978457996596 0 0.037852094908100056 -0.0020727597567771123 0 0.037652095551490398 -0.0017185978457996596 0 0.037852094908100056 -0.0020727597567771123 0 0.037394165184382919 -0.0019097300379796759 0 0.037453245531524848 -0.0014701480142551651 0 0.037652095551490398 -0.0017185978457996596 0 0.037394165184382919 -0.0019097300379796759 0 0.037512163930005109 -0.00248008090948051 0 0.037852094908100056 -0.0020727597567771123 0 0.037394165184382919 -0.0019097300379796759 0 0.036950125620012701 -0.0022555587804006867 0 0.037394165184382919 -0.0019097300379796759 0 0.036835101030278927 -0.0012493218953151166 0 0.036950125620012701 -0.0022555587804006867 0 0.036313736064836892 -0.0018216690288360544 0 0.036835101030278927 -0.0012493218953151166 0 0.036313736064836892 -0.0018216690288360544 0 0.036835101030278927 -0.0012493218953151166 0 0.036216086310378738 -0.00083034081810248316 0 0.037104746373977281 -0.00051153074663273194 0 0.036835101030278927 -0.0012493218953151166 0 0.036216086310378738 -0.00083034081810248316 0 0.036575960766374663 0.00014043505797041922 0 0.037104746373977281 -0.00051153074663273194 0 0.036216086310378738 -0.00083034081810248316 0 0.035000183198191807 8.4402654557578843e-05 0 0.036575960766374663 0.00014043505797041922 0 0.036216086310378738 -0.00083034081810248316 0 0.035000183198191807 8.4402654557578843e-05 0 0.036216086310378738 -0.00083034081810248316 0 0.034999860896858699 -0.0019012282941304364 0 0.036313736064836892 -0.0018216690288360544 0 0.034999860896858699 -0.0019012282941304364 0 0.036215947961328675 -0.0027973276136207047 0 0.036313736064836892 -0.0018216690288360544 0 0.036216086310378738 -0.00083034081810248316 0 0.034999860896858699 -0.0019012282941304364 0 0.034999860896858699 -0.0019012282941304364 0 0.036215947961328675 -0.0027973276136207047 0 0.034999901755825333 -0.0038877724625348904 0 0.037223587471788118 -0.0031566934630262093 0 0.036950125620012701 -0.0022555587804006867 0 0.036215947961328675 -0.0027973276136207047 0 0.037223587471788118 -0.0031566934630262093 0 0.036215947961328675 -0.0027973276136207047 0 0.036630446025731976 -0.0039704936290597161 0 0.036950125620012701 -0.0022555587804006867 0 0.036313736064836892 -0.0018216690288360544 0 0.036215947961328675 -0.0027973276136207047 0 0.036240053563951366 -0.0051006659059452571 0 0.036630446025731976 -0.0039704936290597161 0 0.034999901755825333 -0.0038877724625348904 0 0.036215947961328675 -0.0027973276136207047 0 0.036630446025731976 -0.0039704936290597161 0 0.034999901755825333 -0.0038877724625348904 0 0.023007251053989833 -0.00059754208396165139 0 0.023276681926057266 -0.0010119702279322682 0 0.022895632670831279 -0.0012011517761035958 0 0.023007251053989833 -0.00059754208396165139 0 0.022548063617372764 -0.00093066977927455218 0 0.022895632670831279 -0.0012011517761035958 0 0.023007251053989833 -0.00059754208396165139 0 0.022548063617372764 -0.00093066977927455218 0 0.022516285414271989 -0.00050629880696390951 0 0.028590510286184159 -0.0051213100655539256 0 0.028843955818996271 -0.0050928074497682014 0 0.028840350060362036 -0.0054522619882731525 0 0.025935801868967802 -0.002448782436137656 0 0.025340507592958236 -0.0027074450976194908 0 0.022548063617372764 -0.00093066977927455218 0 0.022096575769210071 -0.0011087201730027578 0 0.022240730180470552 -0.00072125186728569043 0 0.022096575769210071 -0.0011087201730027578 0 0.02182134328522449 -0.00065856143891482538 0 0.022240730180470552 -0.00072125186728569043 0 0.022096575769210071 -0.0011087201730027578 0 0.02182134328522449 -0.00065856143891482538 0 0.021563456675380958 -0.0012127808725789415 0 0.02182134328522449 -0.00065856143891482538 0 0.02208348786518028 -0.00028246175627279733 0 0.02173112871014491 8.910989854515155e-06 0 0.02182134328522449 -0.00065856143891482538 0 0.022240730180470552 -0.00072125186728569043 0 0.022156368302525813 -0.00042273468559562923 0 0.021673208413741974 -0.00085167234128938373 0 0.022643367369740083 0.00028061238972900755 0 0.022548063617372764 -0.00093066977927455218 0 0.022516285414271989 -0.00050629880696390951 0 0.022240730180470552 -0.00072125186728569043 0 0.022516285414271989 -0.00050629880696390951 0 0.022240730180470552 -0.00072125186728569043 0 0.022156368302525813 -0.00042273468559562923 0 0.022516285414271989 -0.00050629880696390951 0 0.022408504948866603 -0.00020739308702919578 0 0.022717797087772898 -0.00018451642532131806 0 0.022516285414271989 -0.00050629880696390951 0 0.022408504948866603 -0.00020739308702919578 0 0.022156368302525813 -0.00042273468559562923 0 0.021361215285302781 -0.0054374388165849483 0 0.022643367369740083 0.00028061238972900755 0 0.021361215285302781 -0.0054374388165849483 0 0.020799163347192666 -0.0073726631980892349 0 0.022335146741020693 -2.4462627254260547e-05 0 0.02208348786518028 -0.00028246175627279733 0 0.02173112871014491 8.910989854515155e-06 0 0.019861881664154556 -0.014734227708564834 0 0.020124537078721 -0.014364121141958189 0 0.020220516216921461 -0.01488937422854902 0 0.01963926297431148 -0.014367335450874546 0 0.019861881664154556 -0.014734227708564834 0 0.020124537078721 -0.014364121141958189 0 0.01963926297431148 -0.014367335450874546 0 0.019861881664154556 -0.014734227708564834 0 0.019411358544081991 -0.014615914326925957 0 0.021361215285302781 -0.0054374388165849483 0 0.021341696825149904 -0.012780076559523412 0 0.026819044997097141 -0.011294308944427778 0 0.026825658725049859 -0.011279623196922767 0 0.02685866656824577 -0.011279055967658899 0 0.021341696825149904 -0.012780076559523412 0 0.02430615258626035 -0.0057984329513481089 0 0.022637244930776838 -0.0073686157164656813 0 0.022206582186608499 -0.0079076135056536483 0 0.021946021766184185 -0.0074747626832556537 0 0.021361215285302781 -0.0054374388165849483 0 0.02430615258626035 -0.0057984329513481089 0 0.025935801868967802 -0.002448782436137656 0 0.02430615258626035 -0.0057984329513481089 0 0.023007251053989833 -0.00059754208396165139 0 0.022516285414271989 -0.00050629880696390951 0 0.022717797087772898 -0.00018451642532131806 0 0.028590510286184159 -0.0051213100655539256 0 0.028736183375337503 -0.0047650873874712498 0 0.028843955818996271 -0.0050928074497682014 0 0.028590510286184159 -0.0051213100655539256 0 0.028347512704339346 -0.0048054358001214685 0 0.028736183375337503 -0.0047650873874712498 0 0.02684644676914056 -0.011333018250413473 0 0.026819044997097141 -0.011294308944427778 0 0.02685866656824577 -0.011279055967658899 0 0.02430615258626035 -0.0057984329513481089 0 0.032106987733616456 -0.0085893335688048845 0 0.034407688989732017 -0.01256490021456735 0 0.034564593417757111 -0.012231839693619172 0 0.034263844377211479 -0.01228663115281054 0 0.032106987733616456 -0.0085893335688048845 0 0.036425368188193322 -0.0090177840170597035 0 0.037241788857876018 -0.0057416177055908887 0 0.036501017488404938 -0.0067537513518020854 0 0.037371254235071115 -0.0068034250862334077 0 0.036216983045803355 -0.0058819900365473564 0 0.037241788857876018 -0.0057416177055908887 0 0.036501017488404938 -0.0067537513518020854 0 0.032106987733616456 -0.0085893335688048845 0 0.032571302269564804 -0.0052029527773530234 0 0.039199615327414485 -0.0060585629341907612 0 0.038273267532364909 -0.0056116906142825405 0 0.038312104177907771 -0.0064742910325966616 0 0.035927761875998464 -0.0090356979461739539 0 0.036078223368708431 -0.0089571568738829131 0 0.037241788857876018 -0.0057416177055908887 0 0.038273267532364909 -0.0056116906142825405 0 0.038312104177907771 -0.0064742910325966616 0 0.036425368188193322 -0.0090177840170597035 0 0.036078223368708431 -0.0089571568738829131 0 0.037241788857876018 -0.0057416177055908887 0 0.038312104177907771 -0.0064742910325966616 0 0.037371254235071115 -0.0068034250862334077 0 0.039199615327414485 -0.0060585629341907612 0 0.039182360216424218 -0.0065902448136125717 0 0.038312104177907771 -0.0064742910325966616 0 0.039182360216424218 -0.0065902448136125717 0 0.038945805617685333 -0.0070431355612248945 0 0.038312104177907771 -0.0064742910325966616 0 0.038945805617685333 -0.0070431355612248945 0 0.038312104177907771 -0.0064742910325966616 0 0.038413994938518041 -0.0071121112176141706 0 0.038945805617685333 -0.0070431355612248945 0 0.038413994938518041 -0.0071121112176141706 0 0.038659041852940217 -0.0074094239048803244 0 0.038312104177907771 -0.0064742910325966616 0 0.037946101239296377 -0.0070714193171265861 0 0.037371254235071115 -0.0068034250862334077 0 0.037946101239296377 -0.0070714193171265861 0 0.037371254235071115 -0.0068034250862334077 0 0.037561095468713807 -0.0075245144458343134 0 0.038312104177907771 -0.0064742910325966616 0 0.038413994938518041 -0.0071121112176141706 0 0.037946101239296377 -0.0070714193171265861 0 0.038413994938518041 -0.0071121112176141706 0 0.037946101239296377 -0.0070714193171265861 0 0.038214261018095379 -0.0075532254956489336 0 0.037946101239296377 -0.0070714193171265861 0 0.038214261018095379 -0.0075532254956489336 0 0.037561095468713807 -0.0075245144458343134 0 0.038214261018095379 -0.0075532254956489336 0 0.037561095468713807 -0.0075245144458343134 0 0.037825830623201086 -0.008035810424811626 0 0.038413994938518041 -0.0071121112176141706 0 0.038214261018095379 -0.0075532254956489336 0 0.038659041852940217 -0.0074094239048803244 0 0.038214261018095379 -0.0075532254956489336 0 0.038684835970881799 -0.0077234585141201023 0 0.038659041852940217 -0.0074094239048803244 0 0.038214261018095379 -0.0075532254956489336 0 0.038684835970881799 -0.0077234585141201023 0 0.038404409085930159 -0.0080034617487250072 0 0.03904336908814255 -0.0075351323804555706 0 0.038684835970881799 -0.0077234585141201023 0 0.038659041852940217 -0.0074094239048803244 0 0.038945805617685333 -0.0070431355612248945 0 0.03904336908814255 -0.0075351323804555706 0 0.038659041852940217 -0.0074094239048803244 0 0.036501017488404938 -0.0067537513518020854 0 0.037371254235071115 -0.0068034250862334077 0 0.036779459083735942 -0.007596871788839896 0 0.032571302269564804 -0.0052029527773530234 0 0.033162583527126047 -0.0069908398939275774 0 0.037371254235071115 -0.0068034250862334077 0 0.037561095468713807 -0.0075245144458343134 0 0.036779459083735942 -0.007596871788839896 0 0.037561095468713807 -0.0075245144458343134 0 0.036779459083735942 -0.007596871788839896 0 0.03731344402712667 -0.0079801893565098776 0 0.028843955818996271 -0.0050928074497682014 0 0.028840350060362036 -0.0054522619882731525 0 0.02898440964938483 -0.0054380809195050386 0 0.023276681926057266 -0.0010119702279322682 0 0.023531433834463204 -0.001394287188495323 0 0.023193199471952572 -0.0013513590401421397 0 0.033162583527126047 -0.0069908398939275774 0 0.030897614318566736 -0.0057564585475128232 0 0.025340507592958236 -0.0027074450976194908 0 0.030897614318566736 -0.0057564585475128232 0 0.028840350060362036 -0.0054522619882731525 0 0.02898440964938483 -0.0054380809195050386 0 0.02916148027131224 -0.0058583217684045688 0 0.036779459083735942 -0.007596871788839896 0 0.03731344402712667 -0.0079801893565098776 0 0.037018984416621464 -0.0083922417221758694 0 0.037561095468713807 -0.0075245144458343134 0 0.03731344402712667 -0.0079801893565098776 0 0.037825830623201086 -0.008035810424811626 0 0.03731344402712667 -0.0079801893565098776 0 0.037514553783450776 -0.0083339209049559868 0 0.037018984416621464 -0.0083922417221758694 0 0.03731344402712667 -0.0079801893565098776 0 0.037514553783450776 -0.0083339209049559868 0 0.037825830623201086 -0.008035810424811626 0 0.023531433834463204 -0.001394287188495323 0 0.023379950863351581 -0.0015914356835394906 0 0.023632941044033372 -0.0017269674081265528 0 0.037514553783450776 -0.0083339209049559868 0 0.037018984416621464 -0.0083922417221758694 0 0.037151993803938833 -0.0086086428457819702 0 0.030897614318566736 -0.0057564585475128232 0 0.031913816605272399 -0.0026994276599252133 0 0.037151993803938833 -0.0086086428457819702 0 0.038297400210512575 -0.0086641957499633705 0 0.03721838462913004 -0.0091779389059803065 0 0.036986875718831996 -0.0083638100361777528 0 0.037151993803938833 -0.0086086428457819702 0 0.03721838462913004 -0.0091779389059803065 0 0.030897614318566736 -0.0057564585475128232 0 0.034978442254244561 -0.0092711066858739543 0 0.023531433834463204 -0.001394287188495323 0 0.023379950863351581 -0.0015914356835394906 0 0.023193199471952572 -0.0013513590401421397 0 0.038641746521313081 -0.0054100142572627479 0 0.039357069036520337 -0.0048132259148389832 0 0.039038110718957138 -0.0079604281821429694 0 0.038404409085930159 -0.0080034617487250072 0 0.038297400210512575 -0.0086641957499633705 0 0.039038110718957138 -0.0079604281821429694 0 0.038684835970881799 -0.0077234585141201023 0 0.038404409085930159 -0.0080034617487250072 0 0.037514553783450776 -0.0083339209049559868 0 0.037825830623201086 -0.008035810424811626 0 0.038297400210512575 -0.0086641957499633705 0 0.038404409085930159 -0.0080034617487250072 0 0.037825830623201086 -0.008035810424811626 0 0.038297400210512575 -0.0086641957499633705 0 0.038214261018095379 -0.0075532254956489336 0 0.038404409085930159 -0.0080034617487250072 0 0.037825830623201086 -0.008035810424811626 0 0.037514553783450776 -0.0083339209049559868 0 0.037151993803938833 -0.0086086428457819702 0 0.038297400210512575 -0.0086641957499633705 0 0.039357069036520337 -0.0048132259148389832 0 0.031913816605272399 -0.0026994276599252133 0 0.037962897261253875 -0.00085000981435367367 0 0.03816184016301253 -0.00089140630883709551 0 0.038102629377584692 -0.00075407956166676198 0 0.03816184016301253 -0.00089140630883709551 0 0.038102629377584692 -0.00075407956166676198 0 0.038197295662173496 -0.00065302966097859408 0 0.038026585843099862 -0.00067919818045735197 0 0.038102629377584692 -0.00075407956166676198 0 0.038130524947875388 -0.00062117487727386049 0 0.038102629377584692 -0.00075407956166676198 0 0.038197295662173496 -0.00065302966097859408 0 0.038130524947875388 -0.00062117487727386049 0 0.03816184016301253 -0.00089140630883709551 0 0.038197295662173496 -0.00065302966097859408 0 0.038303894564309188 -0.0007389849460525999 0 0.038252388997134089 -0.00047555156747987781 0 0.038197295662173496 -0.00065302966097859408 0 0.038303894564309188 -0.0007389849460525999 0 0.038252388997134089 -0.00047555156747987781 0 0.038197407134691379 -0.00046030353255193085 0 0.038197295662173496 -0.00065302966097859408 0 0.038197407134691379 -0.00046030353255193085 0 0.038197295662173496 -0.00065302966097859408 0 0.038130524947875388 -0.00062117487727386049 0 0.038139518195770411 -0.00047461604245060051 0 0.038026585843099862 -0.00067919818045735197 0 0.038130524947875388 -0.00062117487727386049 0 0.038197407134691379 -0.00046030353255193085 0 0.038139518195770411 -0.00047461604245060051 0 0.038130524947875388 -0.00062117487727386049 0 0.023379950863351581 -0.0015914356835394906 0 0.023421026114015548 -0.0018072250952994432 0 0.023145777054362483 -0.0017504061960825303 0 0.023379950863351581 -0.0015914356835394906 0 0.023421026114015548 -0.0018072250952994432 0 0.023632941044033372 -0.0017269674081265528 0 0.022930511468224557 -0.0035727519502197205 0 0.031913816605272399 -0.0026994276599252133 0 0.023439630488261566 -0.0019184858100013038 0 0.023530939323652009 -0.001797516851814151 0 0.023445627750120459 -0.0019067000934447824 0 0.023421026114015548 -0.0018072250952994432 0 0.023530939323652009 -0.001797516851814151 0 0.023445627750120459 -0.0019067000934447824 0 0.030256268607245011 -0.0010837431569653243 0 0.031913816605272399 -0.0026994276599252133 0 0.023421026114015548 -0.0018072250952994432 0 0.023318900999837747 -0.0019168996251716713 0 0.023145777054362483 -0.0017504061960825303 0 0.023421026114015548 -0.0018072250952994432 0 0.023445627750120459 -0.0019067000934447824 0 0.023318900999837747 -0.0019168996251716713 0 0.023032597087392786 -0.0019500568913353316 0 0.022675502161079313 -0.001848655041222468 0 0.023145777054362483 -0.0017504061960825303 0 0.023161790736476093 -0.0020509723782913447 0 0.023318900999837747 -0.0019168996251716713 0 0.023032597087392786 -0.0019500568913353316 0 0.023318900999837747 -0.0019168996251716713 0 0.023032597087392786 -0.0019500568913353316 0 0.023145777054362483 -0.0017504061960825303 0 0.022811052807406165 -0.0021953617768814223 0 0.023032597087392786 -0.0019500568913353316 0 0.022675502161079313 -0.001848655041222468 0 0.022675502161079313 -0.001848655041222468 0 0.022888994805289553 -0.0015299488482700145 0 0.022462087157253754 -0.0016021218033674676 0 0.022675502161079313 -0.001848655041222468 0 0.023145777054362483 -0.0017504061960825303 0 0.022888994805289553 -0.0015299488482700145 0 0.023379950863351581 -0.0015914356835394906 0 0.023145777054362483 -0.0017504061960825303 0 0.022888994805289553 -0.0015299488482700145 0 0.022888994805289553 -0.0015299488482700145 0 0.022895632670831279 -0.0012011517761035958 0 0.023193199471952572 -0.0013513590401421397 0 0.023379950863351581 -0.0015914356835394906 0 0.022888994805289553 -0.0015299488482700145 0 0.023193199471952572 -0.0013513590401421397 0 0.022888994805289553 -0.0015299488482700145 0 0.022457463273797544 -0.0013560401667359369 0 0.022462087157253754 -0.0016021218033674676 0 0.022548063617372764 -0.00093066977927455218 0 0.022895632670831279 -0.0012011517761035958 0 0.022457463273797544 -0.0013560401667359369 0 0.022888994805289553 -0.0015299488482700145 0 0.022895632670831279 -0.0012011517761035958 0 0.022457463273797544 -0.0013560401667359369 0 0.023276681926057266 -0.0010119702279322682 0 0.022895632670831279 -0.0012011517761035958 0 0.023193199471952572 -0.0013513590401421397 0 0.022096575769210071 -0.0011087201730027578 0 0.022457463273797544 -0.0013560401667359369 0 0.021841857883195141 -0.0017112479893184565 0 0.022096575769210071 -0.0011087201730027578 0 0.021841857883195141 -0.0017112479893184565 0 0.021563456675380958 -0.0012127808725789415 0 0.022548063617372764 -0.00093066977927455218 0 0.022096575769210071 -0.0011087201730027578 0 0.022457463273797544 -0.0013560401667359369 0 0.022457463273797544 -0.0013560401667359369 0 0.021841857883195141 -0.0017112479893184565 0 0.022462087157253754 -0.0016021218033674676 0 0.021848575150863084 -0.00143694792336199 0 0.022402350138623784 -0.0015903798607046528 0 0.02189029725426176 -0.0011639536284682238 0 0.022062930471947323 -0.0017194012158952569 0 0.022462087157253754 -0.0016021218033674676 0 0.022675502161079313 -0.001848655041222468 0 0.022062930471947323 -0.0017194012158952569 0 0.022462087157253754 -0.0016021218033674676 0 0.022228521631536872 -0.0021472420823723925 0 0.022675502161079313 -0.001848655041222468 0 0.022062930471947323 -0.0017194012158952569 0 0.022228521631536872 -0.0021472420823723925 0 0.022062930471947323 -0.0017194012158952569 0 0.021522669745721923 -0.0020194515099881808 0 0.021554394410321615 0.0032241456339711151 0 0.020643929559600316 0.0034911241230212065 0 0.020643929559600316 0.0034911241230212065 0 0.019791648265102574 0.00392003633692398 0 0.021522669745721923 -0.0020194515099881808 0 0.02135813014045241 -0.0014506934083454907 0 0.020754083456729425 -0.0018006405110515275 0 0.019080208866142746 0.0085998667343412313 0 0.019806688690006815 0.0090231617292618332 0 0.018600293611539052 0.0093991791518088959 0 0.022062930471947323 -0.0017194012158952569 0 0.021522669745721923 -0.0020194515099881808 0 0.02135813014045241 -0.0014506934083454907 0 0.02189029725426176 -0.0011639536284682238 0 0.022062930471947323 -0.0017194012158952569 0 0.02135813014045241 -0.0014506934083454907 0 0.018032358319926424 0.0086488145150802314 0 0.017770175464609021 0.009150998435066237 0 0.018600293611539052 0.0093991791518088959 0 0.017770175464609021 0.009150998435066237 0 0.018600293611539052 0.0093991791518088959 0 0.017496993937100604 0.009588459981521873 0 0.020754083456729425 -0.0018006405110515275 0 0.020292431134534685 -0.0010863921759680483 0 0.020831596353641572 -0.0011495866912884002 0 0.02135813014045241 -0.0014506934083454907 0 0.020754083456729425 -0.0018006405110515275 0 0.020831596353641572 -0.0011495866912884002 0 0.020754083456729425 -0.0018006405110515275 0 0.020292431134534685 -0.0010863921759680483 0 0.020024194020064959 -0.0015746368781091667 0 0.019791648265102574 0.00392003633692398 0 0.018145787502773122 0.0029920134598632308 0 0.020292431134534685 -0.0010863921759680483 0 0.020831596353641572 -0.0011495866912884002 0 0.020554790791175091 -0.00056722233719809837 0 0.019954471867012359 -0.0015219321909275098 0 0.020974642760130648 -0.0016769904978495875 0 0.020814399962216838 -0.0011711426031250892 0 0.020188281245203051 -0.0012425464736292684 0 0.021085919603491887 -0.0012250024314216512 0 0.020831596353641572 -0.0011495866912884002 0 0.020554790791175091 -0.00056722233719809837 0 0.021217325973291037 -0.00083595542219488462 0 0.019602668277367136 -0.0031129828430346636 0 0.020188281245203051 -0.0012425464736292684 0 0.019241400874620788 -0.0031671447864754392 0 0.019887047770559354 -0.001860447131090148 0 0.019179068455974682 -0.0022467404510355784 0 0.019887047770559354 -0.001860447131090148 0 0.019179068455974682 -0.0022467404510355784 0 0.019101900525349623 -0.0015345631037096043 0 0.019241400874620788 -0.0031671447864754392 0 0.019179068455974682 -0.0022467404510355784 0 0.018483765788988249 -0.0024220512193725559 0 0.02189029725426176 -0.0011639536284682238 0 0.02135813014045241 -0.0014506934083454907 0 0.021217325973291037 -0.00083595542219488462 0 0.021848575150863084 -0.00143694792336199 0 0.021085919603491887 -0.0012250024314216512 0 0.02135813014045241 -0.0014506934083454907 0 0.020831596353641572 -0.0011495866912884002 0 0.021217325973291037 -0.00083595542219488462 0 0.020974642760130648 -0.0016769904978495875 0 0.021563456675380958 -0.0012127808725789415 0 0.020814399962216838 -0.0011711426031250892 0 0.021841857883195141 -0.0017112479893184565 0 0.020974642760130648 -0.0016769904978495875 0 0.021563456675380958 -0.0012127808725789415 0 0.021563456675380958 -0.0012127808725789415 0 0.021392327985187646 -0.00083738800800189396 0 0.020814399962216838 -0.0011711426031250892 0 0.02182134328522449 -0.00065856143891482538 0 0.021563456675380958 -0.0012127808725789415 0 0.021392327985187646 -0.00083738800800189396 0 0.02182134328522449 -0.00065856143891482538 0 0.021364480696657258 -0.0003764245966495486 0 0.02173112871014491 8.910989854515155e-06 0 0.02182134328522449 -0.00065856143891482538 0 0.021392327985187646 -0.00083738800800189396 0 0.021364480696657258 -0.0003764245966495486 0 0.021392327985187646 -0.00083738800800189396 0 0.021364480696657258 -0.0003764245966495486 0 0.020974978571230322 -0.00075603914998713915 0 0.021364480696657258 -0.0003764245966495486 0 0.020974978571230322 -0.00075603914998713915 0 0.020896709532479848 8.100844355567218e-05 0 0.020974978571230322 -0.00075603914998713915 0 0.020343126465845719 -0.00051076942987498554 0 0.020896709532479848 8.100844355567218e-05 0 0.021392327985187646 -0.00083738800800189396 0 0.020974978571230322 -0.00075603914998713915 0 0.020814399962216838 -0.0011711426031250892 0 0.020974978571230322 -0.00075603914998713915 0 0.020814399962216838 -0.0011711426031250892 0 0.02050888457015565 -0.00094742388120278226 0 0.019954471867012359 -0.0015219321909275098 0 0.020814399962216838 -0.0011711426031250892 0 0.020066228414685916 -0.0012869727862114156 0 0.020814399962216838 -0.0011711426031250892 0 0.020066228414685916 -0.0012869727862114156 0 0.02050888457015565 -0.00094742388120278226 0 0.020188281245203051 -0.0012425464736292684 0 0.020063068290059004 -0.0014159167926798943 0 0.020066228414685916 -0.0012869727862114156 0 0.020151465426772857 -0.00089786688477337976 0 0.019785196661360326 -0.0010270233651857698 0 0.020066228414685916 -0.0012869727862114156 0 0.020151465426772857 -0.00089786688477337976 0 0.02050888457015565 -0.00094742388120278226 0 0.020151465426772857 -0.00089786688477337976 0 0.02050888457015565 -0.00094742388120278226 0 0.020343126465845719 -0.00051076942987498554 0 0.020188281245203051 -0.0012425464736292684 0 0.019269487157502582 -0.0014479778888326072 0 0.01985147953014578 -0.0017781888467894036 0 0.019101900525349623 -0.0015345631037096043 0 0.019594732880109714 -0.0013668199811155933 0 0.01985147953014578 -0.0017781888467894036 0 0.020066228414685916 -0.0012869727862114156 0 0.019594732880109714 -0.0013668199811155933 0 0.020066228414685916 -0.0012869727862114156 0 0.019594732880109714 -0.0013668199811155933 0 0.019785196661360326 -0.0010270233651857698 0 0.020151465426772857 -0.00089786688477337976 0 0.019785196661360326 -0.0010270233651857698 0 0.019475230287500797 -0.0007303650907894496 0 0.019594732880109714 -0.0013668199811155933 0 0.019785196661360326 -0.0010270233651857698 0 0.019475230287500797 -0.0007303650907894496 0 0.019101900525349623 -0.0015345631037096043 0 0.019594732880109714 -0.0013668199811155933 0 0.019475230287500797 -0.0007303650907894496 0 0.019101900525349623 -0.0015345631037096043 0 0.019475230287500797 -0.0007303650907894496 0 0.018544533498457735 -0.00093939229182793871 0 0.019475230287500797 -0.0007303650907894496 0 0.019746998119277132 0.00016857885749478865 0 0.01824036910366468 0.0001231492262958062 0 0.019475230287500797 -0.0007303650907894496 0 0.020343126465845719 -0.00051076942987498554 0 0.019746998119277132 0.00016857885749478865 0 0.020151465426772857 -0.00089786688477337976 0 0.019475230287500797 -0.0007303650907894496 0 0.020343126465845719 -0.00051076942987498554 0 0.020974978571230322 -0.00075603914998713915 0 0.02050888457015565 -0.00094742388120278226 0 0.020343126465845719 -0.00051076942987498554 0 0.020343126465845719 -0.00051076942987498554 0 0.019746998119277132 0.00016857885749478865 0 0.020896709532479848 8.100844355567218e-05 0 0.020112811828494517 -0.0070833104426601479 0 0.020687242892366779 -0.0071035137080059122 0 0.020675696062060437 -0.014274187341303167 0 0.020603668249218686 -0.014608899857965103 0 0.02041864562115818 -0.01434917713456727 0 0.020112811828494517 -0.0070833104426601479 0 0.019967442672216701 -0.0068699036781858965 0 0.020675696062060437 -0.014274187341303167 0 0.020603668249218686 -0.014608899857965103 0 0.020873136880282004 -0.014552850578062677 0 0.020603668249218686 -0.014608899857965103 0 0.020367757920209357 -0.014640812815935347 0 0.02041864562115818 -0.01434917713456727 0 0.020367757920209357 -0.014640812815935347 0 0.020124537078721 -0.014364121141958189 0 0.020220516216921461 -0.01488937422854902 0 0.020367757920209357 -0.014640812815935347 0 0.020124537078721 -0.014364121141958189 0 0.02041864562115818 -0.01434917713456727 0 0.020799163347192666 -0.0073726631980892349 0 0.020687242892366779 -0.0071035137080059122 0 0.021364480696657258 -0.0003764245966495486 0 0.02173112871014491 8.910989854515155e-06 0 0.020896709532479848 8.100844355567218e-05 0 0.012901408752352598 -0.0078370830083699314 0 0.012569433930380333 -0.0081150321445398431 0 0.012294327280721832 -0.0078338644510575674 0 0.012901408752352598 -0.0078370830083699314 0 0.012569433930380333 -0.0081150321445398431 0 0.012831259936668714 -0.0083219142256696042 0 0.016938618801636933 -0.011092497562220902 0 0.017383885665332686 -0.0083193303073644479 0 0.012569433930380333 -0.0081150321445398431 0 0.012520078414376074 -0.0082837238874107003 0 0.012270195355530226 -0.0081929833900772162 0 0.012021836582935014 -0.0079510990101063841 0 0.012294327280721832 -0.0078338644510575674 0 0.012270195355530226 -0.0081929833900772162 0 0.012569433930380333 -0.0081150321445398431 0 0.012294327280721832 -0.0078338644510575674 0 0.012270195355530226 -0.0081929833900772162 0 0.012021836582935014 -0.0079510990101063841 0 0.01183048492640011 -0.0081387581043271505 0 0.012270195355530226 -0.0081929833900772162 0 0.012021836582935014 -0.0079510990101063841 0 0.01183048492640011 -0.0081387581043271505 0 0.011712237056967089 -0.0078083698990391096 0 0.012021836582935014 -0.0079510990101063841 0 0.011965007863385172 -0.0077072226981111476 0 0.012294327280721832 -0.0078338644510575674 0 0.012021836582935014 -0.0079510990101063841 0 0.011965007863385172 -0.0077072226981111476 0 0.011712237056967089 -0.0078083698990391096 0 0.011965007863385172 -0.0077072226981111476 0 0.012294327280721832 -0.0078338644510575674 0 0.012191077848913774 -0.0072824993476837832 0 0.011965007863385172 -0.0077072226981111476 0 0.012191077848913774 -0.0072824993476837832 0 0.011702054117639388 -0.0075542667141823214 0 0.012901408752352598 -0.0078370830083699314 0 0.012191077848913774 -0.0072824993476837832 0 0.013007419175917597 -0.0073587050067805537 0 0.012901408752352598 -0.0078370830083699314 0 0.012294327280721832 -0.0078338644510575674 0 0.012191077848913774 -0.0072824993476837832 0 0.010758563676501593 -0.011692838770697741 0 0.013603298371725346 -0.012844125133187998 0 0.016938618801636933 -0.011092497562220902 0 0.013603298371725346 -0.012844125133187998 0 0.021227042889119415 -0.014588677580932857 0 0.021061911136587806 -0.014435998500007614 0 0.021011425848952655 -0.014773775228850962 0 0.021268521849269327 -0.014324059830452892 0 0.021227042889119415 -0.014588677580932857 0 0.021061911136587806 -0.014435998500007614 0 0.021061911136587806 -0.014435998500007614 0 0.020873136880282004 -0.014552850578062677 0 0.021011425848952655 -0.014773775228850962 0 0.021061911136587806 -0.014435998500007614 0 0.020873136880282004 -0.014552850578062677 0 0.020969101466286142 -0.014172348594113097 0 0.020675696062060437 -0.014274187341303167 0 0.020873136880282004 -0.014552850578062677 0 0.020969101466286142 -0.014172348594113097 0 0.021268521849269327 -0.014324059830452892 0 0.021061911136587806 -0.014435998500007614 0 0.020969101466286142 -0.014172348594113097 0 0.021268521849269327 -0.014324059830452892 0 0.020969101466286142 -0.014172348594113097 0 0.021301944065172728 -0.014063098892361016 0 0.01824036910366468 0.0001231492262958062 0 0.017261813222685447 -0.00051309665994122059 0 0.017653571329114305 -0.00096752034537847683 0 0.01824036910366468 0.0001231492262958062 0 0.017261813222685447 -0.00051309665994122059 0 0.016645289234946736 -6.9645332178792314e-05 0 0.019967442672216701 -0.0068699036781858965 0 0.017383885665332686 -0.0083193303073644479 0 0.019475230287500797 -0.0007303650907894496 0 0.01824036910366468 0.0001231492262958062 0 0.018544533498457735 -0.00093939229182793871 0 0.01824036910366468 0.0001231492262958062 0 0.018544533498457735 -0.00093939229182793871 0 0.017653571329114305 -0.00096752034537847683 0 0.018544533498457735 -0.00093939229182793871 0 0.0181177850100274 -0.0016539183537709018 0 0.017653571329114305 -0.00096752034537847683 0 0.019101900525349623 -0.0015345631037096043 0 0.018544533498457735 -0.00093939229182793871 0 0.0181177850100274 -0.0016539183537709018 0 0.017653571329114305 -0.00096752034537847683 0 0.01713114320230991 -0.0017117306552825232 0 0.016908058270704955 -0.0010236306723293372 0 0.017261813222685447 -0.00051309665994122059 0 0.017653571329114305 -0.00096752034537847683 0 0.016908058270704955 -0.0010236306723293372 0 0.0181177850100274 -0.0016539183537709018 0 0.017653571329114305 -0.00096752034537847683 0 0.01713114320230991 -0.0017117306552825232 0 0.01713114320230991 -0.0017117306552825232 0 0.016177483652969168 -0.0016025571420032543 0 0.016908058270704955 -0.0010236306723293372 0 0.016040780843864219 -0.00087735276123187937 0 0.014734228951285368 -0.0024193666698278981 0 0.015846558308598557 -0.00074211119157201698 0 0.016177018004497518 0.00075818231594018692 0 0.015275104699304608 0.00010378923855725547 0 0.016177483652969168 -0.0016025571420032543 0 0.016908058270704955 -0.0010236306723293372 0 0.016466894042385643 -0.00074695202308178643 0 0.016908058270704955 -0.0010236306723293372 0 0.016466894042385643 -0.00074695202308178643 0 0.016645289234946736 -6.9645332178792314e-05 0 0.017261813222685447 -0.00051309665994122059 0 0.016908058270704955 -0.0010236306723293372 0 0.016645289234946736 -6.9645332178792314e-05 0 0.014734228951285368 -0.0024193666698278981 0 0.017383885665332686 -0.0083193303073644479 0 0.012818062967226053 -0.0088023834366658393 0 0.012680561397152389 -0.0083443097673225278 0 0.012909986377850768 -0.0083089675150386164 0 0.012818062967226053 -0.0088023834366658393 0 0.012520078414376074 -0.0082837238874107003 0 0.012270195355530226 -0.0081929833900772162 0 0.012818062967226053 -0.0088023834366658393 0 0.012520078414376074 -0.0082837238874107003 0 0.012680561397152389 -0.0083443097673225278 0 0.012569433930380333 -0.0081150321445398431 0 0.012520078414376074 -0.0082837238874107003 0 0.012680561397152389 -0.0083443097673225278 0 0.014665919684712333 -0.0085678682940849918 0 0.017383885665332686 -0.0083193303073644479 0 0.012569433930380333 -0.0081150321445398431 0 0.012680561397152389 -0.0083443097673225278 0 0.012831259936668714 -0.0083219142256696042 0 0.014734228951285368 -0.0024193666698278981 0 0.012567319084634963 -0.0032097047910436913 0 0.01183048492640011 -0.0081387581043271505 0 0.012818062967226053 -0.0088023834366658393 0 0.0116359508553664 -0.008119357581516367 0 0.016177018004497518 0.00075818231594018692 0 0.014326078319334851 0.0013611814450305588 0 0.014588332577936715 0.00068905878067884588 0 0.01183048492640011 -0.0081387581043271505 0 0.012818062967226053 -0.0088023834366658393 0 0.012270195355530226 -0.0081929833900772162 0 0.016177018004497518 0.00075818231594018692 0 0.014326078319334851 0.0013611814450305588 0 0.013534392137251852 0.0023543474858637673 0 0.014326078319334851 0.0013611814450305588 0 0.013662874492300553 0.0017339878199314346 0 0.013534392137251852 0.0023543474858637673 0 0.014588332577936715 0.00068905878067884588 0 0.013680836931067763 0.0012637680694269819 0 0.013741619749904394 0.00050392868698362326 0 0.014326078319334851 0.0013611814450305588 0 0.014588332577936715 0.00068905878067884588 0 0.013680836931067763 0.0012637680694269819 0 0.014326078319334851 0.0013611814450305588 0 0.013662874492300553 0.0017339878199314346 0 0.013680836931067763 0.0012637680694269819 0 0.016177018004497518 0.00075818231594018692 0 0.014588332577936715 0.00068905878067884588 0 0.015275104699304608 0.00010378923855725547 0 0.014588332577936715 0.00068905878067884588 0 0.01450626600332598 -0.00029032560139989513 0 0.013741619749904394 0.00050392868698362326 0 0.014588332577936715 0.00068905878067884588 0 0.015275104699304608 0.00010378923855725547 0 0.01450626600332598 -0.00029032560139989513 0 0.015846558308598557 -0.00074211119157201698 0 0.015275104699304608 0.00010378923855725547 0 0.01450626600332598 -0.00029032560139989513 0 0.01450626600332598 -0.00029032560139989513 0 0.014051997744870781 -0.0016616012680560155 0 0.013222642227638214 -0.0002430519584011389 0 0.015846558308598557 -0.00074211119157201698 0 0.01450626600332598 -0.00029032560139989513 0 0.014051997744870781 -0.0016616012680560155 0 0.015846558308598557 -0.00074211119157201698 0 0.015408163119519142 -0.0034332058386121697 0 0.014503918985524665 -0.0025907753584390736 0 0.015846558308598557 -0.00074211119157201698 0 0.014051997744870781 -0.0016616012680560155 0 0.014503918985524665 -0.0025907753584390736 0 0.016177483652969168 -0.0016025571420032543 0 0.016413257930308407 -0.0025190864797686621 0 0.015408163119519142 -0.0034332058386121697 0 0.016040780843864219 -0.00087735276123187937 0 0.015420542586006543 -0.0034866958703678647 0 0.01713114320230991 -0.0017117306552825232 0 0.016177483652969168 -0.0016025571420032543 0 0.016413257930308407 -0.0025190864797686621 0 0.016413257930308407 -0.0025190864797686621 0 0.016244718689547171 -0.0031324981668778159 0 0.015408163119519142 -0.0034332058386121697 0 0.0159741640818803 -0.0034658551779290798 0 0.015119307987587585 -0.003616113961779765 0 0.01690377270072729 -0.004060802467479808 0 0.016413257930308407 -0.0025190864797686621 0 0.016244718689547171 -0.0031324981668778159 0 0.016869226465385339 -0.0032256847023793014 0 0.016244718689547171 -0.0031324981668778159 0 0.016869226465385339 -0.0032256847023793014 0 0.0159741640818803 -0.0034658551779290798 0 0.016869226465385339 -0.0032256847023793014 0 0.0159741640818803 -0.0034658551779290798 0 0.01690377270072729 -0.004060802467479808 0 0.016244718689547171 -0.0031324981668778159 0 0.0159741640818803 -0.0034658551779290798 0 0.015408163119519142 -0.0034332058386121697 0 0.015018532773987606 -0.0023678322263192397 0 0.016253274220469269 0.0021582633607572688 0 0.0159741640818803 -0.0034658551779290798 0 0.015408163119519142 -0.0034332058386121697 0 0.014684904576750845 -0.0037495394383627312 0 0.015408163119519142 -0.0034332058386121697 0 0.014684904576750845 -0.0037495394383627312 0 0.014503918985524665 -0.0025907753584390736 0 0.019101900525349623 -0.0015345631037096043 0 0.0181177850100274 -0.0016539183537709018 0 0.018483765788988249 -0.0024220512193725559 0 0.019179068455974682 -0.0022467404510355784 0 0.019101900525349623 -0.0015345631037096043 0 0.018483765788988249 -0.0024220512193725559 0 0.0181177850100274 -0.0016539183537709018 0 0.018483765788988249 -0.0024220512193725559 0 0.017504680225797101 -0.002516158697162802 0 0.01713114320230991 -0.0017117306552825232 0 0.016413257930308407 -0.0025190864797686621 0 0.017504680225797101 -0.002516158697162802 0 0.0181177850100274 -0.0016539183537709018 0 0.01713114320230991 -0.0017117306552825232 0 0.017504680225797101 -0.002516158697162802 0 0.016869226465385339 -0.0032256847023793014 0 0.017978200622401515 -0.0034015546658599893 0 0.01690377270072729 -0.004060802467479808 0 0.016869226465385339 -0.0032256847023793014 0 0.017504680225797101 -0.002516158697162802 0 0.017978200622401515 -0.0034015546658599893 0 0.016413257930308407 -0.0025190864797686621 0 0.016869226465385339 -0.0032256847023793014 0 0.017504680225797101 -0.002516158697162802 0 0.019241400874620788 -0.0031671447864754392 0 0.017978200622401515 -0.0034015546658599893 0 0.018599140153039678 -0.004449746013899099 0 0.019241400874620788 -0.0031671447864754392 0 0.018483765788988249 -0.0024220512193725559 0 0.017978200622401515 -0.0034015546658599893 0 0.018483765788988249 -0.0024220512193725559 0 0.017504680225797101 -0.002516158697162802 0 0.017978200622401515 -0.0034015546658599893 0 0.019602668277367136 -0.0031129828430346636 0 0.018145787502773122 0.0029920134598632308 0 0.018145787502773122 0.0029920134598632308 0 0.017432045517287567 0.001480011891966072 0 0.017978200622401515 -0.0034015546658599893 0 0.018599140153039678 -0.004449746013899099 0 0.01690377270072729 -0.004060802467479808 0 0.016670922781577772 0.0077579869323176594 0 0.017788176214207776 0.0074557378254357263 0 0.017377926249361009 0.0081398839116482175 0 0.017822641656125588 0.0087359584417504594 0 0.017241386593793661 0.0089345225340076075 0 0.017377926249361009 0.0081398839116482175 0 0.017822641656125588 0.0087359584417504594 0 0.017788176214207776 0.0074557378254357263 0 0.017377926249361009 0.0081398839116482175 0 0.017317909644487841 0.011107585905069561 0 0.018145787502773122 0.0029920134598632308 0 0.017241386593793661 0.0089345225340076075 0 0.017307226493761148 0.0089222091700570366 0 0.017496993937100604 0.009588459981521873 0 0.017307226493761148 0.0089222091700570366 0 0.017770175464609021 0.009150998435066237 0 0.017496993937100604 0.009588459981521873 0 0.017241386593793661 0.0089345225340076075 0 0.016670922781577772 0.0077579869323176594 0 0.017377926249361009 0.0081398839116482175 0 0.018886564462655697 0.0071323944781151189 0 0.018547719472518077 0.0086343081612538473 0 0.019615163670105958 0.0083044279701694149 0 0.018886564462655697 0.0071323944781151189 0 0.017788176214207776 0.0074557378254357263 0 0.018547719472518077 0.0086343081612538473 0 0.016253274220469269 0.0021582633607572688 0 0.017432045517287567 0.001480011891966072 0 0.017822641656125588 0.0087359584417504594 0 0.017788176214207776 0.0074557378254357263 0 0.018547719472518077 0.0086343081612538473 0 0.019382876994705492 0.0092362009853509206 0 0.018547719472518077 0.0086343081612538473 0 0.019615163670105958 0.0083044279701694149 0 0.018886564462655697 0.0071323944781151189 0 0.019615163670105958 0.0083044279701694149 0 0.020112470629745235 0.0073853231178327384 0 0.020255241322076574 0.0091193412389105593 0 0.019615163670105958 0.0083044279701694149 0 0.020725436715702549 0.0083908629300784941 0 0.019615163670105958 0.0083044279701694149 0 0.020112470629745235 0.0073853231178327384 0 0.020725436715702549 0.0083908629300784941 0 0.020725436715702549 0.0083908629300784941 0 0.021845338618675856 0.0085665031443150838 0 0.021353679926022259 0.0076323151543009364 0 0.016505002447612972 0.0072145263988673599 0 0.014444515025742103 0.007525106012417182 0 0.010767756920419681 0.0062385438561432145 0 0.010595911493236521 0.0067674150730417841 0 0.011129194389715437 0.006876379172270991 0 0.01137139540476763 0.0067469888183174292 0 0.011576313721473566 0.0070181343715561379 0 0.010728434948156534 0.0072586387159141712 0 0.0097872131226294252 0.006589300754939768 0 0.014444515025742103 0.007525106012417182 0 0.010595911493236521 0.0067674150730417841 0 0.01137139540476763 0.0067469888183174292 0 0.010728434948156534 0.0072586387159141712 0 0.017330117103163383 0.0076872250591395836 0 0.014444515025742103 0.007525106012417182 0 0.013217460811875751 0.0067430752460735871 0 0.011346699421316296 0.0065571082254487897 0 0.011576313721473566 0.0070181343715561379 0 0.020112470629745235 0.0073853231178327384 0 0.020725436715702549 0.0083908629300784941 0 0.021353679926022259 0.0076323151543009364 0 0.014444515025742103 0.007525106012417182 0 0.012771192610325969 0.0064331967153242239 0 0.011576313721473566 0.0070181343715561379 0 0.01241343892762546 0.0073303508685413589 0 0.011791304474961042 0.0079860571093782959 0 0.011576313721473566 0.0070181343715561379 0 0.011139952901848098 0.0076278101289870255 0 0.011791304474961042 0.0079860571093782959 0 0.013217460811875751 0.0067430752460735871 0 0.011576313721473566 0.0070181343715561379 0 0.01241343892762546 0.0073303508685413589 0 0.011576313721473566 0.0070181343715561379 0 0.011139952901848098 0.0076278101289870255 0 0.010728434948156534 0.0072586387159141712 0 0.011139952901848098 0.0076278101289870255 0 0.010728434948156534 0.0072586387159141712 0 0.010528098401136894 0.0081874903399448331 0 0.0096704565674169563 -0.002415293432047464 0 0.0072333574446324638 -0.0017202683821630647 0 0.0092145779869652507 -0.00051928963121874441 0 0.011139952901848098 0.0076278101289870255 0 0.011791304474961042 0.0079860571093782959 0 0.010528098401136894 0.0081874903399448331 0 0.010654985267826565 0.0028120316332875925 0 0.0095267156978712624 0.0030709613796323352 0 0.0096704565674169563 -0.002415293432047464 0 0.011078787132360626 -0.001196314628968908 0 0.0092145779869652507 -0.00051928963121874441 0 0.0096704565674169563 -0.002415293432047464 0 0.011078787132360626 -0.001196314628968908 0 0.01213442550491475 -0.0030919238507326474 0 0.011078787132360626 -0.001196314628968908 0 0.01256326028784267 -0.0013163351556890873 0 0.01213442550491475 -0.0030919238507326474 0 0.014051997744870781 -0.0016616012680560155 0 0.01256326028784267 -0.0013163351556890873 0 0.01213442550491475 -0.0030919238507326474 0 0.014051997744870781 -0.0016616012680560155 0 0.01256326028784267 -0.0013163351556890873 0 0.013222642227638214 -0.0002430519584011389 0 0.014051997744870781 -0.0016616012680560155 0 0.014503918985524665 -0.0025907753584390736 0 0.01213442550491475 -0.0030919238507326474 0 0.014684904576750845 -0.0037495394383627312 0 0.014503918985524665 -0.0025907753584390736 0 0.01213442550491475 -0.0030919238507326474 0 0.015298141109012691 0.0070028124730249549 0 0.013217460811875751 0.0067430752460735871 0 0.013473637776697949 0.0075982615500389296 0 0.016253274220469269 0.0021582633607572688 0 0.017330117103163383 0.0076872250591395836 0 0.016253274220469269 0.0021582633607572688 0 0.012585489644320534 0.0022211067653508873 0 0.010654985267826565 0.0028120316332875925 0 0.012585489644320534 0.0022211067653508873 0 0.01241343892762546 0.0073303508685413589 0 0.011791304474961042 0.0079860571093782959 0 0.013473637776697949 0.0075982615500389296 0 0.013217460811875751 0.0067430752460735871 0 0.01241343892762546 0.0073303508685413589 0 0.013473637776697949 0.0075982615500389296 0 -0.0042446153568719445 0.0074715451024722976 0 -0.0046381501127673343 0.0074537390826644933 0 -0.0044813124248755144 0.0071180542388437342 0 -0.0042446153568719445 0.0074715451024722976 0 -0.0045375543873248563 0.0078333929213365693 0 -0.0046381501127673343 0.0074537390826644933 0 -0.0042963498457791625 0.008076234669416895 0 -0.0042446153568719445 0.0074715451024722976 0 -0.0045375543873248563 0.0078333929213365693 0 -0.0045375543873248563 0.0078333929213365693 0 -0.0046381501127673343 0.0074537390826644933 0 -0.0049432185951506624 0.007977257916003927 0 -0.0046381501127673343 0.0074537390826644933 0 -0.0049593165837728461 0.0072352963278552555 0 -0.0047174344449381926 0.0070729684231553248 0 0.009494087153595147 0.0071680703082153564 0 0.009612024322236068 0.0062420758541777196 0 0.010095718173643594 0.006876635091411544 0 -0.0046381501127673343 0.0074537390826644933 0 -0.0049593165837728461 0.0072352963278552555 0 -0.0049432185951506624 0.007977257916003927 0 0.0020323449400523972 0.0078861989997611442 0 0.0023203445027894518 0.0070403722430738567 0 0.009494087153595147 0.0071680703082153564 0 0.009612024322236068 0.0062420758541777196 0 0.0096270257659890664 0.0062464436325992212 0 0.010767756920419681 0.0062385438561432145 0 0.010595911493236521 0.0067674150730417841 0 0.010220077269299917 0.0063831161409689269 0 0.009612024322236068 0.0062420758541777196 0 0.010220077269299917 0.0063831161409689269 0 0.010095718173643594 0.006876635091411544 0 0.010595911493236521 0.0067674150730417841 0 0.010220077269299917 0.0063831161409689269 0 0.010095718173643594 0.006876635091411544 0 0.010595911493236521 0.0067674150730417841 0 0.010728434948156534 0.0072586387159141712 0 0.010095718173643594 0.006876635091411544 0 0.010728434948156534 0.0072586387159141712 0 0.010095718173643594 0.006876635091411544 0 0.010008457653282137 0.007637317124663646 0 0.010728434948156534 0.0072586387159141712 0 0.010008457653282137 0.007637317124663646 0 0.010528098401136894 0.0081874903399448331 0 0.0095267156978712624 0.0030709613796323352 0 0.0040878532701042695 0.0043942631061695573 0 0.010008457653282137 0.007637317124663646 0 0.010528098401136894 0.0081874903399448331 0 0.009448709235416403 0.0084173083867891251 0 0.0072333574446324638 -0.0017202683821630647 0 0.0047974706974259242 -0.0010143701185972697 0 0.0060292599179922789 -0.0001669714951459949 0 -0.0047849346614785666 0.0063754296785496116 0 -0.004901223068737596 0.0064119436914673771 0 -0.0047174344449381926 0.0070729684231553248 0 -0.0033699022115431807 0.0036427932604665659 0 0.0040878532701042695 0.0043942631061695573 0 0.009494087153595147 0.0071680703082153564 0 0.010008457653282137 0.007637317124663646 0 0.009448709235416403 0.0084173083867891251 0 -0.0049593165837728461 0.0072352963278552555 0 -0.004901223068737596 0.0064119436914673771 0 -0.0047174344449381926 0.0070729684231553248 0 0.0020323449400523972 0.0078861989997611442 0 0.0040878532701042695 0.0043942631061695573 0 0.009494087153595147 0.0071680703082153564 0 0.010095718173643594 0.006876635091411544 0 0.010008457653282137 0.007637317124663646 0 -0.0047174344449381926 0.0070729684231553248 0 -0.0045849206048185981 0.0067139870382911049 0 -0.0044813124248755144 0.0071180542388437342 0 -0.0046381501127673343 0.0074537390826644933 0 -0.0047174344449381926 0.0070729684231553248 0 -0.0044813124248755144 0.0071180542388437342 0 -0.0049005485028054416 0.0064816049223243594 0 -0.0045849206048185981 0.0067139870382911049 0 -0.0044450343683154966 0.0063550472809132778 0 -0.0033699022115431807 0.0036427932604665659 0 -0.0049174287294351466 0.0080738990566435517 0 -0.0049005485028054416 0.0064816049223243594 0 -0.0047174344449381926 0.0070729684231553248 0 -0.0045849206048185981 0.0067139870382911049 0 -0.003961461829191432 0.0066100638688860805 0 -0.0042216473724665752 0.0068927830865637019 0 -0.0044450343683154966 0.0063550472809132778 0 -0.0045849206048185981 0.0067139870382911049 0 -0.0042216473724665752 0.0068927830865637019 0 -0.0044450343683154966 0.0063550472809132778 0 -0.0045849206048185981 0.0067139870382911049 0 -0.0042216473724665752 0.0068927830865637019 0 -0.0044813124248755144 0.0071180542388437342 0 -0.0042446153568719445 0.0074715451024722976 0 -0.0042216473724665752 0.0068927830865637019 0 -0.0044813124248755144 0.0071180542388437342 0 -0.0069386447520356498 0.0022175561131951627 0 -0.0070946678319082843 0.0018490312080706218 0 -0.0072618034016336411 0.0020410693653581838 0 -0.0070946678319082843 0.0018490312080706218 0 -0.0072618034016336411 0.0020410693653581838 0 -0.0074109806716530459 0.001759003950215931 0 -0.0069386447520356498 0.0022175561131951627 0 -0.0072618034016336411 0.0020410693653581838 0 -0.0073159724209828419 0.0022819517792035042 0 -0.005306473732503752 0.0041659912227338452 0 -0.0064709666691688062 0.0044864276518867766 0 -0.0072618034016336411 0.0020410693653581838 0 -0.0073159724209828419 0.0022819517792035042 0 -0.0075532817532609408 0.0020977374968578675 0 -0.0033699022115431807 0.0036427932604665659 0 -0.0064709666691688062 0.0044864276518867766 0 -0.0076741398589837712 0.0023941694590145024 0 -0.0073159724209828419 0.0022819517792035042 0 -0.0075532817532609408 0.0020977374968578675 0 -0.0075532817532609408 0.0020977374968578675 0 -0.0074109806716530459 0.001759003950215931 0 -0.0076653953477651329 0.0016379098772292017 0 -0.0072618034016336411 0.0020410693653581838 0 -0.0075532817532609408 0.0020977374968578675 0 -0.0074109806716530459 0.001759003950215931 0 0.0049703277728975048 0.0012510641517122329 0 0.0064290898572732973 0.0020250469830029876 0 0.0055663512250561766 0.0034079124601682068 0 -0.0075532817532609408 0.0020977374968578675 0 -0.0078273336350794583 0.0019605911234313071 0 -0.0076653953477651329 0.0016379098772292017 0 0.0049703277728975048 0.0012510641517122329 0 0.0048497595033681626 0.00055619923089353157 0 0.0059164072663319247 0.00080665978329025659 0 -0.0033699022115431807 0.0036427932604665659 0 -0.0013972585128984687 0.0010494002776890825 0 -0.0076741398589837712 0.0023941694590145024 0 -0.0075532817532609408 0.0020977374968578675 0 -0.0078273336350794583 0.0019605911234313071 0 0.0043341976840048299 -0.00065374799990718731 0 0.0049703277728975048 0.0012510641517122329 0 0.0048497595033681626 0.00055619923089353157 0 0.0040878532701042695 0.0043942631061695573 0 0.0046957870081581364 -0.0011540464287954383 0 0.0043341976840048299 -0.00065374799990718731 0 0.0047294985492881882 -0.00075664935578099784 0 0.0048497595033681626 0.00055619923089353157 0 0.0047974706974259242 -0.0010143701185972697 0 0.0048497595033681626 0.00055619923089353157 0 0.0060292599179922789 -0.0001669714951459949 0 0.0048497595033681626 0.00055619923089353157 0 0.0060292599179922789 -0.0001669714951459949 0 0.0059164072663319247 0.00080665978329025659 0 0.0072333574446324638 -0.0017202683821630647 0 0.0060292599179922789 -0.0001669714951459949 0 0.0073364297791338358 0.00058141997020997693 0 0.0060292599179922789 -0.0001669714951459949 0 0.0059164072663319247 0.00080665978329025659 0 0.0073364297791338358 0.00058141997020997693 0 0.0059164072663319247 0.00080665978329025659 0 0.0064290898572732973 0.0020250469830029876 0 0.0073364297791338358 0.00058141997020997693 0 0.0049703277728975048 0.0012510641517122329 0 0.0059164072663319247 0.00080665978329025659 0 0.0064290898572732973 0.0020250469830029876 0 0.0064290898572732973 0.0020250469830029876 0 0.0072782497591390291 0.0038622613110609882 0 0.0055663512250561766 0.0034079124601682068 0 0.0072782497591390291 0.0038622613110609882 0 0.0055663512250561766 0.0034079124601682068 0 0.0061419129889463296 0.0055592830049790926 0 -0.0011463676969645279 0.0028159762088567652 0 -0.0016924276350053114 0.0014562145414170676 0 0.0072782497591390291 0.0038622613110609882 0 0.0081477079526227191 0.0054566474659955245 0 0.0061419129889463296 0.0055592830049790926 0 -0.0079400577773314236 0.00084281058599584694 0 -0.0076070288846476547 0.00021173634821919452 0 -0.0084471589331376277 0.00041009690467266993 0 -0.0079400577773314236 0.00084281058599584694 0 -0.0075720300850341963 0.0012097853356676923 0 -0.0080652646334496095 0.0014296568496046328 0 -0.0079400577773314236 0.00084281058599584694 0 -0.0080652646334496095 0.0014296568496046328 0 -0.0084471589331376277 0.00041009690467266993 0 -0.0079400577773314236 0.00084281058599584694 0 -0.0075720300850341963 0.0012097853356676923 0 -0.0076070288846476547 0.00021173634821919452 0 -0.0075720300850341963 0.0012097853356676923 0 -0.0080652646334496095 0.0014296568496046328 0 -0.0076653953477651329 0.0016379098772292017 0 -0.0013972585128984687 0.0010494002776890825 0 -0.0011463676969645279 0.0028159762088567652 0 -0.0078273336350794583 0.0019605911234313071 0 -0.0080652646334496095 0.0014296568496046328 0 -0.0076653953477651329 0.0016379098772292017 0 -0.0074109806716530459 0.001759003950215931 0 -0.0076653953477651329 0.0016379098772292017 0 -0.0074294698732652754 0.0013617788916887681 0 -0.0075720300850341963 0.0012097853356676923 0 -0.0076653953477651329 0.0016379098772292017 0 -0.0074294698732652754 0.0013617788916887681 0 -0.0075720300850341963 0.0012097853356676923 0 -0.0066451578186678189 0.00059710148048899684 0 -0.0076070288846476547 0.00021173634821919452 0 -0.007400590102833021 0.0010782379686511854 0 -0.0074015054081394771 0.0010503053096587831 0 -0.0075720300850341963 0.0012097853356676923 0 -0.0074294698732652754 0.0013617788916887681 0 -0.0075063849577333168 0.0010788955289664905 0 -0.0074294698732652754 0.0013617788916887681 0 -0.0075063849577333168 0.0010788955289664905 0 -0.0073544489583830721 0.0010826799754974515 0 -0.0074294698732652754 0.0013617788916887681 0 -0.0073544489583830721 0.0010826799754974515 0 -0.0072278488882777112 0.0013335507641174795 0 -0.0075063849577333168 0.0010788955289664905 0 -0.0073544489583830721 0.0010826799754974515 0 -0.0073690317537202345 0.00079508035910915505 0 -0.0071749672284265242 0.0010729879478882872 0 -0.0071465761088810994 0.00079198936381984176 0 -0.0073339178813595857 0.00085170837424180038 0 -0.0071749672284265242 0.0010729879478882872 0 -0.0073544489583830721 0.0010826799754974515 0 -0.0073339178813595857 0.00085170837424180038 0 -0.0071749672284265242 0.0010729879478882872 0 -0.0073544489583830721 0.0010826799754974515 0 -0.0072278488882777112 0.0013335507641174795 0 -0.0070657318951518697 0.0015631648362451314 0 -0.0072278488882777112 0.0013335507641174795 0 -0.007248420126582944 0.0015720782738420697 0 -0.0070946678319082843 0.0018490312080706218 0 -0.0074109806716530459 0.001759003950215931 0 -0.007248420126582944 0.0015720782738420697 0 -0.0074294698732652754 0.0013617788916887681 0 -0.0072278488882777112 0.0013335507641174795 0 -0.007248420126582944 0.0015720782738420697 0 -0.0074109806716530459 0.001759003950215931 0 -0.0074294698732652754 0.0013617788916887681 0 -0.007248420126582944 0.0015720782738420697 0 -0.0070946678319082843 0.0018490312080706218 0 -0.0070657318951518697 0.0015631648362451314 0 -0.007248420126582944 0.0015720782738420697 0 0.011648796914737476 0.001254637716846819 0 0.012703334387730447 0.0010997862858331759 0 0.011877666590568088 6.7624284755326688e-05 0 0.011648796914737476 0.001254637716846819 0 0.010626675717521543 0.0017909455387247713 0 0.010636769691950041 0.00040559569246683048 0 0.011648796914737476 0.001254637716846819 0 0.010626675717521543 0.0017909455387247713 0 0.011573047898937353 0.0023943677505285812 0 0.012415240466251705 0.0017747781026397642 0 0.011573047898937353 0.0023943677505285812 0 0.012306941960778348 0.0024460244790478545 0 0.011648796914737476 0.001254637716846819 0 0.012415240466251705 0.0017747781026397642 0 0.011573047898937353 0.0023943677505285812 0 0.012415240466251705 0.0017747781026397642 0 0.013175986103943698 0.0017804552545948888 0 0.012306941960778348 0.0024460244790478545 0 0.013175986103943698 0.0017804552545948888 0 0.013534392137251852 0.0023543474858637673 0 0.012306941960778348 0.0024460244790478545 0 0.012415240466251705 0.0017747781026397642 0 0.013175986103943698 0.0017804552545948888 0 0.012703334387730447 0.0010997862858331759 0 0.013175986103943698 0.0017804552545948888 0 0.013662874492300553 0.0017339878199314346 0 0.013534392137251852 0.0023543474858637673 0 0.013175986103943698 0.0017804552545948888 0 0.013662874492300553 0.0017339878199314346 0 0.013680836931067763 0.0012637680694269819 0 0.013680836931067763 0.0012637680694269819 0 0.012703334387730447 0.0010997862858331759 0 0.013741619749904394 0.00050392868698362326 0 0.013175986103943698 0.0017804552545948888 0 0.013680836931067763 0.0012637680694269819 0 0.012703334387730447 0.0010997862858331759 0 0.011648796914737476 0.001254637716846819 0 0.012415240466251705 0.0017747781026397642 0 0.012703334387730447 0.0010997862858331759 0 0.012703334387730447 0.0010997862858331759 0 0.013222642227638214 -0.0002430519584011389 0 0.011877666590568088 6.7624284755326688e-05 0 0.012703334387730447 0.0010997862858331759 0 0.013741619749904394 0.00050392868698362326 0 0.013222642227638214 -0.0002430519584011389 0 0.01450626600332598 -0.00029032560139989513 0 0.013741619749904394 0.00050392868698362326 0 0.013222642227638214 -0.0002430519584011389 0 0.01256326028784267 -0.0013163351556890873 0 0.013222642227638214 -0.0002430519584011389 0 0.011877666590568088 6.7624284755326688e-05 0 0.011078787132360626 -0.001196314628968908 0 0.011877666590568088 6.7624284755326688e-05 0 0.010636769691950041 0.00040559569246683048 0 0.011078787132360626 -0.001196314628968908 0 0.01256326028784267 -0.0013163351556890873 0 0.011877666590568088 6.7624284755326688e-05 0 0.011648796914737476 0.001254637716846819 0 0.011877666590568088 6.7624284755326688e-05 0 0.010636769691950041 0.00040559569246683048 0 0.011078787132360626 -0.001196314628968908 0 0.010636769691950041 0.00040559569246683048 0 0.0092145779869652507 -0.00051928963121874441 0 0.010636769691950041 0.00040559569246683048 0 0.0092145779869652507 -0.00051928963121874441 0 0.00934531203819324 0.0012177643066456194 0 0.0072333574446324638 -0.0017202683821630647 0 0.0092145779869652507 -0.00051928963121874441 0 0.0073364297791338358 0.00058141997020997693 0 0.0092145779869652507 -0.00051928963121874441 0 0.0073364297791338358 0.00058141997020997693 0 0.00934531203819324 0.0012177643066456194 0 0.0064290898572732973 0.0020250469830029876 0 0.0073364297791338358 0.00058141997020997693 0 0.0083447392822102763 0.0026916009665171295 0 0.0073364297791338358 0.00058141997020997693 0 0.00934531203819324 0.0012177643066456194 0 0.0083447392822102763 0.0026916009665171295 0 0.010626675717521543 0.0017909455387247713 0 0.010636769691950041 0.00040559569246683048 0 0.00934531203819324 0.0012177643066456194 0 0.00934531203819324 0.0012177643066456194 0 0.0097135618884798321 0.0024375861566562082 0 0.0083447392822102763 0.0026916009665171295 0 0.010626675717521543 0.0017909455387247713 0 0.00934531203819324 0.0012177643066456194 0 0.0097135618884798321 0.0024375861566562082 0 0.0097831138611033843 0.0033083004013880119 0 0.0090577248873833002 0.0040370280499345025 0 0.01083441528807166 0.0039260883129085171 0 0.010626675717521543 0.0017909455387247713 0 0.01050537153054697 0.0027708725033417998 0 0.0097135618884798321 0.0024375861566562082 0 0.01050537153054697 0.0027708725033417998 0 0.0097135618884798321 0.0024375861566562082 0 0.0097831138611033843 0.0033083004013880119 0 0.0097135618884798321 0.0024375861566562082 0 0.0097831138611033843 0.0033083004013880119 0 0.0083447392822102763 0.0026916009665171295 0 0.0097831138611033843 0.0033083004013880119 0 0.0083447392822102763 0.0026916009665171295 0 0.0090577248873833002 0.0040370280499345025 0 0.01050537153054697 0.0027708725033417998 0 0.0097831138611033843 0.0033083004013880119 0 0.01083441528807166 0.0039260883129085171 0 0.0072782497591390291 0.0038622613110609882 0 0.0083447392822102763 0.0026916009665171295 0 0.0090577248873833002 0.0040370280499345025 0 0.0064290898572732973 0.0020250469830029876 0 0.0072782497591390291 0.0038622613110609882 0 0.0083447392822102763 0.0026916009665171295 0 0.0072782497591390291 0.0038622613110609882 0 0.0090577248873833002 0.0040370280499345025 0 0.0081477079526227191 0.0054566474659955245 0 0.0090577248873833002 0.0040370280499345025 0 0.01083441528807166 0.0039260883129085171 0 0.0081477079526227191 0.0054566474659955245 0 0.0082103805318946999 -0.0057480288026872531 0 0.0094753268169548207 -0.0067257054514264364 0 0.0071019780405836832 -0.0053162250130611129 0 0.010344187083069502 -0.00087407120753284022 0 0.0060757440584844596 -0.0031846922875451052 0 0.0082103805318946999 -0.0057480288026872531 0 0.0083700309555379514 -0.0053936102378816485 0 0.0071019780405836832 -0.0053162250130611129 0 0.0082103805318946999 -0.0057480288026872531 0 0.0083772543808658378 -0.0053989116604896371 0 0.008751253210341323 -0.0054234989866639534 0 0.007419403812794087 -0.0073573415008937647 0 0.0066325655373258505 -0.0090664115869977559 0 0.0082103805318946999 -0.0057480288026872531 0 0.008751253210341323 -0.0054234989866639534 0 0.0094753268169548207 -0.0067257054514264364 0 0.0066325655373258505 -0.0090664115869977559 0 0.0083524461195452187 -0.009943064759642779 0 0.0083524461195452187 -0.009943064759642779 0 0.010828852899175163 -0.0068186396341511218 0 0.010609322529937964 -0.00724599743396256 0 0.011260904506034146 -0.0077056786218017278 0 0.011401769426536699 -0.0072601964923910802 0 0.008751253210341323 -0.0054234989866639534 0 0.01039387762716221 -0.0067981427505909887 0 0.0094753268169548207 -0.0067257054514264364 0 0.0083524461195452187 -0.009943064759642779 0 0.011144890477990598 -0.011981061521799468 0 0.01039387762716221 -0.0067981427505909887 0 0.0094753268169548207 -0.0067257054514264364 0 0.0116359508553664 -0.008119357581516367 0 0.010344187083069502 -0.00087407120753284022 0 0.012567319084634963 -0.0032097047910436913 0 0.01083441528807166 0.0039260883129085171 0 0.011573047898937353 0.0023943677505285812 0 0.012306941960778348 0.0024460244790478545 0 0.01050537153054697 0.0027708725033417998 0 0.01083441528807166 0.0039260883129085171 0 0.011573047898937353 0.0023943677505285812 0 0.010626675717521543 0.0017909455387247713 0 0.01050537153054697 0.0027708725033417998 0 0.011573047898937353 0.0023943677505285812 0 0.01183048492640011 -0.0081387581043271505 0 0.01039387762716221 -0.0067981427505909887 0 0.0116359508553664 -0.008119357581516367 0 0.011810566526880766 -0.0081906510866699561 0 0.010828852899175163 -0.0068186396341511218 0 0.01083441528807166 0.0039260883129085171 0 0.013534392137251852 0.0023543474858637673 0 0.012306941960778348 0.0024460244790478545 0 0.01183048492640011 -0.0081387581043271505 0 0.011260904506034146 -0.0077056786218017278 0 0.011712237056967089 -0.0078083698990391096 0 0.010758563676501593 -0.011692838770697741 0 0.011144890477990598 -0.011981061521799468 0 0.012191077848913774 -0.0072824993476837832 0 0.011702054117639388 -0.0075542667141823214 0 0.011401769426536699 -0.0072601964923910802 0 0.011965007863385172 -0.0077072226981111476 0 0.011712237056967089 -0.0078083698990391096 0 0.011702054117639388 -0.0075542667141823214 0 0.011260904506034146 -0.0077056786218017278 0 0.011702054117639388 -0.0075542667141823214 0 0.011401769426536699 -0.0072601964923910802 0 0.011260904506034146 -0.0077056786218017278 0 0.011712237056967089 -0.0078083698990391096 0 0.011702054117639388 -0.0075542667141823214 0 0.010271618302461439 -0.016328622075180509 0 0.0099755001217879478 -0.01634674717592929 0 0.01011874643145411 -0.016125543544819657 0 0.0099755001217879478 -0.01634674717592929 0 0.01011874643145411 -0.016125543544819657 0 0.009776614882027676 -0.016223785397608735 0 0.011251701437728396 -0.016167690003310704 0 0.0062269764939833754 -0.016750043917165457 0 0.0051895635864446033 -0.0164699740244246 0 0.0062269764939833754 -0.016750043917165457 0 0.01011874643145411 -0.016125543544819657 0 0.0096581381498078243 -0.016054299781246381 0 0.0097705232939075386 -0.015780832289131519 0 0.0095880172294065865 -0.016319847549329393 0 0.0099755001217879478 -0.01634674717592929 0 0.009776614882027676 -0.016223785397608735 0 0.01011874643145411 -0.016125543544819657 0 0.009776614882027676 -0.016223785397608735 0 0.0096581381498078243 -0.016054299781246381 0 0.0011092275380701012 -0.015939253063449309 0 0.00099055802349229589 -0.015890459636089004 0 0.0011458822800133465 -0.015871092139329534 0 0.009776614882027676 -0.016223785397608735 0 0.0095386376673922968 -0.016280732538034127 0 0.0096581381498078243 -0.016054299781246381 0 0.0095880172294065865 -0.016319847549329393 0 0.009776614882027676 -0.016223785397608735 0 0.0095386376673922968 -0.016280732538034127 0 0.0054081956157981557 -0.012157067240463865 0 0.0051895635864446033 -0.0164699740244246 0 0.0049196816253548542 -0.010039631177482227 0 0.0073868799487800335 -0.010191448679637786 0 0.0055394706578229588 -0.0086726403708665932 0 0.0083524461195452187 -0.009943064759642779 0 0.0054081956157981557 -0.012157067240463865 0 0.004497970387526049 -0.010094986745159856 0 0.0046202563844151582 -0.0098233696401369541 0 0.0027978557401609305 -0.0099777479382082545 0 0.0066325655373258505 -0.0090664115869977559 0 0.0054081956157981557 -0.012157067240463865 0 0.0054081956157981557 -0.012157067240463865 0 0.0017637486927254945 -0.012026755095637597 0 0.0027978557401609305 -0.0099777479382082545 0 0.0028901395090834632 -0.0084337812818314623 0 0.00072810800673271724 -0.0087264919756254427 0 0.0060757440584844596 -0.0031846922875451052 0 -0.0027308177005301902 -0.0048082436765359837 0 0.0046202563844151582 -0.0098233696401369541 0 0.0027978557401609305 -0.0099777479382082545 0 0.0028901395090834632 -0.0084337812818314623 0 0.0066325655373258505 -0.0090664115869977559 0 0.0060757440584844596 -0.0031846922875451052 0 0.0017637486927254945 -0.012026755095637597 0 -5.0845065672378734e-05 -0.012456021852517582 0 0.00099055802349229589 -0.015890459636089004 0 0.00097998458867747671 -0.015823991980250807 0 0.00087611026941518638 -0.015825248050083271 0 0.00097998458867747671 -0.015823991980250807 0 0.0011458822800133465 -0.015871092139329534 0 0.0010471710036678585 -0.015778005963717791 0 0.00099055802349229589 -0.015890459636089004 0 0.00097998458867747671 -0.015823991980250807 0 0.0011458822800133465 -0.015871092139329534 0 0.0011458822800133465 -0.015871092139329534 0 0.0010471710036678585 -0.015778005963717791 0 0.0012155954060445965 -0.015778985843175691 0 0.0010471710036678585 -0.015778005963717791 0 0.0010356200861156386 -0.015653594148882188 0 0.0012155954060445965 -0.015778985843175691 0 0.00097998458867747671 -0.015823991980250807 0 0.0010471710036678585 -0.015778005963717791 0 0.00086168603849093469 -0.015740506096573889 0 0.00097998458867747671 -0.015823991980250807 0 0.00086168603849093469 -0.015740506096573889 0 0.00087611026941518638 -0.015825248050083271 0 0.0010471710036678585 -0.015778005963717791 0 0.00086168603849093469 -0.015740506096573889 0 0.0010356200861156386 -0.015653594148882188 0 0.00086168603849093469 -0.015740506096573889 0 0.0008595679570524078 -0.015633888882636136 0 0.0010356200861156386 -0.015653594148882188 0 0.0027491424494631399 -0.018711441227710707 0 0.0062269764939833754 -0.016750043917165457 0 0.004117961120952621 -0.02152738419670986 0 0.0041029337544165444 -0.021397938706589049 0 0.0040988566095108295 -0.021558815005730009 0 0.0062269764939833754 -0.016750043917165457 0 0.008266994288858652 -0.021353342588879325 0 0.0041029337544165444 -0.021397938706589049 0 0.0040628044907475543 -0.021544647324340079 0 0.0040988566095108295 -0.021558815005730009 0 0.010167076725986371 -0.016016561682248385 0 0.010009787446700891 -0.016058143879917355 0 0.010081469389789946 -0.015917484632548409 0 0.01011874643145411 -0.016125543544819657 0 0.010167076725986371 -0.016016561682248385 0 0.010009787446700891 -0.016058143879917355 0 -0.0011685151020619142 -0.0082926355294274858 0 -0.0018639936119586526 -0.013729940267686562 0 0.00017833229525112575 -0.01330452996582822 0 -0.0011685151020619142 -0.0082926355294274858 0 -0.0035483511849147761 -0.01337837411476901 0 -0.0018639936119586526 -0.013729940267686562 0 -0.0071465761088810994 0.00079198936381984176 0 -0.0073339178813595857 0.00085170837424180038 0 -0.0074500050215548898 0.00069643775755324979 0 -0.0073544489583830721 0.0010826799754974515 0 -0.0073339178813595857 0.00085170837424180038 0 -0.0073690317537202345 0.00079508035910915505 0 -0.0053172621442239207 -0.00099150553282442689 0 -0.0048743935055098548 -0.0016156890872763556 0 -0.0074015054081394771 0.0010503053096587831 0 -0.0048743935055098548 -0.0016156890872763556 0 -0.0066451578186678189 0.00059710148048899684 0 -0.0058109394461790401 -5.7583290855580202e-05 0 -0.0069938957564666488 -0.00035222798261706832 0 -0.0058109394461790401 -5.7583290855580202e-05 0 -0.0069938957564666488 -0.00035222798261706832 0 -0.006970739142486586 -0.0015800416557523891 0 -0.0066451578186678189 0.00059710148048899684 0 -0.0069938957564666488 -0.00035222798261706832 0 -0.0076070288846476547 0.00021173634821919452 0 -0.0011685151020619142 -0.0082926355294274858 0 -0.0045948329453333932 -0.012730390803145182 0 -0.0035483511849147761 -0.01337837411476901 0 -0.0048743935055098548 -0.0016156890872763556 0 -0.0046674977903495051 -0.0096716926831250799 0 -0.0069938957564666488 -0.00035222798261706832 0 -0.006970739142486586 -0.0015800416557523891 0 -0.0079137810354705206 -0.00094578670468379927 0 -0.0046674977903495051 -0.0096716926831250799 0 -0.0034810047908077546 -0.0113094977134465 0 -0.0035113821381317629 -0.0097320655083171417 0 -0.0045153272756322752 -0.010036291003559062 0 -0.0033354503595895233 -0.011058678575263632 0 -0.0027158296275257778 -0.010242043191192089 0 -0.0035113821381317629 -0.0097320655083171417 0 -0.0033354503595895233 -0.011058678575263632 0 -0.0046674977903495051 -0.0096716926831250799 0 -0.006451718103752834 -0.0048998517450442444 0 -0.0079137810354705206 -0.00094578670468379927 0 -0.0076070288846476547 0.00021173634821919452 0 -0.0081552425146224194 -0.00022311952802938026 0 -0.0098985406209566654 0.00038186349290997469 0 -0.0016924276350053114 0.0014562145414170676 0 -0.0069938957564666488 -0.00035222798261706832 0 -0.0079137810354705206 -0.00094578670468379927 0 -0.0076070288846476547 0.00021173634821919452 0 -0.0076070288846476547 0.00021173634821919452 0 -0.0081552425146224194 -0.00022311952802938026 0 -0.0085931942419335671 0.00019722658244682523 0 -0.0079137810354705206 -0.00094578670468379927 0 -0.0081552425146224194 -0.00022311952802938026 0 -0.0087510647018917333 -0.00035696921868048442 0 0.0060757440584844596 -0.0031846922875451052 0 -0.0016924276350053114 0.0014562145414170676 0 0.0042277339761246447 -0.0032809265318591986 0 -0.00094372371230828564 -0.00014362002155959074 0 -0.001712167212516686 -0.002912476583085358 0 -0.006451718103752834 -0.0048998517450442444 0 -0.0027308177005301902 -0.0048082436765359837 0 -0.0027308177005301902 -0.0048082436765359837 0 -0.0016924276350053114 0.0014562145414170676 0 -0.0081552425146224194 -0.00022311952802938026 0 -0.0087510647018917333 -0.00035696921868048442 0 -0.0085931942419335671 0.00019722658244682523 0 0.0028901395090834632 -0.0084337812818314623 0 0.00072810800673271724 -0.0087264919756254427 0 0.0011932377609039765 -0.0070822754126068045 0 -0.0035113821381317629 -0.0097320655083171417 0 -0.0043006231572797213 -0.0092155189106556661 0 -0.0045153272756322752 -0.010036291003559062 0 -0.0027308177005301902 -0.0048082436765359837 0 -5.0845065672378734e-05 -0.012456021852517582 0 0.00086168603849093469 -0.015740506096573889 0 0.00078318081150557863 -0.015910025488875358 0 0.00054649560981265678 -0.015756452644580726 0 -5.0845065672378734e-05 -0.012456021852517582 0 -0.0038829888382074075 -0.015083077450815966 0 0.00070034510240209733 -0.016867294408491773 0 -5.0845065672378734e-05 -0.012456021852517582 0 0.00086168603849093469 -0.015740506096573889 0 0.0008595679570524078 -0.015633888882636136 0 0.000709400768918686 -0.015622888578971953 0 0.00086168603849093469 -0.015740506096573889 0 0.000709400768918686 -0.015622888578971953 0 0.00054649560981265678 -0.015756452644580726 0 -0.0069257535713856677 -0.018536023540739435 0 -0.0057867023177694222 -0.018060946090605458 0 -0.0059841686853145531 -0.016767088873129044 0 -0.0030715337736591216 -0.016933706992166866 0 -0.0038829888382074075 -0.015083077450815966 0 -0.0057867023177694222 -0.018060946090605458 0 -0.0059841686853145531 -0.016767088873129044 0 -0.0045048831695356168 -0.017531969878809769 0 -0.004584651710126105 -0.012722929040995196 0 -0.0068460983747754963 -0.015586804629229546 0 -0.00436163797820839 -0.015067011977629521 0 -0.0046674977903495051 -0.0096716926831250799 0 -0.0038829888382074075 -0.015083077450815966 0 -0.004584651710126105 -0.012722929040995196 0 -0.0035483511849147761 -0.01337837411476901 0 -0.00436163797820839 -0.015067011977629521 0 -0.0035483511849147761 -0.01337837411476901 0 -0.0030118763888238578 -0.014846830736161448 0 -0.0018639936119586526 -0.013729940267686562 0 -0.0035483511849147761 -0.01337837411476901 0 -0.0030118763888238578 -0.014846830736161448 0 -0.00436163797820839 -0.015067011977629521 0 -0.0030118763888238578 -0.014846830736161448 0 -0.0032754459265288754 -0.016216342371431599 0 -0.00436163797820839 -0.015067011977629521 0 -0.0030118763888238578 -0.014846830736161448 0 -0.0032754459265288754 -0.016216342371431599 0 -0.0016882047550354172 -0.015743457652382539 0 -0.0032754459265288754 -0.016216342371431599 0 -0.00436163797820839 -0.015067011977629521 0 -0.0045048831695356168 -0.017531969878809769 0 -0.0068460983747754963 -0.015586804629229546 0 -0.00436163797820839 -0.015067011977629521 0 -0.0045048831695356168 -0.017531969878809769 0 -0.0038829888382074075 -0.015083077450815966 0 -0.0048595976917609309 -0.016928935824476677 0 -0.0057867023177694222 -0.018060946090605458 0 -0.0042195650948930645 -0.019254837051376761 0 -0.005517453246309134 -0.020947258170095219 0 -0.0057867023177694222 -0.018060946090605458 0 -0.0045048831695356168 -0.017531969878809769 0 -0.0042195650948930645 -0.019254837051376761 0 -0.0042195650948930645 -0.019254837051376761 0 -0.0028481574336971377 -0.01781499286648414 0 -0.0019682433740197502 -0.01962030884661789 0 -0.0045048831695356168 -0.017531969878809769 0 -0.0042195650948930645 -0.019254837051376761 0 -0.0028481574336971377 -0.01781499286648414 0 -0.0032754459265288754 -0.016216342371431599 0 -0.0028481574336971377 -0.01781499286648414 0 -0.0016882047550354172 -0.015743457652382539 0 -0.0032754459265288754 -0.016216342371431599 0 -0.0045048831695356168 -0.017531969878809769 0 -0.0028481574336971377 -0.01781499286648414 0 0.0012896811105604239 -0.020406610897360598 0 0.00099740441591813448 -0.016692536503942538 0 -0.0011098694808169918 -0.017583369853459194 0 -0.0028481574336971377 -0.01781499286648414 0 -0.0011098694808169918 -0.017583369853459194 0 -0.0016882047550354172 -0.015743457652382539 0 0.0012896811105604239 -0.020406610897360598 0 -0.0011098694808169918 -0.017583369853459194 0 -0.0019682433740197502 -0.01962030884661789 0 -0.0028481574336971377 -0.01781499286648414 0 -0.0011098694808169918 -0.017583369853459194 0 -0.0019682433740197502 -0.01962030884661789 0 0.00099740441591813448 -0.016692536503942538 0 -0.0011098694808169918 -0.017583369853459194 0 -0.0016882047550354172 -0.015743457652382539 0 0.00099740441591813448 -0.016692536503942538 0 -0.0016882047550354172 -0.015743457652382539 0 0.00017833229525112575 -0.01330452996582822 0 -0.0016882047550354172 -0.015743457652382539 0 -0.0018639936119586526 -0.013729940267686562 0 0.00017833229525112575 -0.01330452996582822 0 -0.0030118763888238578 -0.014846830736161448 0 -0.0016882047550354172 -0.015743457652382539 0 -0.0018639936119586526 -0.013729940267686562 0 3.238697692685303e-05 -0.02420580807497863 0 -0.002857637261396533 -0.02404654885576157 0 -0.0017472907062450875 -0.027015955893600178 0 3.238697692685303e-05 -0.02420580807497863 0 -0.0014753327195312087 -0.021929789409940489 0 -0.002857637261396533 -0.02404654885576157 0 0.0012896811105604239 -0.020406610897360598 0 3.238697692685303e-05 -0.02420580807497863 0 -0.0014753327195312087 -0.021929789409940489 0 0.0012896811105604239 -0.020406610897360598 0 -0.0019682433740197502 -0.01962030884661789 0 -0.0014753327195312087 -0.021929789409940489 0 -0.0019682433740197502 -0.01962030884661789 0 -0.0014753327195312087 -0.021929789409940489 0 -0.0037951924182363901 -0.021479647314625976 0 -0.0042195650948930645 -0.019254837051376761 0 -0.0019682433740197502 -0.01962030884661789 0 -0.0037951924182363901 -0.021479647314625976 0 -0.0042195650948930645 -0.019254837051376761 0 -0.0037951924182363901 -0.021479647314625976 0 -0.005517453246309134 -0.020947258170095219 0 -0.0037951924182363901 -0.021479647314625976 0 -0.0054374885844691492 -0.023456331601024623 0 -0.005517453246309134 -0.020947258170095219 0 -0.0037951924182363901 -0.021479647314625976 0 -0.0054374885844691492 -0.023456331601024623 0 -0.002857637261396533 -0.02404654885576157 0 -0.0014753327195312087 -0.021929789409940489 0 -0.0037951924182363901 -0.021479647314625976 0 -0.002857637261396533 -0.02404654885576157 0 -0.0054374885844691492 -0.023456331601024623 0 -0.002857637261396533 -0.02404654885576157 0 -0.004725316256574034 -0.02626037406729919 0 -0.0080133250647079213 -0.022681528294032943 0 -0.0099573759756889715 -0.027605396655818387 0 -0.0069547687717502983 -0.02570545592615537 0 -0.0054374885844691492 -0.023456331601024623 0 -0.0069547687717502983 -0.02570545592615537 0 -0.004725316256574034 -0.02626037406729919 0 -0.0054374885844691492 -0.023456331601024623 0 -0.0080133250647079213 -0.022681528294032943 0 -0.0069547687717502983 -0.02570545592615537 0 -0.0057867023177694222 -0.018060946090605458 0 -0.0080133250647079213 -0.022681528294032943 0 -0.005517453246309134 -0.020947258170095219 0 -0.0069257535713856677 -0.018536023540739435 0 -0.0057867023177694222 -0.018060946090605458 0 -0.006282030718608049 -0.020307696770189117 0 -0.0054374885844691492 -0.023456331601024623 0 -0.0080133250647079213 -0.022681528294032943 0 -0.005517453246309134 -0.020947258170095219 0 -0.005890979522352009 -0.018262742261334362 0 -0.0071022094883015181 -0.021561629292021087 0 -0.0069257535713856677 -0.018536023540739435 0 -0.006282030718608049 -0.020307696770189117 0 -0.0069926928707521371 -0.01991659423103382 0 -0.0069257535713856677 -0.018536023540739435 0 -0.0069926928707521371 -0.01991659423103382 0 -0.0077852172497595235 -0.020027553948812015 0 0.0008595679570524078 -0.015633888882636136 0 0.000709400768918686 -0.015622888578971953 0 0.00082822465698309674 -0.015524361879873803 0 -0.0030715337736591216 -0.016933706992166866 0 -0.0020307537519079787 -0.019911541040776422 0 -0.006282030718608049 -0.020307696770189117 0 -0.0069816963950454147 -0.020741466844329336 0 -0.0067348802140143899 -0.021923626574961653 0 -0.0069816963950454147 -0.020741466844329336 0 -0.0073552257096076903 -0.020397216680926471 0 -0.0074016830650846044 -0.020887028668514929 0 -0.0069926928707521371 -0.01991659423103382 0 -0.0069816963950454147 -0.020741466844329336 0 -0.0077852172497595235 -0.020027553948812015 0 -0.0071022094883015181 -0.021561629292021087 0 -0.0086815699897526636 -0.024306801473551128 0 -0.0068698065594338985 -0.019389020280805358 0 -0.0020307537519079787 -0.019911541040776422 0 -0.006282030718608049 -0.020307696770189117 0 -0.0069926928707521371 -0.01991659423103382 0 -0.0069816963950454147 -0.020741466844329336 0 -0.0069816963950454147 -0.020741466844329336 0 -0.0074016830650846044 -0.020887028668514929 0 -0.0073109000889818284 -0.021433144833936865 0 -0.0069816963950454147 -0.020741466844329336 0 -0.0067348802140143899 -0.021923626574961653 0 -0.0073109000889818284 -0.021433144833936865 0 -0.0067348802140143899 -0.021923626574961653 0 -0.0073109000889818284 -0.021433144833936865 0 -0.0073519674789612448 -0.022204621576571743 0 -0.0061590967554243517 -0.030794152276109654 0 -0.0086815699897526636 -0.024306801473551128 0 -0.011785491835524284 -0.032525940366580283 0 -0.0099573759756889715 -0.027605396655818387 0 -0.0081988164165618833 -0.030853822620725401 0 -0.0071709152849474501 -0.023427575525187535 0 -0.0067348802140143899 -0.021923626574961653 0 -0.0073519674789612448 -0.022204621576571743 0 -0.0099573759756889715 -0.027605396655818387 0 -0.0081988164165618833 -0.030853822620725401 0 -0.006666005243311764 -0.028542343367343324 0 -0.0081988164165618833 -0.030853822620725401 0 -0.006666005243311764 -0.028542343367343324 0 -0.0052581089126806958 -0.031668497436792474 0 -0.0099573759756889715 -0.027605396655818387 0 -0.006666005243311764 -0.028542343367343324 0 -0.0069547687717502983 -0.02570545592615537 0 -0.006666005243311764 -0.028542343367343324 0 -0.0069547687717502983 -0.02570545592615537 0 -0.004725316256574034 -0.02626037406729919 0 -0.006666005243311764 -0.028542343367343324 0 -0.004725316256574034 -0.02626037406729919 0 -0.0031898284677281878 -0.029454409097509879 0 -0.004725316256574034 -0.02626037406729919 0 -0.0031898284677281878 -0.029454409097509879 0 -0.0017472907062450875 -0.027015955893600178 0 -0.002857637261396533 -0.02404654885576157 0 -0.004725316256574034 -0.02626037406729919 0 -0.0017472907062450875 -0.027015955893600178 0 -0.006666005243311764 -0.028542343367343324 0 -0.0052581089126806958 -0.031668497436792474 0 -0.0031898284677281878 -0.029454409097509879 0 -0.0024509014644906969 -0.032629336981218005 0 -0.0052581089126806958 -0.031668497436792474 0 -0.0031898284677281878 -0.029454409097509879 0 -0.0031898284677281878 -0.029454409097509879 0 -0.00050834586287111028 -0.030458041447504483 0 -0.0017472907062450875 -0.027015955893600178 0 -0.0024509014644906969 -0.032629336981218005 0 -0.0031898284677281878 -0.029454409097509879 0 -0.00050834586287111028 -0.030458041447504483 0 0.00096984203186332941 -0.027837924138472712 0 -0.00050834586287111028 -0.030458041447504483 0 -0.0017472907062450875 -0.027015955893600178 0 0.00096984203186332941 -0.027837924138472712 0 3.238697692685303e-05 -0.02420580807497863 0 -0.0017472907062450875 -0.027015955893600178 0 0.0040945949854745622 -0.021637658115001925 0 0.004097107743371243 -0.021613871059027245 0 0.0040969823921578668 -0.021595885235359165 0 0.0040945949854745622 -0.021637658115001925 0 0.004097107743371243 -0.021613871059027245 0 0.0041027340949527664 -0.021666350635268918 0 0.0040987024753519332 -0.021652317391435517 0 0.004097107743371243 -0.021613871059027245 0 0.0041027340949527664 -0.021666350635268918 0 0.0040987024753519332 -0.021652317391435517 0 0.0041027340949527664 -0.021666350635268918 0 0.0041278943785769415 -0.021697120642457695 0 0.0069766361280235974 -0.024070815379462679 0 0.008266994288858652 -0.021353342588879325 0 0.0040987024753519332 -0.021652317391435517 0 0.0040995199074899871 -0.021586065589290982 0 0.004097107743371243 -0.021613871059027245 0 0.008266994288858652 -0.021353342588879325 0 0.0029692176461210253 -0.021499902703023165 0 0.0040995199074899871 -0.021586065589290982 0 0.004097107743371243 -0.021613871059027245 0 0.0040988566095108295 -0.021558815005730009 0 0.004097107743371243 -0.021613871059027245 0 0.0040988566095108295 -0.021558815005730009 0 0.0040969823921578668 -0.021595885235359165 0 0.004117961120952621 -0.02152738419670986 0 0.0040988566095108295 -0.021558815005730009 0 0.0040969823921578668 -0.021595885235359165 0 0.0008595679570524078 -0.015633888882636136 0 0.0010356200861156386 -0.015653594148882188 0 0.00082822465698309674 -0.015524361879873803 0 0.0027491424494631399 -0.018711441227710707 0 -0.0020307537519079787 -0.019911541040776422 0 0.004117961120952621 -0.02152738419670986 0 0.0040969823921578668 -0.021595885235359165 0 0.0040709197568128703 -0.021583633450002679 0 0.0040969823921578668 -0.021595885235359165 0 0.0040709197568128703 -0.021583633450002679 0 0.0040770433602258203 -0.021643483071649712 0 -0.0020307537519079787 -0.019911541040776422 0 -0.0024018821070941514 -0.021369635607136554 0 -0.0073552257096076903 -0.020397216680926471 0 -0.0074016830650846044 -0.020887028668514929 0 -0.0079543332464545053 -0.02150196625241544 0 -0.0074016830650846044 -0.020887028668514929 0 -0.0079543332464545053 -0.02150196625241544 0 -0.0076201637858918387 -0.021369375720532165 0 -0.0074016830650846044 -0.020887028668514929 0 -0.0076201637858918387 -0.021369375720532165 0 -0.0073109000889818284 -0.021433144833936865 0 0.0040945949854745622 -0.021637658115001925 0 0.0040969823921578668 -0.021595885235359165 0 0.0040770433602258203 -0.021643483071649712 0 -0.0079543332464545053 -0.02150196625241544 0 -0.0077707712390405678 -0.021658079223717399 0 -0.007991794313896879 -0.022060673811606243 0 0.0040945949854745622 -0.021637658115001925 0 0.0040770433602258203 -0.021643483071649712 0 0.004092226091136953 -0.021667805724977077 0 0.0040770433602258203 -0.021643483071649712 0 0.0040842476494786385 -0.021693076471631545 0 0.004092226091136953 -0.021667805724977077 0 -0.0024018821070941514 -0.021369635607136554 0 0.0024528338066389229 -0.025230506267599068 0 -0.0076201637858918387 -0.021369375720532165 0 -0.0073109000889818284 -0.021433144833936865 0 -0.0077707712390405678 -0.021658079223717399 0 -0.0079543332464545053 -0.02150196625241544 0 -0.0076201637858918387 -0.021369375720532165 0 -0.0077707712390405678 -0.021658079223717399 0 -0.0077707712390405678 -0.021658079223717399 0 -0.0073519674789612448 -0.022204621576571743 0 -0.0077739296818862729 -0.022599600561331742 0 -0.0073109000889818284 -0.021433144833936865 0 -0.0077707712390405678 -0.021658079223717399 0 -0.0073519674789612448 -0.022204621576571743 0 -0.0061590967554243517 -0.030794152276109654 0 -0.0043287434767305538 -0.025794114989799496 0 -0.0071709152849474501 -0.023427575525187535 0 -0.0077739296818862729 -0.022599600561331742 0 -0.0087513675547271838 -0.022805040312594841 0 -0.0077707712390405678 -0.021658079223717399 0 -0.0077739296818862729 -0.022599600561331742 0 -0.0087513675547271838 -0.022805040312594841 0 -0.0071709152849474501 -0.023427575525187535 0 -0.0073519674789612448 -0.022204621576571743 0 -0.0077739296818862729 -0.022599600561331742 0 -0.0085811376191855752 -0.021140329870280854 0 -0.0043287434767305538 -0.025794114989799496 0 -0.0079543332464545053 -0.02150196625241544 0 -0.007991794313896879 -0.022060673811606243 0 -0.0080898844869407831 -0.022016808774271274 0 -0.0043287434767305538 -0.025794114989799496 0 0.0024528338066389229 -0.025230506267599068 0 0.005744239757196571 -0.028518794289597211 0 0.0024528338066389229 -0.025230506267599068 0 0.0093539964329602907 -0.028147762372982638 0 0.0092954492441673919 -0.028127752103040672 0 0.0093101121081791121 -0.028200810164183084 0 0.0093883470067765117 -0.028278318665793535 0 0.0093539964329602907 -0.028147762372982638 0 0.0093101121081791121 -0.028200810164183084 0 0.0024528338066389229 -0.025230506267599068 0 0.0071100928774345583 -0.024999472493897612 0 0.0018417708544901754 -0.028899423991698182 0 0.0023705060406798316 -0.028190873856989235 0 0.0021140966830870645 -0.028088054096211016 0 0.0040842476494786385 -0.021693076471631545 0 0.004092226091136953 -0.021667805724977077 0 0.0041114153833644229 -0.021683554265677907 0 0.0040945949854745622 -0.021637658115001925 0 0.004092226091136953 -0.021667805724977077 0 0.0041027340949527664 -0.021666350635268918 0 0.004092226091136953 -0.021667805724977077 0 0.0041027340949527664 -0.021666350635268918 0 0.0041114153833644229 -0.021683554265677907 0 0.0041027340949527664 -0.021666350635268918 0 0.0041114153833644229 -0.021683554265677907 0 0.0041278943785769415 -0.021697120642457695 0 0.0092954492441673919 -0.028127752103040672 0 0.0092646713086323388 -0.028163388681720733 0 0.0092157335710435131 -0.028102992152865738 0 0.0071100928774345583 -0.024999472493897612 0 0.0081571286970995339 -0.025453248201816454 0 0.0092954492441673919 -0.028127752103040672 0 0.0092646713086323388 -0.028163388681720733 0 0.0093101121081791121 -0.028200810164183084 0 0.0092392153328407344 -0.028227389557333695 0 0.0092646713086323388 -0.028163388681720733 0 0.0093101121081791121 -0.028200810164183084 0 0.0092392153328407344 -0.028227389557333695 0 0.0092259867481645514 -0.028176276511550663 0 0.0092157335710435131 -0.028102992152865738 0 0.0092259867481645514 -0.028176276511550663 0 0.0091823162792813648 -0.027354585635427999 0 0.0099031898416359395 -0.026963873326578326 0 0.0092392153328407344 -0.028227389557333695 0 0.0092646713086323388 -0.028163388681720733 0 0.0092157335710435131 -0.028102992152865738 0 0.0095284728835732767 -0.028893323363255542 0 0.0081571286970995339 -0.025453248201816454 0 0.0092259867481645514 -0.028176276511550663 0 0.0091823162792813648 -0.027354585635427999 0 0.0085822342698663526 -0.027663296943405035 0 0.0091823162792813648 -0.027354585635427999 0 0.0090317338811165479 -0.026569135582461441 0 0.0085822342698663526 -0.027663296943405035 0 0.0091823162792813648 -0.027354585635427999 0 0.0090317338811165479 -0.026569135582461441 0 0.0099031898416359395 -0.026963873326578326 0 0.0098255621102288793 -0.026972535245026678 0 0.0081571286970995339 -0.025453248201816454 0 0.0090317338811165479 -0.026569135582461441 0 0.0098869192634085824 -0.026856971132342214 0 0.0094549246394711479 -0.026076259475231008 0 0.0069766361280235974 -0.024070815379462679 0 0.0081571286970995339 -0.025453248201816454 0 0.010256748955900008 -0.02600517803797936 0 0.0098869192634085824 -0.026856971132342214 0 0.0094549246394711479 -0.026076259475231008 0 0.0090317338811165479 -0.026569135582461441 0 0.0094549246394711479 -0.026076259475231008 0 0.008730395054298597 -0.025794360091806957 0 0.0094549246394711479 -0.026076259475231008 0 0.0093577452713737973 -0.025153566582497143 0 0.008730395054298597 -0.025794360091806957 0 0.010256748955900008 -0.02600517803797936 0 0.010614808769321842 -0.025148347778202993 0 0.0093577452713737973 -0.025153566582497143 0 0.010256748955900008 -0.02600517803797936 0 0.0094549246394711479 -0.026076259475231008 0 0.0093577452713737973 -0.025153566582497143 0 0.008266994288858652 -0.021353342588879325 0 0.0094073597410090654 -0.02058302863658688 0 0.019519168568078994 -0.027493405742030515 0 0.019581665181124999 -0.027719544844822808 0 0.019076563112406335 -0.028023233744734793 0 0.016263860205169914 -0.026052185572631604 0 0.013443818544886589 -0.019229498080176398 0 0.019055684960303295 -0.019800704103195482 0 0.016263860205169914 -0.026052185572631604 0 0.014825756365593953 -0.019134406473066454 0 0.016297479453729179 -0.024048997374488481 0 0.017397771284336002 -0.019187817120056315 0 0.019055684960303295 -0.019800704103195482 0 0.013443818544886589 -0.019229498080176398 0 0.0093577452713737973 -0.025153566582497143 0 0.0081304672257891362 -0.025133340672103151 0 0.008730395054298597 -0.025794360091806957 0 0.0080524850714635207 -0.025450484681159992 0 0.0081304672257891362 -0.025133340672103151 0 0.008730395054298597 -0.025794360091806957 0 0.0094073597410090654 -0.02058302863658688 0 0.013443818544886589 -0.019229498080176398 0 0.0080524850714635207 -0.025450484681159992 0 0.008730395054298597 -0.025794360091806957 0 0.0082899663363316771 -0.026521917590173444 0 0.0090317338811165479 -0.026569135582461441 0 0.008730395054298597 -0.025794360091806957 0 0.0082899663363316771 -0.026521917590173444 0 0.016263860205169914 -0.026052185572631604 0 0.013284364830332109 -0.02783969144131691 0 0.019581665181124999 -0.027719544844822808 0 0.019352847130195888 -0.028520888011207925 0 0.019076563112406335 -0.028023233744734793 0 0.019352847130195888 -0.028520888011207925 0 0.019076563112406335 -0.028023233744734793 0 0.019096736059042722 -0.028434616598742378 0 0.018716476228367435 -0.028563030456274483 0 0.018824829963030979 -0.028864714843523785 0 0.018738631155910127 -0.028892758107391021 0 0.016263860205169914 -0.026052185572631604 0 0.019340912542524714 -0.02908273867362262 0 0.018824829963030979 -0.028864714843523785 0 0.018738631155910127 -0.028892758107391021 0 0.01881478287254975 -0.028952759321817161 0 0.019340912542524714 -0.02908273867362262 0 0.018888392238589798 -0.028779033913990993 0 0.018738631155910127 -0.028892758107391021 0 0.018919563651895933 -0.028967633234562785 0 0.01881478287254975 -0.028952759321817161 0 0.019352847130195888 -0.028520888011207925 0 0.018919563651895933 -0.028967633234562785 0 0.019042785800927057 -0.028697376935381762 0 0.019352847130195888 -0.028520888011207925 0 0.019042785800927057 -0.028697376935381762 0 0.019096736059042722 -0.028434616598742378 0 0.013284364830332109 -0.02783969144131691 0 0.013741610723547642 -0.028076516413200733 0 0.0090317338811165479 -0.026569135582461441 0 0.0082899663363316771 -0.026521917590173444 0 0.0085822342698663526 -0.027663296943405035 0 0.018824829963030979 -0.028864714843523785 0 0.01879444973519807 -0.028964666876320131 0 0.01881478287254975 -0.028952759321817161 0 0.018823971886836915 -0.028953965424733299 0 0.01879444973519807 -0.028964666876320131 0 0.01881478287254975 -0.028952759321817161 0 0.018823971886836915 -0.028953965424733299 0 0.018919563651895933 -0.028967633234562785 0 0.01881478287254975 -0.028952759321817161 0 0.018919563651895933 -0.028967633234562785 0 0.018894374345225631 -0.028880889125225562 0 0.019042785800927057 -0.028697376935381762 0 0.018839267486464681 -0.028961222587880201 0 0.018919563651895933 -0.028967633234562785 0 0.018894374345225631 -0.028880889125225562 0 0.018901675286623638 -0.02893237501031411 0 0.018781835887514142 -0.028968570008537843 0 0.018981351969055028 -0.029085747656358119 0 0.018901675286623638 -0.02893237501031411 0 0.018839267486464681 -0.028961222587880201 0 0.018781835887514142 -0.028968570008537843 0 0.018839267486464681 -0.028961222587880201 0 0.018894374345225631 -0.028880889125225562 0 0.018781835887514142 -0.028968570008537843 0 0.018688667000465304 -0.028416264210948949 0 0.018782805322463257 -0.029979553681493347 0 0.018781835887514142 -0.028968570008537843 0 0.018981351969055028 -0.029085747656358119 0 0.019113935315397457 -0.029189091598462027 0 0.018781835887514142 -0.028968570008537843 0 0.018889958696896119 -0.028569884896531342 0 0.018345763046398018 -0.02826123733668667 0 0.018889958696896119 -0.028569884896531342 0 0.019042785800927057 -0.028697376935381762 0 0.019096736059042722 -0.028434616598742378 0 0.018894374345225631 -0.028880889125225562 0 0.018889958696896119 -0.028569884896531342 0 0.019042785800927057 -0.028697376935381762 0 0.018894374345225631 -0.028880889125225562 0 0.018781835887514142 -0.028968570008537843 0 0.018889958696896119 -0.028569884896531342 0 0.019214104360792156 -0.03104868749526583 0 0.018744439154744434 -0.030243423927159143 0 0.019963003350642636 -0.030282674436111098 0 0.019921868939040892 -0.031144125110610456 0 0.019214104360792156 -0.03104868749526583 0 0.019963003350642636 -0.030282674436111098 0 0.018901675286623638 -0.02893237501031411 0 0.019074231411573744 -0.029084811171786927 0 0.018981351969055028 -0.029085747656358119 0 0.019921868939040892 -0.031144125110610456 0 0.020702519792048023 -0.031142289023333835 0 0.019963003350642636 -0.030282674436111098 0 0.019794508882874762 -0.029863721189303968 0 0.019504096564245198 -0.029713263418016438 0 0.019074231411573744 -0.029084811171786927 0 0.019072510938558395 -0.029220993682950194 0 0.018981351969055028 -0.029085747656358119 0 0.019072510938558395 -0.029220993682950194 0 0.018981351969055028 -0.029085747656358119 0 0.019113935315397457 -0.029189091598462027 0 0.018744439154744434 -0.030243423927159143 0 0.019963003350642636 -0.030282674436111098 0 0.019063967636191493 -0.029394902190771618 0 0.019074231411573744 -0.029084811171786927 0 0.019072510938558395 -0.029220993682950194 0 0.019063967636191493 -0.029394902190771618 0 0.019504096564245198 -0.029713263418016438 0 0.019111424418719214 -0.029386406374110632 0 0.019072510938558395 -0.029220993682950194 0 0.019063967636191493 -0.029394902190771618 0 0.019046664859736245 -0.029073251985540862 0 0.018683821095686556 -0.029046675728933647 0 0.019063967636191493 -0.029394902190771618 0 0.019046664859736245 -0.029073251985540862 0 0.019072510938558395 -0.029220993682950194 0 0.019046664859736245 -0.029073251985540862 0 0.019113935315397457 -0.029189091598462027 0 0.018782805322463257 -0.029979553681493347 0 0.019724124197317842 -0.022174554740104491 0 0.019046664859736245 -0.029073251985540862 0 0.019113935315397457 -0.029189091598462027 0 0.01920635457435808 -0.02875666778027864 0 0.018736287678879696 -0.028608106536421991 0 0.019046664859736245 -0.029073251985540862 0 0.01920635457435808 -0.02875666778027864 0 0.018889958696896119 -0.028569884896531342 0 0.019076563112406335 -0.028023233744734793 0 0.019096736059042722 -0.028434616598742378 0 0.018889958696896119 -0.028569884896531342 0 0.018345763046398018 -0.02826123733668667 0 0.019076563112406335 -0.028023233744734793 0 0.018345763046398018 -0.02826123733668667 0 0.018806631484708812 -0.027493517086534976 0 0.01807496158937209 -0.027446049856269868 0 0.018345763046398018 -0.02826123733668667 0 0.019076563112406335 -0.028023233744734793 0 0.018806631484708812 -0.027493517086534976 0 0.019519168568078994 -0.027493405742030515 0 0.019076563112406335 -0.028023233744734793 0 0.018806631484708812 -0.027493517086534976 0 0.021088764393649349 -0.015802268978587292 0 0.020668715914196077 -0.015761139956598034 0 0.020872460151576823 -0.015598802211502328 0 0.019055684960303295 -0.019800704103195482 0 0.019888530606719603 -0.021767692416253502 0 0.020668715914196077 -0.015761139956598034 0 0.020872460151576823 -0.015598802211502328 0 0.020752668852626527 -0.015404064700697046 0 0.020668715914196077 -0.015761139956598034 0 0.020536575629394566 -0.015313351030879403 0 0.020752668852626527 -0.015404064700697046 0 0.019888530606719603 -0.021767692416253502 0 0.019724124197317842 -0.022174554740104491 0 0.020668715914196077 -0.015761139956598034 0 0.020536575629394566 -0.015313351030879403 0 0.020283524434264611 -0.015745948690083059 0 0.020536575629394566 -0.015313351030879403 0 0.020752668852626527 -0.015404064700697046 0 0.020800662745000805 -0.014978297044683035 0 0.020752668852626527 -0.015404064700697046 0 0.020800662745000805 -0.014978297044683035 0 0.020979143258648861 -0.015372051794592024 0 0.020872460151576823 -0.015598802211502328 0 0.020752668852626527 -0.015404064700697046 0 0.020979143258648861 -0.015372051794592024 0 0.020209644600992331 -0.016323676650319873 0 0.021193786856322862 -0.01703709472665858 0 0.020800384102503896 -0.015859793331499422 0 0.020209644600992331 -0.016323676650319873 0 0.020031681215662601 -0.016978343245864953 0 0.021193786856322862 -0.01703709472665858 0 0.019084651305159558 -0.022889343418470834 0 0.019724124197317842 -0.022174554740104491 0 0.019724124197317842 -0.022174554740104491 0 0.020458982684559021 -0.01427787397575497 0 0.020536575629394566 -0.015313351030879403 0 0.020283524434264611 -0.015745948690083059 0 0.020198990494488499 -0.015247002302674699 0 0.020093804664874114 -0.015598428342397689 0 0.020209644600992331 -0.016323676650319873 0 0.020800384102503896 -0.015859793331499422 0 0.020458982684559021 -0.01427787397575497 0 0.020324179041738857 -0.015470612175822641 0 0.020093804664874114 -0.015598428342397689 0 0.020800384102503896 -0.015859793331499422 0 0.020220516216921461 -0.01488937422854902 0 0.020198990494488499 -0.015247002302674699 0 0.020446082570533396 -0.01493410861423556 0 0.020220516216921461 -0.01488937422854902 0 0.020536575629394566 -0.015313351030879403 0 0.020198990494488499 -0.015247002302674699 0 0.020446082570533396 -0.01493410861423556 0 0.020367757920209357 -0.014640812815935347 0 0.020446082570533396 -0.01493410861423556 0 0.020220516216921461 -0.01488937422854902 0 0.020536575629394566 -0.015313351030879403 0 0.020446082570533396 -0.01493410861423556 0 0.020800662745000805 -0.014978297044683035 0 0.020603668249218686 -0.014608899857965103 0 0.020446082570533396 -0.01493410861423556 0 0.020800662745000805 -0.014978297044683035 0 0.020603668249218686 -0.014608899857965103 0 0.020367757920209357 -0.014640812815935347 0 0.020446082570533396 -0.01493410861423556 0 0.020603668249218686 -0.014608899857965103 0 0.020873136880282004 -0.014552850578062677 0 0.020800662745000805 -0.014978297044683035 0 0.020873136880282004 -0.014552850578062677 0 0.020800662745000805 -0.014978297044683035 0 0.021011425848952655 -0.014773775228850962 0 0.020837429658027744 -0.015300417437454254 0 0.0209203635817439 -0.014674356556907082 0 0.020800662745000805 -0.014978297044683035 0 0.021011425848952655 -0.014773775228850962 0 0.020951971633146625 -0.015129495881837058 0 0.020800662745000805 -0.014978297044683035 0 0.020951971633146625 -0.015129495881837058 0 0.020756517668364907 -0.015430637312316956 0 0.010512845384343779 -0.016156233159289338 0 0.010332195469202657 -0.016070381421050502 0 0.01054515202313658 -0.016025430312839845 0 0.020951971633146625 -0.015129495881837058 0 0.021173328571170661 -0.014979329625514425 0 0.021109510581647617 -0.01543391859210113 0 0.021011425848952655 -0.014773775228850962 0 0.020951971633146625 -0.015129495881837058 0 0.021173328571170661 -0.014979329625514425 0 0.015931398558910022 -0.016186197566560825 0 0.016121577331190812 -0.014926256874215019 0 0.021227042889119415 -0.014588677580932857 0 0.021011425848952655 -0.014773775228850962 0 0.021173328571170661 -0.014979329625514425 0 0.013603298371725346 -0.012844125133187998 0 0.015931398558910022 -0.016186197566560825 0 0.010271618302461439 -0.016328622075180509 0 0.010492719847115478 -0.016312532075867477 0 0.010349238577660225 -0.016190574917367442 0 0.010492719847115478 -0.016312532075867477 0 0.010512845384343779 -0.016156233159289338 0 0.010349238577660225 -0.016190574917367442 0 0.010271618302461439 -0.016328622075180509 0 0.01011874643145411 -0.016125543544819657 0 0.010349238577660225 -0.016190574917367442 0 0.01011874643145411 -0.016125543544819657 0 0.010167076725986371 -0.016016561682248385 0 0.010332195469202657 -0.016070381421050502 0 0.01011874643145411 -0.016125543544819657 0 0.010349238577660225 -0.016190574917367442 0 0.010332195469202657 -0.016070381421050502 0 0.010512845384343779 -0.016156233159289338 0 0.010349238577660225 -0.016190574917367442 0 0.010332195469202657 -0.016070381421050502 0 0.010167076725986371 -0.016016561682248385 0 0.010325563329667291 -0.015889278879996339 0 0.010332195469202657 -0.016070381421050502 0 0.010325563329667291 -0.015889278879996339 0 0.010332195469202657 -0.016070381421050502 0 0.01054515202313658 -0.016025430312839845 0 0.010167076725986371 -0.016016561682248385 0 0.010081469389789946 -0.015917484632548409 0 0.010325563329667291 -0.015889278879996339 0 0.010325563329667291 -0.015889278879996339 0 0.010594066395765335 -0.015894048019760951 0 0.01054515202313658 -0.016025430312839845 0 0.013443818544886589 -0.019229498080176398 0 0.016121577331190812 -0.014926256874215019 0 0.021088764393649349 -0.015802268978587292 0 0.020872460151576823 -0.015598802211502328 0 0.020979143258648861 -0.015372051794592024 0 0.019055684960303295 -0.019800704103195482 0 0.0209203635817439 -0.014674356556907082 0 0.020843241297499333 -0.016082481158250481 0 0.020756517668364907 -0.015430637312316956 0 0.021109510581647617 -0.01543391859210113 0 0.020843241297499333 -0.016082481158250481 0 0.020941924824278133 -0.016087692765545961 0 0.021109510581647617 -0.01543391859210113 0 0.020951971633146625 -0.015129495881837058 0 0.020756517668364907 -0.015430637312316956 0 0.021109510581647617 -0.01543391859210113 0 
</DataArray>
</PointData>
<CellData Scalars="region_id,cross_section_updated," Vectors="" Tensors="stress,">
<DataArray type="Float64" Name="region_id" format="ascii">
5 5 5 5 5 5 5 6 5 5 6 5 5 6 5 5 6 5 6 6 5 6 5 5 5 5 5 5 5 5 5 5 5 5 5 5 6 5 6 5 5 5 5 5 5 5 5 5 6 5 5 6 5 5 5 5 5 5 5 5 6 5 5 5 6 5 5 5 6 5 5 6 5 5 6 5 5 5 5 6 5 5 5 5 5 5 5 5 5 5 5 6 5 5 6 5 5 5 5 5 5 6 5 5 5 5 5 5 5 5 6 5 5 5 5 5 5 6 5 5 5 5 5 5 5 5 5 5 6 5 5 5 5 5 5 5 5 5 5 5 5 5 5 5 5 5 5 5 5 5 5 5 5 5 5 6 5 5 6 6 5 5 5 5 5 5 5 5 5 5 5 5 5 5 5 5 5 5 5 5 5 5 5 5 5 5 5 5 5 5 5 6 5 5 6 5 5 5 5 5 5 5 6 5 5 5 6 5 5 5 5 5 5 6 5 5 5 5 5 5 5 5 5 5 5 5 5 5 5 5 5 5 5 5 5 5 5 5 6 5 5 5 5 5 5 5 5 5 5 6 5 5 6 5 5 5 5 5 5 5 6 5 5 6 5 5 5 5 5 5 5 5 5 5 5 5 5 5 5 5 5 5 5 5 5 5 5 5 5 5 5 5 5 5 5 6 5 5 5 6 5 5 5 5 5 5 5 5 5 5 5 5 5 5 5 5 5 5 5 5 5 5 5 5 5 5 5 5 6 6 5 5 5 5 5 5 5 5 5 5 6 5 5 5 6 5 5 5 5 6 5 5 5 6 5 5 5 5 5 5 5 5 6 5 5 5 5 6 5 5 5 5 6 6 5 5 6 5 5 5 5 5 5 5 5 5 5 5 6 5 5 6 6 5 5 5 5 6 6 5 5 5 5 5 5 5 5 5 5 5 5 6 6 5 5 5 5 5 6 5 5 5 6 5 5 5 5 5 6 5 5 5 5 5 5 5 5 5 5 5 6 5 5 6 5 5 5 5 5 5 6 5 6 5 5 6 5 5 5 5 5 5 5 5 5 6 5 5 5 5 5 5 5 5 5 5 5 5 5 5 5 5 5 5 5 6 5 5 5 5 5 5 5 5 5 5 5 5 5 5 5 5 5 6 5 5 5 5 5 5 5 6 5 6 5 5 5 6 5 5 5 5 6 6 6 5 5 5 5 6 5 5 5 5 5 5 5 5 5 5 5 5 6 5 5 6 5 5 6 5 5 5 5 5 5 5 5 5 5 5 5 5 5 5 5 5 5 5 5 5 5 5 5 5 5 5 5 6 5 5 5 6 5 5 5 6 5 5 5 5 6 5 5 6 5 5 5 5 5 5 5 5 6 6 5 5 5 6 6 6 5 5 5 5 5 6 5 5 5 5 5 5 5 5 5 5 5 5 5 5 5 5 5 5 5 5 5 5 5 5 5 5 5 5 5 5 5 5 5 5 5 5 5 5 5 5 5 5 5 5 5 5 5 5 5 5 5 5 5 5 5 5 5 5 5 5 5 5 5 5 5 5 5 5 5 5 5 5 5 5 5 5 5 5 5 5 5 5 5 5 6 5 5 5 5 5 6 5 5 5 5 5 6 5 5 5 5 5 5 6 5 6 6 5 5 5 6 5 6 5 6 5 5 6 5 5 5 5 5 5 5 5 5 5 6 5 5 5 6 6 5 5 6 5 5 5 6 5 5 5 6 5 5 5 5 5 6 5 5 5 5 6 5 5 6 6 6 5 6 5 6 5 5 6 6 5 5 5 5 5 5 5 6 5 6 5 5 5 5 5 5 5 5 6 5 5 6 5 5 5 5 5 5 5 5 5 5 6 5 5 6 5 5 5 6 5 6 5 5 5 5 5 5 6 5 5 5 5 6 5 5 5 6 5 6 6 5 5 5 5 6 5 5 5 5 5 5 5 5 5 5 5 6 5 5 5 6 5 5 5 6 5 5 5 5 5 5 5 5 5 5 5 5 5 6 5 5 5 5 6 5 5 5 5 5 6 5 5 6 5 5 6 5 5 5 6 5 5 6 6 5 5 6 5 5 5 5 5 5 5 5 5 5 6 5 6 5 5 6 5 5 6 5 5 5 5 5 5 5 6 5 5 6 5 5 5 5 5 5 5 5 5 5 5 5 5 5 5 5 5 5 5 5 5 5 5 5 6 5 5 5 5 5 5 5 5 5 5 5 6 5 5 5 5 5 5 6 5 5 5 5 5 5 5 5 5 5 5 5 6 5 5 5 5 6 5 5 5 6 5 5 6 5 5 6 5 5 5 6 5 5 5 5 5 5 5 5 5 5 5 5 5 5 5 5 5 5 5 5 5 5 5 5 5 6 5 5 5 6 5 5 5 5 6 5 5 5 5 5 5 5 5 5 5 5 6 5 5 6 5 5 5 5 6 5 5 6 5 5 5 5 5 5 5 5 5 6 5 6 5 5 5 6 5 5 5 5 5 6 5 5 5 6 5 5 5 6 5 5 6 5 5 5 5 6 5 5 6 5 5 5 5 5 5 5 5 5 5 6 6 5 5 5 5 6 5 5 5 6 5 5 5 5 5 5 5 5 5 5 5 5 5 6 5 5 6 6 5 5 5 5 6 5 5 5 5 5 5 5 5 5 5 5 5 5 5 5 5 6 5 5 6 5 5 5 6 5 6 5 6 6 5 5 5 5 6 5 5 5 5 6 5 5 5 6 6 6 5 6 5 5 6 5 6 5 5 5 5 5 6 5 6 5 5 5 6 5 5 5 5 5 5 5 5 6 5 5 6 5 6 5 5 5 5 5 5 5 5 6 6 5 6 5 5 5 5 5 5 5 5 5 5 5 5 6 6 5 5 5 5 5 5 5 5 5 5 5 5 5 5 5 6 5 6 5 5 5 6 5 5 5 5 5 5 5 5 5 5 5 5 5 5 5 5 6 5 5 5 5 5 6 5 5 5 6 5 6 5 5 5 5 5 5 5 5 5 5 5 5 5 5 5 5 5 5 5 5 5 5 5 5 5 5 5 5 5 5 5 5 5 5 5 5 5 6 5 5 5 6 5 5 5 5 5 5 5 5 5 5 6 5 5 5 5 5 5 5 5 5 5 5 5 5 5 5 5 5 5 5 5 5 5 5 6 5 5 6 5 5 5 5 5 6 5 5 6 5 5 6 5 5 6 5 5 5 5 5 6 5 5 5 5 6 5 6 5 5 5 5 6 5 6 5 5 6 6 5 5 5 5 6 5 5 5 5 5 5 5 5 5 5 6 5 5 5 5 6 5 6 6 5 6 6 5 5 5 6 5 6 5 6 5 5 5 5 5 6 6 5 5 6 5 5 6 5 5 6 5 5 5 6 5 5 6 5 5 5 6 5 5 5 5 5 5 5 5 5 6 5 5 5 5 5 6 5 5 5 6 5 5 5 5 6 5 5 5 5 6 5 5 6 6 6 5 6 6 5 6 5 5 5 6 5 5 5 5 5 6 5 5 5 5 5 5 5 5 6 5 5 5 5 5 5 5 5 6 5 5 6 6 5 5 5 5 6 5 5 5 5 5 6 5 5 5 5 5 5 6 5 5 5 6 5 5 5 5 5 5 5 5 5 5 5 5 5 5 6 5 5 5 5 6 5 5 5 5 5 5 5 5 5 6 5 5 5 6 5 5 5 5 5 6 5 5 6 5 5 5 5 5 5 6 5 5 5 5 5 5 6 5 5 5 6 5 5 5 5 5 5 5 5 5 5 6 5 5 6 5 5 5 6 5 6 5 5 5 5 5 5 5 5 5 5 5 5 6 5 6 6 5 5 6 5 5 5 6 6 5 6 5 5 5 5 5 6 5 6 6 6 5 5 5 5 5 5 6 5 5 5 5 5 6 5 5 5 5 5 5 5 5 5 5 5 6 5 5 5 5 5 5 5 5 5 5 5 5 5 5 5 5 5 5 5 5 5 5 5 5 5 5 5 5 5 6 5 5 5 5 5 5 5 5 6 5 5 5 5 5 6 5 5 5 5 5 6 5 5 5 5 5 5 5 5 5 5 5 5 5 6 5 6 5 6 5 5 5 5 5 5 5 6 5 5 5 5 5 5 5 5 5 5 5 5 5 5 5 5 5 5 5 5 5 5 5 5 5 5 5 5 5 5 5 5 5 5 5 5 5 5 5 5 5 5 5 5 5 5 5 6 5 5 5 5 5 5 5 5 5 5 5 5 6 5 5 5 5 5 5 5 5 6 5 5 5 5 5 5 6 5 5 5 5 5 5 5 5 5 6 5 5 5 5 5 5 5 5 5 5 5 6 5 5 5 6 5 5 5 5 5 5 5 5 5 5 5 5 5 5 5 5 6 5 5 5 5 5 5 5 5 6 5 5 5 5 5 5 5 5 5 5 5 5 5 5 5 5 5 5 5 5 5 6 5 5 5 6 5 5 5 5 5 5 5 5 6 5 5 5 5 5 5 5 5 5 5 6 5 5 5 6 5 6 5 5 5 5 5 5 5 5 5 6 5 5 6 5 6 5 6 5 5 5 5 5 5 6 5 5 6 6 5 5 5 5 5 5 6 5 6 5 5 6 5 5 6 5 5 5 5 5 5 5 5 5 5 5 5 5 5 5 6 5 5 6 5 5 5 6 5 5 5 5 5 5 5 5 5 5 5 6 5 5 5 5 5 5 5 5 5 5 5 5 5 6 5 6 5 5 5 5 6 5 6 5 6 5 5 5 5 6 5 5 6 5 6 5 5 5 5 6 5 5 5 5 6 5 5 6 5 6 5 6 6 5 5 5 5 5 5 6 5 5 5 6 5 5 5 5 6 6 5 6 5 5 5 5 5 5 5 5 5 5 5 6 5 5 5 5 5 6 5 5 5 6 5 5 5 5 5 5 5 5 5 5 5 5 5 5 5 6 5 5 5 5 5 5 5 5 5 5 5 5 5 5 5 5 5 5 5 5 5 6 5 5 6 5 5 5 5 5 5 5 5 6 5 5 5 5 5 5 5 5 5 5 6 6 5 5 5 5 6 5 6 5 5 5 5 5 6 5 5 5 5 5 6 5 5 5 5 5 5 5 5 6 5 5 6 6 5 6 5 6 5 5 5 5 6 6 5 5 6 5 6 5 5 5 5 5 6 5 5 5 5 6 6 5 5 6 6 5 5 5 5 6 5 5 5 6 5 5 6 5 6 5 5 5 5 5 5 5 5 5 5 5 5 5 5 5 6 5 5 5 5 5 6 5 5 5 5 5 6 5 5 5 5 6 5 5 5 5 5 5 5 5 5 5 5 5 5 5 5 5 5 5 5 5 5 5 5 5 5 5 5 5 5 5 5 5 5 5 5 5 5 5 5 5 5 5 5 5 5 5 5 5 5 5 5 5 5 5 5 5 5 5 5 5 5 6 5 5 5 5 5 6 5 5 6 5 5 5 5 5 5 5 5 5 5 5 6 5 5 5 5 5 5 5 6 5 6 6 5 5 5 5 5 5 5 5 6 5 5 5 5 5 5 6 5 5 5 6 5 5 5 5 5 5 5 6 5 5 6 5 5 5 5 5 5 5 5 5 6 6 5 5 5 5 6 6 6 6 5 6 5 5 5 5 5 5 5 5 5 5 5 5 5 5 5 6 5 5 6 5 5 5 5 5 5 5 5 5 6 5 5 5 5 5 5 5 5 6 5 5 5 5 5 5 5 5 5 5 5 5 5 5 5 5 5 5 5 5 5 5 5 5 6 5 5 5 5 5 6 5 5 6 6 6 5 5 6 5 5 6 5 5 6 6 5 5 6 5 6 5 5 5 5 5 5 5 5 5 5 5 5 5 5 5 6 5 5 5 5 5 5 5 5 6 5 5 5 5 6 5 6 5 5 6 5 5 5 5 5 5 5 5 6 5 5 6 5 5 5 6 5 5 5 5 5 6 5 5 6 5 5 5 5 5 5 5 5 5 5 5 5 5 5 5 5 5 5 5 5 5 5 5 5 5 5 5 5 6 6 5 5 5 5 5 6 5 5 5 5 5 5 5 5 5 5 5 5 6 5 5 5 5 5 5 5 5 5 5 5 5 5 5 5 5 5 6 5 5 6 5 5 5 5 5 6 5 5 5 5 5 6 5 5 5 5 5 6 5 5 5 5 5 5 5 5 5 5 5 5 5 5 5 5 5 5 5 5 5 6 5 5 6 5 5 5 5 5 5 5 6 5 5 5 5 5 5 5 5 5 5 5 5 5 5 5 5 5 5 5 5 5 5 5 5 5 5 5 5 5 5 5 5 5 5 5 5 5 6 5 5 6 5 5 5 6 5 5 5 5 6 5 5 5 5 5 5 6 5 5 5 5 5 5 5 5 5 5 6 5 5 5 5 6 5 6 5 5 5 5 6 5 5 5 5 5 5 5 5 5 5 5 6 5 5 5 5 5 5 5 5 6 5 5 5 5 5 5 5 5 5 5 5 5 5 5 5 5 5 5 5 6 5 5 5 5 5 5 5 5 5 6 5 5 5 5 5 6 5 5 5 5 5 6 6 6 5 6 5 5 5 5 5 5 5 5 5 6 5 5 5 6 5 5 5 5 5 5 5 5 5 5 5 5 5 5 5 5 5 5 5 5 5 5 5 6 5 5 5 5 5 5 5 6 5 5 6 5 5 5 6 5 5 6 5 5 5 5 6 5 5 6 5 5 5 5 5 5 5 5 6 6 5 5 5 5 5 5 5 6 5 5 5 6 5 5 5 5 5 5 5 5 5 5 5 5 6 5 5 5 5 6 5 5 5 6 6 5 6 5 6 5 5 5 5 6 5 6 5 5 5 5 5 5 5 5 5 6 5 6 6 5 5 5 5 6 6 6 5 5 5 5 6 5 6 5 5 6 5 5 6 5 5 5 5 5 5 6 5 6 5 5 6 5 5 5 5 5 5 5 5 5 5 5 5 5 5 5 5 5 5 6 5 5 5 5 5 5 5 6 6 6 5 6 5 5 5 6 5 6 5 5 6 5 5 6 5 5 6 6 5 6 5 6 5 5 5 6 6 5 5 5 6 5 5 5 5 6 5 5 6 5 5 5 5 5 5 6 5 5 5 5 5 5 5 5 5 5 5 5 5 5 5 5 5 6 5 5 5 5 6 5 5 5 5 5 5 5 6 5 5 5 5 5 5 5 5 5 5 5 5 5 5 5 5 5 6 5 5 5 6 6 5 6 5 6 5 5 5 5 5 5 5 5 5 6 5 5 5 5 6 5 6 5 5 5 6 5 5 6 6 5 5 5 5 6 5 5 6 5 5 5 5 5 6 5 6 5 5 5 6 5 5 6 6 5 5 6 5 5 5 5 5 6 5 5 5 5 5 5 5 5 5 5 5 6 5 6 5 5 5 5 5 5 5 5 6 5 6 6 5 6 5 5 5 5 5 6 5 5 5 6 5 5 5 6 5 5 5 5 5 5 5 5 5 5 5 5 5 5 5 6 5 5 6 5 5 5 5 5 5 5 5 5 6 5 5 5 5 5 5 5 5 5 6 5 5 5 5 5 5 5 5 5 5 5 6 5 5 5 5 5 5 6 5 6 6 5 5 5 5 5 6 5 5 5 5 5 5 5 5 5 5 5 5 5 5 5 5 6 5 5 5 5 5 5 6 5 5 5 5 5 5 5 5 5 5 5 6 5 5 5 5 5 5 6 5 5 5 5 5 5 5 5 5 5 5 5 5 5 5 5 5 5 5 5 6 5 5 5 5 5 5 5 5 6 5 5 5 6 5 5 5 5 6 5 6 5 5 5 5 6 5 5 5 6 5 5 5 5 5 6 5 5 5 5 5 5 5 5 6 5 5 6 6 5 5 6 5 5 5 5 5 5 5 5 6 5 5 5 5 5 5 5 5 5 5 6 6 5 5 5 5 5 5 5 5 6 5 5 6 5 5 5 5 5 5 6 5 5 5 5 5 6 5 5 5 5 5 5 6 5 5 5 6 6 5 5 5 5 5 5 5 6 5 5 6 5 5 5 5 5 6 5 5 5 5 5 5 5 5 5 5 5 6 5 5 5 5 5 5 5 5 5 5 5 6 5 5 5 5 5 5 5 5 5 5 5 5 6 5 5 5 6 6 5 6 5 5 5 6 6 5 5 5 5 6 6 5 5 6 5 5 6 5 5 5 5 5 5 6 5 6 5 5 6 6 6 5 5 6 5 6 5 5 6 6 5 5 5 6 6 5 5 6 5 6 5 5 5 5 5 5 6 6 5 5 5 5 6 6 5 5 5 5 5 6 5 5 5 5 5 5 5 5 5 6 6 5 5 5 5 5 5 6 5 5 5 5 5 6 5 5 5 6 5 5 5 5 5 6 5 6 5 5 5 6 5 5 5 5 6 5 5 5 6 5 5 5 5 5 6 5 6 5 5 6 5 5 5 6 5 5 6 5 5 5 5 6 5 5 5 5 5 5 5 5 6 5 5 5 5 5 5 6 6 6 6 5 5 6 5 5 5 6 6 5 5 5 5 5 5 5 5 5 6 5 5 5 5 5 5 6 5 5 6 5 6 6 5 5 5 6 5 6 5 5 5 6 6 5 6 5 5 5 5 6 5 5 5 5 6 5 5 5 5 5 5 6 5 5 5 5 5 5 5 5 5 5 5 5 5 5 5 5 5 5 5 5 5 5 5 5 5 6 5 5 6 5 5 6 6 6 5 5 5 6 5 6 6 5 6 5 5 5 5 5 5 6 5 5 5 6 5 6 5 5 5 5 6 5 5 5 5 6 5 6 5 5 6 6 5 5 5 5 5 5 5 5 6 6 5 6 5 5 5 5 6 5 6 5 5 5 6 5 5 5 5 5 5 5 6 5 5 5 5 5 6 5 5 5 6 6 5 6 6 5 5 5 5 5 5 6 5 5 6 5 6 5 5 5 6 6 5 5 6 5 6 5 6 5 5 5 5 5 5 6 6 5 5 6 5 5 6 5 5 6 6 5 5 5 5 5 5 6 5 5 5 5 6 5 6 5 5 6 5 5 5 5 5 5 5 5 5 5 5 5 5 5 5 5 5 5 5 5 5 6 5 5 5 5 5 5 5 5 5 5 5 5 5 6 5 6 5 5 5 5 5 5 5 6 5 6 5 6 5 5 5 5 5 5 6 5 5 5 5 5 5 5 5 5 5 5 6 5 6 5 5 5 6 5 5 6 5 5 5 5 6 5 5 6 5 6 5 5 5 5 5 6 5 5 5 5 6 5 6 5 5 6 5 5 6 5 6 5 5 6 5 5 6 5 6 5 5 5 5 5 5 5 5 5 5 5 5 5 5 5 5 5 5 5 5 5 5 5 5 5 5 5 5 5 5 5 5 5 5 5 5 5 5 6 5 5 6 6 5 5 5 6 6 6 6 5 5 5 5 6 5 5 5 5 6 5 5 5 5 5 6 5 5 5 5 6 5 5 5 5 5 5 5 5 5 5 5 5 5 5 6 5 5 5 5 5 5 5 6 5 5 5 5 5 5 6 5 5 5 5 5 5 5 5 5 5 5 5 5 5 5 5 5 5 5 5 5 5 5 5 5 5 5 5 6 5 5 5 5 6 5 5 5 5 5 6 5 5 5 6 5 6 5 5 6 5 5 5 5 5 6 5 5 5 6 5 5 6 5 6 5 5 5 5 5 5 6 5 5 5 5 5 5 6 5 5 5 5 5 5 5 5 5 5 5 5 5 6 5 5 5 6 5 5 5 5 5 5 5 5 5 6 5 6 5 5 5 5 5 5 5 5 5 6 5 5 5 5 5 5 5 5 6 5 5 5 5 5 5 5 5 5 5 5 5 5 5 5 5 5 5 5 5 5 5 5 5 5 5 5 5 5 5 6 5 6 5 5 5 5 5 5 5 5 6 6 5 5 5 5 5 5 5 5 5 5 5 5 5 5 5 5 5 5 5 5 6 5 5 5 6 5 6 5 5 5 5 5 5 5 5 5 6 5 5 6 6 5 6 5 5 5 6 5 5 5 5 5 5 5 5 6 5 5 5 5 5 5 5 5 5 5 5 5 6 5 5 5 6 5 5 5 5 5 5 5 5 5 6 5 6 5 5 6 5 5 6 5 5 5 5 5 6 5 5 5 5 5 5 5 5 5 5 6 6 5 5 5 5 6 5 5 5 5 5 5 5 5 5 5 5 6 5 5 5 5 5 5 5 5 5 5 5 6 5 5 6 5 5 6 5 5 6 5 5 6 5 5 5 6 5 5 5 5 5 5 6 5 5 5 5 5 6 5 5 5 5 5 5 5 5 5 6 5 5 5 5 5 5 5 5 6 5 5 5 5 5 5 5 5 5 5 5 5 5 6 5 5 5 5 5 5 6 5 5 5 5 5 5 5 5 6 5 5 5 5 5 6 6 6 5 5 5 5 5 5 5 5 5 5 5 5 5 5 5 5 5 5 5 5 6 5 5 5 6 5 5 5 5 5 6 5 5 5 6 5 5 5 5 5 5 5 5 5 5 6 5 5 5 5 6 6 5 6 5 6 6 5 5 5 5 5 5 5 5 5 5 5 5 5 5 5 5 5 5 5 5 5 5 6 5 6 5 5 6 6 5 5 5 5 5 6 5 6 6 5 5 6 6 5 5 5 5 5 5 5 5 6 6 5 5 5 6 5 6 5 5 6 5 5 5 6 6 5 5 6 5 5 5 5 5 5 5 5 5 5 5 5 5 5 5 5 5 5 6 5 5 6 5 5 5 6 5 5 6 5 5 5 5 5 5 6 5 5 5 5 5 5 5 5 6 5 6 5 5 5 5 5 5 5 5 5 6 5 5 5 5 5 5 5 5 5 5 5 5 5 5 5 5 5 5 5 6 5 5 5 5 5 5 5 5 5 5 5 5 5 5 6 5 5 5 5 5 5 6 5 5 5 6 5 6 5 6 6 5 5 5 5 5 5 5 5 5 5 5 5 5 6 5 5 5 5 6 5 5 5 6 5 6 5 5 5 5 5 6 5 5 5 5 5 5 5 5 5 5 6 6 5 5 6 6 5 5 5 5 5 5 5 5 5 5 5 5 5 5 5 5 6 5 5 5 5 5 5 5 6 5 5 5 5 5 6 6 5 5 5 6 5 5 5 5 5 6 5 5 5 5 5 6 6 5 5 5 5 6 5 5 6 5 5 5 5 5 5 5 5 5 5 5 5 5 5 5 6 5 5 5 5 6 5 5 5 5 5 5 5 5 5 5 5 5 5 5 5 5 5 5 5 5 5 5 5 5 5 5 5 5 5 5 5 5 5 5 5 5 6 5 5 5 5 6 5 5 5 6 5 5 5 5 5 5 5 5 5 5 5 5 5 5 5 6 5 6 5 5 5 5 6 6 5 5 5 5 5 5 5 5 5 5 5 5 5 6 5 5 5 5 6 5 6 5 5 5 5 6 5 5 6 6 5 5 5 5 6 5 5 6 5 5 5 5 6 5 5 5 5 5 5 5 5 5 5 6 6 6 5 5 6 5 5 5 5 5 5 6 6 5 6 5 5 6 5 5 5 5 6 5 5 5 5 5 5 5 5 5 6 6 5 5 5 5 5 5 5 5 5 5 5 6 5 6 5 5 5 5 5 5 5 5 5 5 5 5 5 5 5 5 5 6 5 5 5 5 5 6 5 6 5 5 5 5 6 5 6 5 5 5 6 6 5 5 5 5 5 5 6 5 5 5 5 5 5 5 6 5 5 5 5 5 5 5 5 5 6 5 6 5 5 5 5 5 6 5 5 5 5 5 6 5 6 5 6 5 5 5 6 5 5 5 5 6 5 5 5 5 5 5 5 5 5 5 5 6 5 5 6 5 5 5 5 5 5 5 5 5 5 5 6 5 5 5 5 5 6 5 6 6 5 5 6 5 6 5 5 5 5 5 5 5 5 5 5 5 5 5 5 5 5 5 5 5 5 5 5 6 5 5 5 5 5 5 5 5 5 5 5 5 5 5 5 5 5 5 5 5 5 5 5 5 5 5 5 5 5 5 6 5 5 5 5 5 5 6 5 5 5 5 5 5 5 5 5 5 5 5 5 5 5 5 6 5 5 5 5 5 5 5 5 5 5 5 5 5 5 5 5 5 5 5 5 5 5 6 5 5 5 5 5 5 5 5 5 6 5 5 5 5 5 5 5 5 6 5 5 5 5 5 5 5 6 6 5 5 5 5 5 6 5 6 5 5 6 5 5 5 5 5 5 5 5 5 5 5 5 5 5 5 5 5 5 6 5 5 5 5 5 5 5 5 5 5 6 5 6 5 6 5 5 5 5 5 5 5 5 5 5 5 5 5 5 5 5 5 5 5 5 5 5 5 5 5 5 5 5 5 5 5 5 5 5 5 5 5 5 5 5 5 5 5 5 5 5 5 5 5 5 6 5 5 5 6 5 5 5 5 6 5 6 5 5 5 5 6 5 5 5 5 5 5 5 5 5 5 5 6 6 5 5 5 5 6 6 5 5 5 5 5 5 5 5 5 5 5 5 5 5 5 5 5 6 5 5 5 5 5 5 5 5 5 5 5 5 5 5 5 5 5 5 5 5 5 5 5 5 5 5 5 5 5 5 5 5 5 5 5 5 5 5 5 6 5 5 6 5 5 5 5 5 5 5 5 5 5 5 5 5 5 5 5 5 5 5 5 5 5 5 5 5 5 5 5 5 5 5 5 5 5 5 5 5 5 5 5 5 5 5 5 5 5 5 5 5 5 5 5 5 6 5 5 5 6 5 5 5 5 5 6 5 5 5 6 5 5 5 5 5 6 6 5 6 5 5 5 5 5 6 5 5 5 5 6 5 5 5 5 6 5 5 5 5 5 5 5 5 5 5 5 5 5 5 5 5 5 5 5 5 6 6 5 5 5 5 5 5 5 6 6 5 5 5 6 5 6 5 5 5 6 5 5 5 5 5 5 5 5 5 5 5 5 5 5 5 5 6 5 5 5 5 6 5 5 5 5 5 6 5 5 5 5 5 5 6 5 5 5 6 6 6 5 5 5 6 5 5 5 5 6 5 6 5 5 6 5 5 5 5 5 5 5 6 5 5 5 5 5 6 5 5 5 5 6 5 5 5 5 5 5 5 5 6 5 5 6 6 5 5 5 6 5 6 5 5 5 5 6 6 5 5 5 5 5 6 5 5 5 5 5 5 5 5 5 6 6 5 5 5 5 5 6 5 6 5 5 5 5 5 5 5 5 5 5 5 5 5 5 5 5 5 6 5 5 6 5 6 5 6 5 6 5 5 6 6 5 5 6 5 6 5 6 5 5 5 6 6 5 5 5 6 5 5 5 6 6 5 5 5 5 5 6 5 5 5 6 5 5 6 5 5 6 5 5 5 6 5 5 5 5 6 5 5 6 6 5 5 5 5 6 6 5 6 5 5 5 6 5 5 6 5 5 6 6 5 5 6 5 6 6 5 6 6 5 5 5 5 6 5 5 5 5 5 5 5 6 5 5 6 5 5 5 5 5 5 5 6 5 6 5 5 5 5 5 5 6 6 5 6 5 6 6 5 6 5 5 5 6 5 5 5 5 6 5 5 6 5 5 6 5 5 5 6 5 5 5 5 5 6 5 5 5 5 5 5 5 5 5 5 5 5 5 6 6 5 5 5 6 5 5 5 6 6 5 5 5 5 5 5 5 5 6 5 5 5 5 6 5 5 5 5 5 5 5 5 5 5 5 5 5 5 5 5 5 5 5 5 5 5 5 5 5 5 5 5 5 5 5 6 5 5 5 5 5 5 5 5 5 5 5 5 5 5 5 5 5 5 5 6 5 5 5 6 5 5 6 5 6 5 5 5 5 5 5 5 5 5 5 5 6 5 5 5 5 5 5 6 5 6 5 5 6 6 5 5 5 5 6 5 6 5 5 5 5 6 5 5 5 5 6 6 5 5 6 5 5 6 5 5 5 5 6 5 5 5 6 5 5 5 5 5 5 5 5 5 5 5 5 5 5 5 5 5 6 5 5 6 5 6 5 5 6 5 6 5 6 5 5 6 5 5 5 5 5 5 5 5 5 5 5 5 5 5 5 5 6 5 6 5 5 5 5 5 5 5 5 5 5 6 5 6 5 5 5 6 5 5 5 5 6 6 5 5 5 5 5 5 5 6 5 6 5 5 5 5 5 5 5 5 6 5 5 5 5 6 5 5 6 5 5 5 5 5 5 5 5 5 5 5 6 5 5 5 5 5 6 5 5 5 5 5 5 5 5 6 5 5 5 6 5 5 5 5 5 5 5 6 5 5 5 5 5 5 5 5 5 5 6 5 5 6 5 6 5 5 5 5 5 6 6 5 5 5 6 5 6 5 5 5 5 5 5 5 5 6 6 5 5 6 5 5 6 6 5 5 5 6 5 5 5 5 5 5 6 5 5 5 5 5 5 5 5 5 5 5 5 5 5 5 6 5 5 5 5 5 5 5 5 6 5 5 5 5 5 5 5 5 6 5 5 5 5 5 5 5 5 5 6 5 5 5 6 6 6 6 5 5 5 5 5 5 6 5 5 5 5 5 5 5 5 5 5 5 5 5 6 6 6 5 5 5 5 5 5 5 6 6 5 5 5 6 6 5 5 5 5 5 5 5 5 5 5 5 5 5 5 5 5 6 5 6 5 5 5 5 5 6 6 6 5 5 6 6 5 6 5 6 6 6 5 6 5 5 5 5 5 5 6 5 6 5 5 5 5 5 5 5 5 5 5 5 6 5 5 5 6 5 5 5 5 5 6 5 5 6 5 5 6 5 5 5 6 5 5 5 5 5 5 5 5 6 5 5 5 6 5 5 5 5 6 5 5 5 5 5 5 5 5 5 5 5 5 5 5 5 5 5 5 5 5 5 5 5 5 5 5 6 5 5 5 5 6 5 5 5 5 5 5 6 5 5 5 5 5 5 5 5 5 6 5 5 5 5 5 5 5 5 5 5 5 5 5 5 5 5 5 5 5 5 5 5 5 6 5 5 5 5 6 5 5 5 5 5 5 5 5 5 5 5 5 5 6 5 5 6 6 5 5 5 6 6 5 6 5 6 5 5 5 5 5 6 5 5 6 5 6 5 5 6 6 5 5 5 5 5 5 5 5 6 5 6 5 5 5 5 5 6 5 5 5 5 5 5 5 5 5 5 5 5 5 6 5 5 6 5 5 5 5 5 5 5 5 5 5 5 5 5 5 6 5 5 5 5 6 5 5 5 5 5 6 5 5 6 5 5 5 6 5 5 5 6 5 5 5 5 5 5 5 5 5 5 5 5 5 5 5 5 5 5 5 5 5 5 5 6 5 5 5 5 5 5 5 5 5 5 5 5 6 5 5 6 5 5 5 5 5 5 5 5 5 5 5 5 5 5 5 5 5 6 5 5 5 5 5 5 5 5 5 5 6 5 5 5 6 5 5 6 5 5 5 5 5 5 5 5 5 5 5 5 5 5 5 5 5 5 5 5 5 5 5 5 5 5 5 5 5 5 5 5 5 5 5 5 5 5 5 5 5 5 5 5 5 5 5 5 5 5 5 5 5 5 5 5 5 6 5 5 6 5 6 5 5 5 5 5 5 5 5 6 5 5 6 5 6 5 5 5 5 5 5 5 5 5 6 5 5 5 6 5 6 5 5 5 5 6 5 5 5 5 6 5 5 5 5 5 5 5 6 6 5 5 5 5 5 5 5 5 5 5 5 5 5 5 5 5 5 5 6 5 5 5 6 5 5 6 5 5 5 5 5 5 5 5 5 5 5 5 5 5 5 5 5 5 5 5 5 5 5 5 5 6 5 5 5 5 5 5 5 5 5 5 5 6 5 5 6 5 5 6 5 5 5 5 5 5 5 5 5 5 5 5 5 5 5 5 5 5 5 5 6 5 5 5 5 5 5 5 5 5 5 5 5 5 5 6 5 5 5 5 6 5 5 5 5 5 6 5 5 5 5 5 5 5 5 5 5 5 5 5 5 5 5 5 5 5 5 5 5 5 5 6 5 5 5 5 5 5 5 5 5 5 5 5 5 5 5 6 5 5 5 5 6 5 5 5 5 5 5 5 5 5 5 5 5 5 5 5 5 5 5 5 5 5 5 5 5 5 5 5 5 5 6 5 5 5 5 5 6 5 5 5 5 5 5 5 5 5 5 5 5 5 5 5 5 5 5 5 5 5 5 5 5 5 5 5 5 5 5 5 5 5 5 5 5 5 5 5 5 5 5 5 5 5 5 5 5 5 5 5 5 5 5 5 5 5 5 5 5 5 5 5 5 5 5 5 5 5 5 5 5 5 5 5 6 5 5 5 5 5 6 5 5 5 5 5 5 5 5 5 5 5 5 5 5 5 5 5 5 5 5 5 5 6 5 5 5 5 5 5 5 5 5 5 5 5 5 5 5 5 5 6 5 5 6 5 5 6 5 6 5 5 5 5 6 5 5 6 5 5 5 5 5 5 5 5 5 5 5 5 6 5 5 5 5 5 5 5 5 5 5 5 5 5 5 5 5 5 5 5 5 5 6 5 5 5 5 5 5 5 5 5 5 5 6 5 5 5 5 5 5 5 5 5 5 5 5 5 5 5 5 5 5 5 5 6 5 5 5 5 5 5 5 5 5 5 5 5 6 5 6 5 5 5 6 5 5 6 5 5 6 5 5 6 5 5 5 5 5 5 6 6 5 5 5 5 6 5 5 5 5 5 5 5 5 5 5 5 5 6 5 5 5 5 6 5 5 5 5 5 5 5 5 5 6 5 5 5 5 5 5 5 5 5 5 5 5 5 5 5 6 5 5 5 5 6 6 5 5 5 5 5 5 5 5 6 5 5 5 5 5 5 5 5 5 5 5 5 5 5 5 5 5 5 5 6 5 5 5 5 5 5 5 5 5 5 5 5 5 5 5 5 5 5 5 5 5 5 5 6 5 5 5 6 5 5 5 6 5 6 5 5 6 5 5 5 5 6 5 5 5 5 5 5 5 5 5 5 5 5 5 5 5 5 6 5 5 5 5 5 5 5 5 5 5 5 5 5 5 5 5 5 5 6 5 5 5 5 5 5 5 5 5 5 5 6 5 6 5 5 5 6 5 5 5 6 6 5 5 5 5 5 6 5 6 5 5 5 6 5 5 5 5 5 6 5 5 5 5 5 5 5 5 5 5 5 5 5 5 5 5 5 5 5 5 5 6 5 5 5 5 5 5 5 6 5 5 5 5 6 6 5 5 6 6 5 5 5 5 5 5 5 5 5 5 5 5 5 5 5 5 5 5 5 5 5 5 5 5 5 5 5 5 5 5 5 6 5 6 5 5 5 5 5 5 5 5 5 5 5 5 6 5 5 6 5 6 5 5 6 6 5 5 6 6 5 5 5 5 6 6 5 6 5 5 5 6 6 5 5 5 5 6 5 5 5 5 5 5 6 5 5 5 5 5 5 5 5 5 5 5 5 5 5 5 5 5 6 5 5 5 6 5 5 5 6 5 5 5 6 5 5 5 5 6 5 5 6 5 5 5 5 6 5 5 6 5 5 5 5 5 5 5 5 5 5 5 5 6 5 5 5 5 6 5 5 6 5 5 5 6 5 5 5 6 5 5 5 5 6 5 6 5 5 5 5 5 5 5 5 5 6 5 5 5 5 5 5 5 5 5 5 5 6 5 5 6 5 5 6 5 5 5 5 5 5 5 5 5 5 5 6 5 5 5 5 5 5 6 5 5 6 5 5 5 5 5 5 5 5 5 5 5 5 6 5 5 5 5 5 5 5 6 5 5 5 6 5 5 5 5 5 5 5 5 5 6 5 5 5 5 5 5 5 5 5 5 5 6 5 5 5 6 5 5 5 5 6 5 6 6 6 5 5 5 5 5 5 6 5 5 5 5 6 6 5 5 5 5 5 5 5 6 5 5 5 5 5 5 5 5 5 5 6 5 5 5 5 5 5 5 5 5 5 5 5 6 5 5 5 5 5 5 6 5 6 5 5 5 5 5 5 5 5 5 5 6 5 5 5 5 5 5 5 5 6 5 5 5 5 5 5 5 5 6 5 5 6 5 5 5 5 5 6 5 5 5 6 5 5 5 5 5 5 5 5 5 5 5 5 5 5 5 6 5 5 5 6 6 5 6 5 5 5 5 5 5 6 5 5 5 5 5 5 5 5 5 5 5 5 5 5 5 5 5 5 5 5 5 5 5 5 5 5 5 5 5 5 5 5 5 5 5 5 5 6 6 5 5 5 5 5 6 5 6 5 6 5 5 6 5 6 5 5 6 5 5 6 5 6 5 5 5 5 5 5 6 5 5 5 5 5 5 5 5 5 5 5 5 5 5 5 5 5 5 5 5 5 5 5 5 5 5 5 5 5 5 5 5 5 5 5 5 5 5 5 5 5 5 5 5 5 5 5 5 5 5 5 5 5 5 5 5 5 5 5 5 5 5 5 5 5 5 5 5 5 5 5 5 5 5 5 5 5 5 5 5 6 5 5 5 5 5 6 5 5 5 6 5 5 5 5 6 5 6 5 6 5 5 5 6 5 5 5 5 5 5 5 5 5 5 5 5 5 5 5 5 5 5 5 5 5 5 5 5 6 5 5 5 5 6 5 6 5 5 6 5 5 5 5 5 5 5 6 5 5 6 6 5 5 5 5 5 5 5 5 6 5 6 6 6 5 5 5 5 5 6 5 5 5 5 5 5 5 5 5 5 5 5 5 5 6 5 5 5 5 5 5 6 6 5 5 6 6 5 5 5 5 6 5 5 5 5 5 5 5 6 5 5 5 6 5 5 5 5 5 5 5 5 5 5 5 6 5 5 5 5 5 5 5 5 5 5 5 5 5 5 5 5 5 5 5 5 6 5 5 5 5 5 5 5 5 5 5 5 5 5 5 5 5 5 5 5 5 5 5 5 5 5 5 6 5 5 5 5 5 5 5 5 5 5 5 5 5 5 5 5 5 5 5 5 5 5 5 5 5 5 5 5 6 5 5 5 6 5 5 5 5 5 5 5 5 5 5 5 5 5 5 6 5 5 6 5 5 5 5 5 5 5 5 5 5 5 6 5 5 6 5 5 5 5 5 5 5 5 5 5 5 5 5 5 5 5 5 5 5 5 5 5 5 6 5 5 6 5 5 6 5 6 5 5 6 6 5 5 5 5 5 5 6 6 5 5 5 5 5 6 6 5 5 5 5 5 5 5 5 5 5 5 5 5 5 5 6 5 5 6 5 5 5 5 5 6 5 5 5 5 5 5 5 5 5 5 5 5 5 6 6 5 5 5 5 5 5 6 5 5 5 5 5 5 5 5 6 5 5 5 5 5 5 5 5 6 5 6 5 5 5 5 5 6 6 5 5 5 6 5 6 5 6 5 5 5 5 5 5 6 6 5 5 5 5 5 6 5 5 5 6 5 5 6 5 5 5 5 6 6 5 5 5 5 5 5 5 5 5 5 6 6 5 5 6 5 6 5 6 5 5 5 5 5 5 5 5 5 5 6 5 5 5 5 6 5 5 5 5 5 6 5 5 5 5 5 5 5 5 5 5 5 6 5 5 5 5 5 6 6 5 5 5 5 5 5 5 5 5 5 5 5 5 6 5 5 5 5 5 5 5 5 5 6 5 5 5 5 5 5 5 5 6 5 5 5 5 5 5 5 6 5 5 6 5 5 5 5 6 5 5 5 5 5 5 5 5 6 5 5 5 5 5 6 5 5 6 6 5 5 5 5 5 5 5 5 6 5 5 5 5 5 5 5 5 5 5 5 5 6 5 5 5 5 6 5 5 5 5 5 5 5 5 5 5 5 5 5 5 5 5 5 5 6 5 5 5 5 5 5 5 5 5 5 5 5 5 5 6 5 5 5 5 5 5 5 5 5 5 5 5 5 6 5 5 5 5 5 5 6 5 5 5 5 5 5 5 6 5 5 5 5 5 6 5 5 5 5 5 5 5 5 5 5 5 5 5 5 5 5 5 5 5 5 5 6 5 5 5 5 5 5 5 6 5 5 5 5 5 5 5 6 6 5 5 5 5 5 5 5 5 5 6 5 5 5 5 5 5 5 6 5 5 5 6 5 5 5 5 5 5 6 5 5 5 5 5 5 6 5 5 5 5 5 5 6 5 6 5 6 5 5 6 5 5 6 6 5 6 5 6 5 5 5 5 5 5 5 5 5 5 5 5 5 5 5 5 5 5 5 5 5 5 5 5 5 5 5 6 5 5 5 6 5 5 5 5 5 5 5 5 5 6 5 5 5 5 5 5 5 5 6 6 5 6 5 5 5 5 5 5 5 5 5 5 5 5 5 5 5 5 5 5 5 5 5 5 5 5 5 5 5 5 5 5 5 5 5 5 5 6 5 6 5 5 5 5 5 5 5 5 5 5 5 5 5 5 5 5 5 5 5 5 5 5 5 5 5 5 5 5 5 5 5 5 5 5 5 5 5 5 5 5 5 5 5 5 5 5 5 5 5 6 5 5 5 5 6 5 6 5 5 5 5 5 5 5 5 5 5 6 5 5 5 5 5 5 5 5 5 5 5 5 5 5 6 5 5 5 6 5 5 5 5 5 5 5 5 5 5 5 5 5 5 5 5 5 5 5 5 5 5 5 5 6 5 5 5 5 5 5 6 5 5 5 5 5 5 5 5 5 5 5 5 5 5 6 5 6 5 6 5 5 5 5 5 6 5 5 5 5 5 5 6 5 5 5 5 5 5 5 5 5 5 5 6 5 6 5 6 5 5 5 5 5 6 5 5 5 5 5 5 5 5 5 5 5 5 5 5 5 5 5 5 5 6 5 5 5 5 5 5 5 6 5 5 5 5 5 5 5 5 5 5 5 5 5 5 5 5 5 5 5 6 5 5 5 5 5 6 6 5 5 5 6 5 5 5 6 5 5 5 5 5 5 5 6 5 5 5 6 5 6 5 5 5 5 5 5 5 6 5 5 5 5 5 5 5 5 5 5 5 5 6 5 5 5 5 5 5 5 5 5 5 5 5 5 5 5 5 6 5 5 5 5 5 5 5 5 5 5 5 5 5 5 5 5 5 5 5 5 5 5 5 5 5 5 5 5 5 5 5 5 6 5 5 5 5 5 5 5 5 5 5 5 5 5 5 5 5 5 5 5 5 5 5 5 6 5 5 5 5 5 6 5 5 5 5 5 6 5 5 5 5 5 5 5 5 6 5 5 5 5 5 5 5 5 5 6 5 5 6 5 5 5 5 5 5 5 5 5 5 5 5 5 5 6 5 5 5 5 6 5 5 5 6 5 5 5 5 5 5 5 5 5 5 5 5 5 5 6 5 5 5 5 6 5 6 5 5 5 6 5 5 5 6 6 6 5 5 5 5 6 5 6 5 6 6 5 5 5 5 5 6 5 5 5 5 5 5 6 5 6 5 6 5 5 5 5 6 6 5 5 5 5 5 5 5 5 5 5 5 5 6 5 5 5 5 5 5 5 5 6 5 5 5 6 5 6 5 5 5 5 6 6 6 5 5 6 5 5 6 5 5 5 6 5 5 5 5 5 6 5 5 5 5 5 5 5 6 5 5 6 6 5 5 5 6 6 5 5 5 5 5 5 6 5 5 5 5 5 6 5 5 5 5 5 5 5 5 5 5 5 5 5 5 5 5 5 5 5 5 5 5 6 5 6 5 5 6 5 5 5 5 6 5 5 5 5 5 5 5 5 5 5 6 5 6 5 6 5 6 5 5 6 5 5 5 5 5 5 5 5 5 6 5 5 5 5 5 5 5 5 5 5 5 5 5 5 5 5 5 5 5 5 5 5 5 5 5 5 5 5 5 5 5 5 5 5 5 5 6 5 5 5 5 6 5 5 5 5 5 5 5 5 5 5 5 5 5 6 5 5 5 5 5 5 5 5 5 5 6 5 5 5 5 5 6 5 5 5 5 5 5 5 5 5 5 5 6 5 5 5 5 5 5 6 5 5 5 6 5 6 6 5 5 5 5 5 5 5 5 6 5 5 5 6 5 5 5 6 5 5 5 5 5 5 5 5 5 6 6 5 5 5 5 5 5 5 5 5 5 5 5 5 5 5 5 5 5 5 5 6 6 5 5 5 5 5 5 5 5 5 5 5 5 5 5 5 6 5 5 5 5 6 5 5 5 5 5 5 5 5 5 5 5 5 5 5 5 5 5 5 5 5 5 5 5 6 5 5 5 5 5 6 5 5 5 5 6 6 5 5 5 5 6 5 6 5 6 6 5 5 5 5 6 5 6 5 5 6 5 6 5 6 5 5 5 5 5 5 5 5 5 5 5 5 5 5 5 5 5 6 5 5 5 5 6 6 5 5 5 5 5 5 5 6 5 5 6 5 6 5 5 5 5 5 5 6 5 5 5 5 5 5 5 5 5 5 5 5 6 5 5 6 5 5 5 5 5 5 5 5 5 5 5 5 5 5 5 5 5 5 5 6 5 5 5 5 6 6 5 5 5 5 5 5 5 5 5 6 5 5 6 5 6 5 5 5 5 6 5 5 5 5 5 5 5 5 5 5 5 5 5 5 6 5 5 5 6 5 5 5 5 5 5 5 5 5 5 5 5 6 5 6 5 5 5 5 6 5 5 5 6 5 5 5 5 5 5 5 5 5 5 5 6 6 5 5 5 5 5 5 5 5 5 6 5 5 5 5 5 5 5 5 6 5 5 5 5 6 5 5 5 5 6 5 6 5 5 5 5 5 5 5 5 5 5 5 5 5 5 5 5 5 6 5 5 5 5 5 5 5 6 5 5 5 5 5 5 5 5 5 5 5 5 5 6 6 5 5 5 5 6 5 5 5 5 5 6 5 5 5 5 5 5 6 5 5 6 5 6 5 5 6 5 5 5 5 5 5 5 6 5 5 5 5 5 5 5 5 6 6 6 5 5 5 5 5 5 5 5 5 6 5 5 5 5 5 5 5 6 5 5 5 6 5 5 6 5 5 5 5 6 5 5 5 5 5 5 5 5 6 5 6 5 5 5 5 5 5 6 5 5 6 5 5 5 5 5 5 5 5 5 6 5 5 5 5 5 5 6 5 5 5 5 6 5 5 5 5 5 5 5 5 5 5 5 5 5 5 5 5 5 5 5 5 5 5 5 5 5 5 5 5 5 5 5 5 5 5 5 5 5 5 5 5 5 5 5 5 5 5 5 5 5 5 5 5 6 5 5 6 5 6 6 5 5 6 5 6 5 5 5 5 6 5 5 6 5 5 5 5 5 5 6 6 5 5 5 5 5 5 6 5 6 5 6 6 5 6 5 6 6 5 5 5 5 5 5 5 5 5 6 5 6 5 5 5 5 5 5 5 6 6 5 5 5 5 6 5 6 5 5 6 5 6 5 5 5 6 5 6 6 5 5 5 6 5 6 6 5 5 5 6 5 5 6 5 5 5 5 5 5 5 6 5 5 5 5 5 5 5 5 5 5 5 5 5 5 5 5 5 5 5 5 5 5 5 5 5 5 5 5 5 5 5 6 5 5 5 6 5 5 5 6 6 5 5 5 5 6 5 5 5 5 5 5 5 5 5 5 5 5 5 5 5 5 5 5 5 6 5 6 5 5 5 5 6 5 5 6 5 5 5 5 5 5 5 6 5 5 5 5 6 5 5 5 6 5 6 6 5 5 6 5 5 5 5 5 5 6 5 5 5 5 5 6 5 5 5 6 5 6 5 5 5 5 5 6 5 6 6 5 6 5 5 6 5 5 6 5 5 5 6 5 6 5 5 5 6 5 5 5 5 5 5 5 5 5 6 5 5 5 5 5 5 5 5 5 6 5 5 5 5 6 5 5 5 6 5 5 5 5 5 5 5 5 6 5 5 6 5 5 5 5 5 5 6 6 5 5 6 5 5 5 5 5 5 5 5 5 6 5 5 5 5 5 6 5 6 5 5 5 5 5 5 5 5 5 5 6 5 6 5 5 5 
</DataArray>
<DataArray type="Float64" Name="stress" NumberOfComponents="9" format="ascii">
1001.4415863596878 -2965.1396953649655 0 -2965.1396953649655 997.03508155492455 0 0 0 0 -0.69845016689941986 -2134.7796994668624 0 -2134.7796994668624 2364.4965978839755 0 0 0 0 2345.3444556724135 -1723.1157257715313 0 -1723.1157257715313 0.14261744045143132 0 0 0 0 1329.878252518989 -1652.1368271705578 0 -1652.1368271705578 1634.3333259725187 0 0 0 0 696.02582482665821 -1851.9285744651279 0 -1851.9285744651279 3905.8735652692267 0 0 0 0 1031.8183739460565 -2549.6142992475898 0 -2549.6142992475898 1856.5177063720475 0 0 0 0 -85.606820662214886 114.8957505231665 0 114.8957505231665 292.03317288345715 0 0 0 0 -11.688891664861558 -0.21656264166082906 0 -0.21656264166082906 34.41394106592395 0 0 0 0 158.30758239224087 -97.415411040310573 0 -97.415411040310573 -1841.1991561335017 0 0 0 0 90.22749569741427 -163.81881725654239 0 -163.81881725654239 -27.363940852090309 0 0 0 0 26.601235239791151 -43.837413134593959 0 -43.837413134593959 9.0365410078539554 0 0 0 0 204.51685347041348 -255.17442497535376 0 -255.17442497535376 -1643.1635692241689 0 0 0 0 4.0604813055979321 375.38029238121817 0 375.38029238121817 -3450.8774046822364 0 0 0 0 -0.79021489155570634 -12.716196987461473 0 -12.716196987461473 9.4089608961163265 0 0 0 0 715.07829171681078 -3505.0655178202578 0 -3505.0655178202578 3231.402004366566 0 0 0 0 -1176.7739494130656 -841.28291929471015 0 -841.28291929471015 -503.33792658877792 0 0 0 0 4.0573632567339359 -7.4885795903637415 0 -7.4885795903637415 11.297752883442229 0 0 0 0 -93.614410971407779 205.19755568349501 0 205.19755568349501 165.05485409123958 0 0 0 0 0.84036935014796654 -7.2566535132297361 0 -7.2566535132297361 5.6552872053433703 0 0 0 0 0.46230743391402029 -6.2422733374603894 0 -6.2422733374603894 -6.4146180551430518 0 0 0 0 157.18787848582724 -930.65418270903319 0 -930.65418270903319 -1076.9282802058733 0 0 0 0 15.895219557084715 -47.229670475882074 0 -47.229670475882074 19.610914978918608 0 0 0 0 113.4258500863798 -1007.3517124646169 0 -1007.3517124646169 -870.77514538819378 0 0 0 0 48.485371591581497 9.092235253090621 0 9.092235253090621 -92.617790324969974 0 0 0 0 714.83451322768815 -959.22070990386419 0 -959.22070990386419 237.46939548741648 0 0 0 0 141.70594885572791 -911.41397821885766 0 -911.41397821885766 -801.69321520421363 0 0 0 0 114.87397670666542 -992.70957583949712 0 -992.70957583949712 -784.52806312794564 0 0 0 0 -561.07775146199856 197.85046109350515 0 197.85046109350515 -1345.0203525002144 0 0 0 0 248.55895333387889 -583.92942163374391 0 -583.92942163374391 -1177.4376523131832 0 0 0 0 -1348.2216198709211 -697.51527330614044 0 -697.51527330614044 678.69774120900547 0 0 0 0 171.8406505795283 -272.00506388605572 0 -272.00506388605572 49.664997926156502 0 0 0 0 152.43698337981186 -7.5638457933091559 0 -7.5638457933091559 61.424819610780105 0 0 0 0 11.617291623988422 40.509503292880254 0 40.509503292880254 344.07309889959288 0 0 0 0 -118.60907472814142 -181.31557861036708 0 -181.31557861036708 125.30683198920451 0 0 0 0 -90.861030931060668 -196.1985161472694 0 -196.1985161472694 48.019408414559166 0 0 0 0 2225.8599651889235 -1896.7655955586379 0 -1896.7655955586379 1639.8745717661295 0 0 0 0 -7.7790634919876709 -1.0134895619774795 0 -1.0134895619774795 12.69694184302088 0 0 0 0 -37.601155547468807 -14.937510854586435 0 -14.937510854586435 -54.870744729865692 0 0 0 0 -0.67889136754709511 -2.0946739044762239 0 -2.0946739044762239 2.300916068441353 0 0 0 0 -785.07463932270184 -55.863141282061406 0 -55.863141282061406 147.70477706140082 0 0 0 0 -277.08859844997642 -290.7601593484942 0 -290.7601593484942 0.035300819108670112 0 0 0 0 -75.661808403696341 -190.07274281921127 0 -190.07274281921127 35.688298229448264 0 0 0 0 -448.31462394496702 -213.51895249916561 0 -213.51895249916561 237.25900546829507 0 0 0 0 -353.61271131181275 -113.28289999280969 0 -113.28289999280969 126.26797863416687 0 0 0 0 129.17881252922962 -193.57252281918772 0 -193.57252281918772 0.013686805541510694 0 0 0 0 -75.29566757613793 -184.51937242584245 0 -184.51937242584245 113.06548759559519 0 0 0 0 85.140136417205213 -107.22335748651676 0 -107.22335748651676 139.52318214414845 0 0 0 0 191.04124730238982 -239.3510474696559 0 -239.3510474696559 111.96901481470559 0 0 0 0 -7.8146951833048774 -10.480565312654306 0 -10.480565312654306 -9.7760685130399736 0 0 0 0 323.61201725659475 -705.11563659109015 0 -705.11563659109015 112.48378141902504 0 0 0 0 78.016718758430216 -303.08674893745774 0 -303.08674893745774 221.46602609009278 0 0 0 0 -14.550041133905125 -9.9282725209722003 0 -9.9282725209722003 1.0214266225118322 0 0 0 0 418.69548566672165 -338.25405261863853 0 -338.25405261863853 -1050.6355755965269 0 0 0 0 -293.99358097576624 -476.93460675828101 0 -476.93460675828101 95.208613781397162 0 0 0 0 126.05062335913408 -270.17064638680404 0 -270.17064638680404 -162.57863186154282 0 0 0 0 -445.78820425497543 -277.45082797861687 0 -277.45082797861687 116.57993350358447 0 0 0 0 -437.09014956779356 -223.39072292310993 0 -223.39072292310993 248.5912751321448 0 0 0 0 -418.32242739807407 -222.75352537585422 0 -222.75352537585422 230.13389559061034 0 0 0 0 -92.153889251523651 32.762769184831996 0 32.762769184831996 198.49430845153984 0 0 0 0 -813.25910276712966 -441.86650167853077 0 -441.86650167853077 146.87808596198738 0 0 0 0 -1.5575836248859787 -4.7993372222715607 0 -4.7993372222715607 -6.5534542273316845 0 0 0 0 -671.40501839536591 -66.663802493603725 0 -66.663802493603725 248.1017270679622 0 0 0 0 921.85412925068522 106.06935231987154 0 106.06935231987154 -813.66715400459361 0 0 0 0 -279.03970953417593 -595.71622883246891 0 -595.71622883246891 -421.50050437015307 0 0 0 0 -21.684355128502034 -14.697688456394701 0 -14.697688456394701 9.0536659366225933 0 0 0 0 -1549.8385234412272 -289.14698520442471 0 -289.14698520442471 -460.03419120628678 0 0 0 0 21.354592130097444 44.774311628785654 0 44.774311628785654 91.288606875546975 0 0 0 0 59.661668173619546 -77.430324427739833 0 -77.430324427739833 153.00782947969856 0 0 0 0 18.390962150676074 -39.411516423557913 0 -39.411516423557913 27.934439625052505 0 0 0 0 -112.36078613171412 -87.139006049197633 0 -87.139006049197633 130.59821958193061 0 0 0 0 -493.68298356793821 -377.05364775883208 0 -377.05364775883208 -82.687643387163007 0 0 0 0 9.7782866235109509 -13.74851591583851 0 -13.74851591583851 9.4067864225600601 0 0 0 0 -638.3720459388569 -619.47896623445558 0 -619.47896623445558 -92.392783290222724 0 0 0 0 38.285361709513381 10.999863600112803 0 10.999863600112803 108.91519883097499 0 0 0 0 12.288328438508358 -26.608969673555137 0 -26.608969673555137 29.695456203313427 0 0 0 0 22.531987133872462 -258.85813810297986 0 -258.85813810297986 -118.58913177482646 0 0 0 0 185.53867140030343 -42.725615418348752 0 -42.725615418348752 -154.0522200796695 0 0 0 0 -77.769998229221528 244.56298695511578 0 244.56298695511578 104.24896170019929 0 0 0 0 -1062.9160563474725 -329.30648807611578 0 -329.30648807611578 -20.878097201168202 0 0 0 0 18.785807133768003 -20.056737914085815 0 -20.056737914085815 26.886698260455688 0 0 0 0 -210.15354086887965 -989.74091702650185 0 -989.74091702650185 -1439.6134185651536 0 0 0 0 -312.059036949242 -411.43318797744723 0 -411.43318797744723 -752.03746115299873 0 0 0 0 -428.86048310888873 -514.08033751257244 0 -514.08033751257244 -277.51593906598282 0 0 0 0 -500.27991517831106 -725.83306534177973 0 -725.83306534177973 -521.21781171148177 0 0 0 0 -625.48477729450678 -747.51586781065635 0 -747.51586781065635 -229.07579366571736 0 0 0 0 147.16871557497507 -108.56517178507784 0 -108.56517178507784 3.4573048228921834 0 0 0 0 -52.04047034913674 -245.77295379392308 0 -245.77295379392308 249.39377581552253 0 0 0 0 -166.49633655781508 -36.039746037378791 0 -36.039746037378791 452.39072743927682 0 0 0 0 -140.01064721349394 -36.423551327170571 0 -36.423551327170571 31.492461994363111 0 0 0 0 67.480585580466141 64.036862489294435 0 64.036862489294435 135.55853200407 0 0 0 0 -165.81114861927927 -184.17358368763234 0 -184.17358368763234 113.43127273160098 0 0 0 0 -9.6263036660463683 -4.740401739198731 0 -4.740401739198731 21.947688576813306 0 0 0 0 -5.6277239574992564 -264.3978951448953 0 -264.3978951448953 -309.02377235183667 0 0 0 0 -44.001578482726472 -262.12083179665206 0 -262.12083179665206 -120.09235789985541 0 0 0 0 43.753494162016722 -46.070233832648853 0 -46.070233832648853 40.288637082234345 0 0 0 0 -51.936791571672074 -252.06321873335401 0 -252.06321873335401 -131.30409943396808 0 0 0 0 -35.982697003939393 -119.78914147404612 0 -119.78914147404612 30.994752336424426 0 0 0 0 82.958782393569891 -92.695555088446326 0 -92.695555088446326 -187.39814946406113 0 0 0 0 129.78343318223142 -285.59584278486273 0 -285.59584278486273 -766.46465197658108 0 0 0 0 1.5278408060767106 -196.60199015125545 0 -196.60199015125545 -282.1401189286189 0 0 0 0 50.629070808790857 -186.64571395745588 0 -186.64571395745588 -290.1607890893938 0 0 0 0 -9.406772584379496 -0.39190361724554634 0 -0.39190361724554634 -0.67195959330965138 0 0 0 0 -338.72522513310832 173.26212383297388 0 173.26212383297388 181.85135947079834 0 0 0 0 -33.419604575683479 14.172040157493029 0 14.172040157493029 -10.322024416207569 0 0 0 0 -646.75874937475601 -503.32589409685897 0 -503.32589409685897 -112.84825180565531 0 0 0 0 -779.6703988398076 -84.909222256412249 0 -84.909222256412249 166.54433153744321 0 0 0 0 -213.55254972699913 -299.71335703622753 0 -299.71335703622753 -69.710665108617832 0 0 0 0 -301.7709928232216 -56.92379757812887 0 -56.92379757812887 45.133411979506491 0 0 0 0 -307.09284254955037 23.024323831600213 0 23.024323831600213 39.991559528367361 0 0 0 0 -141.31911421944096 -55.043653901004291 0 -55.043653901004291 44.762829833038268 0 0 0 0 19.258845400417798 -46.51119069449031 0 -46.51119069449031 41.244077896719659 0 0 0 0 -127.08971284954168 -25.910153178250766 0 -25.910153178250766 9.0660690926670213 0 0 0 0 -19.962025881854061 -99.620716263369104 0 -99.620716263369104 13.090461009269347 0 0 0 0 -66.132475568709197 -72.883521495157765 0 -72.883521495157765 106.71772661284194 0 0 0 0 -38.422610458932468 -89.044174818176543 0 -89.044174818176543 26.307813166131382 0 0 0 0 31.091194863256533 -40.454150811739964 0 -40.454150811739964 18.72698826877604 0 0 0 0 14.030073297231866 -62.851122120646323 0 -62.851122120646323 -10.619581847378868 0 0 0 0 21.599813818354107 -43.153265348592129 0 -43.153265348592129 27.132370249470796 0 0 0 0 11.524064324708888 -62.391102995869005 0 -62.391102995869005 33.39427299165618 0 0 0 0 12.224859109832323 -52.10102936459225 0 -52.10102936459225 50.338742725427437 0 0 0 0 13.229027081222739 -54.807438440075202 0 -54.807438440075202 16.568548004743207 0 0 0 0 -0.0085304468666436151 -71.680349152324197 0 -71.680349152324197 19.609634121557974 0 0 0 0 -4.6295633825939149 -59.98500745491765 0 -59.98500745491765 55.972591963029117 0 0 0 0 1.239852017883095 -36.585991558458772 0 -36.585991558458772 -0.38885157400000026 0 0 0 0 -5.5118242464377545 -51.70624209269954 0 -51.70624209269954 21.853432157360658 0 0 0 0 -237.32947193366999 -679.89685938141338 0 -679.89685938141338 723.36623489425983 0 0 0 0 3.5624468381865881 -884.79607860696706 0 -884.79607860696706 -1120.8491574021755 0 0 0 0 62.057202717056498 -696.61615764712042 0 -696.61615764712042 209.81431187629641 0 0 0 0 7.4612012643684693 -1.5314116334984504 0 -1.5314116334984504 2.5687109961587566 0 0 0 0 0.022133487669634633 -72.27355853694462 0 -72.27355853694462 -69.166819900296105 0 0 0 0 -531.44192154942721 266.40961051495105 0 266.40961051495105 2390.7136978943709 0 0 0 0 -677.06584354497318 -1164.8415463265919 0 -1164.8415463265919 820.13798922405113 0 0 0 0 -105.27381214252091 -479.65719457832165 0 -479.65719457832165 93.746580849081511 0 0 0 0 -54.117584412604629 -1377.8394276187901 0 -1377.8394276187901 -650.55219784087967 0 0 0 0 117.33240427736018 -1205.5367629144675 0 -1205.5367629144675 -2184.9995271945663 0 0 0 0 134.41903534231824 -311.72200928210805 0 -311.72200928210805 -1677.4625454282359 0 0 0 0 -263.92105371525395 -712.47062968376849 0 -712.47062968376849 -672.0728011772735 0 0 0 0 185.77361337718321 -635.36050596096902 0 -635.36050596096902 -659.91945787993609 0 0 0 0 227.69983045954723 -267.45299784529197 0 -267.45299784529197 190.50685760343185 0 0 0 0 -171.25716341076622 -893.03631770815809 0 -893.03631770815809 -203.8930874003272 0 0 0 0 320.80224975507008 -792.36608027279726 0 -792.36608027279726 -354.51042469033564 0 0 0 0 31.72048997861566 -687.72157253851765 0 -687.72157253851765 -391.70788041657943 0 0 0 0 120.04073700853041 -934.21451112155592 0 -934.21451112155592 -679.08612213173183 0 0 0 0 137.99711929290788 -930.82400601863628 0 -930.82400601863628 -894.66485423746053 0 0 0 0 156.67551601250307 -839.66033072325808 0 -839.66033072325808 -792.25791298948752 0 0 0 0 162.86594823410269 -881.55652843756252 0 -881.55652843756252 -943.958000887651 0 0 0 0 103.98464813790633 -727.6259010493086 0 -727.6259010493086 -1180.1128538240737 0 0 0 0 -44.681547484826297 -610.21351302665425 0 -610.21351302665425 -703.75340746169968 0 0 0 0 -87.852530552947428 -477.4360969682748 0 -477.4360969682748 -1091.9448559528828 0 0 0 0 -475.45061747821455 -334.10069832721274 0 -334.10069832721274 -513.71194581579766 0 0 0 0 -331.98650870038546 -572.66599278735521 0 -572.66599278735521 -370.28812259005645 0 0 0 0 -325.19620670398581 -520.49379576162028 0 -520.49379576162028 -254.32258695123892 0 0 0 0 28.606118142139167 -776.89849478297401 0 -776.89849478297401 -586.36819612489489 0 0 0 0 -257.66621297303209 -367.61978192082097 0 -367.61978192082097 -322.1114185602928 0 0 0 0 -133.05002925696317 -784.06705881687958 0 -784.06705881687958 62.547389260565978 0 0 0 0 -30.137236313401615 -6.805952901609956 0 -6.805952901609956 7.282754254007159 0 0 0 0 -420.80949529746431 -528.94049941170852 0 -528.94049941170852 -291.7293645348982 0 0 0 0 -296.09899606822728 -327.38359402458809 0 -327.38359402458809 -356.36717898183269 0 0 0 0 23.456881584855807 -15.194996546157995 0 -15.194996546157995 4.9225644712808219 0 0 0 0 1.3546586542628347 -4.3199504993997238 0 -4.3199504993997238 -0.30545685736359474 0 0 0 0 95.040142563520931 -294.6208867514797 0 -294.6208867514797 921.6462313168231 0 0 0 0 -204.60990748388576 -121.59129675327131 0 -121.59129675327131 98.683792354771867 0 0 0 0 211.13492637348827 -764.47140942906117 0 -764.47140942906117 -455.62908550426801 0 0 0 0 161.1092399048739 -627.64807273468614 0 -627.64807273468614 -615.21426598841208 0 0 0 0 9.9850529952018405 -720.03476824561949 0 -720.03476824561949 -343.83208882125473 0 0 0 0 27.797360841890622 -645.87696586562379 0 -645.87696586562379 -528.37983099669509 0 0 0 0 -17.375437076629169 -821.72795731340011 0 -821.72795731340011 -331.52476993964956 0 0 0 0 -68.914828780023527 -746.32318734013097 0 -746.32318734013097 -350.98500822251663 0 0 0 0 388.14289020258002 -818.61034570250195 0 -818.61034570250195 -529.32516803995532 0 0 0 0 210.90503638733207 -773.48888190791331 0 -773.48888190791331 -342.21925805257342 0 0 0 0 461.4090669027355 -987.65849689109746 0 -987.65849689109746 -160.58977630069421 0 0 0 0 246.81386077210436 -819.99080736401902 0 -819.99080736401902 42.266234691283898 0 0 0 0 -86.737023734942341 -1013.9124231220703 0 -1013.9124231220703 -0.075958292967698071 0 0 0 0 184.83396486783295 -975.07513175522308 0 -975.07513175522308 -216.28152442953433 0 0 0 0 251.02807839265824 -846.36907440370942 0 -846.36907440370942 -174.34884053266433 0 0 0 0 -408.84428153649787 -813.75399066072714 0 -813.75399066072714 -86.372914173836762 0 0 0 0 -175.71875838425694 -852.5503910525822 0 -852.5503910525822 -106.60190022147435 0 0 0 0 -439.39001156867016 -949.57805972174538 0 -949.57805972174538 -0.0054031986728659831 0 0 0 0 -416.16793758094536 -825.04965913325759 0 -825.04965913325759 -5.7773995351162739 0 0 0 0 -135.56389763580955 -829.85237603323185 0 -829.85237603323185 -130.88523001975773 0 0 0 0 -362.93059939542218 -656.1537838206059 0 -656.1537838206059 -243.98011520184809 0 0 0 0 -581.12122697499399 -439.49464293104484 0 -439.49464293104484 -175.78108519523812 0 0 0 0 -552.96737068618131 -336.95905637328269 0 -336.95905637328269 115.2236599468888 0 0 0 0 -370.63662125562405 -648.72804654683569 0 -648.72804654683569 -22.04548756105055 0 0 0 0 -742.16821787256049 -651.21242662539589 0 -651.21242662539589 -21.992195935439895 0 0 0 0 -733.08149406855227 -786.54068692353758 0 -786.54068692353758 7.7312345861664653 0 0 0 0 -874.01429914864275 -951.71313304779505 0 -951.71313304779505 -0.051194656509323977 0 0 0 0 -1606.2393209557267 -773.80822009289841 0 -773.80822009289841 276.09127847437048 0 0 0 0 -715.34348096721442 -551.48735177488197 0 -551.48735177488197 316.06087281016516 0 0 0 0 -385.58166864034865 130.90173860802315 0 130.90173860802315 280.02128821238512 0 0 0 0 -1641.9642640191503 14.841942788985307 0 14.841942788985307 441.43568047809822 0 0 0 0 -3.6256677921611242 -4.0261758685262521 0 -4.0261758685262521 -4.1843231927221609 0 0 0 0 143.02575715648709 -132.42479238119267 0 -132.42479238119267 87.900625172596847 0 0 0 0 150.95026243206667 -105.4750910370567 0 -105.4750910370567 0.19828183784557041 0 0 0 0 -9.1913673384951835 -9.8411296953381964 0 -9.8411296953381964 -8.1725469675623117 0 0 0 0 -208.78905337120523 -507.61793291964204 0 -507.61793291964204 473.1335964965474 0 0 0 0 251.76921506125473 -43.682414035956754 0 -43.682414035956754 -174.81006929253635 0 0 0 0 -961.8026539279017 -324.36191471012353 0 -324.36191471012353 139.35012173467112 0 0 0 0 -467.76685985156655 -185.43233428143867 0 -185.43233428143867 -96.801882807696529 0 0 0 0 -250.23708683172299 -454.85995088873824 0 -454.85995088873824 -1200.8340017552546 0 0 0 0 -212.47692466384478 125.12132445621046 0 125.12132445621046 -119.56831642122415 0 0 0 0 -162.40876776221558 60.31102462826675 0 60.31102462826675 625.58404000094561 0 0 0 0 -4.4166114430330481 -5.0421013626741171 0 -5.0421013626741171 0.82640152940942357 0 0 0 0 -320.67510874138861 -438.94033120518088 0 -438.94033120518088 -187.59728818114672 0 0 0 0 -288.25150332412977 -283.09884407067784 0 -283.09884407067784 204.08619723217271 0 0 0 0 -14.154691737829125 -99.569323849325883 0 -99.569323849325883 -125.16067020486662 0 0 0 0 48.346795952402999 -51.001011743158273 0 -51.001011743158273 44.66769402283677 0 0 0 0 -140.57289316925016 -240.61762144423847 0 -240.61762144423847 -211.75014631093291 0 0 0 0 17.462241944584093 -220.99014414767043 0 -220.99014414767043 -340.79792244514101 0 0 0 0 -33.222258321155095 -139.17785263696715 0 -139.17785263696715 -310.64549934823299 0 0 0 0 -139.74161812520106 -254.66447852480269 0 -254.66447852480269 -107.1530402124481 0 0 0 0 -208.02123901687446 -357.91258127016044 0 -357.91258127016044 -260.22435980577939 0 0 0 0 -131.73261183637078 -310.25032470162114 0 -310.25032470162114 -242.52429487988775 0 0 0 0 53.897391590379527 -55.105776757408918 0 -55.105776757408918 46.914128756138609 0 0 0 0 -136.86616935708298 -347.85789014514739 0 -347.85789014514739 -350.00902650498028 0 0 0 0 -160.29466973083981 -406.49418707786572 0 -406.49418707786572 -290.1349888486875 0 0 0 0 -218.84813242551172 -474.5948938592046 0 -474.5948938592046 -253.34918162596296 0 0 0 0 -323.42863973014755 -348.32421050492485 0 -348.32421050492485 -376.42544197863026 0 0 0 0 -306.58419229916444 -495.00138166335682 0 -495.00138166335682 -167.81486020577722 0 0 0 0 -167.48807155382383 -559.38405119546951 0 -559.38405119546951 -324.07184610288823 0 0 0 0 -117.23895559871016 -633.35101935074636 0 -633.35101935074636 -260.47496263364883 0 0 0 0 -113.59810515885783 -624.56705642894485 0 -624.56705642894485 -413.04903239956184 0 0 0 0 -87.28584907872937 -524.91316993334112 0 -524.91316993334112 -412.70183967959019 0 0 0 0 -107.51182398420497 -394.81865548263886 0 -394.81865548263886 -308.44887255118374 0 0 0 0 -19.851936127641238 -350.9867753775834 0 -350.9867753775834 -384.05281696283782 0 0 0 0 -106.33441553404828 -409.03092432520771 0 -409.03092432520771 -414.38376295722264 0 0 0 0 -39.331220111664152 -449.0813111898824 0 -449.0813111898824 -393.94433785158617 0 0 0 0 5.2853727493420593 -463.69072881772445 0 -463.69072881772445 -524.56182348146103 0 0 0 0 -29.242680324554385 -444.99772834271425 0 -444.99772834271425 -500.48939530843199 0 0 0 0 13.420463380854926 -381.33849923080561 0 -381.33849923080561 -468.3943716932481 0 0 0 0 31.19835162088566 -398.03458760623471 0 -398.03458760623471 -570.01730773925374 0 0 0 0 9.78761047617445 -464.11440430901348 0 -464.11440430901348 -538.41573049974977 0 0 0 0 3.4988292633579476 -515.53440494283132 0 -515.53440494283132 -493.72995733709831 0 0 0 0 4.6742690506271174 -515.50094057935712 0 -515.50094057935712 -568.92913685311214 0 0 0 0 -5.3704910084488802 -546.25439043725055 0 -546.25439043725055 -525.57092168057716 0 0 0 0 -10.25246674081427 -576.05373456778034 0 -576.05373456778034 -392.14121988441912 0 0 0 0 38.982873349025795 -516.70853811259894 0 -516.70853811259894 -595.10920522436209 0 0 0 0 58.097714345761233 -600.90383038620621 0 -600.90383038620621 -484.01240242757194 0 0 0 0 47.783395429674215 -52.98919859894518 0 -52.98919859894518 47.788206884624913 0 0 0 0 -135.90672221607383 -104.40306330671956 0 -104.40306330671956 25.388036979100434 0 0 0 0 -92.050355884068267 -153.70179743981134 0 -153.70179743981134 -16.643300665280549 0 0 0 0 12.045500506759709 -132.77265744769102 0 -132.77265744769102 -221.27759307590168 0 0 0 0 43.438110400101323 -300.63803191661646 0 -300.63803191661646 -515.11256714725459 0 0 0 0 36.733232526221855 -264.58318696351307 0 -264.58318696351307 -425.26143135616439 0 0 0 0 -18.376323161566688 -353.33886392135901 0 -353.33886392135901 -491.89147849514848 0 0 0 0 -24.261797747240053 -279.58375038448139 0 -279.58375038448139 -372.99484800421487 0 0 0 0 -30.21908501668986 -265.14505605154045 0 -265.14505605154045 -339.01495473855175 0 0 0 0 -93.806818000157364 -324.47548542564618 0 -324.47548542564618 -383.27975704519486 0 0 0 0 -92.232864685930508 -332.88690624450919 0 -332.88690624450919 -347.15761339468008 0 0 0 0 54.334062269324903 -57.413696063865267 0 -57.413696063865267 49.606001429014441 0 0 0 0 -206.09259676538477 -164.79125541695703 0 -164.79125541695703 69.24020804061729 0 0 0 0 -223.99860224898293 -302.3781532101566 0 -302.3781532101566 -87.959957145503722 0 0 0 0 51.16632502759461 -55.642587678354246 0 -55.642587678354246 49.445828618876192 0 0 0 0 -102.72876192024705 -165.45512213478651 0 -165.45512213478651 -5.5489117462857394 0 0 0 0 -142.10574837337481 -143.1985244636835 0 -143.1985244636835 -11.399501971565769 0 0 0 0 -52.056099734050804 -17.485731436667265 0 -17.485731436667265 116.66432166130835 0 0 0 0 -154.91979850149073 -151.83684324864589 0 -151.83684324864589 52.929715158432373 0 0 0 0 -86.173696517071221 1.5660716178826988 0 1.5660716178826988 143.17773878747539 0 0 0 0 -129.35253765954985 -28.064670563544496 0 -28.064670563544496 358.42612928134622 0 0 0 0 28.265208915014227 -3.952903084056743 0 -3.952903084056743 1053.2232519982063 0 0 0 0 2.7148563440350131 -10.004173137731385 0 -10.004173137731385 1.2578172314855465 0 0 0 0 125.60893838591437 307.56973726333126 0 307.56973726333126 768.65827154440922 0 0 0 0 66.29457827762235 151.9769638426078 0 151.9769638426078 202.20788201487449 0 0 0 0 -1.4693024211458727 -6.7070429393553468 0 -6.7070429393553468 -1.1687991934472848 0 0 0 0 19.840740225263289 145.8834816538656 0 145.8834816538656 509.03963760839542 0 0 0 0 -33.539809111069189 1.7211794453469338 0 1.7211794453469338 220.34267033817014 0 0 0 0 -62.007739187596599 -170.55887862481904 0 -170.55887862481904 628.54430335236248 0 0 0 0 177.79710393717687 -375.37680596900464 0 -375.37680596900464 1028.7788330131443 0 0 0 0 109.1581120742776 -182.01496381527977 0 -182.01496381527977 494.18353158872924 0 0 0 0 369.49893580377102 -272.66357492829411 0 -272.66357492829411 185.05846604669932 0 0 0 0 48.338152291922597 -353.60310469886463 0 -353.60310469886463 548.38149239252743 0 0 0 0 25.581799894564028 -263.68909021166473 0 -263.68909021166473 217.2074595336162 0 0 0 0 -131.88028066013067 -243.01974697771948 0 -243.01974697771948 201.70884447742719 0 0 0 0 -121.01814461739559 -304.57054247191263 0 -304.57054247191263 335.58206393694854 0 0 0 0 -77.262851950195909 -75.203211216161435 0 -75.203211216161435 286.86080043500988 0 0 0 0 -261.14902584489028 -659.09925793812727 0 -659.09925793812727 -326.9993856882943 0 0 0 0 -136.88671666267328 -338.49790952423791 0 -338.49790952423791 -303.86310700033209 0 0 0 0 -406.36395759628795 -431.50990847772482 0 -431.50990847772482 -111.47519894230936 0 0 0 0 -47.732376688509248 -289.38795073199435 0 -289.38795073199435 -98.548926352639683 0 0 0 0 -106.08903082503821 -494.99212573493423 0 -494.99212573493423 -189.03598781558685 0 0 0 0 -210.33285581749806 -131.13858021915803 0 -131.13858021915803 -395.24929870342021 0 0 0 0 -58.826417450487497 -290.82497996670281 0 -290.82497996670281 -742.05569923012808 0 0 0 0 3.4630929449340329 -357.44706209677679 0 -357.44706209677679 -794.08326932770433 0 0 0 0 335.39269610942574 -352.30716451970511 0 -352.30716451970511 -801.98193840680324 0 0 0 0 87.229813108864619 -318.96268052273444 0 -318.96268052273444 -136.29894452940789 0 0 0 0 46.273852399768657 -415.09865854628151 0 -415.09865854628151 -227.41008031973615 0 0 0 0 -72.814886266394751 -308.7524252015719 0 -308.7524252015719 -50.437445219795336 0 0 0 0 -60.306256319250679 -287.98067846226331 0 -287.98067846226331 232.76653180669382 0 0 0 0 112.26185589888337 -372.48072833533661 0 -372.48072833533661 -50.876791688555386 0 0 0 0 141.99252986755891 -244.14413166141458 0 -244.14413166141458 32.579539557103999 0 0 0 0 177.92997971169825 -332.28502894583653 0 -332.28502894583653 191.88954760620254 0 0 0 0 291.32351781002944 -311.50498540223634 0 -311.50498540223634 -139.44700586797262 0 0 0 0 322.34468011540594 -392.82242172121187 0 -392.82242172121187 8.5754518847097643 0 0 0 0 45.199419369135285 -250.93264092007303 0 -250.93264092007303 -40.753603664539696 0 0 0 0 457.06622513834736 -50.941744446507073 0 -50.941744446507073 47.743796518916497 0 0 0 0 1.7012234853193604 -2.0200095918763736 0 -2.0200095918763736 -0.6530436050258368 0 0 0 0 -84.125835866616399 -287.3684440649813 0 -287.3684440649813 -735.1096833448828 0 0 0 0 290.79720586568874 -270.42417277429922 0 -270.42417277429922 -180.62917108451074 0 0 0 0 120.46702687986544 55.044142965234641 0 55.044142965234641 -368.83925448307127 0 0 0 0 2.3231297007980061 -2.062241648588099 0 -2.062241648588099 -0.52942918291133623 0 0 0 0 -17.78541557360586 -189.99807428725035 0 -189.99807428725035 -203.33361048645747 0 0 0 0 -61.373166482560919 20.166033524554223 0 20.166033524554223 228.47823961406539 0 0 0 0 132.87068514549355 256.80705143496834 0 256.80705143496834 -53.250600863160798 0 0 0 0 210.54553353438678 100.0929090153586 0 100.0929090153586 246.88479727604135 0 0 0 0 -195.70485305147304 -5.2453684389183763 0 -5.2453684389183763 692.27756144809246 0 0 0 0 365.42778189486853 398.52133895344741 0 398.52133895344741 782.78864921886998 0 0 0 0 984.99887443115585 -152.92286014302954 0 -152.92286014302954 65.51866838256683 0 0 0 0 623.19474297580018 -596.69375558586034 0 -596.69375558586034 598.0485546017153 0 0 0 0 683.6122184117412 273.98140490282094 0 273.98140490282094 140.43600307862653 0 0 0 0 821.18726796658302 -255.16239276526903 0 -255.16239276526903 72.289578615003848 0 0 0 0 79.817160331265768 -356.88782177713438 0 -356.88782177713438 939.60516451133299 0 0 0 0 76.300761482906637 -308.8444224772602 0 -308.8444224772602 329.50104158752947 0 0 0 0 -123.51362291211262 -150.37951988243731 0 -150.37951988243731 211.08436230068764 0 0 0 0 153.63357978647764 -146.36455606087111 0 -146.36455606087111 -144.62908680878172 0 0 0 0 -236.05754513363354 -297.23066147894133 0 -297.23066147894133 -160.28595974537893 0 0 0 0 23.174126867546875 -418.34309312118785 0 -418.34309312118785 -105.65686863969313 0 0 0 0 -203.62889708203147 -319.85601527102699 0 -319.85601527102699 203.87796392775363 0 0 0 0 143.64983469696017 -194.33810602306039 0 -194.33810602306039 69.280336770876602 0 0 0 0 434.18085470037477 54.866970967337693 0 54.866970967337693 -104.80852296281955 0 0 0 0 -4.9459244789177319 -140.5008305517913 0 -140.5008305517913 -91.623752066434918 0 0 0 0 232.83690135375946 -97.33615941707103 0 -97.33615941707103 -320.35172786725161 0 0 0 0 0.79776030863990854 -362.11562859378341 0 -362.11562859378341 -377.18411832803395 0 0 0 0 -205.30902794754365 -257.06637213721115 0 -257.06637213721115 -430.61701264737349 0 0 0 0 -170.50422070702189 -270.31218993596849 0 -270.31218993596849 -116.63664267505192 0 0 0 0 -511.49589257827029 -383.95916312056943 0 -383.95916312056943 -310.08078058529645 0 0 0 0 -127.12275988064721 -450.5273144662242 0 -450.5273144662242 -345.6855409682903 0 0 0 0 -266.96281733200794 51.611599317974878 0 51.611599317974878 -728.99751320373616 0 0 0 0 -162.33884900485282 -364.50307290273486 0 -364.50307290273486 -415.27371178827889 0 0 0 0 -9.0028747967246545 -4.73260281917198 0 -4.73260281917198 5.6231060312281613 0 0 0 0 0.55919053734771751 3.4301306533315312 0 3.4301306533315312 0.8374979557559783 0 0 0 0 14.635191375491559 40.574599853651307 0 40.574599853651307 10.999593612825265 0 0 0 0 9.5330093780939933 -502.49760437142686 0 -502.49760437142686 -1023.8967923229793 0 0 0 0 -130.37617937837786 4.2567576208530227 0 4.2567576208530227 581.90502836661472 0 0 0 0 -116.8926081636273 -171.33453317060594 0 -171.33453317060594 754.7422070370958 0 0 0 0 -66.421203262318159 -112.95450362511474 0 -112.95450362511474 500.89143701643479 0 0 0 0 -4.5859232939983485 32.092058192822151 0 32.092058192822151 308.04186238723196 0 0 0 0 5.5739477538736537 69.943037459568586 0 69.943037459568586 1229.1134273783537 0 0 0 0 83.571753537893528 -150.14871100829623 0 -150.14871100829623 487.56021250410413 0 0 0 0 -85.134833856682235 86.424450884511316 0 86.424450884511316 1387.9752190619765 0 0 0 0 -257.47187244227825 -317.22053079253237 0 -317.22053079253237 -617.09679427128867 0 0 0 0 -1.5578836967153507 4.0657383353252499 0 4.0657383353252499 1.5220140718217934 0 0 0 0 -120.10411740292329 -571.54085581781692 0 -571.54085581781692 -727.15086204118779 0 0 0 0 14.830767192994244 -99.562188290379709 0 -99.562188290379709 1358.070831897232 0 0 0 0 -112.95609293332382 -448.40978197225195 0 -448.40978197225195 -1646.9070933784533 0 0 0 0 0.88060174138121283 0.6130742279738115 0 0.6130742279738115 -0.40104288394419996 0 0 0 0 -202.0331917389849 -555.5229208515957 0 -555.5229208515957 -741.38811060972512 0 0 0 0 -436.06385941419285 -423.32997810636152 0 -423.32997810636152 -135.42711568516097 0 0 0 0 -33.242814163168077 82.71066687322309 0 82.71066687322309 182.63173927989556 0 0 0 0 -21.488719334825873 -506.61454007900466 0 -506.61454007900466 -222.75773335877602 0 0 0 0 3.5624630511053752 -38.764462751884452 0 -38.764462751884452 -0.60231486111734966 0 0 0 0 240.22519883421774 -199.58572558028754 0 -199.58572558028754 71.808957997971447 0 0 0 0 -245.52875592523196 -280.18282709397317 0 -280.18282709397317 582.29187778147752 0 0 0 0 -42.726412966338103 -21.123242627232685 0 -21.123242627232685 45.267025124747306 0 0 0 0 -2.7690173132525544 -7.7735275793567951 0 -7.7735275793567951 7.5503892489439295 0 0 0 0 -22.631098786732764 -103.93826289506251 0 -103.93826289506251 41.219648535101442 0 0 0 0 105.8087356359174 -113.88840473225719 0 -113.88840473225719 -17.461506281746551 0 0 0 0 -59.669542518022354 -31.412547197662207 0 -31.412547197662207 42.162395213599666 0 0 0 0 47.865344527170237 8.1966728063416667 0 8.1966728063416667 11.138967371342005 0 0 0 0 -41.685605806676904 -36.106392421250348 0 -36.106392421250348 8.852876238830504 0 0 0 0 38.37239627433155 -158.78313290739607 0 -158.78313290739607 10.439258547485224 0 0 0 0 92.269137300303555 101.10947034282435 0 101.10947034282435 -18.894122608263388 0 0 0 0 10.735263667869731 -116.74527353132726 0 -116.74527353132726 160.70074632027536 0 0 0 0 0.21410268547764133 0.40607135517436177 0 0.40607135517436177 1.0565381952976622 0 0 0 0 17.108373707233113 -53.375568400704651 0 -53.375568400704651 -88.559863886897801 0 0 0 0 265.70318938599303 -104.64694783232699 0 -104.64694783232699 -55.927028183738003 0 0 0 0 -110.7625393077833 -52.092117363445141 0 -52.092117363445141 108.98723781369335 0 0 0 0 202.93459451083618 -83.175062959264324 0 -83.175062959264324 164.83976605175849 0 0 0 0 5.0929433684767531 -26.994386604116016 0 -26.994386604116016 -8.2696398097583597 0 0 0 0 709.62027062060042 56.533780674523769 0 56.533780674523769 -447.30382861226099 0 0 0 0 344.6644596230617 142.16233607503818 0 142.16233607503818 89.205221523792716 0 0 0 0 413.46163885483111 178.22032488746481 0 178.22032488746481 -3.8968646863359027 0 0 0 0 -91.031109965832002 -4.2300038588209645 0 -4.2300038588209645 -2.9494098401337396 0 0 0 0 4.9394670064773543 -27.811724044740046 0 -27.811724044740046 -13.863232154358116 0 0 0 0 -22.422143853431038 -10.334805539495676 0 -10.334805539495676 18.7848495582368 0 0 0 0 -25.340110991266556 -33.624958849391987 0 -33.624958849391987 -81.192479864766938 0 0 0 0 21.69649189588381 11.972917858140136 0 11.972917858140136 -52.284645105683012 0 0 0 0 -6.155673526460447 -17.481361711744015 0 -17.481361711744015 23.137701392841564 0 0 0 0 -49.955756102543091 -92.872367572512303 0 -92.872367572512303 4.9866828886952135 0 0 0 0 -65.447353071620455 -50.911129416774202 0 -50.911129416774202 5.7759157639857222 0 0 0 0 -38.796971521745945 -108.66392862149587 0 -108.66392862149587 16.532609074296488 0 0 0 0 -137.40702055190195 5.5197977984953468 0 5.5197977984953468 19.099398515856592 0 0 0 0 -43.986071432824247 -54.968771971372917 0 -54.968771971372917 52.081095195331727 0 0 0 0 -53.848190147065907 -23.158236033988942 0 -23.158236033988942 21.332439326361055 0 0 0 0 -40.482354082982056 -20.926104391473928 0 -20.926104391473928 -3.3576283721704385 0 0 0 0 -50.512649686395889 -41.265701560863818 0 -41.265701560863818 42.008495566027705 0 0 0 0 -12.191862559891888 -54.444955941296939 0 -54.444955941296939 16.489606449787971 0 0 0 0 -9.4182042268512305 -47.197146374433942 0 -47.197146374433942 34.912848249194212 0 0 0 0 31.290497797061107 -84.834854220454872 0 -84.834854220454872 34.240357741335174 0 0 0 0 -5.8516659957816444 -14.047541674452219 0 -14.047541674452219 2.5056122529257436 0 0 0 0 -14.599997721586078 -53.510562985396973 0 -53.510562985396973 32.374563497549389 0 0 0 0 -17.127924128588347 -24.324708499229018 0 -24.324708499229018 5.9703162189980503 0 0 0 0 -5.9437293418789334 -21.689876493220638 0 -21.689876493220638 56.569166587983773 0 0 0 0 -27.798050359440282 -29.036069340092283 0 -29.036069340092283 9.2390680252728536 0 0 0 0 -31.200763667322462 -42.736822968599881 0 -42.736822968599881 48.208100032006769 0 0 0 0 -43.936091227985344 -30.198829582638609 0 -30.198829582638609 37.718975420117204 0 0 0 0 -264.9917353715573 -102.21649640442047 0 -102.21649640442047 50.229429517436074 0 0 0 0 3.3756288807999226 -18.787269758809998 0 -18.787269758809998 -80.100646359380335 0 0 0 0 -19.457087625818872 -57.170421520984064 0 -57.170421520984064 -1.9392618904921903 0 0 0 0 -7.5448518629332568 -18.505697414000601 0 -18.505697414000601 -6.6652349652385396 0 0 0 0 2.9684907625778578 -49.96352827938972 0 -49.96352827938972 5.8025301595371275 0 0 0 0 246.55233269169912 -107.13240197978121 0 -107.13240197978121 -101.20684826179058 0 0 0 0 148.12731942049868 -441.45170389644773 0 -441.45170389644773 142.51225485201576 0 0 0 0 -374.42656012299449 -313.40882119597154 0 -313.40882119597154 217.81621934688883 0 0 0 0 -214.96148269745754 -441.53811851290084 0 -441.53811851290084 396.32206947612576 0 0 0 0 -156.53745878461632 70.462770854486735 0 70.462770854486735 -180.81645240874059 0 0 0 0 -170.4010021869617 -397.26809566951124 0 -397.26809566951124 57.291566602012608 0 0 0 0 -195.10657523287227 54.364080893908977 0 54.364080893908977 432.01780903644612 0 0 0 0 388.80172050240799 -349.73614230938256 0 -349.73614230938256 -45.441980614268687 0 0 0 0 -132.90325007305364 -247.78408809339453 0 -247.78408809339453 -249.97192658457789 0 0 0 0 30.398615570949914 -98.319916171058139 0 -98.319916171058139 -140.42434733900882 0 0 0 0 -913.73761760284833 27.721608727886633 0 27.721608727886633 102.01127170975087 0 0 0 0 6.5068128533351466 -5.7000905889729552 0 -5.7000905889729552 -2.3319093494511094 0 0 0 0 7.4708016641880022 -24.905595830516518 0 -24.905595830516518 32.707117109035977 0 0 0 0 31.225749992518104 -46.378760569808946 0 -46.378760569808946 -110.3474487864587 0 0 0 0 -87.417684095906225 -186.50386405829886 0 -186.50386405829886 -133.67468965472654 0 0 0 0 -205.23027010951773 -183.52659226153628 0 -183.52659226153628 -19.098654951041681 0 0 0 0 26.995913820377609 -141.48422599180049 0 -141.48422599180049 -70.995475226067356 0 0 0 0 -151.56917688222165 -5.7714081333024296 0 -5.7714081333024296 -169.78448443548405 0 0 0 0 -16.060309900940297 -2.5702481297585962 0 -2.5702481297585962 26.452026891913363 0 0 0 0 26.325058904258185 -35.301837432707543 0 -35.301837432707543 39.976515327431116 0 0 0 0 13.770705286791781 -28.206550319595408 0 -28.206550319595408 41.64692284425837 0 0 0 0 12.369023708350142 -30.254534187770332 0 -30.254534187770332 38.655226613467676 0 0 0 0 29.533929603575018 -23.677871416341816 0 -23.677871416341816 13.998054993360881 0 0 0 0 18.914417448169843 -30.227964148883984 0 -30.227964148883984 21.613949783102726 0 0 0 0 19.072372220281977 -39.34696704394446 0 -39.34696704394446 16.05630371618463 0 0 0 0 46.44482175297162 -154.50322610476724 0 -154.50322610476724 -225.92338550131535 0 0 0 0 15.631235823660973 -27.748361135443702 0 -27.748361135443702 35.657976196875097 0 0 0 0 14.91814158577472 -37.494244183537376 0 -37.494244183537376 28.990712645099848 0 0 0 0 18.751046920166345 -23.008406213800836 0 -23.008406213800836 22.096311626584239 0 0 0 0 -4.2409201614209451 1.0672722250383231 0 1.0672722250383231 -99.013893555917093 0 0 0 0 16.230530243978137 -24.613644678058336 0 -24.613644678058336 43.802125524453004 0 0 0 0 -31.377896396210417 -105.11253743848647 0 -105.11253743848647 -143.27523587495671 0 0 0 0 -1.4523946042172611 -92.731627988367109 0 -92.731627988367109 -169.83152517303824 0 0 0 0 -0.15798493174952455 -70.89879140361154 0 -70.89879140361154 -112.71222909929929 0 0 0 0 39.843827221775427 -50.957126292778412 0 -50.957126292778412 -131.0002472573542 0 0 0 0 44.125067449349444 -41.811074310171534 0 -41.811074310171534 -152.70378175849328 0 0 0 0 38.357402110945259 -16.984082982771724 0 -16.984082982771724 -169.30867259329534 0 0 0 0 -14.842318824486028 77.839096880495845 0 77.839096880495845 -210.25960655489325 0 0 0 0 46.016940120316576 -11.580795479836524 0 -11.580795479836524 -172.8116947667877 0 0 0 0 -20.732484308522544 26.755868303698662 0 26.755868303698662 -136.25231574225108 0 0 0 0 -2.2295658849968731 -3.9978037131430142 0 -3.9978037131430142 4.4972099755576096 0 0 0 0 -0.057749242118190471 3.4051883244258598 0 3.4051883244258598 21.109969166522205 0 0 0 0 -5.2810314253147226 -75.628734670426638 0 -75.628734670426638 -80.711759985068056 0 0 0 0 2.2879277021044118 1.7030675572277048 0 1.7030675572277048 0.33438395321920211 0 0 0 0 -8.4521638207515934 -18.0108246080963 0 -18.0108246080963 149.23866846710371 0 0 0 0 -3.3175012092506222 -17.090632399488641 0 -17.090632399488641 66.165810846003296 0 0 0 0 2.2699069797890843 -54.81435317083924 0 -54.81435317083924 77.602578405065287 0 0 0 0 -0.0020643096358980983 -68.594002460147749 0 -68.594002460147749 92.848823873064248 0 0 0 0 10.89808917974733 -51.874025345096015 0 -51.874025345096015 58.211721857529483 0 0 0 0 13.050324723335507 -61.862606376917029 0 -61.862606376917029 53.631756835486158 0 0 0 0 8.6623187118388785 -29.103811898504162 0 -29.103811898504162 37.1293647388012 0 0 0 0 -217.52587523336479 -64.229766708045645 0 -64.229766708045645 54.12171129861963 0 0 0 0 -10.089202085260496 -14.445979710969624 0 -14.445979710969624 22.525247216304535 0 0 0 0 23.919379773782566 -37.783243736470467 0 -37.783243736470467 42.671988626674192 0 0 0 0 -249.50829857931967 -47.569656409923482 0 -47.569656409923482 45.594541515951278 0 0 0 0 16.159315374297307 -10.965155289390395 0 -10.965155289390395 7.0909880372209102 0 0 0 0 -269.21409237639455 -38.120658690815617 0 -38.120658690815617 54.87570224683077 0 0 0 0 -295.17070209817757 -82.694901005015709 0 -82.694901005015709 106.23925147813861 0 0 0 0 -383.30256162513979 -50.641254431749985 0 -50.641254431749985 100.53814620854973 0 0 0 0 -253.61682299990207 -119.54622808159911 0 -119.54622808159911 90.184607011637127 0 0 0 0 -251.86122181660176 -125.67478831428161 0 -125.67478831428161 70.483231996971881 0 0 0 0 -239.04330318102438 -120.57444898131507 0 -120.57444898131507 58.060709943718393 0 0 0 0 -240.49262929386168 -108.50881883766124 0 -108.50881883766124 68.416383831696294 0 0 0 0 -243.61601866205456 -93.395687919692136 0 -93.395687919692136 24.582353310441249 0 0 0 0 -141.05151703692172 -164.3977807942465 0 -164.3977807942465 182.45063935337384 0 0 0 0 0.59885561783255525 -0.95918362887624653 0 -0.95918362887624653 -0.066858107473934059 0 0 0 0 -107.20658140791056 -48.661157423171971 0 -48.661157423171971 -223.14763170579545 0 0 0 0 -251.73093789569612 -125.70288711946523 0 -125.70288711946523 55.901154152990784 0 0 0 0 -37.038302106935589 90.674978259570707 0 90.674978259570707 55.075099027933902 0 0 0 0 -85.628727034825715 28.222241259765724 0 28.222241259765724 24.774258687801193 0 0 0 0 -202.2753590302309 -78.09849280603521 0 -78.09849280603521 247.1918334599759 0 0 0 0 -257.98335232262616 -48.615053539353539 0 -48.615053539353539 297.51022223316249 0 0 0 0 -251.34733429586049 -46.295732487989881 0 -46.295732487989881 204.35454799793661 0 0 0 0 -271.25198966599419 -101.40024808069575 0 -101.40024808069575 63.965150061028908 0 0 0 0 -283.12244123526034 -173.45954522413376 0 -173.45954522413376 133.62487004495051 0 0 0 0 -261.31313571440114 -122.16491119753482 0 -122.16491119753482 105.41612093147705 0 0 0 0 -309.2018188694783 -223.32820435435133 0 -223.32820435435133 56.963832509092754 0 0 0 0 -269.28249138020328 -221.91776142388699 0 -221.91776142388699 33.880167162555153 0 0 0 0 -328.82209203371895 -307.8458124413155 0 -307.8458124413155 76.339360490270337 0 0 0 0 -308.89697039264718 -185.03345014212647 0 -185.03345014212647 117.59352413145825 0 0 0 0 -304.79058502045518 -211.23256964624306 0 -211.23256964624306 168.03759707475911 0 0 0 0 -291.61066345439758 -262.7358084282896 0 -262.7358084282896 127.12757678466733 0 0 0 0 -165.9210860030289 -313.52250108299631 0 -313.52250108299631 145.78968657672522 0 0 0 0 -292.91380370951265 -139.49236234008276 0 -139.49236234008276 377.74441691365791 0 0 0 0 -223.05938160278311 -115.64100947213592 0 -115.64100947213592 41.43151088598097 0 0 0 0 14.263884635363311 -31.961146453395415 0 -31.961146453395415 40.046125549898818 0 0 0 0 -216.02494432801177 -134.74826473940266 0 -134.74826473940266 48.041780765459407 0 0 0 0 -222.58141234659706 -119.58276712627048 0 -119.58276712627048 19.578213548287749 0 0 0 0 -238.91971959726652 -120.43449185525969 0 -120.43449185525969 41.024352860738873 0 0 0 0 -261.7677834815695 -127.24910865537822 0 -127.24910865537822 59.300169405556517 0 0 0 0 -240.03860183464712 -154.60928722661629 0 -154.60928722661629 82.59059774443449 0 0 0 0 -238.97885686604423 -155.99455160063371 0 -155.99455160063371 29.817905207921285 0 0 0 0 -195.00622378513799 -162.6770253063296 0 -162.6770253063296 27.968939239130123 0 0 0 0 -205.86556136002764 -174.64626977438456 0 -174.64626977438456 17.445699979056371 0 0 0 0 -240.2524286606058 -197.73688487186155 0 -197.73688487186155 40.447551733785076 0 0 0 0 -270.9327302383972 -191.11803151114145 0 -191.11803151114145 39.478719515522243 0 0 0 0 -267.59112670607283 -240.55005313223228 0 -240.55005313223228 -20.713740124279866 0 0 0 0 -224.17866487732681 -205.50373697466421 0 -205.50373697466421 -13.312273117073346 0 0 0 0 -160.54297572944779 -166.97113263746724 0 -166.97113263746724 -25.52396387438057 0 0 0 0 -180.7868309065816 -182.95038436324103 0 -182.95038436324103 -34.284959730386618 0 0 0 0 -191.10104076843709 -202.77621585925226 0 -202.77621585925226 -49.751527583401185 0 0 0 0 -181.68233523344679 -176.80481917410725 0 -176.80481917410725 -28.377461643132847 0 0 0 0 -130.07563530630432 -166.11041069356725 0 -166.11041069356725 -79.069336560671218 0 0 0 0 6.3592875603900438 -23.266683616900607 0 -23.266683616900607 28.687632235111266 0 0 0 0 -118.00006386393216 -126.65120360587025 0 -126.65120360587025 -27.603867536006874 0 0 0 0 -75.867028750421014 -89.382465451853932 0 -89.382465451853932 -45.396041941974545 0 0 0 0 -163.15948247716733 -159.02667818069676 0 -159.02667818069676 -21.723125856893603 0 0 0 0 -173.95765806533745 -126.59715237497585 0 -126.59715237497585 14.747765125182923 0 0 0 0 -147.97185227516457 -138.31379051880504 0 -138.31379051880504 5.2476496533490717 0 0 0 0 -166.43260305614967 -113.99343433097965 0 -113.99343433097965 35.119444227981148 0 0 0 0 -201.98772584201652 -152.36721569598012 0 -152.36721569598012 25.387123493943363 0 0 0 0 11.337292435315376 -31.225613369512274 0 -31.225613369512274 43.621814740339346 0 0 0 0 -142.16303559660446 -141.02522667622543 0 -141.02522667622543 21.289775903598638 0 0 0 0 22.472932947431673 -26.233041411580928 0 -26.233041411580928 6.2599622201336729 0 0 0 0 18.261369088708307 -34.433114399191254 0 -34.433114399191254 22.185870051602251 0 0 0 0 15.531547683625831 -45.912872869819694 0 -45.912872869819694 -6.0341875111625995 0 0 0 0 -240.7551268425741 -256.11821281856464 0 -256.11821281856464 -50.855661631256226 0 0 0 0 25.282458389261649 -35.566192457318188 0 -35.566192457318188 24.721026098232556 0 0 0 0 -26.260886466945522 -179.18203139590332 0 -179.18203139590332 -119.55528979405062 0 0 0 0 -44.705582296533976 -55.833703578129644 0 -55.833703578129644 9.9522190396091901 0 0 0 0 -36.403673874025117 -56.364087590074632 0 -56.364087590074632 -3.9505726603238145 0 0 0 0 -38.212295484845527 -60.041040306736249 0 -60.041040306736249 -18.035735136829317 0 0 0 0 -22.760073099262769 -23.345441488221823 0 -23.345441488221823 39.843695192160141 0 0 0 0 13.042479956415832 -27.936464831932902 0 -27.936464831932902 1.4412842873971954 0 0 0 0 -25.62345354356836 -24.162736580461114 0 -24.162736580461114 59.22842908819544 0 0 0 0 -56.999316979985451 -139.03051926636545 0 -139.03051926636545 -122.2319716301281 0 0 0 0 -131.10947506566299 -173.41630919559975 0 -173.41630919559975 -84.714500303496607 0 0 0 0 -89.096937894733856 -208.05919430179347 0 -208.05919430179347 -224.15756940140272 0 0 0 0 -10.474318915941694 25.416300939748908 0 25.416300939748908 49.323979519191198 0 0 0 0 -2.1652370390499982 -5.1003593885184983 0 -5.1003593885184983 11.438687213443899 0 0 0 0 -161.57400960481027 -224.22529607354954 0 -224.22529607354954 -220.20239110966577 0 0 0 0 -137.79844226248679 -197.6098258626007 0 -197.6098258626007 -138.70431259815814 0 0 0 0 -146.60227325782762 -217.39927190018352 0 -217.39927190018352 -150.93310167486197 0 0 0 0 -65.252301494474523 -171.59841630809387 0 -171.59841630809387 -176.96076964156236 0 0 0 0 -214.0732532638649 -245.82890913271694 0 -245.82890913271694 -96.977164320560405 0 0 0 0 -200.66700529135414 -221.69514367788361 0 -221.69514367788361 -86.040913688280853 0 0 0 0 -146.26923251716653 -217.90839998051524 0 -217.90839998051524 -161.35049945049104 0 0 0 0 -190.33846968368744 -233.60815681013628 0 -233.60815681013628 -184.15796202520141 0 0 0 0 -226.03793440348818 -273.54110525990836 0 -273.54110525990836 -148.24919172655791 0 0 0 0 -188.11820844991598 -250.42756996836397 0 -250.42756996836397 -195.72793187373463 0 0 0 0 -213.84023065801011 -237.35482164093992 0 -237.35482164093992 -184.69729468754667 0 0 0 0 -174.05445746816986 -250.13008907219046 0 -250.13008907219046 -195.7907104777405 0 0 0 0 12.519192769914781 -20.423686083179966 0 -20.423686083179966 23.26200893123854 0 0 0 0 -33.500992927474726 -14.120544534762303 0 -14.120544534762303 45.31898513752094 0 0 0 0 -46.660166381669114 -103.08203140199475 0 -103.08203140199475 35.386901185265742 0 0 0 0 -1.3431634037593199 -13.576195193568836 0 -13.576195193568836 18.01500642671779 0 0 0 0 38.099290078389458 -218.65307427784865 0 -218.65307427784865 -113.4037506627792 0 0 0 0 -73.709102165477816 -318.46438896184554 0 -318.46438896184554 -75.727213316087727 0 0 0 0 23.908627717755721 -42.103269690681657 0 -42.103269690681657 29.558757876265133 0 0 0 0 -254.64909993766923 -535.33747973741265 0 -535.33747973741265 -385.9017667313019 0 0 0 0 -244.30158657729044 -345.41991555324057 0 -345.41991555324057 -145.25836672878359 0 0 0 0 -179.0908603021162 -369.86218682864637 0 -369.86218682864637 -136.23939260814223 0 0 0 0 -261.2217722407222 -301.39138236187864 0 -301.39138236187864 -127.66026314243209 0 0 0 0 -301.76863286332809 -311.39486009713437 0 -311.39486009713437 -127.4730971212266 0 0 0 0 -218.82473801238666 -397.03531838688286 0 -397.03531838688286 -446.28759633275331 0 0 0 0 -232.86668924824335 -464.71761891717324 0 -464.71761891717324 -435.80910072746337 0 0 0 0 -135.23005328085856 -395.37168327078689 0 -395.37168327078689 -800.80319749203045 0 0 0 0 -218.25028158305213 -247.34761705045821 0 -247.34761705045821 -440.83502631628653 0 0 0 0 -208.96836604227428 -93.130409803125076 0 -93.130409803125076 -754.69982625669218 0 0 0 0 -288.33093823795207 -86.292730379675049 0 -86.292730379675049 -375.58035270011169 0 0 0 0 -302.02443540288368 -312.71134223546687 0 -312.71134223546687 -222.11479409894673 0 0 0 0 -259.45243103909888 -308.43693841593631 0 -308.43693841593631 -441.68546313167622 0 0 0 0 -282.85796008713078 -289.48088830443157 0 -289.48088830443157 -130.63970703823725 0 0 0 0 -286.22832912142621 -246.17734472986194 0 -246.17734472986194 -151.79733965567721 0 0 0 0 -278.80042853829218 -297.88996869939729 0 -297.88996869939729 -192.76031002259697 0 0 0 0 -291.47533670657867 -297.81160048294259 0 -297.81160048294259 -54.378179273859132 0 0 0 0 -235.23178399805329 -243.00839377559896 0 -243.00839377559896 -128.52401005179854 0 0 0 0 -226.99281071370933 -232.27100184446317 0 -232.27100184446317 -238.37980889872415 0 0 0 0 -217.76280250708805 -202.55882935592672 0 -202.55882935592672 -226.37823824211955 0 0 0 0 -212.584999992745 -245.41566241619876 0 -245.41566241619876 -233.18024284468265 0 0 0 0 -248.55800489458488 -226.26740640349453 0 -226.26740640349453 -228.21822960604914 0 0 0 0 -251.88979143137112 -136.72817435307661 0 -136.72817435307661 -309.24361117405351 0 0 0 0 -236.58923037152272 -215.72207598324167 0 -215.72207598324167 -453.92622011399362 0 0 0 0 -235.84122596803354 -236.80271641764557 0 -236.80271641764557 -226.24175217069569 0 0 0 0 52.899240650993306 -235.65741786858416 0 -235.65741786858416 208.95110719310469 0 0 0 0 -61.83592161006527 -242.01066994070425 0 -242.01066994070425 -912.22803218167974 0 0 0 0 -94.890592721349094 333.43526238098275 0 333.43526238098275 -6.4307528489589458 0 0 0 0 -0.036213485497171405 -1.4083179574525104 0 -1.4083179574525104 -0.67415770093599292 0 0 0 0 -283.76591549995715 -430.43042342229148 0 -430.43042342229148 340.20993059026659 0 0 0 0 -94.498729422688484 -644.22351732317475 0 -644.22351732317475 -913.44455448970257 0 0 0 0 -20.86321191751631 20.672250427596737 0 20.672250427596737 61.996719930190011 0 0 0 0 -1.960925630403608 -10.355011755099646 0 -10.355011755099646 10.158689278359958 0 0 0 0 -395.60997722449247 -760.52762965907459 0 -760.52762965907459 -538.10969372620457 0 0 0 0 -161.52768111063051 -450.50807773873385 0 -450.50807773873385 -516.26919805322541 0 0 0 0 6.4549970319640124 -5.9249299049552064 0 -5.9249299049552064 -16.84826521276409 0 0 0 0 -23.067183079188965 1.6905246561690035 0 1.6905246561690035 3.9336389753121317 0 0 0 0 -24.855611946095451 -39.885338767113353 0 -39.885338767113353 44.668173122103326 0 0 0 0 -4.2224332545010839 19.256756621645764 0 19.256756621645764 17.716612071802956 0 0 0 0 -34.49042970193841 -44.759276967670303 0 -44.759276967670303 23.458727426088444 0 0 0 0 135.21710768206685 -242.16202472066652 0 -242.16202472066652 344.3597165866322 0 0 0 0 3.1323592061857539 -13.221804832875179 0 -13.221804832875179 1.5693757128123025 0 0 0 0 216.27514424285619 283.65673134443932 0 283.65673134443932 863.16396089451155 0 0 0 0 -96.094568027932837 -196.23504391314236 0 -196.23504391314236 -60.116340938082431 0 0 0 0 -7.692092594977197 -1.9864865513338401 0 -1.9864865513338401 3.0198095241938745 0 0 0 0 846.95465572278772 -720.60014114533988 0 -720.60014114533988 2461.9964126367704 0 0 0 0 -44.245604964387894 -397.87382834448726 0 -397.87382834448726 68.691412772226613 0 0 0 0 -66.543727005162509 -107.03433945828147 0 -107.03433945828147 401.05782604889828 0 0 0 0 -88.629909896146273 -72.184444586571772 0 -72.184444586571772 738.08178222177958 0 0 0 0 -688.26864971724626 -305.93545876036842 0 -305.93545876036842 304.37992123658478 0 0 0 0 -187.02542688752874 -310.01843872515019 0 -310.01843872515019 -25.372897687648219 0 0 0 0 -188.64492848962982 -305.29297079077537 0 -305.29297079077537 804.46972560508584 0 0 0 0 -57.245853493564937 -56.685316545605019 0 -56.685316545605019 54.100029671695665 0 0 0 0 4.1223012594686281 -38.631483703999265 0 -38.631483703999265 52.507280277580691 0 0 0 0 -5.7595406943133298 -16.355694867215789 0 -16.355694867215789 28.235430107860594 0 0 0 0 -16.660838507770677 -6.2515595580916852 0 -6.2515595580916852 0.48599584730618517 0 0 0 0 -405.22183956078879 1744.8056064005214 0 1744.8056064005214 -522.36681035204674 0 0 0 0 -693.08961409279254 -91.622537535132551 0 -91.622537535132551 73.620110001065768 0 0 0 0 -67.441941774320696 -6.0879264140050964 0 -6.0879264140050964 28.006334186398355 0 0 0 0 -3.1548576355313003 -33.988790783332021 0 -33.988790783332021 16.625376392600231 0 0 0 0 31.487038055289503 -80.049872876111536 0 -80.049872876111536 66.246712451610904 0 0 0 0 -216.09137654207007 -264.63560564649379 0 -264.63560564649379 106.5636096206581 0 0 0 0 -361.12582749262219 -348.21589480448165 0 -348.21589480448165 367.11613638667041 0 0 0 0 -239.2447758345188 -619.57882868288652 0 -619.57882868288652 828.56309768860228 0 0 0 0 -395.21741113093594 -187.51383704282671 0 -187.51383704282671 177.51835370104527 0 0 0 0 -495.05714588495903 -413.35177623061463 0 -413.35177623061463 -202.75331999933542 0 0 0 0 3.7807444504763339 -4.7346797014796067 0 -4.7346797014796067 6.1206187950019455 0 0 0 0 83.055890706280479 -59.835792157529795 0 -59.835792157529795 82.006563962124346 0 0 0 0 61.599580840702401 435.22614876010994 0 435.22614876010994 404.46369175435393 0 0 0 0 178.92411257907224 228.64788284500173 0 228.64788284500173 -35.407510282893782 0 0 0 0 -629.45948985940777 11.370501223316751 0 11.370501223316751 187.21307348969276 0 0 0 0 -311.24312893743627 389.16360816384258 0 389.16360816384258 174.45323626327445 0 0 0 0 252.84216005447524 -142.3619634846209 0 -142.3619634846209 -35.312684401513252 0 0 0 0 120.54028946602193 -250.64081934459318 0 -250.64081934459318 446.81030993432614 0 0 0 0 98.849220558091474 -156.45353848018931 0 -156.45353848018931 106.49130269128364 0 0 0 0 334.18245194142219 161.13830915321887 0 161.13830915321887 265.9368833178778 0 0 0 0 851.42173811924295 -376.62003165723581 0 -376.62003165723581 48.294029935219442 0 0 0 0 55.445801155059598 -279.59015620908758 0 -279.59015620908758 42.520602154945664 0 0 0 0 134.87628340696392 -154.80284887805465 0 -154.80284887805465 -162.21956201478315 0 0 0 0 89.285878225316992 -134.49665259230096 0 -134.49665259230096 -122.03720712743143 0 0 0 0 417.06068534209044 -98.632377948164503 0 -98.632377948164503 -123.45004092248564 0 0 0 0 123.67679964157287 -2.3295674212495214 0 -2.3295674212495214 145.54163354407501 0 0 0 0 113.03187294823874 -45.66264473818228 0 -45.66264473818228 -28.051577757301857 0 0 0 0 98.180015266378177 -9.7856774230967858 0 -9.7856774230967858 -31.590976220635639 0 0 0 0 61.821481598977698 -97.85176437098562 0 -97.85176437098562 -168.69749321203562 0 0 0 0 186.73356260920991 -82.38554402569207 0 -82.38554402569207 -178.06040738263982 0 0 0 0 92.112905242218403 -52.417977957746189 0 -52.417977957746189 -140.2396586391551 0 0 0 0 106.31093452032655 -48.674360763725417 0 -48.674360763725417 -179.20068318425911 0 0 0 0 69.340942733339034 -28.221154298618785 0 -28.221154298618785 -144.9407974564383 0 0 0 0 71.26176741492236 -33.636937629475142 0 -33.636937629475142 -169.14540716102431 0 0 0 0 37.465828032465652 -56.151823563006474 0 -56.151823563006474 -175.3926084471168 0 0 0 0 93.228786557832791 -94.981191324613974 0 -94.981191324613974 -185.65143790392904 0 0 0 0 70.149042068282142 -82.736164316302165 0 -82.736164316302165 -173.79480317673006 0 0 0 0 32.298929746670183 -103.3997912628256 0 -103.3997912628256 -178.75100032109185 0 0 0 0 89.777860744157806 -99.902409800379246 0 -99.902409800379246 -220.98328804092307 0 0 0 0 74.537520606390899 -131.3137240306678 0 -131.3137240306678 -232.53193651342008 0 0 0 0 -35.649572494992753 -158.68448592457935 0 -158.68448592457935 -157.05786265371717 0 0 0 0 -0.0039106641124817543 -1.2476927697498468 0 -1.2476927697498468 -273.17933491547592 0 0 0 0 21.362875044753309 -84.485798514520866 0 -84.485798514520866 -252.20551719243122 0 0 0 0 22.760710606657085 16.717691573596312 0 16.717691573596312 -180.43894147494575 0 0 0 0 50.991638992913067 16.980652652739082 0 16.980652652739082 -284.66628461882647 0 0 0 0 36.022808451321907 -11.514675497994176 0 -11.514675497994176 -169.70713762877858 0 0 0 0 65.046083986293525 -11.151533927491982 0 -11.151533927491982 -188.12505119868729 0 0 0 0 89.165701708494453 -16.915713164598856 0 -16.915713164598856 -132.44685446485528 0 0 0 0 62.473266961598711 -39.015650455536161 0 -39.015650455536161 -150.7423218418553 0 0 0 0 67.485021244821837 -17.250711114539627 0 -17.250711114539627 -225.19949160618125 0 0 0 0 21.401133878185647 -70.898700304205704 0 -70.898700304205704 -108.80626890962594 0 0 0 0 9.4646173272194574 -95.724434298539563 0 -95.724434298539563 -24.024478908666424 0 0 0 0 26.903245653229533 -21.041663805990538 0 -21.041663805990538 -44.947851092234487 0 0 0 0 -16.308065218312549 -28.131795847388275 0 -28.131795847388275 6.660463240052195 0 0 0 0 -74.389830751344562 -105.68947805450807 0 -105.68947805450807 -58.912369415753346 0 0 0 0 -0.095759990530495998 -123.73608013345802 0 -123.73608013345802 88.391527181453057 0 0 0 0 22.535113673904561 -174.88112094792814 0 -174.88112094792814 193.20090589868869 0 0 0 0 30.184012024474214 -11.559239181562589 0 -11.559239181562589 154.04730489102076 0 0 0 0 21.366913156511146 -144.04140596120851 0 -144.04140596120851 123.22757681034841 0 0 0 0 -17.96361831428294 -115.01565525208207 0 -115.01565525208207 124.94938533371169 0 0 0 0 0.021925453082076274 -123.43211961692214 0 -123.43211961692214 103.65014316607267 0 0 0 0 43.595742842182517 -124.18550098234846 0 -124.18550098234846 89.173825691381353 0 0 0 0 30.195730002124947 -107.68413381087862 0 -107.68413381087862 59.3614217766808 0 0 0 0 33.641940081515713 -131.75493617173447 0 -131.75493617173447 84.893910425722424 0 0 0 0 57.205332341436588 8.8467255173254671 0 8.8467255173254671 -62.070192501370911 0 0 0 0 148.75028160266811 -94.450052836526083 0 -94.450052836526083 5.1282429583807243 0 0 0 0 56.433561883080984 -140.05302981817658 0 -140.05302981817658 100.18296765931518 0 0 0 0 77.67673853506858 -150.79659060371341 0 -150.79659060371341 87.897737986178981 0 0 0 0 68.884700756811071 -136.79565437035126 0 -136.79565437035126 79.641460879603983 0 0 0 0 43.413950789981754 -101.46248259259664 0 -101.46248259259664 62.172525187146675 0 0 0 0 34.013393993853242 -37.412826265324838 0 -37.412826265324838 21.587662288451611 0 0 0 0 38.592587926541455 -17.014194735626006 0 -17.014194735626006 94.676589304945082 0 0 0 0 9.5149039381067269 -73.045414856878779 0 -73.045414856878779 62.277267703168718 0 0 0 0 45.559931331372354 -64.29123002374763 0 -64.29123002374763 63.034973714144144 0 0 0 0 26.700380663074611 -94.440442790398265 0 -94.440442790398265 51.44758922681649 0 0 0 0 21.19089034688659 -62.806042158432319 0 -62.806042158432319 45.667225697365211 0 0 0 0 27.064188471194939 -65.046570750917454 0 -65.046570750917454 44.292866261443123 0 0 0 0 0.0097909668984357268 -109.39853296074762 0 -109.39853296074762 74.649139489017216 0 0 0 0 19.900377242669492 -110.11272772036546 0 -110.11272772036546 53.110181649914011 0 0 0 0 13.468405577033991 -91.284080488916516 0 -91.284080488916516 60.534056022992445 0 0 0 0 2.4104218392603798 -86.498710789686811 0 -86.498710789686811 48.897562957559785 0 0 0 0 -4.4477582870749757 -115.62416211752316 0 -115.62416211752316 52.235849205200338 0 0 0 0 -0.0057289736942038871 -102.50621774734464 0 -102.50621774734464 27.463207305852848 0 0 0 0 0.017406107013812289 -107.1721003040002 0 -107.1721003040002 -12.861839187662554 0 0 0 0 -6.9864395678960136 -118.99012423023851 0 -118.99012423023851 14.580462641941267 0 0 0 0 -0.889138209837256 -111.55727954323083 0 -111.55727954323083 6.3714816566789523 0 0 0 0 -21.152396268837037 -130.82537238792611 0 -130.82537238792611 -7.2498710507334181 0 0 0 0 -18.741294913081219 -99.448280611914015 0 -99.448280611914015 34.202412198203092 0 0 0 0 -16.008942994783865 -102.9654469299312 0 -102.9654469299312 35.874231636506011 0 0 0 0 3.3070266044123855 -56.32749106994288 0 -56.32749106994288 48.27344713491766 0 0 0 0 -60.747350580273633 -73.011014157148566 0 -73.011014157148566 44.61930443546953 0 0 0 0 17.169129190326203 -25.891761794377089 0 -25.891761794377089 41.58063578149131 0 0 0 0 -30.586424175198772 -113.94795658490148 0 -113.94795658490148 17.488350063304097 0 0 0 0 -22.388746043943684 -114.63195522661408 0 -114.63195522661408 17.05120371182602 0 0 0 0 -148.98744035441632 -203.8719498672715 0 -203.8719498672715 -45.853994873286865 0 0 0 0 -5.4443607043339739 -2.9465722883340675 0 -2.9465722883340675 -0.5035004099925402 0 0 0 0 57.459719111269806 -47.799254139463301 0 -47.799254139463301 -123.47770953098916 0 0 0 0 -136.41153301040413 -55.843687978271532 0 -55.843687978271532 47.626100043453334 0 0 0 0 241.1627763545257 -259.66775405539374 0 -259.66775405539374 -240.31761508707859 0 0 0 0 -494.39500701404177 -305.58941689504354 0 -305.58941689504354 637.46351354698345 0 0 0 0 -172.25113322006655 -168.30838439663421 0 -168.30838439663421 414.99228307531575 0 0 0 0 3.8157516753637424 -0.29055732986297045 0 -0.29055732986297045 0.29889097843304846 0 0 0 0 2.1260999568912666 -135.36806338803217 0 -135.36806338803217 -280.25126304888499 0 0 0 0 29.55494326094049 -534.53715876787828 0 -534.53715876787828 435.70808888770625 0 0 0 0 -11.872511740093614 -223.2001632632705 0 -223.2001632632705 135.61209262584453 0 0 0 0 236.23708707213518 -565.79324842280766 0 -565.79324842280766 -77.91387607769866 0 0 0 0 71.130118974862853 -107.4713893526914 0 -107.4713893526914 -176.71268678660999 0 0 0 0 3.0965300534195421 0.58126688055678954 0 0.58126688055678954 -1.3694072355087599 0 0 0 0 -386.89598586283682 -3.6429315931000019 0 -3.6429315931000019 442.05154723752275 0 0 0 0 30.768197706405772 -51.185978166702625 0 -51.185978166702625 27.680088252227506 0 0 0 0 -12.721914626439684 -126.42985642520216 0 -126.42985642520216 57.881133065908216 0 0 0 0 -0.01579356527508935 -103.03304231930997 0 -103.03304231930997 -2.3088519948860267 0 0 0 0 5.3272106324911874 -101.07747509805677 0 -101.07747509805677 -5.942516238992539 0 0 0 0 5.9913313670112984 -102.7508932508606 0 -102.7508932508606 -51.589149481544155 0 0 0 0 -4.1773121255983483 -9.3372471077667853 0 -9.3372471077667853 8.9551807837193351 0 0 0 0 -5.2626168369170045 -59.076285120001558 0 -59.076285120001558 84.895074922813365 0 0 0 0 -11.909526989967844 -36.115396014360556 0 -36.115396014360556 25.573491506992088 0 0 0 0 26.844546251889483 -11.881466444107829 0 -11.881466444107829 6.9304270924830522 0 0 0 0 -2.4156221416706103 -47.40011508224643 0 -47.40011508224643 80.788923258711293 0 0 0 0 0.47603395936312154 -15.576214143617108 0 -15.576214143617108 99.624328219109884 0 0 0 0 -11.824617739635869 -73.135038562340924 0 -73.135038562340924 29.98211976341554 0 0 0 0 23.366726971232239 -43.098238412148447 0 -43.098238412148447 31.310420972647591 0 0 0 0 -39.787912322935881 -113.79317801781144 0 -113.79317801781144 20.022310832457151 0 0 0 0 -4.0759717072478452 -32.673993264183778 0 -32.673993264183778 11.953969886772231 0 0 0 0 84.695546765840845 -51.398318041608945 0 -51.398318041608945 -19.62638700129537 0 0 0 0 13.910178001056579 0.23807786230759831 0 0.23807786230759831 -0.336148841460572 0 0 0 0 -158.09451909072232 25.031781443714863 0 25.031781443714863 250.81101383311125 0 0 0 0 -90.252610294381157 -63.425288462523895 0 -63.425288462523895 3.25181756614802 0 0 0 0 -2.8976350623800045 1.8036397745190555 0 1.8036397745190555 -0.65948897299510634 0 0 0 0 304.99224178536679 121.59333625682302 0 121.59333625682302 133.24039426232957 0 0 0 0 30.647104115632828 -72.154205376571554 0 -72.154205376571554 84.908508427328343 0 0 0 0 -16.850002904626308 -109.50089333271899 0 -109.50089333271899 209.49946626450765 0 0 0 0 -21.193767256560022 -173.61135706560981 0 -173.61135706560981 70.773311289456615 0 0 0 0 16.408862144744489 -72.883342259490746 0 -72.883342259490746 114.86444708364979 0 0 0 0 44.965157418599119 -33.789975075666007 0 -33.789975075666007 72.387687430378719 0 0 0 0 29.211310660321033 -35.038084351795987 0 -35.038084351795987 146.66426187654361 0 0 0 0 32.982614456996089 -70.887325471481745 0 -70.887325471481745 74.144017641774326 0 0 0 0 26.127596311864181 -62.859160471714858 0 -62.859160471714858 46.52383709435162 0 0 0 0 36.53698554035509 -54.139862489551888 0 -54.139862489551888 79.141470242277137 0 0 0 0 -13.996051943962414 -7.9162676166235713 0 -7.9162676166235713 -5.8568386117739379 0 0 0 0 18.16692509407585 -38.408672478872177 0 -38.408672478872177 37.305011716963236 0 0 0 0 19.919860080888611 -74.618551363415463 0 -74.618551363415463 38.068214063125197 0 0 0 0 18.769339763864991 -71.954132981189105 0 -71.954132981189105 45.813522714488499 0 0 0 0 -9.1778503201134072 -22.812877887313647 0 -22.812877887313647 -4.7740281335790371 0 0 0 0 11.927181700547663 -34.606032924359425 0 -34.606032924359425 34.456087590254569 0 0 0 0 -36.622546310623875 -58.747187943967219 0 -58.747187943967219 91.649737955665842 0 0 0 0 11.63915236761386 -41.247456018203593 0 -41.247456018203593 33.285550127231545 0 0 0 0 12.63838499245557 -36.255386369845752 0 -36.255386369845752 49.530590905567138 0 0 0 0 -14.666687408442158 -62.78775160289274 0 -62.78775160289274 49.08651481691777 0 0 0 0 -10.290828997473 -35.110833082482714 0 -35.110833082482714 43.554034504079027 0 0 0 0 -50.600340896577109 -52.794429979796405 0 -52.794429979796405 13.410486822540406 0 0 0 0 9.9493653761555834 -29.530463484160038 0 -29.530463484160038 40.89109356020623 0 0 0 0 -250.90818169147315 -146.94569543236685 0 -146.94569543236685 178.71824184100842 0 0 0 0 -26.614887460542377 -66.307742792527279 0 -66.307742792527279 11.921160684090864 0 0 0 0 -1418.8436334470825 -670.84674332165559 0 -670.84674332165559 95.811435796997102 0 0 0 0 4.5474474843546773 -21.23340916524894 0 -21.23340916524894 13.285639160955299 0 0 0 0 -498.66709571277897 371.37226952505989 0 371.37226952505989 224.983888220886 0 0 0 0 -67.891048130171839 -10.409997379872948 0 -10.409997379872948 -1.5734470114985015 0 0 0 0 955.8560669895669 -1029.4833959667303 0 -1029.4833959667303 -723.3152047181793 0 0 0 0 -662.74273608170188 156.9569864197947 0 156.9569864197947 -116.96774640938384 0 0 0 0 -420.16506866394775 -174.09454040109995 0 -174.09454040109995 334.69585952259149 0 0 0 0 42.401307203803867 -64.694857101707328 0 -64.694857101707328 31.137150117089845 0 0 0 0 -11.503751098236535 -51.65395294596965 0 -51.65395294596965 -10.297440668320633 0 0 0 0 -24.891815099836094 -88.662070844315167 0 -88.662070844315167 2.0031102564305456 0 0 0 0 23.511511467753735 -55.578639821567776 0 -55.578639821567776 2.7369745890318882 0 0 0 0 -99.290990275527292 -19.122658051428516 0 -19.122658051428516 -80.780335039045895 0 0 0 0 53.04151002074633 -57.179272035798249 0 -57.179272035798249 3.5656562536680099 0 0 0 0 861.03741251399333 305.05390103295576 0 305.05390103295576 86.229874563214253 0 0 0 0 -11.444135080164415 -52.325301187796867 0 -52.325301187796867 -2.8053205503383651 0 0 0 0 49.77394322689841 -43.475782933660838 0 -43.475782933660838 -10.857534421430813 0 0 0 0 22.136082500003084 -43.373123352367685 0 -43.373123352367685 15.847921489390586 0 0 0 0 -98.727396519150375 -49.420708848104709 0 -49.420708848104709 80.478648411938224 0 0 0 0 -163.63885490619577 -112.96175208257046 0 -112.96175208257046 -28.821321690222248 0 0 0 0 -2.9298300164040825 -59.101978336747678 0 -59.101978336747678 28.411785285193645 0 0 0 0 -178.36878732492914 -113.69030535922502 0 -113.69030535922502 9.6220484635705361 0 0 0 0 49.128989767135181 -65.550487511271811 0 -65.550487511271811 9.8432651856697078 0 0 0 0 -379.42224788148087 131.37036841944882 0 131.37036841944882 25.472635298712703 0 0 0 0 475.22119419238152 -218.53187891141351 0 -218.53187891141351 -273.58409341958031 0 0 0 0 -11.94213983247073 -12.645504093017507 0 -12.645504093017507 12.212753488195986 0 0 0 0 1.170698322477719 2.5431121661541027 0 2.5431121661541027 -24.784815912397448 0 0 0 0 400.04530207709831 92.846337185555967 0 92.846337185555967 -253.26867454217427 0 0 0 0 -655.98300485868822 -742.56316106160739 0 -742.56316106160739 -254.25020835567284 0 0 0 0 33.524140974594047 -46.499897764437264 0 -46.499897764437264 22.475412127794698 0 0 0 0 -3.9913663508632453 -26.77269507517849 0 -26.77269507517849 12.142640049463807 0 0 0 0 -28.043436643958557 -67.462806776879006 0 -67.462806776879006 38.147149214071419 0 0 0 0 -36.236544146231608 -80.152522726617462 0 -80.152522726617462 22.315065319606219 0 0 0 0 -177.81058893949375 -193.31654067177078 0 -193.31654067177078 106.37842894822461 0 0 0 0 -1.4853620682354745 -24.978483402785841 0 -24.978483402785841 37.141175099407633 0 0 0 0 -269.74144284671638 102.82340426530936 0 102.82340426530936 452.57546823280427 0 0 0 0 6.3073675381235716 1.0815296308670952 0 1.0815296308670952 -4.2764716830754139 0 0 0 0 20.357103495247429 12.615606811574253 0 12.615606811574253 175.54137865076336 0 0 0 0 65.770776772900717 -103.01116974707111 0 -103.01116974707111 -55.391196059419599 0 0 0 0 29.319908852179651 -109.31372351308164 0 -109.31372351308164 126.01189799244457 0 0 0 0 -70.534600650542416 -240.83535296289847 0 -240.83535296289847 -93.153954747233001 0 0 0 0 83.975074217945803 -3.5601428416339331 0 -3.5601428416339331 -38.088293381792028 0 0 0 0 89.231835153070278 61.587607314744673 0 61.587607314744673 93.016292560045258 0 0 0 0 215.88909949045046 -95.075728954265287 0 -95.075728954265287 -182.76079935229791 0 0 0 0 -180.47275399391583 -139.70745999939845 0 -139.70745999939845 12.283884752469021 0 0 0 0 35.920621579199775 -70.573667816397716 0 -70.573667816397716 37.764651053986569 0 0 0 0 -150.99015576549573 13.223926198676054 0 13.223926198676054 78.024473234370816 0 0 0 0 292.04864767452091 -15.489301910882205 0 -15.489301910882205 -397.18862244448974 0 0 0 0 10.767757074132419 -13.642125418796752 0 -13.642125418796752 20.795294213805875 0 0 0 0 -77.008023334434256 -60.351403716002096 0 -60.351403716002096 -1.8120578812831809 0 0 0 0 109.65828757739655 -186.53220642317865 0 -186.53220642317865 -178.07253985121497 0 0 0 0 194.21660784630512 -328.01506875174528 0 -328.01506875174528 -384.03763309825445 0 0 0 0 -333.1179087030323 -623.23597063238412 0 -623.23597063238412 -66.087076048697782 0 0 0 0 -708.75467954998021 -440.67106504092953 0 -440.67106504092953 -52.908306887853541 0 0 0 0 -533.41609988844721 -405.2212904321932 0 -405.2212904321932 -667.68691723089432 0 0 0 0 -490.88484196507488 -4.1953889011201682 0 -4.1953889011201682 -301.01123099864344 0 0 0 0 -77.188661902764579 -227.17200691955441 0 -227.17200691955441 -204.73112386983121 0 0 0 0 -37.890164802985964 -342.79062398141832 0 -342.79062398141832 -23.246006305009359 0 0 0 0 -131.59083267640381 -358.24023770866916 0 -358.24023770866916 -510.17165071214549 0 0 0 0 -0.37322628525947721 -1.8964834705905389 0 -1.8964834705905389 -3.847146270272459 0 0 0 0 -701.58780368830776 20.996485521201976 0 20.996485521201976 36.137447027082089 0 0 0 0 167.11342794750817 457.54545724909985 0 457.54545724909985 498.73976632083941 0 0 0 0 -1.2410548766606553 -37.754562669184764 0 -37.754562669184764 -7.7219186938363027 0 0 0 0 160.6438092810713 158.95945564590511 0 158.95945564590511 63.880014480571845 0 0 0 0 91.701185115962289 -97.562516671085177 0 -97.562516671085177 -11.400303916379926 0 0 0 0 204.57819813203241 -62.082854241340101 0 -62.082854241340101 -93.906418073383975 0 0 0 0 4.9359712013676642 2.5835329468732198 0 2.5835329468732198 -49.244718906335152 0 0 0 0 -58.68744175817119 -198.05679912844789 0 -198.05679912844789 -62.350566674329457 0 0 0 0 -16.059588063407318 -39.305401642277076 0 -39.305401642277076 -5.0606036710619478 0 0 0 0 -105.18653806221846 -107.5779730506838 0 -107.5779730506838 136.03299078264536 0 0 0 0 -184.89883763030957 -87.293661564322974 0 -87.293661564322974 142.49336570774904 0 0 0 0 -109.60393370896782 -9.5942256986381835 0 -9.5942256986381835 80.343409892964701 0 0 0 0 -23.848892386711668 9.0107130976721237 0 9.0107130976721237 79.971891893819702 0 0 0 0 6.3556513127768994 -30.863024160636996 0 -30.863024160636996 79.469496878504287 0 0 0 0 38.560285598810879 -132.35065064387163 0 -132.35065064387163 267.40273725011502 0 0 0 0 -31.876758094967499 -44.325774655293003 0 -44.325774655293003 4.3426917558654345 0 0 0 0 -39.506348831200739 -35.944620141657651 0 -35.944620141657651 134.26582436005447 0 0 0 0 -18.092651572922477 -115.40139193079813 0 -115.40139193079813 70.366820885945344 0 0 0 0 -33.586408516297524 -39.907354115694034 0 -39.907354115694034 79.050721891588182 0 0 0 0 -13.397559046396054 -10.026013208727818 0 -10.026013208727818 94.006181147124153 0 0 0 0 -15.054440147027577 -28.106455573238208 0 -28.106455573238208 -3.4996617111430517 0 0 0 0 -21.770523645740468 -21.793091051040392 0 -21.793091051040392 7.1734253390459344 0 0 0 0 -17.90905824334186 -33.387081798540748 0 -33.387081798540748 8.0198134981492331 0 0 0 0 -6.7937245656357845 -48.586443375595991 0 -48.586443375595991 -2.8205580119101796 0 0 0 0 -5.2400847537941075 -28.766379871666231 0 -28.766379871666231 -2.0965270972768337 0 0 0 0 1.3768274350113643 -56.609614655309997 0 -56.609614655309997 4.1554462714702822 0 0 0 0 -9.3373954874957796 -22.854473678241561 0 -22.854473678241561 35.491357122229658 0 0 0 0 8.1586332875618268 -35.201924417036736 0 -35.201924417036736 13.826372626693917 0 0 0 0 1.3504818497312954 -56.506775419722544 0 -56.506775419722544 3.9004337420483353 0 0 0 0 -10.451326680675265 -54.49758782992285 0 -54.49758782992285 15.217475692174048 0 0 0 0 12.910506693893694 -62.113878126678173 0 -62.113878126678173 -4.6767196838191012 0 0 0 0 23.48829430754995 -31.469034884445136 0 -31.469034884445136 28.051057127857348 0 0 0 0 3.1359322049479985 -26.793058698409567 0 -26.793058698409567 17.832621996823292 0 0 0 0 58.907677218696335 -64.923241676980979 0 -64.923241676980979 47.467134277627338 0 0 0 0 53.806030503255897 -14.48268170060328 0 -14.48268170060328 11.260969649734761 0 0 0 0 9.9096024577083881 -67.494117944890604 0 -67.494117944890604 -35.194963123969501 0 0 0 0 31.068039872712689 -24.476244302364648 0 -24.476244302364648 34.729518383945106 0 0 0 0 -12.1538359062979 -6.9050450037466362 0 -6.9050450037466362 31.074746251877514 0 0 0 0 -20.477596526383422 -40.521153265595785 0 -40.521153265595785 61.031711212111986 0 0 0 0 -17.9044986286317 -17.865374548462569 0 -17.865374548462569 54.611597174280178 0 0 0 0 -19.185407977085561 -35.893430874340993 0 -35.893430874340993 33.082037007377949 0 0 0 0 -39.418433471146272 1.2462067609958467 0 1.2462067609958467 27.836196022584772 0 0 0 0 -16.411078964592889 -14.826730615270208 0 -14.826730615270208 14.296383993561903 0 0 0 0 -24.030414262320846 -15.992892737718648 0 -15.992892737718648 36.711159278129344 0 0 0 0 -16.877037813440836 -2.6884931698160131 0 -2.6884931698160131 10.101313006028292 0 0 0 0 -91.220777696958976 -235.65451867522643 0 -235.65451867522643 -419.67277680795451 0 0 0 0 -217.21119447541423 -226.9399661518255 0 -226.9399661518255 -168.19013439488481 0 0 0 0 43.64460813311598 -14.433859028016741 0 -14.433859028016741 -5.8572315636120038 0 0 0 0 -7.8556097555121553 -16.041809398682062 0 -16.041809398682062 23.229998674171611 0 0 0 0 39.105330579273868 -6.3981278842475149 0 -6.3981278842475149 29.264119805295195 0 0 0 0 44.809841463618795 -26.506154566704936 0 -26.506154566704936 -2.7779768106120173 0 0 0 0 -80.844637682515895 -187.38339930133952 0 -187.38339930133952 -196.16370687614108 0 0 0 0 13.626269420111299 -14.317582226297368 0 -14.317582226297368 4.0803967219786301 0 0 0 0 -54.57686280618509 -120.8684509994273 0 -120.8684509994273 -81.594645072924322 0 0 0 0 -75.744108322985994 -167.02549570005431 0 -167.02549570005431 -181.56862189546518 0 0 0 0 -150.09561673821008 -158.82315856993227 0 -158.82315856993227 19.425714318422251 0 0 0 0 -148.09440376191924 -154.55603515454277 0 -154.55603515454277 -34.37940985973546 0 0 0 0 -128.54134810925461 -201.97511363898229 0 -201.97511363898229 -167.29503872775535 0 0 0 0 -150.84131345294008 -214.3124383030663 0 -214.3124383030663 -36.425668432864768 0 0 0 0 -169.5902344538481 -215.8427985047274 0 -215.8427985047274 6.1693658430594951 0 0 0 0 -94.365579942030308 -117.25051844920199 0 -117.25051844920199 -87.672184603754431 0 0 0 0 9.7976169465546263 -210.17630537333025 0 -210.17630537333025 -16.827210609684698 0 0 0 0 112.80573217003257 -23.378823088060017 0 -23.378823088060017 -29.332458329285146 0 0 0 0 732.43754781279131 282.13946318597664 0 282.13946318597664 -137.22611423756462 0 0 0 0 255.07617824463523 -97.202213944263349 0 -97.202213944263349 -118.39346490370372 0 0 0 0 355.91358719041455 -73.188284403222497 0 -73.188284403222497 -124.03614172623202 0 0 0 0 0.58234184756891239 0.075648220675518019 0 0.075648220675518019 -8.0491168939495594 0 0 0 0 -28.164951111422852 -162.41382455989515 0 -162.41382455989515 -51.26821803387611 0 0 0 0 215.42927449251874 14.15009056400595 0 14.15009056400595 -32.927615821856307 0 0 0 0 223.03055152426532 265.38524426835647 0 265.38524426835647 78.508098642050754 0 0 0 0 -209.32439170495491 -58.361406895892287 0 -58.361406895892287 47.929689054348273 0 0 0 0 -5.3824111584136745 0.10835109846134827 0 0.10835109846134827 0.54522796067478652 0 0 0 0 -203.47428403153538 -462.50595038980686 0 -462.50595038980686 -350.89229126888677 0 0 0 0 6.6539823405619245 -421.9063187655629 0 -421.9063187655629 -708.54228773648356 0 0 0 0 -118.03464367608831 -275.80916383126896 0 -275.80916383126896 -166.41374682053356 0 0 0 0 -136.0632020175799 -109.53923466478773 0 -109.53923466478773 -468.3436045308772 0 0 0 0 -55.601968487899285 -99.950342702453781 0 -99.950342702453781 -148.43314272817224 0 0 0 0 -4.2372394093067953 -5.0679390955386907 0 -5.0679390955386907 -1.7256172809251211 0 0 0 0 32.449500013914076 -23.509213323235599 0 -23.509213323235599 -25.538065751359682 0 0 0 0 134.875101315949 -53.586587727535516 0 -53.586587727535516 -126.8005393169442 0 0 0 0 -14.676530847188246 -43.266140466981199 0 -43.266140466981199 -28.269323810252075 0 0 0 0 -7.9333012412425887 -71.746889499466988 0 -71.746889499466988 8.2025760036485735 0 0 0 0 -85.879305719266995 -118.65654321771945 0 -118.65654321771945 27.975289786021676 0 0 0 0 -15.852412355457727 -46.621419633016473 0 -46.621419633016473 6.8547691412772167 0 0 0 0 -3.5640411935164593 -50.097899429230893 0 -50.097899429230893 -6.5760049446980702 0 0 0 0 -17.949122718418948 -58.359260092838667 0 -58.359260092838667 5.262180014333353 0 0 0 0 -104.44737957741745 -58.690883661136468 0 -58.690883661136468 22.556883571731305 0 0 0 0 -21.803502647018831 -31.458332963600498 0 -31.458332963600498 -28.883972959985286 0 0 0 0 -10.900692968949443 -45.533695297874146 0 -45.533695297874146 1.7850924747690442 0 0 0 0 4.7260933513534837 -52.914298713105381 0 -52.914298713105381 -6.4852553141463432 0 0 0 0 -6.2458088804792169 -24.422599912375517 0 -24.422599912375517 -24.970635919171528 0 0 0 0 -8.3696773599717638 -25.687117660170713 0 -25.687117660170713 5.3388442819087913 0 0 0 0 -18.285856550864992 -33.332852813950922 0 -33.332852813950922 15.238320745032979 0 0 0 0 -25.669235476438189 -33.810413894894737 0 -33.810413894894737 30.680577677165275 0 0 0 0 -6.763751417247363 -27.993628566246542 0 -27.993628566246542 -5.58199854169753 0 0 0 0 -20.406898538130918 -51.94543919183343 0 -51.94543919183343 11.719301323639229 0 0 0 0 -17.481489999780024 -37.978856822861417 0 -37.978856822861417 20.617163352420903 0 0 0 0 -38.855607959776535 -59.210537950086291 0 -59.210537950086291 20.145451541036891 0 0 0 0 -11.020835911836912 -57.454027992549527 0 -57.454027992549527 14.035302530770423 0 0 0 0 -27.185252915951423 -20.116890520061133 0 -20.116890520061133 -0.014810963824857026 0 0 0 0 -47.263074301357847 -46.866446755375364 0 -46.866446755375364 19.29770081503375 0 0 0 0 -81.965920685426681 6.5636476899308036 0 6.5636476899308036 -11.353503473463206 0 0 0 0 -34.794268200173974 -50.938488577252429 0 -50.938488577252429 8.8722144048369955 0 0 0 0 -100.6583580805891 -54.786517819833534 0 -54.786517819833534 22.821247214917094 0 0 0 0 -86.546662785403896 5.0037365021125879 0 5.0037365021125879 40.206312291156792 0 0 0 0 -4.7240263573975483 -7.9852943623518726 0 -7.9852943623518726 1.8245017284380864 0 0 0 0 3.6168314575770637 -74.691487563130067 0 -74.691487563130067 -76.592929016478593 0 0 0 0 6.4759771365503127 -3.9870936686606626 0 -3.9870936686606626 -6.3001419002894465 0 0 0 0 -140.51538763544522 -84.240845073021774 0 -84.240845073021774 -36.47601188626868 0 0 0 0 -84.833806478505721 -69.90730412983703 0 -69.90730412983703 -37.179482270817971 0 0 0 0 3.6934625547878568 -8.6378486088124902 0 -8.6378486088124902 0.35943953893547587 0 0 0 0 13.066258754217415 -4.7948337681445992 0 -4.7948337681445992 -2.1573763935521129 0 0 0 0 50.980200557256467 -14.946718202867487 0 -14.946718202867487 -97.125939669185755 0 0 0 0 -2.4859887567486361 -21.359468104541719 0 -21.359468104541719 -22.66092386070062 0 0 0 0 29.491151461483241 -33.071855150033116 0 -33.071855150033116 -65.545531461146311 0 0 0 0 33.022093316954852 -36.455004304345493 0 -36.455004304345493 -65.778495149897935 0 0 0 0 -0.59238381648083305 -83.598158315025103 0 -83.598158315025103 -92.645121762478084 0 0 0 0 18.151954776622006 3.3633803047105175 0 3.3633803047105175 -94.315441298254882 0 0 0 0 269.37590826630185 11.696148519222334 0 11.696148519222334 -7.1718986544437939 0 0 0 0 326.30119427466479 -480.71181676404535 0 -480.71181676404535 241.2788406879481 0 0 0 0 -23.673902985450695 4.0849683581400313 0 4.0849683581400313 29.853885338172404 0 0 0 0 1.7583590980177917 -2.5862842683794369 0 -2.5862842683794369 1.816339188411277 0 0 0 0 45.87135337159998 -218.74529081945911 0 -218.74529081945911 107.2734540237725 0 0 0 0 161.68402213678564 -56.437535405004382 0 -56.437535405004382 -139.65765543136513 0 0 0 0 -4.5123207481690315 -11.078415127410182 0 -11.078415127410182 -7.2393685126401834 0 0 0 0 292.13311687457644 -263.32495914816536 0 -263.32495914816536 192.07926729774772 0 0 0 0 345.67026157260352 -335.5534443571737 0 -335.5534443571737 171.87629637615464 0 0 0 0 247.90346116601722 -317.3558135960775 0 -317.3558135960775 366.19731549113931 0 0 0 0 425.19880149306846 -366.69571315943176 0 -366.69571315943176 184.29942576572648 0 0 0 0 345.85527453013856 -336.26967271275316 0 -336.26967271275316 172.87479653127957 0 0 0 0 392.5335897463865 -323.03169599373177 0 -323.03169599373177 153.55023057534709 0 0 0 0 354.16684338880441 -366.07152779129137 0 -366.07152779129137 187.37884873840085 0 0 0 0 193.83967752948229 -281.90599677700811 0 -281.90599677700811 155.53569766384317 0 0 0 0 105.70579142439237 -259.68823762944521 0 -259.68823762944521 329.47682769037056 0 0 0 0 -47.946010525032762 -34.502321735328223 0 -34.502321735328223 132.33729876550206 0 0 0 0 260.60047427772224 -219.17334514342292 0 -219.17334514342292 113.95721042848891 0 0 0 0 138.61036536206666 -135.06398819200695 0 -135.06398819200695 106.98894704476334 0 0 0 0 315.14019814828134 -239.96873577168299 0 -239.96873577168299 172.34483662788989 0 0 0 0 361.02781189874804 -237.47948622932017 0 -237.47948622932017 13.079993955936516 0 0 0 0 388.783700381784 -322.10103330075799 0 -322.10103330075799 119.64750547673611 0 0 0 0 350.26764800833189 -347.40156374454818 0 -347.40156374454818 174.87979112351604 0 0 0 0 380.34172313038289 -302.81678808437209 0 -302.81678808437209 226.68658453485114 0 0 0 0 435.75085461430717 -360.4061799042538 0 -360.4061799042538 253.18082103870256 0 0 0 0 386.31390348047717 -277.38861313964298 0 -277.38861313964298 313.11327053177229 0 0 0 0 394.14655666879844 -330.30085243728536 0 -330.30085243728536 204.55756519571878 0 0 0 0 312.16326930801733 -243.09394779968716 0 -243.09394779968716 271.3392021660693 0 0 0 0 213.46055092019378 -225.44551237827181 0 -225.44551237827181 207.54008527973201 0 0 0 0 295.44128006706887 -280.59201862305781 0 -280.59201862305781 201.5819022081414 0 0 0 0 297.45500562609232 -185.31811411520903 0 -185.31811411520903 -25.306573530197056 0 0 0 0 -1.4704876717834274 -2.6116575868659453 0 -2.6116575868659453 -3.6882954191130466 0 0 0 0 192.23813302941562 31.730680070046219 0 31.730680070046219 -110.39834607944249 0 0 0 0 -56.275869564463392 31.191684485957467 0 31.191684485957467 41.907645768267685 0 0 0 0 -127.98383193570771 -116.42127246668679 0 -116.42127246668679 27.633146481632139 0 0 0 0 -88.951949330807111 -30.707641476294157 0 -30.707641476294157 -6.4452949775732122 0 0 0 0 -241.95357126947783 7.44949582604022 0 7.44949582604022 113.01720904499234 0 0 0 0 -299.67757313473703 -187.55391416947441 0 -187.55391416947441 -0.36544614084414206 0 0 0 0 -47.123347567379824 -208.57737507206912 0 -208.57737507206912 -36.839625702908961 0 0 0 0 -947.86198839917779 56.144748145859921 0 56.144748145859921 125.4193018613787 0 0 0 0 -501.6180087450557 -373.92199225787772 0 -373.92199225787772 79.375677546893712 0 0 0 0 87.835449094083742 -514.30392891142401 0 -514.30392891142401 111.95801725871206 0 0 0 0 -1617.7707287998783 332.6491559947026 0 332.6491559947026 654.15063178463606 0 0 0 0 -1.4894714947923973 -1.9990987551632031 0 -1.9990987551632031 -1.3169981309128787 0 0 0 0 -1343.5047397119852 -417.25353261734563 0 -417.25353261734563 -170.55830838404654 0 0 0 0 648.13040085981629 -429.22507131374732 0 -429.22507131374732 -54.801158027228666 0 0 0 0 90.773111569076718 -566.27030216479034 0 -566.27030216479034 -531.2253802384912 0 0 0 0 -319.70221882925398 -780.86104408253959 0 -780.86104408253959 997.79918963063756 0 0 0 0 847.82230746083951 -254.5586470342314 0 -254.5586470342314 33.648428067499481 0 0 0 0 165.15469083398057 -154.66219149598601 0 -154.66219149598601 260.9982950926933 0 0 0 0 -0.6369369560563527 0.19631399473779254 0 0.19631399473779254 -0.75763482295255358 0 0 0 0 290.56638637710421 -77.15343504325574 0 -77.15343504325574 187.66373949676563 0 0 0 0 498.48883883191183 -408.33152545079747 0 -408.33152545079747 356.56858808602556 0 0 0 0 487.82438979137805 -194.11892862799868 0 -194.11892862799868 182.24859704189294 0 0 0 0 522.04588945402065 -684.16544234665344 0 -684.16544234665344 599.49825313802285 0 0 0 0 455.45247085555457 -409.15692049961945 0 -409.15692049961945 390.73942003371485 0 0 0 0 411.92633516783826 -286.97789545064734 0 -286.97789545064734 250.3366294403022 0 0 0 0 406.68503551438289 -403.49117118732238 0 -403.49117118732238 408.03415534316446 0 0 0 0 648.01470969378715 -420.58432604506379 0 -420.58432604506379 659.73063810278836 0 0 0 0 351.01850320089579 -472.14130283200939 0 -472.14130283200939 672.96086752900737 0 0 0 0 357.26264894136693 -232.17682164936559 0 -232.17682164936559 450.37853304474265 0 0 0 0 750.38929304909652 -651.23522847481127 0 -651.23522847481127 300.72618429873546 0 0 0 0 407.42172314738855 -400.96333535667509 0 -400.96333535667509 470.77560921374243 0 0 0 0 23.293005662450639 4.7154177096248873 0 4.7154177096248873 -2.8745971634169365 0 0 0 0 109.51843408527202 -92.100838129190379 0 -92.100838129190379 -210.91857981665999 0 0 0 0 62.602185594616458 20.009507937902526 0 20.009507937902526 -194.78127631280404 0 0 0 0 92.76972611839301 -106.81195359932462 0 -106.81195359932462 -185.27206840530562 0 0 0 0 55.778012805283652 -127.57436007091019 0 -127.57436007091019 -29.625024607172236 0 0 0 0 24.135297077409376 -20.666298972224659 0 -20.666298972224659 -7.3140132236837303 0 0 0 0 34.829310275541502 9.9704753669793718 0 9.9704753669793718 -59.414540858318105 0 0 0 0 8.7762435387849109 -87.715752318585146 0 -87.715752318585146 -48.550626043317607 0 0 0 0 8.8937630796863232 -78.40390897821635 0 -78.40390897821635 -36.990569052213687 0 0 0 0 26.665837208701703 -28.541498395978593 0 -28.541498395978593 -6.8433430058947806 0 0 0 0 5.5288688420987455 -42.572568856594444 0 -42.572568856594444 7.9746932041744003 0 0 0 0 360.00443965496379 -705.45235746522667 0 -705.45235746522667 649.33463282766752 0 0 0 0 3.5129623277959325 -1.6381118742846184 0 -1.6381118742846184 -2.2960925409816468 0 0 0 0 -235.00986169434327 -141.05202373386055 0 -141.05202373386055 331.0370893462823 0 0 0 0 178.50308907282306 -11.16398674568336 0 -11.16398674568336 -278.17297599124868 0 0 0 0 20.652000105717548 -34.555004936984631 0 -34.555004936984631 43.512282954841908 0 0 0 0 -97.023156450930401 -263.40168304248073 0 -263.40168304248073 171.21862773640578 0 0 0 0 -673.23899286794767 261.91345410378926 0 261.91345410378926 218.11364592149403 0 0 0 0 42.016397692881583 202.23748372539831 0 202.23748372539831 103.9026821374573 0 0 0 0 4.5429344994818734 -1.7506164939762883 0 -1.7506164939762883 2.0385374362702038 0 0 0 0 246.61384655079746 -133.49195238339598 0 -133.49195238339598 -110.93333695832371 0 0 0 0 224.85921942778805 -336.10063362474966 0 -336.10063362474966 121.25892517977627 0 0 0 0 -78.106800473251496 -161.19642944053339 0 -161.19642944053339 26.446405486683943 0 0 0 0 -69.153873882183689 -201.66180661977705 0 -201.66180661977705 0.41656882758979918 0 0 0 0 -194.62784694784204 -160.17144172133703 0 -160.17144172133703 224.83635594751104 0 0 0 0 -196.41338745987741 -140.07422983544166 0 -140.07422983544166 11.836710108582338 0 0 0 0 -134.23217573069269 -133.24035830284265 0 -133.24035830284265 -16.746552211639937 0 0 0 0 -162.14437458616158 -121.80308965807126 0 -121.80308965807126 5.0572111168221454 0 0 0 0 -53.331502782122698 -61.818451878407359 0 -61.818451878407359 19.215736240439583 0 0 0 0 -102.23061807132035 -117.15022411087921 0 -117.15022411087921 -43.053916150747682 0 0 0 0 24.748583000327926 -150.24742426017474 0 -150.24742426017474 -34.789296021597693 0 0 0 0 -281.70661946953624 -4.56596086765785 0 -4.56596086765785 84.48417548078578 0 0 0 0 18.818841082465951 6.5223249420014326 0 6.5223249420014326 -130.59218136023992 0 0 0 0 -207.42435963984462 42.122640222907648 0 42.122640222907648 -48.981366172309208 0 0 0 0 41.734203327156138 -57.513999908202095 0 -57.513999908202095 86.56475555698853 0 0 0 0 -130.61009722244853 -193.03500266028959 0 -193.03500266028959 -16.196934986597626 0 0 0 0 134.85453055970174 -88.53928189235603 0 -88.53928189235603 -8.679674343104125 0 0 0 0 115.74918562670064 -238.49410536394862 0 -238.49410536394862 83.160295916310133 0 0 0 0 383.59670816163271 -51.905605113977799 0 -51.905605113977799 115.12844156542269 0 0 0 0 149.0099178149394 -170.17093620062951 0 -170.17093620062951 232.65831907524625 0 0 0 0 143.26998848224775 -108.91245236980467 0 -108.91245236980467 84.281015840766486 0 0 0 0 -12.775824698750512 -174.50880252973002 0 -174.50880252973002 134.73452835599346 0 0 0 0 -107.51540007410949 -62.51674697161252 0 -62.51674697161252 74.558747804956511 0 0 0 0 -157.59675311005867 -18.001227907890325 0 -18.001227907890325 90.34008189621818 0 0 0 0 -86.94525445310137 -40.710243056984837 0 -40.710243056984837 97.630221391063969 0 0 0 0 -0.17230934537474241 -9.8654084767558174 0 -9.8654084767558174 12.843944166688004 0 0 0 0 -26.054885457037017 -87.134148584907962 0 -87.134148584907962 73.257068957442243 0 0 0 0 -6.1140890584938461 -81.641046461012593 0 -81.641046461012593 33.228885686068679 0 0 0 0 -51.069526112492895 -40.027719237179554 0 -40.027719237179554 5.2077574574723258 0 0 0 0 21.938407703875384 -41.930125116956148 0 -41.930125116956148 66.558084087548153 0 0 0 0 -6.5517167219222756 -48.538890001807886 0 -48.538890001807886 -9.0971639443741878 0 0 0 0 -28.371619645418832 -16.745509817716083 0 -16.745509817716083 -27.76726772395341 0 0 0 0 -24.179869479583431 -31.356507459448949 0 -31.356507459448949 -5.460303014551755 0 0 0 0 -350.07439784456801 40.743588566227118 0 40.743588566227118 144.1112843228766 0 0 0 0 30.65724143988875 -61.832982241157367 0 -61.832982241157367 44.653407584957293 0 0 0 0 -376.01243947519106 -90.622436882946204 0 -90.622436882946204 112.78762286233541 0 0 0 0 -158.47414587452658 -81.853910316174733 0 -81.853910316174733 -75.027039906305617 0 0 0 0 -208.93498454606743 -50.177568868362869 0 -50.177568868362869 4.4488409645819047 0 0 0 0 -25.524543698134948 67.726517768311169 0 67.726517768311169 45.986450153191981 0 0 0 0 26.158487169217551 -12.17635576959583 0 -12.17635576959583 -30.649783109362033 0 0 0 0 -107.88066881869599 214.08783593872249 0 214.08783593872249 186.75625626223336 0 0 0 0 271.43981439963682 -578.62490030597473 0 -578.62490030597473 195.48139623771874 0 0 0 0 -183.89657990515116 82.778491151584603 0 82.778491151584603 139.61379091924027 0 0 0 0 -292.74953424336854 23.49679432747871 0 23.49679432747871 296.63232371248159 0 0 0 0 180.04696507412518 -451.28974506357417 0 -451.28974506357417 -2.8153027390580974 0 0 0 0 201.19851310069498 99.465456792990153 0 99.465456792990153 -52.40970165503677 0 0 0 0 27.017461574967058 -45.31925237681002 0 -45.31925237681002 76.294521454474364 0 0 0 0 -56.935196893464308 -66.358449051531352 0 -66.358449051531352 106.73500553089252 0 0 0 0 -136.86389687134215 -182.40975595789496 0 -182.40975595789496 101.46643755941568 0 0 0 0 -5.8437260484468254 -7.2516968141598568 0 -7.2516968141598568 -6.9021202683988463 0 0 0 0 113.84368466547312 -49.245350378430885 0 -49.245350378430885 26.097287143631547 0 0 0 0 334.5675354009727 -225.22088171194628 0 -225.22088171194628 58.449262239075324 0 0 0 0 272.86197593840188 -97.875237319429289 0 -97.875237319429289 -1.6303256141400198 0 0 0 0 105.21609955493477 -189.25242870276998 0 -189.25242870276998 103.61242517441315 0 0 0 0 3.7902997809491836 -22.542471034846926 0 -22.542471034846926 -13.068233505580878 0 0 0 0 -58.919451473895606 -69.166611271641159 0 -69.166611271641159 33.248468193982262 0 0 0 0 58.837286624890112 -160.59335307743095 0 -160.59335307743095 1.3158716192065185 0 0 0 0 22.89256414818891 -48.39403639402353 0 -48.39403639402353 83.261758380790411 0 0 0 0 -348.00540048195398 -83.302353803986989 0 -83.302353803986989 151.52501721860972 0 0 0 0 -167.34622440300882 -40.538613542734311 0 -40.538613542734311 54.354890599104692 0 0 0 0 -221.25525950732117 19.197231008940435 0 19.197231008940435 32.127354011958232 0 0 0 0 -157.38809743698221 -76.542771567263117 0 -76.542771567263117 81.034017454920104 0 0 0 0 -64.956251796422293 -90.084028183337068 0 -90.084028183337068 52.458004249878286 0 0 0 0 -30.249804648628924 -94.429680583540176 0 -94.429680583540176 59.753216792654712 0 0 0 0 -159.49371079350567 -45.777445608619814 0 -45.777445608619814 -11.952185684051074 0 0 0 0 36.946365161362337 -79.175524282545666 0 -79.175524282545666 23.892108334410295 0 0 0 0 35.12260886471995 -41.274215796358476 0 -41.274215796358476 59.370879625392263 0 0 0 0 24.485665619179883 -63.550145788546736 0 -63.550145788546736 49.57159128625355 0 0 0 0 26.969784437183989 -74.852229031799652 0 -74.852229031799652 32.244543152308324 0 0 0 0 -53.917980134969014 -35.238559700186869 0 -35.238559700186869 31.33975137203177 0 0 0 0 -1.1379790877253981 -133.62297306586697 0 -133.62297306586697 75.255755874254191 0 0 0 0 48.31829280416423 -149.30957897914959 0 -149.30957897914959 185.95560152857797 0 0 0 0 272.52674048754125 -150.38314582293606 0 -150.38314582293606 55.935983550414676 0 0 0 0 -15.854656164029919 1.3530989544968719 0 1.3530989544968719 8.6503520632881532 0 0 0 0 1.1303923640516587 -59.388342973623367 0 -59.388342973623367 85.30291376018431 0 0 0 0 4.5339956789539428 -116.51409693019014 0 -116.51409693019014 22.067956956437911 0 0 0 0 -96.129753118926601 11.941429266471459 0 11.941429266471459 10.194118427854846 0 0 0 0 -73.749610727652907 -39.713830466524087 0 -39.713830466524087 27.210059938268387 0 0 0 0 470.11553914341494 -47.788315795491144 0 -47.788315795491144 -141.81251615910878 0 0 0 0 3.3030793234064504 -7.6513068999044549 0 -7.6513068999044549 22.751616636561764 0 0 0 0 -269.17792596526851 -80.144762488846027 0 -80.144762488846027 82.424505942071846 0 0 0 0 -3.1127881810680265 117.67521968114488 0 117.67521968114488 109.02112160810066 0 0 0 0 -218.37052741280058 -258.70774838101715 0 -258.70774838101715 120.97928859730018 0 0 0 0 32.844438183650425 -65.920596539661318 0 -65.920596539661318 51.64978050207214 0 0 0 0 -145.19025699493795 -62.02844034495638 0 -62.02844034495638 25.262071825316525 0 0 0 0 -273.04396110583912 -179.64202098622036 0 -179.64202098622036 109.91838221135367 0 0 0 0 -185.5864856335902 -242.60919084926718 0 -242.60919084926718 250.12262275867033 0 0 0 0 32.329396267070138 -66.720046681596529 0 -66.720046681596529 52.063009913491797 0 0 0 0 -539.18064104130463 -301.34693927443368 0 -301.34693927443368 356.63182278916065 0 0 0 0 909.00688721046754 0.054647523807943799 0 0.054647523807943799 -219.82654619839013 0 0 0 0 1.0848211496544025 -2.96484060340768 0 -2.96484060340768 6.7078398584132373 0 0 0 0 188.92852983518969 -357.34681137930602 0 -357.34681137930602 -113.67045813370351 0 0 0 0 266.85319464516942 264.9815722117437 0 264.9815722117437 1.068971001994214 0 0 0 0 -43.935475851030787 -57.215131518762064 0 -57.215131518762064 -17.559669819249393 0 0 0 0 -20.452342649019556 -53.766997343200273 0 -53.766997343200273 -38.812740659330302 0 0 0 0 -32.51638626144333 -40.04033394563794 0 -40.04033394563794 -27.611536778290052 0 0 0 0 -26.189622926147422 -69.881886186194606 0 -69.881886186194606 28.640153569183894 0 0 0 0 2.5136131466770166 -228.07325250129406 0 -228.07325250129406 -191.59288244840718 0 0 0 0 0.3106618300582511 -9.4242442770719919 0 -9.4242442770719919 -8.3043274919893477 0 0 0 0 -30.161177203059196 -67.039665852440521 0 -67.039665852440521 3.4371848504524678 0 0 0 0 24.147205050532648 -49.930577925229954 0 -49.930577925229954 -7.1837711615371518 0 0 0 0 -56.557805239426671 -94.001470060320571 0 -94.001470060320571 11.306597576352942 0 0 0 0 -23.712549289542949 32.668673574713466 0 32.668673574713466 -45.003793892115937 0 0 0 0 -54.661862523007585 89.646174875447286 0 89.646174875447286 62.086597832239931 0 0 0 0 -84.559708337354095 -181.12179403430855 0 -181.12179403430855 -50.048373138561146 0 0 0 0 108.23169094201876 -322.81563545988683 0 -322.81563545988683 -57.130307900617481 0 0 0 0 464.34480132180033 -77.227577519654005 0 -77.227577519654005 -189.66520487242087 0 0 0 0 -115.18945777205226 -17.922517317485472 0 -17.922517317485472 192.82134176806358 0 0 0 0 -80.032194286206504 -49.592616423604341 0 -49.592616423604341 103.39730995803984 0 0 0 0 -35.597316527479819 -39.774715684521752 0 -39.774715684521752 -30.864000226658533 0 0 0 0 -10.718919673234993 -6.8171104566414442 0 -6.8171104566414442 11.461741883222373 0 0 0 0 -18.057912881115044 -46.335194531089655 0 -46.335194531089655 -49.097311111563613 0 0 0 0 1072.0347260362905 -647.8662167036091 0 -647.8662167036091 -275.65791092513246 0 0 0 0 -425.68435997289635 -114.00670648057712 0 -114.00670648057712 382.12949826147815 0 0 0 0 1127.4541607129213 -998.79773747587751 0 -998.79773747587751 1293.004564983974 0 0 0 0 8.3306841840685024 -6.2172858034310536 0 -6.2172858034310536 -10.390458526345057 0 0 0 0 1051.3801843948604 -16.337087381631136 0 -16.337087381631136 -844.612370590512 0 0 0 0 974.05335171250044 -424.12883783326834 0 -424.12883783326834 -581.11762028909288 0 0 0 0 914.30073494787212 -197.04373183177086 0 -197.04373183177086 -410.52765704880585 0 0 0 0 4.8317341502163345 1.5486534844195887 0 1.5486534844195887 0.64063807579420029 0 0 0 0 178.61423171529896 -41.950362761679571 0 -41.950362761679571 458.47105882126198 0 0 0 0 -23.57743691693031 326.01707583476673 0 326.01707583476673 -377.22909315185098 0 0 0 0 348.65435898373835 20.943305866207083 0 20.943305866207083 -220.66116497432813 0 0 0 0 -142.58368505258841 292.3632766761275 0 292.3632766761275 -57.455900994929834 0 0 0 0 104.16946256747178 250.88052169423099 0 250.88052169423099 -258.72613306668063 0 0 0 0 -497.90864706863067 123.86958966236853 0 123.86958966236853 -222.16344352933811 0 0 0 0 -161.19164682920382 -16.512586013497639 0 -16.512586013497639 -500.21328511554748 0 0 0 0 -116.38176140034193 280.99505211896758 0 280.99505211896758 501.72771568357712 0 0 0 0 102.74402422469575 -163.74297895880591 0 -163.74297895880591 -420.1753510824492 0 0 0 0 133.65248781675473 -268.8043877043674 0 -268.8043877043674 -259.59661242560105 0 0 0 0 104.58004288146913 -160.76917428723391 0 -160.76917428723391 -385.05597794615551 0 0 0 0 109.27067677113519 -125.81326752980021 0 -125.81326752980021 -346.00895190699885 0 0 0 0 -245.5300729361843 -231.32069159115417 0 -231.32069159115417 -371.40159680318902 0 0 0 0 -5.1030789617384755 -3.9261510952869969 0 -3.9261510952869969 -2.4316654924801924 0 0 0 0 97.515411820751979 -183.11533656369238 0 -183.11533656369238 114.1382821550651 0 0 0 0 104.38319367001532 -136.47623821577145 0 -136.47623821577145 83.896990241977619 0 0 0 0 -3.1994870938550832 -19.147693097348906 0 -19.147693097348906 -2.6627847677094394 0 0 0 0 -14.181728827271542 -20.265348659146895 0 -20.265348659146895 -23.568728572452699 0 0 0 0 168.97963872985565 -169.03698326903759 0 -169.03698326903759 131.29666592455669 0 0 0 0 121.67139661770489 -198.74054228136083 0 -198.74054228136083 121.43777609420067 0 0 0 0 6.0539938308866112 -52.470892560970242 0 -52.470892560970242 -12.007864481380238 0 0 0 0 -27.879424880018632 -49.737625957565797 0 -49.737625957565797 -33.463938130029419 0 0 0 0 -18.910243694339826 -33.045578856217588 0 -33.045578856217588 -40.752644016643359 0 0 0 0 394.90596841550723 -371.56955428251968 0 -371.56955428251968 99.058447478453672 0 0 0 0 508.02024090132181 -206.79053880348874 0 -206.79053880348874 15.731951082780142 0 0 0 0 -2.9592016894894186 -36.510786809878482 0 -36.510786809878482 -27.357513083945378 0 0 0 0 -24.017054419349734 -53.252189164590163 0 -53.252189164590163 -12.698174013567041 0 0 0 0 -22.176511663790734 -49.342798978539577 0 -49.342798978539577 -37.243328803808254 0 0 0 0 -32.299351543093508 -56.157531326542085 0 -56.157531326542085 -35.286632755654864 0 0 0 0 -4.7405737029330339 -47.093132495543614 0 -47.093132495543614 5.4147838485732791 0 0 0 0 -8.2400469641434029 -39.726916115276254 0 -39.726916115276254 29.46627151163193 0 0 0 0 -14.0084453195891 -66.546409669312879 0 -66.546409669312879 -5.0601627388896304 0 0 0 0 -12.371487282893213 -48.680105084845195 0 -48.680105084845195 7.5387419022445101 0 0 0 0 2.4041673855899717 -55.156101970842428 0 -55.156101970842428 -12.952380449447446 0 0 0 0 2.4101372351869941 -50.808783676860912 0 -50.808783676860912 7.1127387477281445 0 0 0 0 -3.2806471572112059 -45.614548011806619 0 -45.614548011806619 29.79064975467918 0 0 0 0 21.329855147476337 -37.895310573730058 0 -37.895310573730058 5.6990582088765223 0 0 0 0 22.660747393776546 -47.998200370162522 0 -47.998200370162522 22.473854459713039 0 0 0 0 -2.0934281463614752 -38.079650789610469 0 -38.079650789610469 6.1489262029754173 0 0 0 0 -7.0821145005374717 -24.246467550502032 0 -24.246467550502032 7.3014093073846169 0 0 0 0 17.495290175098489 -44.229636106534599 0 -44.229636106534599 64.24676100940269 0 0 0 0 13.562258912919788 -27.957096506168455 0 -27.957096506168455 113.26332063876907 0 0 0 0 21.640827311935737 -32.559060393127062 0 -32.559060393127062 23.201987779926725 0 0 0 0 13.202326185954007 7.6971712311888041 0 7.6971712311888041 129.6465686935735 0 0 0 0 5.968640494349529 -87.557705392140178 0 -87.557705392140178 -205.79446252835692 0 0 0 0 -2.2288236076128669 -160.09594903582001 0 -160.09594903582001 -240.91943299282389 0 0 0 0 4.4109872436412729 -48.66159744271085 0 -48.66159744271085 32.462119258859097 0 0 0 0 6.99660447032511 -33.718409490400518 0 -33.718409490400518 63.787566089984466 0 0 0 0 14.628766658188653 -28.43583719265477 0 -28.43583719265477 5.9445886564116464 0 0 0 0 52.065352735262422 -28.27268468807415 0 -28.27268468807415 110.50400759376134 0 0 0 0 3.4231321856819079 -27.08463331615043 0 -27.08463331615043 4.3993154534903596 0 0 0 0 0.21754723066635506 -2.1558830758047502 0 -2.1558830758047502 -5.88251487931878 0 0 0 0 -2.7742377701470105 -46.477433865213243 0 -46.477433865213243 36.769406961480854 0 0 0 0 15.133249332182459 -35.834649935997732 0 -35.834649935997732 26.993636904016057 0 0 0 0 3.2104917053584359 -148.15082861798419 0 -148.15082861798419 -131.50551798176002 0 0 0 0 -6.2063061548979022 8.1257433847104039 0 8.1257433847104039 200.6316316528264 0 0 0 0 8.5595303072392426 -53.917731638037921 0 -53.917731638037921 29.199471772471405 0 0 0 0 12.701670050984831 -11.890409351330163 0 -11.890409351330163 221.82078170278146 0 0 0 0 25.586467973247636 -34.670440073767168 0 -34.670440073767168 170.34603590871848 0 0 0 0 -26.806243846716825 11.616500112751964 0 11.616500112751964 -108.5214451685697 0 0 0 0 -19.204432586600888 -41.628827507225651 0 -41.628827507225651 81.775118926096184 0 0 0 0 -14.270071691925182 -93.738551365771158 0 -93.738551365771158 11.62015076503903 0 0 0 0 -85.062403980293311 -136.48288717816649 0 -136.48288717816649 0.79568294904993309 0 0 0 0 -17.262486421357607 -98.526082272328495 0 -98.526082272328495 21.975998036316014 0 0 0 0 -35.527471273788251 -86.074866717926852 0 -86.074866717926852 33.262706469817203 0 0 0 0 -16.133987756784222 -77.065854184052782 0 -77.065854184052782 35.485542159339168 0 0 0 0 -57.022786176166392 -82.440416573847926 0 -82.440416573847926 19.726859682217828 0 0 0 0 2.3212665671512696 -104.46583918580211 0 -104.46583918580211 -1.4191252567104513 0 0 0 0 -12.517861284199171 -77.639226909092031 0 -77.639226909092031 7.9614114864662042 0 0 0 0 -36.062483474133131 -58.900214567102466 0 -58.900214567102466 19.032954939753527 0 0 0 0 29.862784229684621 -30.322575102604134 0 -30.322575102604134 22.3268897524149 0 0 0 0 -55.243436831893632 -63.241673708946905 0 -63.241673708946905 12.031786804183355 0 0 0 0 -3.103426065368069 2.5183517722537232 0 2.5183517722537232 8.776273566408948 0 0 0 0 -201.62657561118976 -5.8917641319612812 0 -5.8917641319612812 51.685254346775764 0 0 0 0 -47.693292955360505 -22.572791270217941 0 -22.572791270217941 11.531692496109745 0 0 0 0 -35.983498435482034 -62.990439944472769 0 -62.990439944472769 -2.5526390858174182 0 0 0 0 -76.967491353934747 -110.59763092483536 0 -110.59763092483536 121.18883199639549 0 0 0 0 -188.90309882248403 -63.087909952913833 0 -63.087909952913833 103.16611553674193 0 0 0 0 -118.08435627395716 -167.17718520667535 0 -167.17718520667535 37.232914947278914 0 0 0 0 74.723307683860185 -182.99557315270431 0 -182.99557315270431 -43.871418040391291 0 0 0 0 28.563191654318985 -70.574271677981585 0 -70.574271677981585 39.386153563631545 0 0 0 0 -177.47774752127589 -20.564525343257628 0 -20.564525343257628 37.421946732589277 0 0 0 0 -16.416043211269994 -16.089391174479744 0 -16.089391174479744 41.376314602423832 0 0 0 0 122.5619599364436 -96.294513121923956 0 -96.294513121923956 -25.071692357763823 0 0 0 0 -49.615503071880084 -150.77257455110157 0 -150.77257455110157 48.077684159128694 0 0 0 0 -130.64053660894024 -118.67003509275764 0 -118.67003509275764 71.267076772623113 0 0 0 0 -59.31162528529228 -53.963968066788624 0 -53.963968066788624 24.602734274803282 0 0 0 0 72.017736068402883 -131.96092871540168 0 -131.96092871540168 80.103730007878767 0 0 0 0 112.47628991715465 -100.7991983932734 0 -100.7991983932734 37.016402587905759 0 0 0 0 129.52386365625716 -170.39494163906784 0 -170.39494163906784 96.034633707167814 0 0 0 0 153.11791453156184 -132.48589215627908 0 -132.48589215627908 50.00949242155184 0 0 0 0 48.898246645636391 -98.990752770881954 0 -98.990752770881954 56.907799374926981 0 0 0 0 73.741321808789507 -135.95779616340405 0 -135.95779616340405 81.079815063196293 0 0 0 0 84.231112272216706 -112.60524884433835 0 -112.60524884433835 50.626199537578941 0 0 0 0 23.735201749630505 -86.098387198115233 0 -86.098387198115233 76.270697411886431 0 0 0 0 -56.270308308766332 -95.504886359852833 0 -95.504886359852833 70.010557705454914 0 0 0 0 357.67633219083655 -203.62004526012925 0 -203.62004526012925 -172.35651209684329 0 0 0 0 150.18055188273138 -102.64042218747545 0 -102.64042218747545 75.169963533862756 0 0 0 0 25.872533079015511 -72.903214780058988 0 -72.903214780058988 45.647011080134185 0 0 0 0 255.43876325621386 -124.24213783889354 0 -124.24213783889354 -22.715653262417618 0 0 0 0 -0.047487835220138663 -16.219495479558915 0 -16.219495479558915 -5.0442625134696648 0 0 0 0 -115.53560696948261 -190.93856945366133 0 -190.93856945366133 50.657696399644919 0 0 0 0 151.49732802016661 -292.83713357959641 0 -292.83713357959641 -160.45607222424587 0 0 0 0 -15.831823878688738 -93.302092457024628 0 -93.302092457024628 128.0412407498352 0 0 0 0 -15.499935249768896 -93.59177523690596 0 -93.59177523690596 127.79820211406422 0 0 0 0 -147.50316035824653 -249.43075654878612 0 -249.43075654878612 -6.8300067245363607 0 0 0 0 -283.41013358338387 -74.979034105851952 0 -74.979034105851952 204.70891521568592 0 0 0 0 -367.13683186056733 61.172873880375846 0 61.172873880375846 40.241950939277558 0 0 0 0 23.681144504400436 -49.889619987627157 0 -49.889619987627157 169.80317684575857 0 0 0 0 -2.1960706984776266 -17.353159680170947 0 -17.353159680170947 113.06893181451453 0 0 0 0 -3.0985743740189093 -4.4343024775948479 0 -4.4343024775948479 8.4694126679878536 0 0 0 0 57.142833003308624 -27.504660137297833 0 -27.504660137297833 -450.23068140451142 0 0 0 0 0.35951429024721904 -17.524986057147572 0 -17.524986057147572 11.382822746900448 0 0 0 0 -422.64665637965663 -404.66994366746803 0 -404.66994366746803 -59.041863963539072 0 0 0 0 -31.958407543919748 -380.582708536067 0 -380.582708536067 -554.9055501681014 0 0 0 0 -514.56067345829797 -248.42619145853769 0 -248.42619145853769 85.141898869294891 0 0 0 0 -312.38620055800857 -94.361491733955063 0 -94.361491733955063 -70.560392198904083 0 0 0 0 19.187902909645345 -21.418944532997557 0 -21.418944532997557 -438.17944558009344 0 0 0 0 -104.95944423344918 -331.2438220736999 0 -331.2438220736999 -342.73568884626297 0 0 0 0 163.74479538759624 -367.67383254225251 0 -367.67383254225251 -155.0061549848615 0 0 0 0 23.635690336290281 -222.05118707484871 0 -222.05118707484871 -168.42257591642544 0 0 0 0 20.130393629908212 -49.17252116819509 0 -49.17252116819509 -249.4031141209407 0 0 0 0 -78.030202758942323 -175.84616209863884 0 -175.84616209863884 216.86279254812871 0 0 0 0 -7.6475615688977996 -298.21764868336993 0 -298.21764868336993 -292.08752821107146 0 0 0 0 75.964209063880844 -32.891912578106769 0 -32.891912578106769 -39.838513816207836 0 0 0 0 27.047892518217736 -73.872802532937527 0 -73.872802532937527 -13.920533255337315 0 0 0 0 19.001207433545886 -8.2667519138333034 0 -8.2667519138333034 1.4984389803717497 0 0 0 0 49.682114819377603 -106.36085980245085 0 -106.36085980245085 -51.50107353466592 0 0 0 0 -285.01627742092751 -124.05446566363514 0 -124.05446566363514 39.718307942222964 0 0 0 0 -68.273503042815719 -75.0778184296571 0 -75.0778184296571 13.108907189479993 0 0 0 0 -61.830201743472571 -105.07666982248783 0 -105.07666982248783 -37.980568634704014 0 0 0 0 -122.06232643296971 -132.11804636190647 0 -132.11804636190647 -51.451286928581794 0 0 0 0 -58.052157303522108 -104.53887492221304 0 -104.53887492221304 -40.069838502805567 0 0 0 0 -59.273502316689701 -36.375586772542079 0 -36.375586772542079 -31.758017678694387 0 0 0 0 -12.826792376021331 -138.27148771715906 0 -138.27148771715906 -112.99996766856384 0 0 0 0 29.842449162315461 -112.89338086809931 0 -112.89338086809931 -100.98069721940487 0 0 0 0 -61.079167952673743 -119.63122686944871 0 -119.63122686944871 -70.106045744469611 0 0 0 0 66.135206907783868 -61.577599083393693 0 -61.577599083393693 -72.695718341749398 0 0 0 0 42.249868086684728 -14.58078800669216 0 -14.58078800669216 -32.406730845018672 0 0 0 0 -6.3022883742960403 -105.95227751795386 0 -105.95227751795386 -91.011616452332987 0 0 0 0 -14.404318424742087 -106.06521988105126 0 -106.06521988105126 -77.130557660945556 0 0 0 0 -36.349900089408038 -54.787159248864313 0 -54.787159248864313 -114.92421939699119 0 0 0 0 3.0643597384832901 -2.73837384250497 0 -2.73837384250497 -6.0838366874876444 0 0 0 0 -10.940715922770323 -19.845212001437176 0 -19.845212001437176 277.91736203881828 0 0 0 0 -37.582247391308044 -18.066824695395717 0 -18.066824695395717 -5.5830614449045104 0 0 0 0 -24.840909393999027 -66.801292659354658 0 -66.801292659354658 5.9390889512560534 0 0 0 0 32.984644289135758 -59.462673415795052 0 -59.462673415795052 -144.27502803455718 0 0 0 0 8.7432099717116216 -143.03177113562197 0 -143.03177113562197 644.33301347071392 0 0 0 0 2.1780204130948277 1.7919451678012059 0 1.7919451678012059 -0.57604876270595362 0 0 0 0 32.179179853279493 -74.157108447096562 0 -74.157108447096562 194.04287623009441 0 0 0 0 41.291207344009308 -39.484520098679468 0 -39.484520098679468 273.74349740406251 0 0 0 0 15.553502969094552 -56.915587687213701 0 -56.915587687213701 177.84098191037447 0 0 0 0 -25.288313087861752 -120.03165594198799 0 -120.03165594198799 115.24886278260328 0 0 0 0 -116.98100170597286 -82.619270404913465 0 -82.619270404913465 123.76948308629289 0 0 0 0 15.669016476924298 -16.463273694453164 0 -16.463273694453164 147.29810346259546 0 0 0 0 -36.073891085470677 -111.92480618868922 0 -111.92480618868922 240.71282452479227 0 0 0 0 -3.7879457277886104 -128.51531824201084 0 -128.51531824201084 303.22320686291459 0 0 0 0 -3.7598922700797175 -126.74553055437661 0 -126.74553055437661 225.88108930619455 0 0 0 0 121.2285004680889 -205.99973507671166 0 -205.99973507671166 251.67907408176688 0 0 0 0 73.405908933535102 -71.335742470135301 0 -71.335742470135301 227.44715148557134 0 0 0 0 79.208485026669223 -205.99316376738489 0 -205.99316376738489 189.72352381163182 0 0 0 0 32.695830692944583 -112.53475296711849 0 -112.53475296711849 131.00354495334841 0 0 0 0 31.938741134834345 -129.91765459512723 0 -129.91765459512723 238.79962719052855 0 0 0 0 50.462850222160341 -31.511336044837378 0 -31.511336044837378 -319.51962580856031 0 0 0 0 -19.532031632325015 -56.168284054446161 0 -56.168284054446161 -51.191295367164912 0 0 0 0 -22.31958188511237 -15.380726029130194 0 -15.380726029130194 -8.1607104937589199 0 0 0 0 66.033855221117847 89.886735139948016 0 89.886735139948016 -555.78060010290619 0 0 0 0 -26.405189135693945 -73.309339112153623 0 -73.309339112153623 -32.722842106032317 0 0 0 0 -23.306194126314949 -193.79604313834704 0 -193.79604313834704 -95.533657563502857 0 0 0 0 -102.45830360267064 155.21599790923548 0 155.21599790923548 -150.43905136132298 0 0 0 0 208.17253886045364 186.90712681747357 0 186.90712681747357 -864.44424423967268 0 0 0 0 -4.3381696691580487 -3.3867662077537446 0 -3.3867662077537446 -2.3380837479623997 0 0 0 0 25.232639670182834 -87.500590999927681 0 -87.500590999927681 244.44397294902774 0 0 0 0 15.220408872119151 -124.67022663780699 0 -124.67022663780699 301.11255023684475 0 0 0 0 21.72975991119165 -146.585554417195 0 -146.585554417195 258.97159169723955 0 0 0 0 -11.627943351136707 -9.0077781291965948 0 -9.0077781291965948 -4.9746486284577323 0 0 0 0 0.033476364907983225 -93.94536965506154 0 -93.94536965506154 300.14551928604442 0 0 0 0 -2.0411333324647103 1.0718957702494194 0 1.0718957702494194 0.3327652437166273 0 0 0 0 11.747217041804106 -65.211243830179228 0 -65.211243830179228 243.73315006420626 0 0 0 0 -0.0097933557990472764 -100.14664477483211 0 -100.14664477483211 228.74426600036145 0 0 0 0 12.218051550800737 -106.3538257560856 0 -106.3538257560856 188.59509569446527 0 0 0 0 -4.1622618558285467 -57.563486790084198 0 -57.563486790084198 148.57911792727282 0 0 0 0 -22.797489233431406 -131.20906074458799 0 -131.20906074458799 239.90309029534137 0 0 0 0 -20.030797038343735 -106.12526886444994 0 -106.12526886444994 240.65179333772426 0 0 0 0 -20.491526949364925 -80.240888773836559 0 -80.240888773836559 212.87108804896889 0 0 0 0 10.836049869991257 -84.330199123543025 0 -84.330199123543025 145.95804187628892 0 0 0 0 4.5257989589372301 -125.87744644040663 0 -125.87744644040663 207.95355133518387 0 0 0 0 -17.709500466153258 -85.009320729420324 0 -85.009320729420324 168.26638827197348 0 0 0 0 -35.167297043430153 -51.354640364129409 0 -51.354640364129409 94.212788229908256 0 0 0 0 -43.093918528982613 -103.58378887639947 0 -103.58378887639947 157.65103972898396 0 0 0 0 -3.8421221582975704 -72.487674994676127 0 -72.487674994676127 70.890995735629986 0 0 0 0 -47.625902172057977 -42.804407119927873 0 -42.804407119927873 60.161703331927129 0 0 0 0 -19.452498811035184 -83.371299926680877 0 -83.371299926680877 5.1302075801195315 0 0 0 0 -18.182650671384181 -86.848945580593409 0 -86.848945580593409 27.726267062029365 0 0 0 0 -51.075378564652056 -42.811420911612004 0 -42.811420911612004 2.1395721819426399 0 0 0 0 7.2575731027027359 -66.97428538915301 0 -66.97428538915301 38.838409676685842 0 0 0 0 -0.020177971986413468 -97.784528446047261 0 -97.784528446047261 137.32319422379101 0 0 0 0 -28.905200730485376 -81.87268718067844 0 -81.87268718067844 145.88968069923948 0 0 0 0 1.3793245675988146 -51.648597977317877 0 -51.648597977317877 -31.017675326664175 0 0 0 0 -10.413835486819153 -65.086917336737315 0 -65.086917336737315 38.770934960319209 0 0 0 0 0.05269849222531775 -97.242825724284558 0 -97.242825724284558 -14.643910961623988 0 0 0 0 10.286980736615078 -98.976558862373167 0 -98.976558862373167 -46.865923576700879 0 0 0 0 14.578877804535296 -92.012889238570551 0 -92.012889238570551 -38.411270320299082 0 0 0 0 -2.8780520315267495 -121.33958045477721 0 -121.33958045477721 -40.83238047417035 0 0 0 0 -31.299955809692619 -60.500732259481083 0 -60.500732259481083 -139.18288222634146 0 0 0 0 -60.074580191307177 -98.938180564088725 0 -98.938180564088725 -61.934510381073778 0 0 0 0 -41.705114279931877 -114.30725966385762 0 -114.30725966385762 -108.76953830095772 0 0 0 0 -26.954275321440946 -42.026117482339487 0 -42.026117482339487 -68.104959688331292 0 0 0 0 -25.595689480775036 -198.97336107136834 0 -198.97336107136834 -108.77652854683765 0 0 0 0 -4.0155140883580316 -67.760550241177043 0 -67.760550241177043 -105.81085165719924 0 0 0 0 -2.1865622155237361 -201.86448204236831 0 -201.86448204236831 -320.14911542528353 0 0 0 0 -45.67564930030494 -57.156476771322559 0 -57.156476771322559 -219.99878612322937 0 0 0 0 -112.31097073890851 -117.54653448540193 0 -117.54653448540193 -154.50728393653117 0 0 0 0 -14.289762854983564 -156.04646318447885 0 -156.04646318447885 -296.84037658380475 0 0 0 0 -30.87753088658792 -164.81151311997382 0 -164.81151311997382 -269.59392543555987 0 0 0 0 5.2306062402768703 -1.0946179467749033 0 -1.0946179467749033 -0.8174964513905465 0 0 0 0 -9.8490919788891915 -54.925605024747711 0 -54.925605024747711 -210.14166396859036 0 0 0 0 -75.499296086098184 -88.685234198807848 0 -88.685234198807848 -65.301774089795799 0 0 0 0 13.604435077315429 -64.324239086985472 0 -64.324239086985472 -95.074818807528573 0 0 0 0 6.0342882349515321 -1.1152559572738312 0 -1.1152559572738312 -0.89966740332545925 0 0 0 0 -55.246735924127279 -139.61764777886356 0 -139.61764777886356 -127.27782697884868 0 0 0 0 -76.108691063815058 -0.37283592591120396 0 -0.37283592591120396 -90.730320579968975 0 0 0 0 -13.674010994407581 -210.94041109744467 0 -210.94041109744467 -306.19846804885856 0 0 0 0 -0.69726464054838289 -28.646298161496816 0 -28.646298161496816 -235.95175598467176 0 0 0 0 11.176353525544982 -130.46277960904263 0 -130.46277960904263 -120.04523631642587 0 0 0 0 46.417841042662985 56.605702800693962 0 56.605702800693962 -28.061886036986834 0 0 0 0 75.44240482483292 -90.004496336576267 0 -90.004496336576267 -144.57666031402186 0 0 0 0 60.052828317275271 -83.967515448544873 0 -83.967515448544873 6.6059864935705264 0 0 0 0 112.99438532992644 -51.778144700664598 0 -51.778144700664598 -140.8073784165972 0 0 0 0 124.4822101968166 -140.74124993234909 0 -140.74124993234909 -311.85502939454091 0 0 0 0 3.8287653632703496 0.47846432421900431 0 0.47846432421900431 -1.4520909098706447 0 0 0 0 106.25387781785685 -175.44905645033577 0 -175.44905645033577 -98.702778095314898 0 0 0 0 -30.911954892573704 -185.84062959511539 0 -185.84062959511539 239.37962387177322 0 0 0 0 -83.584309530357132 9.1119585354626906 0 9.1119585354626906 -204.86970463625039 0 0 0 0 -76.369375526766817 -99.203146007285795 0 -99.203146007285795 99.77610833217841 0 0 0 0 42.956153828810784 -230.48888389901003 0 -230.48888389901003 75.22270954270607 0 0 0 0 74.023189288171125 -195.24773677843496 0 -195.24773677843496 86.249787877150084 0 0 0 0 120.34303240651207 -174.73406218129185 0 -174.73406218129185 -61.600622061885588 0 0 0 0 65.511930889479117 -274.03448443028901 0 -274.03448443028901 135.06322986724444 0 0 0 0 28.79988205335394 -170.52967749148956 0 -170.52967749148956 131.21863963550641 0 0 0 0 18.14483729089261 -136.27942740875733 0 -136.27942740875733 37.478756036925915 0 0 0 0 51.852158269583015 -163.78238985378539 0 -163.78238985378539 96.018965604402183 0 0 0 0 48.92966421629535 -204.19576461763972 0 -204.19576461763972 270.80604138238255 0 0 0 0 -0.53833966606180184 -164.67771646047731 0 -164.67771646047731 130.07572411580622 0 0 0 0 51.312648606690345 -113.72862175598584 0 -113.72862175598584 53.280926820469176 0 0 0 0 125.98753559801844 -129.42208009653814 0 -129.42208009653814 138.81149187817209 0 0 0 0 28.829947833160986 -124.23859762382654 0 -124.23859762382654 164.66194046101009 0 0 0 0 -28.935865106235724 -80.915008734218645 0 -80.915008734218645 162.40664547711765 0 0 0 0 -16.683282365134801 -112.18725716507151 0 -112.18725716507151 70.141866055168066 0 0 0 0 -49.044815795612521 -50.766972043615169 0 -50.766972043615169 37.241925483809609 0 0 0 0 -32.164497454876255 -100.57304556774261 0 -100.57304556774261 -62.937962568634248 0 0 0 0 -43.214559501512667 -141.28601519624834 0 -141.28601519624834 45.329470150743873 0 0 0 0 74.989819890499348 -54.937500802603608 0 -54.937500802603608 -25.918940433009993 0 0 0 0 73.919183325926269 -12.609601764701779 0 -12.609601764701779 -16.460585227687261 0 0 0 0 -6.7181064908875214 -4.1772155805120939 0 -4.1772155805120939 -1.3071881621013119 0 0 0 0 55.127157867093047 -40.288871497905347 0 -40.288871497905347 -19.454940749339585 0 0 0 0 8.8292144905135501 -15.966229048135574 0 -15.966229048135574 -15.539448758005165 0 0 0 0 13.206648864121757 -28.244113186011823 0 -28.244113186011823 -21.937016024196083 0 0 0 0 45.708965116806212 -46.515743900377856 0 -46.515743900377856 -19.008783447927271 0 0 0 0 59.454493826351609 -745.01695479491445 0 -745.01695479491445 1915.3192615141743 0 0 0 0 64.137506518651207 148.55764692443336 0 148.55764692443336 72.016631312304526 0 0 0 0 -48.159533310334155 -41.680690125927867 0 -41.680690125927867 38.413130370943691 0 0 0 0 144.17347286359836 177.11706079856458 0 177.11706079856458 -354.70169320605783 0 0 0 0 4.6676527773973504 -4.2468318770415223 0 -4.2468318770415223 6.7738690714472938 0 0 0 0 5.4953181878227042 -31.391328854049789 0 -31.391328854049789 41.663088827044703 0 0 0 0 55.21173588919919 -69.900473013873125 0 -69.900473013873125 -51.138769859204331 0 0 0 0 11.81278835983923 0.087693675059242082 0 0.087693675059242082 -0.15134213120578011 0 0 0 0 -187.98615084023913 -233.65776950215513 0 -233.65776950215513 -156.73898990610905 0 0 0 0 -54.91382380862342 -141.13231665307831 0 -141.13231665307831 -169.07467131459271 0 0 0 0 19.58327603004318 -16.837462664485319 0 -16.837462664485319 -0.056634669615391431 0 0 0 0 29.898419778532116 -48.877276202514622 0 -48.877276202514622 -17.956900174249313 0 0 0 0 -19.26389962482699 -19.345986231729512 0 -19.345986231729512 3.4486910125706345 0 0 0 0 22.038009972878285 -20.039750740989071 0 -20.039750740989071 -18.836223170220052 0 0 0 0 -98.524694989493582 -198.20048939198023 0 -198.20048939198023 -142.75539283093167 0 0 0 0 -22.938385805362486 -156.15978330927464 0 -156.15978330927464 -335.99075047942461 0 0 0 0 -112.1880812808522 -226.70891062940063 0 -226.70891062940063 -169.22647942275216 0 0 0 0 -197.25725455336215 -77.575115669802472 0 -77.575115669802472 54.889820664513536 0 0 0 0 -68.580992182935006 -497.05661641368351 0 -497.05661641368351 -287.8047477328073 0 0 0 0 -2.2739408943592139 -5.886424849045909 0 -5.886424849045909 4.6472810047245545 0 0 0 0 31.33419234379835 -293.53846432160208 0 -293.53846432160208 -567.01453097504054 0 0 0 0 56.210092569794142 -467.07600908599034 0 -467.07600908599034 -449.21921737102093 0 0 0 0 112.86604359536432 -42.694396808801685 0 -42.694396808801685 -465.17192304498167 0 0 0 0 -33.972027209645603 -26.412435624690261 0 -26.412435624690261 -24.342002494668122 0 0 0 0 3.8128354191786258 -25.918764134440366 0 -25.918764134440366 0.85852756255397367 0 0 0 0 -236.29675769380992 -159.2596436834865 0 -159.2596436834865 -54.737201500363881 0 0 0 0 3.9668205755487946 -2.4016959413039132 0 -2.4016959413039132 -0.54697009091403004 0 0 0 0 -210.65036430032342 -417.51320557079453 0 -417.51320557079453 -327.0449047719012 0 0 0 0 -18.994214716251008 -160.16468679253012 0 -160.16468679253012 -257.34399824617867 0 0 0 0 26.003882601595251 127.5593481802789 0 127.5593481802789 42.66677268352214 0 0 0 0 -77.091564593923977 137.39799388688698 0 137.39799388688698 -285.80635766632622 0 0 0 0 -4.938621553735743 -1.8640001330798412 0 -1.8640001330798412 2.444998371298766 0 0 0 0 -51.378748178442038 -36.769254293272752 0 -36.769254293272752 3.6719364758464508 0 0 0 0 1.3215191469411138 -26.601424536621941 0 -26.601424536621941 -4.3648900171556591 0 0 0 0 -1024.5694938528468 -228.47545959334821 0 -228.47545959334821 291.60432035117992 0 0 0 0 3.7428256017155945 -18.423624668779667 0 -18.423624668779667 4.6713158484853921 0 0 0 0 3.2281319842573168 -20.619379352055432 0 -20.619379352055432 -2.645405345762299 0 0 0 0 9.4900056650007514 -26.091927196318835 0 -26.091927196318835 -4.5260605217981436 0 0 0 0 46.779301692149602 -195.68189574479766 0 -195.68189574479766 -102.88482716527506 0 0 0 0 58.188587486448341 -54.501544468833345 0 -54.501544468833345 -50.32836942825088 0 0 0 0 -69.722859335211979 -79.913687946111168 0 -79.913687946111168 -10.18249443291279 0 0 0 0 11.28825756443257 -63.43946437453269 0 -63.43946437453269 -37.242089799736277 0 0 0 0 20.35880106592839 -24.815476450376494 0 -24.815476450376494 19.278264754297624 0 0 0 0 11.418342411682943 -47.712721723752963 0 -47.712721723752963 -5.3551594299351564 0 0 0 0 -250.20344640883559 -27.153152929487987 0 -27.153152929487987 28.467749216611992 0 0 0 0 -290.40690404661291 -195.10585322484894 0 -195.10585322484894 30.282549347350141 0 0 0 0 7.6244460167872603 -38.081040964480053 0 -38.081040964480053 -8.7677002639538841 0 0 0 0 -19.605260078398715 -90.849713429150142 0 -90.849713429150142 -32.74441358907643 0 0 0 0 23.911532091922709 -44.724006444579572 0 -44.724006444579572 -31.67422934602655 0 0 0 0 8.0790845897427062 -38.82635734041105 0 -38.82635734041105 -14.650335500155052 0 0 0 0 20.409475435360946 -27.287495200352168 0 -27.287495200352168 -6.3864912118879147 0 0 0 0 19.250935518866754 -29.168343265639123 0 -29.168343265639123 -2.0380708048105589 0 0 0 0 32.497394691454247 -20.475369785090152 0 -20.475369785090152 -10.295376329013379 0 0 0 0 -8.0413580771819682 -3.5911509867219849 0 -3.5911509867219849 2.2621804097714744 0 0 0 0 -83.94011599598889 -4.8520086748831091 0 -4.8520086748831091 17.342857543000719 0 0 0 0 9.9868455145206099 -12.634520346444788 0 -12.634520346444788 -3.2493147804780165 0 0 0 0 -39.611159117637726 -20.378677261647681 0 -20.378677261647681 -1.0841774110449478 0 0 0 0 27.3224262697222 -73.082457514683483 0 -73.082457514683483 2.2860204003663966 0 0 0 0 -17.359573986485096 -49.096614894082109 0 -49.096614894082109 -14.535233048484031 0 0 0 0 6.3847482248820597 -46.723737898755644 0 -46.723737898755644 -0.020152996818069369 0 0 0 0 -20.903009921939145 -45.103160332196907 0 -45.103160332196907 7.7553108235020147 0 0 0 0 6.822221031442524 -4.1382279219904916 0 -4.1382279219904916 -5.5055261866467049 0 0 0 0 277.93803678917902 82.461608342440741 0 82.461608342440741 -134.05906912962018 0 0 0 0 21.474621457278829 -25.839105967646987 0 -25.839105967646987 -16.399331797799491 0 0 0 0 -3.79282623008001 -21.851267660413512 0 -21.851267660413512 -11.807499750432243 0 0 0 0 659.61022492185293 -741.12711191570543 0 -741.12711191570543 -690.4669000466638 0 0 0 0 29.725189317868626 -59.37144462569222 0 -59.37144462569222 24.580117295947275 0 0 0 0 67.492899973723979 -72.644527427826688 0 -72.644527427826688 -48.114955924625974 0 0 0 0 10.818693746152746 -32.733009830186234 0 -32.733009830186234 -16.24670458502554 0 0 0 0 -63.014240740380046 -55.884067021775991 0 -55.884067021775991 6.4216089728506631 0 0 0 0 -15.371605536608556 -21.182356071197077 0 -21.182356071197077 -9.8930205023264648 0 0 0 0 61.029373813566053 -95.733332254938432 0 -95.733332254938432 65.808820394187933 0 0 0 0 -27.931917357204213 -16.221517204858756 0 -16.221517204858756 -2.5195576555169623 0 0 0 0 68.121931537581986 -132.58242541231448 0 -132.58242541231448 0.14616042607667623 0 0 0 0 -32.454714860214153 -47.071725703171978 0 -47.071725703171978 5.1988170408912993 0 0 0 0 94.151320524400944 -40.697833454047213 0 -40.697833454047213 -7.7276543399711954 0 0 0 0 -6.6670384362514596 -118.58475301827275 0 -118.58475301827275 62.684299858210579 0 0 0 0 -171.19605655048508 -19.522859052285639 0 -19.522859052285639 -4.6688595098166843 0 0 0 0 -12.617967317831354 -42.93025813151101 0 -42.93025813151101 -9.4738407386255687 0 0 0 0 -8.8829490225938059 -44.293557048536144 0 -44.293557048536144 -17.164348105422924 0 0 0 0 -61.951304971840727 -381.82889787130262 0 -381.82889787130262 -638.45744289117283 0 0 0 0 22.975531368099837 -28.222198383031355 0 -28.222198383031355 -98.265213641163427 0 0 0 0 -19.107828593656993 -63.355277525885484 0 -63.355277525885484 5.9759201204112742 0 0 0 0 13.328859678524168 -84.282517662340979 0 -84.282517662340979 -5.2705778657846167 0 0 0 0 36.226668179255284 -98.780417410092923 0 -98.780417410092923 69.311587295524077 0 0 0 0 -66.213856692158984 -39.492429627638742 0 -39.492429627638742 -23.508171010602808 0 0 0 0 -26.244319473735231 -114.44105734260665 0 -114.44105734260665 77.713715797741315 0 0 0 0 -4.0457074690493755 -123.18609069526428 0 -123.18609069526428 43.594558045500889 0 0 0 0 -12.228865859449883 -3.9426159881408154 0 -3.9426159881408154 8.824838681531503 0 0 0 0 -66.236157683135389 -37.852060776338476 0 -37.852060776338476 -15.089253277445096 0 0 0 0 -22.330118849475639 -50.273272696169442 0 -50.273272696169442 -6.3906789554312127 0 0 0 0 -45.069604815542334 -57.295055807851895 0 -57.295055807851895 0.038719340907846345 0 0 0 0 -63.556394614532373 -33.171381637652885 0 -33.171381637652885 -6.6894194031522645 0 0 0 0 -145.49156645412222 -19.763269553171995 0 -19.763269553171995 131.96350028725283 0 0 0 0 -259.5631255277367 171.85167466259736 0 171.85167466259736 7.0647291239529295 0 0 0 0 -3.1893682831250061 -2.0141112172711964 0 -2.0141112172711964 -1.1927061606309053 0 0 0 0 82.034395452709759 -94.328900521302785 0 -94.328900521302785 -246.34356622217456 0 0 0 0 41.602016046832432 -104.2853703365472 0 -104.2853703365472 54.096088022648473 0 0 0 0 37.669032442445314 -113.15326037158229 0 -113.15326037158229 47.430287459188548 0 0 0 0 -18.859488457940436 -4.9436729352240434 0 -4.9436729352240434 3.2883354195602692 0 0 0 0 82.349549549922813 -81.327310174325248 0 -81.327310174325248 10.724944636258442 0 0 0 0 34.60365541716601 -129.32125610167304 0 -129.32125610167304 74.064193272060947 0 0 0 0 139.41817635152597 -190.91987305332077 0 -190.91987305332077 27.668045231992437 0 0 0 0 148.98202320020255 -94.899000921941251 0 -94.899000921941251 -42.47177167913469 0 0 0 0 173.48020010070832 -365.06598437823777 0 -365.06598437823777 122.793028901242 0 0 0 0 25.341440277103175 19.902126120843604 0 19.902126120843604 -111.73570205861324 0 0 0 0 -787.63602275598532 -632.09986155219667 0 -632.09986155219667 259.22509999461181 0 0 0 0 -258.43224408479 20.080526728979748 0 20.080526728979748 410.4841075287186 0 0 0 0 168.90545113542248 -117.1266597413869 0 -117.1266597413869 -141.85904339540866 0 0 0 0 30.923739263416707 -3.4905335222421403 0 -3.4905335222421403 -7.3085793365950451 0 0 0 0 -146.51372947743221 -92.88752022945846 0 -92.88752022945846 -59.017329536403849 0 0 0 0 -353.56132857713601 67.864219942369346 0 67.864219942369346 79.492333104426507 0 0 0 0 227.69252462692384 -185.96674438996706 0 -185.96674438996706 -50.50539782398846 0 0 0 0 -285.18882023335527 -227.41718024353804 0 -227.41718024353804 127.29057364662003 0 0 0 0 1157.0640244971073 -21.676290424633407 0 -21.676290424633407 -233.61529829868232 0 0 0 0 1.9640395434403448 -4.1581362263442117 0 -4.1581362263442117 0.45063074841503692 0 0 0 0 312.76443891487361 78.798782740777824 0 78.798782740777824 125.72346733370796 0 0 0 0 -49.653207110082803 -57.594356794903433 0 -57.594356794903433 -23.632884327118518 0 0 0 0 -37.504773782548 -77.149968614001409 0 -77.149968614001409 6.624865770307224 0 0 0 0 -6.1629729005211074 -59.160135134354 0 -59.160135134354 -25.155354408854308 0 0 0 0 -21.034119674568501 -85.193531584285665 0 -85.193531584285665 -25.674791023993976 0 0 0 0 -6.6161058807992958 -82.18624169774921 0 -82.18624169774921 -34.341637020217604 0 0 0 0 -37.732338192436146 -60.741784225341689 0 -60.741784225341689 -42.479123276803875 0 0 0 0 63.083436438424542 -20.534925276969261 0 -20.534925276969261 -21.547596392018022 0 0 0 0 9.6470599671583059 -21.399577603331643 0 -21.399577603331643 6.6111582843279848 0 0 0 0 84.170288268713193 -54.420808789567673 0 -54.420808789567673 -38.846692753842945 0 0 0 0 54.855230994595331 -49.105923755699223 0 -49.105923755699223 -40.725103170138027 0 0 0 0 39.890543262423307 -47.391547560288018 0 -47.391547560288018 -23.569919180354191 0 0 0 0 48.72523282109978 -39.052761400271265 0 -39.052761400271265 -19.103805847836384 0 0 0 0 22.210314230739797 -14.502885046181731 0 -14.502885046181731 -27.008669267454806 0 0 0 0 178.49805933750213 -77.691283176860452 0 -77.691283176860452 17.206707344608731 0 0 0 0 31.456635801715265 -31.33241016791726 0 -31.33241016791726 -8.61874582679593 0 0 0 0 8.5292347125618022 -40.283259051925505 0 -40.283259051925505 -11.409709385909551 0 0 0 0 54.528265832315995 -52.164228099291869 0 -52.164228099291869 -31.886691419374131 0 0 0 0 -12.842958217176392 -102.90224311844081 0 -102.90224311844081 -36.246561498470612 0 0 0 0 222.78901545567714 -62.396752579217718 0 -62.396752579217718 -34.323036843099544 0 0 0 0 5.5321216415181613 -78.557362411662837 0 -78.557362411662837 -12.047480375939614 0 0 0 0 -5.0346329699287722 -12.129130444677884 0 -12.129130444677884 -14.778859064262306 0 0 0 0 -46.098885831517691 -120.8493171051814 0 -120.8493171051814 -88.068339666536758 0 0 0 0 57.802527104873178 -37.670446834860066 0 -37.670446834860066 -12.804588881764047 0 0 0 0 94.72394385644111 -166.79961627964985 0 -166.79961627964985 99.122409437654369 0 0 0 0 533.14413882146437 51.213028909474815 0 51.213028909474815 -154.52570807273514 0 0 0 0 110.08200525770917 -198.31764611655126 0 -198.31764611655126 -91.30707575071574 0 0 0 0 -2.6387521706020394 -21.673985249344128 0 -21.673985249344128 0.25274426682251061 0 0 0 0 -141.48590484776651 -63.056478316299035 0 -63.056478316299035 11.875638686935417 0 0 0 0 -87.833005685823991 -63.577137491713074 0 -63.577137491713074 -2.3089191952658439 0 0 0 0 -19.883174672334917 -39.737626102507875 0 -39.737626102507875 -8.9152016539337637 0 0 0 0 371.6461351782491 241.84805564434282 0 241.84805564434282 -201.35004412408671 0 0 0 0 -18.856727044620129 -170.44900867846627 0 -170.44900867846627 386.16551707656618 0 0 0 0 9.5315219122883192 -1.2329784638772168 0 -1.2329784638772168 -0.48605577968950087 0 0 0 0 -36.835380588992848 -71.368577718356391 0 -71.368577718356391 57.910476126664435 0 0 0 0 -3.6420017834898317 -159.29343479886484 0 -159.29343479886484 108.61278902359845 0 0 0 0 1.4077703535012915 -118.93803040097316 0 -118.93803040097316 -2.9839968785672681 0 0 0 0 41.566723845137858 -92.53252951593845 0 -92.53252951593845 -13.675895645195851 0 0 0 0 -74.383668944523379 -104.34600753947689 0 -104.34600753947689 53.897637295123786 0 0 0 0 189.43104043798246 46.981591666386066 0 46.981591666386066 -6.0023093814415915 0 0 0 0 204.13503703908282 -153.95178386447333 0 -153.95178386447333 -5.4578474035497493 0 0 0 0 43.568287043544842 -98.510812047275977 0 -98.510812047275977 -12.812808582084472 0 0 0 0 -30.328974258068314 -67.974733538537464 0 -67.974733538537464 -49.583596951550021 0 0 0 0 -63.212116864837299 -134.6408775363434 0 -134.6408775363434 -89.997094299615128 0 0 0 0 -30.38305907902577 -107.31939411261737 0 -107.31939411261737 -0.21107704826681584 0 0 0 0 59.791723678699782 -138.96197971482252 0 -138.96197971482252 -58.812971901024866 0 0 0 0 840.33260000165319 -38.85959404289315 0 -38.85959404289315 -367.55319286888698 0 0 0 0 323.89586267947016 339.63188233227265 0 339.63188233227265 101.62217502796739 0 0 0 0 370.34024916909766 -17.756565353352926 0 -17.756565353352926 -98.16281060521078 0 0 0 0 -157.09778922589248 -253.62914086611727 0 -253.62914086611727 42.691177533521113 0 0 0 0 823.24422037041222 -1488.9317925889191 0 -1488.9317925889191 -1216.9303819611669 0 0 0 0 -6.877607068752198 -75.263475869852897 0 -75.263475869852897 9.2016148269902374 0 0 0 0 -58.920520997271524 -131.89119396177375 0 -131.89119396177375 152.27878163606692 0 0 0 0 -77.276363306622443 -69.506422570872928 0 -69.506422570872928 11.890076522387972 0 0 0 0 -9.50215811371379 -22.000621070257214 0 -22.000621070257214 -2.0821473482958268 0 0 0 0 -45.193094764626558 -64.109584128903379 0 -64.109584128903379 -23.975401347493673 0 0 0 0 -66.650204454403138 -87.637915255507323 0 -87.637915255507323 -7.1631267552438658 0 0 0 0 -107.75556991658232 -41.299266390344201 0 -41.299266390344201 51.670438781741723 0 0 0 0 -122.17337997179493 -66.742183203255536 0 -66.742183203255536 11.3462719385534 0 0 0 0 -126.26672310491631 -84.134351011612125 0 -84.134351011612125 3.2296172872047464 0 0 0 0 10.566764340106005 -40.557247915240822 0 -40.557247915240822 22.089709600474293 0 0 0 0 -61.249006236874266 -138.55177218400695 0 -138.55177218400695 -91.483123401310877 0 0 0 0 -147.08162662867835 -130.49333183975614 0 -130.49333183975614 -16.293029236718667 0 0 0 0 -45.870094669950277 -146.27767244617431 0 -146.27767244617431 -111.74747084392584 0 0 0 0 -84.960524677997455 -136.86108903217973 0 -136.86108903217973 -90.992947883718443 0 0 0 0 -92.892409795662388 -151.74731887123016 0 -151.74731887123016 -98.846489615301834 0 0 0 0 22.234372189267731 -21.310817422879456 0 -21.310817422879456 24.794792047423627 0 0 0 0 -100.78007570092086 -140.43751475071167 0 -140.43751475071167 -77.98021653923206 0 0 0 0 -91.207598386827158 -152.93906728702859 0 -152.93906728702859 -98.067746845248621 0 0 0 0 -101.6914325624748 -204.2395351797386 0 -204.2395351797386 -128.84172234604193 0 0 0 0 -110.09357878262745 -169.86789996020434 0 -169.86789996020434 -73.161855427671981 0 0 0 0 -97.314030198911496 -176.52693157445901 0 -176.52693157445901 -166.31347375149198 0 0 0 0 -14.376531551374683 -143.33174160491672 0 -143.33174160491672 -176.70366646321781 0 0 0 0 61.040742566512478 -28.380289736662402 0 -28.380289736662402 -8.8547266136448286 0 0 0 0 -85.104001623869408 -162.25214195759327 0 -162.25214195759327 -117.97813147467969 0 0 0 0 -275.76455944334975 -375.08947558654222 0 -375.08947558654222 -177.24068912769144 0 0 0 0 -170.2187617950658 -27.797823867297666 0 -27.797823867297666 -72.473380538955098 0 0 0 0 13.561416890604846 -16.604797046752836 0 -16.604797046752836 17.07215370036738 0 0 0 0 -231.77256421084894 -239.7450254628402 0 -239.7450254628402 -62.082064707608879 0 0 0 0 -140.67867624513747 -84.215904494411006 0 -84.215904494411006 -60.022054595464397 0 0 0 0 -114.35217639038819 -196.41752860889301 0 -196.41752860889301 171.75322297435923 0 0 0 0 -24.364774679732363 46.789604602435247 0 46.789604602435247 161.53580367091854 0 0 0 0 -136.65254467857449 -97.035775544147327 0 -97.035775544147327 26.092399033441325 0 0 0 0 -151.51733052073632 -51.649755384548826 0 -51.649755384548826 101.60028576144032 0 0 0 0 -32.705027849013277 19.241777346240269 0 19.241777346240269 74.568769390557009 0 0 0 0 153.21858464901015 2.6546246792750026 0 2.6546246792750026 33.58690694264078 0 0 0 0 -34.416981530259363 -166.03672367963736 0 -166.03672367963736 254.6674398653704 0 0 0 0 25.359209957772691 -77.789285733317229 0 -77.789285733317229 28.10336911261038 0 0 0 0 121.91940253425128 -172.48493903344843 0 -172.48493903344843 105.30645824431122 0 0 0 0 -182.41054535764852 5.0656872246254352 0 5.0656872246254352 0.34858932129282039 0 0 0 0 -668.37676361146441 -256.01635865253411 0 -256.01635865253411 309.3325062267395 0 0 0 0 -44.363739143918792 -157.96130277570319 0 -157.96130277570319 153.69981823091803 0 0 0 0 -5.7721668872968337 -9.4447653328613086 0 -9.4447653328613086 2.9811129462493966 0 0 0 0 7.0650775388639886 101.9627589813299 0 101.9627589813299 406.82659283695284 0 0 0 0 991.86612258853347 -337.35566062730686 0 -337.35566062730686 -104.68274171307712 0 0 0 0 -53.397819598743808 -123.08117609504916 0 -123.08117609504916 546.69304973495309 0 0 0 0 230.39218281162903 -1095.096324799666 0 -1095.096324799666 -43.027235506609031 0 0 0 0 0.43193540999700986 -8.7010782433630851 0 -8.7010782433630851 -6.0187055520823582 0 0 0 0 173.66629003481648 -225.08350347050146 0 -225.08350347050146 253.32938879777066 0 0 0 0 8.8986345033481484 -39.345307826482895 0 -39.345307826482895 -92.184794325566486 0 0 0 0 70.405928153028071 -182.7192526466406 0 -182.7192526466406 135.45683882730009 0 0 0 0 -87.519488772522891 -95.607011229247291 0 -95.607011229247291 161.50242178736698 0 0 0 0 172.95192084829614 -370.89473721539252 0 -370.89473721539252 284.49126522334973 0 0 0 0 -131.12919972172676 -191.9190536076203 0 -191.9190536076203 185.10150479827644 0 0 0 0 7.5990578685473338 -59.954566138489213 0 -59.954566138489213 -39.86509743890565 0 0 0 0 -32.781803639016289 -26.306034420274955 0 -26.306034420274955 28.005490371841006 0 0 0 0 -21.872469726306008 -54.970901046073777 0 -54.970901046073777 -0.88389452610499575 0 0 0 0 13.54968227290486 -21.141600800156411 0 -21.141600800156411 -33.055164547883663 0 0 0 0 10.324590447277842 -27.688563623648065 0 -27.688563623648065 -45.309045004207292 0 0 0 0 -14.475616027077194 -52.357434507302969 0 -52.357434507302969 -40.800977897401481 0 0 0 0 -27.772157616411278 -29.625621168786893 0 -29.625621168786893 -39.194016761151943 0 0 0 0 9.45753630726675 -4.6532542644877886 0 -4.6532542644877886 2.89326115662098 0 0 0 0 -95.141352467044726 -111.84378084845343 0 -111.84378084845343 -57.141929213328694 0 0 0 0 -92.44485108374829 -95.320107575038037 0 -95.320107575038037 -0.30820805554685649 0 0 0 0 -160.56227655269322 -63.810600507389609 0 -63.810600507389609 35.952413507868187 0 0 0 0 217.03214955729345 -70.481559062215638 0 -70.481559062215638 -82.850633428726724 0 0 0 0 -34.887948524774401 -30.479375164157318 0 -30.479375164157318 259.03480048598465 0 0 0 0 4.4450598713459328 -1.9193312805912122 0 -1.9193312805912122 -0.2224672800318217 0 0 0 0 216.57881625905429 -64.539325961521172 0 -64.539325961521172 -130.13779846746183 0 0 0 0 -5.4573254698407254 -50.240950162193258 0 -50.240950162193258 -2.9401625871552142 0 0 0 0 -8.2784763511612027 -26.880685648807344 0 -26.880685648807344 -0.98629965468345371 0 0 0 0 72.520465505058382 -125.54878509028913 0 -125.54878509028913 56.966023778917588 0 0 0 0 13.761545291650691 -11.651912413457467 0 -11.651912413457467 132.6054257290125 0 0 0 0 -4.7779104095970979 -13.967741545347963 0 -13.967741545347963 135.58739707994391 0 0 0 0 -35.929018492621253 -50.096980433190765 0 -50.096980433190765 139.18034362252274 0 0 0 0 11.857159182531177 -49.016786556130683 0 -49.016786556130683 137.98234380777103 0 0 0 0 -50.662662583148631 -46.101893733667566 0 -46.101893733667566 149.87249369127312 0 0 0 0 -20.604538388445832 -26.316676172071631 0 -26.316676172071631 -0.35362146390395743 0 0 0 0 -12.975687826248759 -40.647112872749858 0 -40.647112872749858 -32.408497416962575 0 0 0 0 -37.666492083626508 -23.712983734480076 0 -23.712983734480076 183.46914527410263 0 0 0 0 -75.549847066264192 -68.15662046423131 0 -68.15662046423131 179.96034111799599 0 0 0 0 -51.639435293764109 -144.74235707847038 0 -144.74235707847038 327.93562213958103 0 0 0 0 11.492783463523665 97.90654746735072 0 97.90654746735072 282.3668297055483 0 0 0 0 -51.039773367272574 -38.252109688748533 0 -38.252109688748533 -37.964719290402797 0 0 0 0 -33.085781203635264 -28.68814086867571 0 -28.68814086867571 -0.81533221785337373 0 0 0 0 -32.70526460937981 1.6753142976449453 0 1.6753142976449453 124.68224250817974 0 0 0 0 -31.582150934766105 -34.108042789176579 0 -34.108042789176579 -34.038451335269201 0 0 0 0 -68.391853144319612 -46.278769184704288 0 -46.278769184704288 -26.900362637809394 0 0 0 0 15.87155172201571 -20.062898329477328 0 -20.062898329477328 -25.043638123852588 0 0 0 0 3.9920493947811337 -2.004756992617331 0 -2.004756992617331 -19.788001496410288 0 0 0 0 -26.180958761051443 -19.710791600120501 0 -19.710791600120501 -31.302005326335347 0 0 0 0 -9.3253422463494644 -38.784197677776319 0 -38.784197677776319 -34.570266039721901 0 0 0 0 44.94061342086934 -65.603734888938561 0 -65.603734888938561 -28.322980261494195 0 0 0 0 -2.1672829244298555 -96.81173934904109 0 -96.81173934904109 -15.571581761643756 0 0 0 0 -10.660895309330954 -67.644235158571973 0 -67.644235158571973 -5.2491943914137664 0 0 0 0 -122.24225897583165 -77.54653076401155 0 -77.54653076401155 -14.424382783767214 0 0 0 0 -32.171058375508437 -55.21125358651534 0 -55.21125358651534 -44.72357523075334 0 0 0 0 -25.9988776560931 -97.861660407799718 0 -97.861660407799718 -14.016749607639213 0 0 0 0 -52.723680825256451 -70.633403235357036 0 -70.633403235357036 -4.7753777624893701 0 0 0 0 1.3581444602305055 -0.00089167534701317663 0 -0.00089167534701317663 1.555679969298339 0 0 0 0 215.79369367333857 89.11241140763741 0 89.11241140763741 -43.575904318451649 0 0 0 0 -22.428212574362988 54.249270910266205 0 54.249270910266205 45.137949743813806 0 0 0 0 5.0267210688174941 -17.566751562959759 0 -17.566751562959759 6.2234298072240648 0 0 0 0 182.91309336347695 -75.00851733619038 0 -75.00851733619038 -89.424929675311432 0 0 0 0 19.807032389202504 -150.82320166359932 0 -150.82320166359932 -72.667011824773908 0 0 0 0 -74.151345380458224 -94.822163507262303 0 -94.822163507262303 36.853197318385355 0 0 0 0 4.8875699869642801 -12.472797266056112 0 -12.472797266056112 2.2915801540647323 0 0 0 0 -48.444729908820591 -68.562274290678033 0 -68.562274290678033 -41.186005545627268 0 0 0 0 21.570859884776013 -24.024238120819788 0 -24.024238120819788 -21.391686980455077 0 0 0 0 -38.183936812394677 -50.169352086491017 0 -50.169352086491017 -39.019201699280529 0 0 0 0 -32.215705216389324 -69.95468602598703 0 -69.95468602598703 -41.282096288781759 0 0 0 0 -23.313740138371941 -54.018589495986816 0 -54.018589495986816 -29.192702050531807 0 0 0 0 -40.783598201931454 -62.663854618629557 0 -62.663854618629557 -8.0539468756760471 0 0 0 0 -30.326756425633903 -51.887686420890532 0 -51.887686420890532 -18.408248515523155 0 0 0 0 -28.093944361102331 -41.007703242262778 0 -41.007703242262778 9.372233780908573 0 0 0 0 -2.9954013664173544 -15.507594465751026 0 -15.507594465751026 23.209024247880734 0 0 0 0 -49.614521219904418 -38.835279633422033 0 -38.835279633422033 11.554133084504429 0 0 0 0 -40.424029842433811 6.7319522392244835 0 6.7319522392244835 48.135755876937765 0 0 0 0 -13.814867666631471 -46.404439393988469 0 -46.404439393988469 16.809723854064941 0 0 0 0 -34.341967289095919 -47.253844234466669 0 -47.253844234466669 33.867214096782845 0 0 0 0 -42.787205577042187 -37.100583844356152 0 -37.100583844356152 24.996521103032137 0 0 0 0 -11.101983713140726 -6.5843279236057839 0 -6.5843279236057839 0.41472026901433168 0 0 0 0 -29.800569120998261 -30.168424298786704 0 -30.168424298786704 2.2056874615918787 0 0 0 0 14.806330728928423 -26.814806903759539 0 -26.814806903759539 0.48466066158187004 0 0 0 0 2.2985412061388288 -26.284646033087881 0 -26.284646033087881 -23.800185202744245 0 0 0 0 -24.40778110116662 -52.879377703962746 0 -52.879377703962746 -18.580378514365293 0 0 0 0 -19.479773148905224 -70.517102545501984 0 -70.517102545501984 -39.728913316830585 0 0 0 0 19.211105650589261 -21.853408666765944 0 -21.853408666765944 -16.543578943435961 0 0 0 0 -76.127783269141219 -7.448700900451513 0 -7.448700900451513 95.081731648213463 0 0 0 0 -6.810618486997555 -27.992359989191755 0 -27.992359989191755 -19.430366349200995 0 0 0 0 96.33072111083311 -3.1554986967785226 0 -3.1554986967785226 -68.976270959756221 0 0 0 0 5.6295293633729386 -3.2744124134300563 0 -3.2744124134300563 3.442923083108397 0 0 0 0 7.5412118571709925 -23.048014552939065 0 -23.048014552939065 -13.517281512972133 0 0 0 0 5.4087939401797485 -19.485437376686605 0 -19.485437376686605 -15.520970584064344 0 0 0 0 16.711178986063828 -19.978063623184255 0 -19.978063623184255 -14.542441410572636 0 0 0 0 26.683961543116311 -37.88929745171572 0 -37.88929745171572 -16.916719289489265 0 0 0 0 -26.450067580408358 -105.12998769936894 0 -105.12998769936894 -92.25208146328805 0 0 0 0 -420.34447361662751 -210.39010145571956 0 -210.39010145571956 310.16831620596349 0 0 0 0 1101.3505279006058 983.20242927385698 0 983.20242927385698 -168.93601889279671 0 0 0 0 8.816869878792204 -18.184250351041555 0 -18.184250351041555 -23.321953076178033 0 0 0 0 28.248302223070368 -21.21879199648923 0 -21.21879199648923 -23.725295468654434 0 0 0 0 30.938413790412596 -41.205404613698192 0 -41.205404613698192 7.4229248001065571 0 0 0 0 2.5095538887915438 -32.888443230698272 0 -32.888443230698272 -10.164272702051647 0 0 0 0 10.824862802352854 -46.163636346073915 0 -46.163636346073915 -62.097868794637748 0 0 0 0 -2.2634594317180898 -10.825660407573721 0 -10.825660407573721 -4.2649551365458223 0 0 0 0 205.97320479377231 -184.40694749179966 0 -184.40694749179966 -152.92890488961712 0 0 0 0 -52.027048418975028 -72.871345854193351 0 -72.871345854193351 -36.992185127829543 0 0 0 0 20.255081654366222 -228.78284354519928 0 -228.78284354519928 -464.81825625419151 0 0 0 0 -303.60754570171412 -55.383487457474985 0 -55.383487457474985 110.38711750745642 0 0 0 0 23.352400264513562 -319.73995447991547 0 -319.73995447991547 -398.08820955215924 0 0 0 0 -184.75885945645859 -272.5900896427338 0 -272.5900896427338 16.106082779784629 0 0 0 0 10.40767134439966 -9.8813781236681528 0 -9.8813781236681528 8.1081507704067235 0 0 0 0 -153.13148890304001 244.91242197033125 0 244.91242197033125 -257.29131627887546 0 0 0 0 -28.962500854198879 -107.0343674928954 0 -107.0343674928954 -389.76317849405314 0 0 0 0 -149.76741973905882 -546.8951298934735 0 -546.8951298934735 -325.8292045397684 0 0 0 0 65.911570623953594 -303.76022401093724 0 -303.76022401093724 -7.6340750415047296 0 0 0 0 -93.050503306658356 -61.133022822770727 0 -61.133022822770727 -12.21634370205993 0 0 0 0 3.2663779609836467 -3.7992130681919107 0 -3.7992130681919107 0.032566178178299765 0 0 0 0 479.21873285514448 30.17843108375564 0 30.17843108375564 -213.93699163854035 0 0 0 0 -59.546815050256555 -67.194847352542638 0 -67.194847352542638 -73.341009363444755 0 0 0 0 -91.323423345445917 -62.394033211818169 0 -62.394033211818169 -37.164456136597437 0 0 0 0 -73.413442423800007 -60.834557163871068 0 -60.834557163871068 -41.882295438983419 0 0 0 0 -51.265575208395603 -50.767400251424988 0 -50.767400251424988 -61.727323767619964 0 0 0 0 -56.767411080327292 -50.699820835712671 0 -50.699820835712671 -44.246136795154598 0 0 0 0 -52.581440267640573 -45.08955809988629 0 -45.08955809988629 -32.139377585233888 0 0 0 0 -49.070443847129354 -62.133888022734027 0 -62.133888022734027 -37.303428721039381 0 0 0 0 -36.792327705814387 -64.102337672535214 0 -64.102337672535214 -20.90211015172099 0 0 0 0 -45.443500802502967 -53.381518331019834 0 -53.381518331019834 -26.861326225196535 0 0 0 0 -85.95539795581135 -38.95935354294852 0 -38.95935354294852 -11.328214645131084 0 0 0 0 5.2058216224563409 -8.1979179076659463 0 -8.1979179076659463 6.7416643676608885 0 0 0 0 -66.411494972358923 -39.924506251569255 0 -39.924506251569255 -22.909722768204119 0 0 0 0 -75.487356221463415 -45.40866419604572 0 -45.40866419604572 -22.486016576243856 0 0 0 0 -40.633586623822339 -41.84022791696043 0 -41.84022791696043 -23.842343389744201 0 0 0 0 -69.927469360438408 -45.867645530310256 0 -45.867645530310256 -23.962109667751065 0 0 0 0 -73.023331444790529 -15.876459672450437 0 -15.876459672450437 -6.300352169724647 0 0 0 0 -61.022417063097237 -38.818197979911929 0 -38.818197979911929 -15.226687168411445 0 0 0 0 -48.299054774251999 -13.353145355606102 0 -13.353145355606102 -15.141475925614941 0 0 0 0 -16.383330556884175 -38.452750019423547 0 -38.452750019423547 -18.887707651192613 0 0 0 0 -3.008294436513097 -27.947970488094143 0 -27.947970488094143 -13.504402708543239 0 0 0 0 14.180397320335032 -74.610694143666478 0 -74.610694143666478 2.7747818331845338 0 0 0 0 -31.803425570273248 -50.142609331356653 0 -50.142609331356653 -6.0462610830873018 0 0 0 0 -252.45303269633223 64.039229133111803 0 64.039229133111803 -768.20619246190472 0 0 0 0 -34.982869666258921 -52.67588127325871 0 -52.67588127325871 -8.6209414443947026 0 0 0 0 -23.760194091722951 -56.785489189634973 0 -56.785489189634973 -11.256760845128611 0 0 0 0 -48.671031358091568 -46.395077532491996 0 -46.395077532491996 -11.868338634492829 0 0 0 0 -33.734284586134891 -83.636120275441499 0 -83.636120275441499 57.217823349157698 0 0 0 0 -40.716222858995025 -62.024589729175204 0 -62.024589729175204 22.036594044955564 0 0 0 0 -46.56921849232458 -61.942992755197338 0 -61.942992755197338 22.035458100004917 0 0 0 0 -95.220396407297812 43.123711855514557 0 43.123711855514557 26.327476865521021 0 0 0 0 -108.7234566246625 116.69627836743894 0 116.69627836743894 7.3066714735687128 0 0 0 0 -51.436952267184097 -43.606524853779774 0 -43.606524853779774 68.289783925167285 0 0 0 0 -134.04444607655751 -12.820038868390839 0 -12.820038868390839 58.226315267900645 0 0 0 0 -11.170472311947378 -99.344521343933593 0 -99.344521343933593 59.762989552124054 0 0 0 0 -86.431395787207293 -101.56097389456409 0 -101.56097389456409 173.71061683500011 0 0 0 0 -83.36957536173577 -178.19606616815872 0 -178.19606616815872 337.22034839923435 0 0 0 0 -653.68708985022386 144.21781024849042 0 144.21781024849042 463.48641418055922 0 0 0 0 -234.04584545598482 -14.848747337069653 0 -14.848747337069653 160.21937378900475 0 0 0 0 -695.37564672174085 -466.8451159922879 0 -466.8451159922879 847.30347885921947 0 0 0 0 53.085149703845673 -79.565379341082007 0 -79.565379341082007 33.99393009612686 0 0 0 0 4.5434475197621325 -9.3463136317263107 0 -9.3463136317263107 15.189825104590625 0 0 0 0 43.848379967814253 -170.96046891808874 0 -170.96046891808874 148.64051786348864 0 0 0 0 -265.04124511621194 -166.15331849188078 0 -166.15331849188078 -490.7802644397816 0 0 0 0 -164.02680289691489 -454.4562652270979 0 -454.4562652270979 -321.91141840048658 0 0 0 0 -25.015671411340008 -303.67037219452322 0 -303.67037219452322 -306.45829504418361 0 0 0 0 -171.0625812097278 -375.07414852161673 0 -375.07414852161673 164.5998656690208 0 0 0 0 -95.925317903393079 -142.04538935009896 0 -142.04538935009896 -208.7601189683046 0 0 0 0 -23.921833634885843 -259.80682351335417 0 -259.80682351335417 -20.380862932986929 0 0 0 0 -168.50161015204594 -476.24136691792273 0 -476.24136691792273 -25.811760586686432 0 0 0 0 6.2619047709915634 -3.3429644157970486 0 -3.3429644157970486 0.11874870249684477 0 0 0 0 -58.398787045342033 -202.83911972233182 0 -202.83911972233182 -475.90969354494882 0 0 0 0 -16.90945881765947 -17.696927502020117 0 -17.696927502020117 188.65190806064493 0 0 0 0 1.8461268282408128 -237.72116371304219 0 -237.72116371304219 -69.13604807392403 0 0 0 0 -137.51377480354859 -169.26431836341362 0 -169.26431836341362 -60.741494901594706 0 0 0 0 -161.50704380615934 -303.32693499941161 0 -303.32693499941161 -62.678478037424156 0 0 0 0 14.468943992468596 -14.421489593736556 0 -14.421489593736556 14.574339999005559 0 0 0 0 -35.675415953000083 -31.448918091212363 0 -31.448918091212363 56.383053600526182 0 0 0 0 170.05314188437478 -294.95970569796555 0 -294.95970569796555 153.1201119808793 0 0 0 0 -60.835696755574645 -111.7907681685374 0 -111.7907681685374 257.17664841855731 0 0 0 0 223.13939014093194 -69.727867839254031 0 -69.727867839254031 -192.37033801734651 0 0 0 0 353.27964290834279 -269.28422791173944 0 -269.28422791173944 -425.28467528418696 0 0 0 0 6.0225081862224101 -5.3054255205771312 0 -5.3054255205771312 4.1563159625360413 0 0 0 0 -13.109186295274412 -256.17234744653979 0 -256.17234744653979 -261.35567937686574 0 0 0 0 -410.16251885064412 -393.24417641569744 0 -393.24417641569744 -178.36293883829785 0 0 0 0 -16.93784217223174 -349.31371741168095 0 -349.31371741168095 -486.05571043275995 0 0 0 0 -709.1080651270604 -89.395621612944524 0 -89.395621612944524 -305.10885407816386 0 0 0 0 -989.62494474293635 -346.48837755525528 0 -346.48837755525528 -35.570990272695781 0 0 0 0 -479.37424859042221 -665.23330704971886 0 -665.23330704971886 -72.678020290622953 0 0 0 0 -725.17470556154149 -443.2080595343723 0 -443.2080595343723 -6.8374974003236275 0 0 0 0 -926.12447895927471 -596.5651510238531 0 -596.5651510238531 58.988208700786345 0 0 0 0 -374.47586992553261 -317.62154630638543 0 -317.62154630638543 -183.89577317448857 0 0 0 0 84.661351509770611 -9.9518438718368998 0 -9.9518438718368998 -291.51240280549609 0 0 0 0 -184.17989941219275 253.97788370782655 0 253.97788370782655 -326.91417730991088 0 0 0 0 -39.454192253830115 -158.34185388857077 0 -158.34185388857077 90.787822477672307 0 0 0 0 -972.9643619170165 -396.10984300383279 0 -396.10984300383279 11.404645770468051 0 0 0 0 0.7123074740861739 -11.361186863971064 0 -11.361186863971064 18.495048045768243 0 0 0 0 44.932781174175034 -144.31950519454767 0 -144.31950519454767 -143.70701058485429 0 0 0 0 -4.6913407683822754 2.3582674094344895 0 2.3582674094344895 0.33925676027339335 0 0 0 0 -1157.2545373562025 -250.89989348786185 0 -250.89989348786185 -14.994091918168124 0 0 0 0 -0.30772055731080172 -1.9481721317246894 0 -1.9481721317246894 0.48592307044711447 0 0 0 0 -1465.311290827929 -25.272751712735044 0 -25.272751712735044 -174.26828256505542 0 0 0 0 -1307.6389140811661 -645.6079458137574 0 -645.6079458137574 -87.149893762078136 0 0 0 0 -1896.8873862341861 109.58194556675153 0 109.58194556675153 -210.81961324918666 0 0 0 0 -1748.488239360624 -543.98028346265528 0 -543.98028346265528 -95.941380464355461 0 0 0 0 -903.787270436791 -720.86148087175388 0 -720.86148087175388 -483.96420416811452 0 0 0 0 -820.33910127417039 -456.91195036969293 0 -456.91195036969293 -159.3034627631132 0 0 0 0 -1204.2211341190705 -88.795275587246579 0 -88.795275587246579 0.75021351262694225 0 0 0 0 0.47788104493520223 -2.5416235225531736 0 -2.5416235225531736 -10.337985211817454 0 0 0 0 65.799561631520191 -30.155974827292084 0 -30.155974827292084 -22.982819741868298 0 0 0 0 88.930044477860065 -769.89773350573341 0 -769.89773350573341 14.919489759515272 0 0 0 0 -523.49736653282889 -252.51981824071117 0 -252.51981824071117 560.52844970108708 0 0 0 0 -732.13624437524413 -479.81523737371754 0 -479.81523737371754 -575.69147777814942 0 0 0 0 -517.58471563117928 -174.23944843957725 0 -174.23944843957725 -200.48421402919848 0 0 0 0 -886.74388523816015 -679.92593289857905 0 -679.92593289857905 80.839083599188598 0 0 0 0 -937.87964432424633 -470.32532534452912 0 -470.32532534452912 -46.335322334285593 0 0 0 0 172.4764399658452 304.79813486741477 0 304.79813486741477 33.827359707051073 0 0 0 0 -470.53246613287047 -14.243717347137135 0 -14.243717347137135 -13.426948377746157 0 0 0 0 -446.7910316165835 -107.58055544971012 0 -107.58055544971012 -142.69835068573593 0 0 0 0 87.131154159666039 6.364076251622464 0 6.364076251622464 -248.74509239869076 0 0 0 0 -125.95629349764204 73.384788641094929 0 73.384788641094929 -159.68197118924218 0 0 0 0 -710.79251617538102 -408.40972187741136 0 -408.40972187741136 -245.29935469839256 0 0 0 0 -715.87992873451731 -246.82788405417523 0 -246.82788405417523 -134.43464831117308 0 0 0 0 -462.85438995921868 -13.792082939915417 0 -13.792082939915417 -157.53405480296988 0 0 0 0 -1055.7275011734237 -468.04166747462659 0 -468.04166747462659 -187.80869194922343 0 0 0 0 -138.69129185685597 -168.36194642040209 0 -168.36194642040209 -452.16834247210159 0 0 0 0 -259.94673362655885 94.971567086362484 0 94.971567086362484 -129.69044484839469 0 0 0 0 -550.77239772906069 -473.54702660319663 0 -473.54702660319663 -444.9863636040609 0 0 0 0 -72.256370238013915 106.36490995678832 0 106.36490995678832 -120.33840573832367 0 0 0 0 -247.33322669060726 -128.2251274496557 0 -128.2251274496557 -256.15539285209525 0 0 0 0 123.16660734582547 -67.00771406585045 0 -67.00771406585045 -100.26288312339057 0 0 0 0 91.218537973531056 0.25678923941086396 0 0.25678923941086396 -165.81025755235896 0 0 0 0 25.975422497336695 -37.688680509836558 0 -37.688680509836558 -145.20753992557002 0 0 0 0 21.376848299427365 37.939393356347864 0 37.939393356347864 -56.152474250737214 0 0 0 0 65.654069937172608 -77.974411295081154 0 -77.974411295081154 7.6595983296065242 0 0 0 0 71.999298971975804 -83.48527923511574 0 -83.48527923511574 -5.8901987641147571 0 0 0 0 49.934795119077535 -128.58003403898147 0 -128.58003403898147 86.729404138503014 0 0 0 0 50.456337329129383 -144.52467068152509 0 -144.52467068152509 -32.472464050733834 0 0 0 0 454.01017877683807 -133.35950819874233 0 -133.35950819874233 -217.33022380061448 0 0 0 0 60.946801938969656 -80.812339792299099 0 -80.812339792299099 -95.196623920230195 0 0 0 0 33.039563994396303 -55.891653319078614 0 -55.891653319078614 11.061643821431062 0 0 0 0 51.742544586515578 -41.565904101673368 0 -41.565904101673368 -7.054490426683401 0 0 0 0 27.432792727151536 -32.07561043043097 0 -32.07561043043097 -6.6865436596654035 0 0 0 0 31.583845991917769 -32.105463096238964 0 -32.105463096238964 -17.560288281783869 0 0 0 0 25.848851256145281 -28.374857387236261 0 -28.374857387236261 -12.824422699253773 0 0 0 0 34.384700548471301 -39.840177340145601 0 -39.840177340145601 -11.739710535242921 0 0 0 0 30.857132564167841 -39.483426252994832 0 -39.483426252994832 -7.9792533499421552 0 0 0 0 29.571663527856799 -39.43275234540215 0 -39.43275234540215 -7.8668312147783581 0 0 0 0 31.441826782291173 -38.330560332426103 0 -38.330560332426103 -8.1908328305289615 0 0 0 0 29.439465499846847 -38.071294353430858 0 -38.071294353430858 -8.1948159397841209 0 0 0 0 29.666791984680458 -33.694870033876214 0 -33.694870033876214 -11.244805409805849 0 0 0 0 33.343277362859226 -36.55037332750544 0 -36.55037332750544 -10.315368403171306 0 0 0 0 30.195975343965983 -31.655912814449039 0 -31.655912814449039 -4.5116552743420471 0 0 0 0 18.158901299073477 -36.54928105037834 0 -36.54928105037834 -6.1316947144805454 0 0 0 0 24.182525870906829 -43.430203847521625 0 -43.430203847521625 -8.1787979265791364 0 0 0 0 13.867331559449667 -52.320641578597133 0 -52.320641578597133 -3.7976451951763011 0 0 0 0 0.80613480608096921 -11.397064994225779 0 -11.397064994225779 -7.5984037618525235 0 0 0 0 16.321719135603416 -42.273850833265897 0 -42.273850833265897 1.8181787445937516 0 0 0 0 -0.9293051417771494 -40.828855955725885 0 -40.828855955725885 6.9473612818692345 0 0 0 0 -9.1159181661205366 -30.739915553029277 0 -30.739915553029277 10.078847164782928 0 0 0 0 1.3757766124617774 -35.893356428961852 0 -35.893356428961852 10.491193418383773 0 0 0 0 11.558934075073921 -23.784194792824565 0 -23.784194792824565 4.4640478823857848 0 0 0 0 -4.0868958190549165 -21.996983606863068 0 -21.996983606863068 4.5194371268914892 0 0 0 0 -8.2368294618499931 -29.240758094812918 0 -29.240758094812918 10.970806225355773 0 0 0 0 -17.490601316465472 -26.270258710308553 0 -26.270258710308553 24.29492707143072 0 0 0 0 -54.940335676903487 -56.810866791813169 0 -56.810866791813169 11.533078222619224 0 0 0 0 -15.642861130298115 -42.193126595764625 0 -42.193126595764625 21.273978359364264 0 0 0 0 -12.608762983625638 -42.755076137371361 0 -42.755076137371361 15.181497457171645 0 0 0 0 -17.853198096148844 -41.425923217928357 0 -41.425923217928357 17.997494684939738 0 0 0 0 -16.049804205164037 -26.2027369137965 0 -26.2027369137965 -19.079809820634438 0 0 0 0 -9.2490967081685085 -42.947575808386318 0 -42.947575808386318 16.991144803912903 0 0 0 0 -11.261534469511389 -44.456975573878481 0 -44.456975573878481 -7.3803969405635144 0 0 0 0 47.84410858200863 -77.439983329255483 0 -77.439983329255483 -100.75762827598919 0 0 0 0 -2.8174583877371333 -48.707674631908958 0 -48.707674631908958 22.14980593934888 0 0 0 0 -15.619157078948774 -45.994123333719472 0 -45.994123333719472 25.398437865813321 0 0 0 0 -13.217139026321092 -45.305603310855076 0 -45.305603310855076 25.386720012844307 0 0 0 0 -14.39687958417926 -44.792446349354577 0 -44.792446349354577 32.368248522034264 0 0 0 0 -60.242058213152632 80.105534870639531 0 80.105534870639531 -11.554578042705543 0 0 0 0 -8.3015659030423024 -21.301374137817604 0 -21.301374137817604 -15.029265187375998 0 0 0 0 9.8625258075335296 -41.049174364467035 0 -41.049174364467035 -8.1920247765228851 0 0 0 0 -2.9496268942457391 -55.417533816020295 0 -55.417533816020295 -4.7737276519910665 0 0 0 0 -1.7634858999372227 -59.546317699176143 0 -59.546317699176143 -4.0244975495024846 0 0 0 0 89.491655642050318 -49.03010645017639 0 -49.03010645017639 -230.89469496950915 0 0 0 0 23.374598968730425 -67.974526227135357 0 -67.974526227135357 -50.479347709770082 0 0 0 0 147.04957211048895 51.755381707527704 0 51.755381707527704 -55.876710095373483 0 0 0 0 -1.1704235499200024 0.75565860763848747 0 0.75565860763848747 -1.8038903748550297 0 0 0 0 -146.94526970435254 -259.02260939018743 0 -259.02260939018743 -326.32813636940773 0 0 0 0 27.231771164370002 -211.73780539080326 0 -211.73780539080326 -362.48180492426764 0 0 0 0 -80.773324618636252 -142.39714356720651 0 -142.39714356720651 -91.922593543102266 0 0 0 0 -7.999754876109364 -66.970682172319357 0 -66.970682172319357 -10.148809100297512 0 0 0 0 -82.414884502679342 -122.76589655090356 0 -122.76589655090356 -35.827441525740142 0 0 0 0 -61.677691208211399 -58.715787944463955 0 -58.715787944463955 25.28380577925418 0 0 0 0 39.900590623932658 -8.9413986645304249 0 -8.9413986645304249 -6.1213970004682778 0 0 0 0 -51.833599464103827 -71.125120336078908 0 -71.125120336078908 65.674505447706906 0 0 0 0 352.81834423149121 -100.4737029408825 0 -100.4737029408825 -338.17927978306943 0 0 0 0 -2.1633542078413086 -2.7070573570934187 0 -2.7070573570934187 -3.4616297377759366 0 0 0 0 -94.157190393583733 -413.14748835386854 0 -413.14748835386854 -56.898541019014374 0 0 0 0 135.76820433699322 -224.93448024247846 0 -224.93448024247846 82.564859245569096 0 0 0 0 133.88467786074762 -214.83900662608721 0 -214.83900662608721 321.95976540702395 0 0 0 0 -280.93024222026725 -168.58089172340624 0 -168.58089172340624 140.02870379100932 0 0 0 0 -86.195432785552839 -17.409341911365118 0 -17.409341911365118 -109.42236866601888 0 0 0 0 23.677693699879455 -259.37754972495532 0 -259.37754972495532 80.233312618940545 0 0 0 0 167.19399616378359 -480.45724580138631 0 -480.45724580138631 183.93913144302496 0 0 0 0 131.23264600706898 -479.78925437531143 0 -479.78925437531143 367.03303394747491 0 0 0 0 484.63830932157725 -791.00496080399535 0 -791.00496080399535 370.49317311000777 0 0 0 0 880.66272510922136 -51.820132627002749 0 -51.820132627002749 71.710330921865534 0 0 0 0 -427.33816384509555 -80.144653717332403 0 -80.144653717332403 1102.3308303252779 0 0 0 0 3.2839169582442196 -3.1948780848048486 0 -3.1948780848048486 13.606096261198132 0 0 0 0 -288.38045470986981 -473.76796317797198 0 -473.76796317797198 323.09190353432678 0 0 0 0 568.63122207051128 -1229.7957287539048 0 -1229.7957287539048 -117.82788259726658 0 0 0 0 887.41393109659839 -262.88833840306597 0 -262.88833840306597 -16.698178728314815 0 0 0 0 -6.9273041538532709 -3.752707311680183 0 -3.752707311680183 -0.88655504996124535 0 0 0 0 -65.3071037910413 -410.37397288533975 0 -410.37397288533975 684.36900970472198 0 0 0 0 -1.3092626852594549 -260.7485331522621 0 -260.7485331522621 636.10952946267753 0 0 0 0 -2.3189697167690611 -282.55990718669636 0 -282.55990718669636 395.84380373554086 0 0 0 0 -66.693002727435669 -475.63912664190138 0 -475.63912664190138 485.32497009564759 0 0 0 0 -342.35157124882608 -76.040750092759481 0 -76.040750092759481 150.86058619680261 0 0 0 0 -443.77410574097053 -507.73223892955878 0 -507.73223892955878 53.061922113287437 0 0 0 0 -178.5192966579707 -399.55879762133554 0 -399.55879762133554 -130.42152479346987 0 0 0 0 -327.45930561708519 -184.36959483487408 0 -184.36959483487408 -106.03474570084654 0 0 0 0 131.87983502816496 -94.075792397419718 0 -94.075792397419718 -109.92269448781735 0 0 0 0 137.61080970116836 -255.02783015442901 0 -255.02783015442901 313.77826230063511 0 0 0 0 121.54925016763718 -160.16219175656806 0 -160.16219175656806 368.24835969535343 0 0 0 0 70.554789972047729 -158.5187537151869 0 -158.5187537151869 227.01583693847351 0 0 0 0 111.68520101640024 -92.615801856158214 0 -92.615801856158214 40.14825368457241 0 0 0 0 61.149714524130104 -121.5007998653673 0 -121.5007998653673 180.45609265002668 0 0 0 0 72.648928981769131 -170.80378201619897 0 -170.80378201619897 -56.530307182867546 0 0 0 0 -6.706632876128424 -3.7887187126398203 0 -3.7887187126398203 -12.213268475781661 0 0 0 0 -3.5074100513813988 -6.700641053753742 0 -6.700641053753742 4.2966505254728418 0 0 0 0 -61.021588667033939 -158.8122414444515 0 -158.8122414444515 129.10667016106891 0 0 0 0 92.281610589118145 -146.06592500041029 0 -146.06592500041029 109.87458379077725 0 0 0 0 148.78670487976342 -311.39349922526162 0 -311.39349922526162 306.57013495664432 0 0 0 0 86.658809285203461 -275.92156819911906 0 -275.92156819911906 184.29280830194489 0 0 0 0 240.52404535718597 -48.102390394598842 0 -48.102390394598842 7.7002606360329082 0 0 0 0 -61.200671270788007 -17.473634774236416 0 -17.473634774236416 83.702865642815595 0 0 0 0 63.742176436258887 -28.06909622229432 0 -28.06909622229432 -64.59447442938108 0 0 0 0 -11.733444581259391 -58.386244870183873 0 -58.386244870183873 -67.802685012566144 0 0 0 0 -2.284608685389145 -26.848506187380977 0 -26.848506187380977 25.289393135156672 0 0 0 0 -82.511275084143563 -70.300635292460356 0 -70.300635292460356 -11.412763084619655 0 0 0 0 -109.07495567289152 -181.16035822788399 0 -181.16035822788399 -41.159369300021353 0 0 0 0 -66.373976951552322 -42.183130654651904 0 -42.183130654651904 -43.37006329887663 0 0 0 0 13.481728441006453 -118.09437988488116 0 -118.09437988488116 -196.23633550440718 0 0 0 0 -54.549598552071984 20.447644872972887 0 20.447644872972887 186.53178887343529 0 0 0 0 -13.011315534495225 22.662396683346742 0 22.662396683346742 57.117915353883291 0 0 0 0 -3.4309231814404484 -20.36312212197663 0 -20.36312212197663 47.287169813294895 0 0 0 0 -10.155239770538174 -1.7751769566602889 0 -1.7751769566602889 95.551748080486504 0 0 0 0 25.269651245078421 -16.530079851429036 0 -16.530079851429036 47.652844846996231 0 0 0 0 -9.1238220949308015 -11.56079928145482 0 -11.56079928145482 81.556071813614835 0 0 0 0 24.541488607753536 15.344421077194966 0 15.344421077194966 0.65153567129164003 0 0 0 0 23.704959768113667 -0.96176902952493037 0 -0.96176902952493037 15.630074764514575 0 0 0 0 45.538924924511775 -19.047974755180803 0 -19.047974755180803 13.962925316867768 0 0 0 0 42.144787793276919 -1.5504100989492144 0 -1.5504100989492144 -2.0510497913201107 0 0 0 0 0.75517456817033235 29.063639749649155 0 29.063639749649155 57.281151699273892 0 0 0 0 7.7687962110394437 38.334787847874395 0 38.334787847874395 -17.825219482758257 0 0 0 0 9.5682363354553672 11.725057479357929 0 11.725057479357929 -11.041666343502584 0 0 0 0 -13.577342054108158 31.364244706979662 0 31.364244706979662 5.0023717640242467 0 0 0 0 -93.803792173677266 -40.327289784017239 0 -40.327289784017239 -20.112906332382408 0 0 0 0 -169.06003331025204 -102.69234941840477 0 -102.69234941840477 320.93066856397854 0 0 0 0 85.756026005197782 -236.42958285691566 0 -236.42958285691566 492.13986649267827 0 0 0 0 -17.926305299171077 -8.8783153313907661 0 -8.8783153313907661 -3.0000731105417771 0 0 0 0 -55.538796734650532 77.294911370649061 0 77.294911370649061 111.66504937204809 0 0 0 0 47.278851142633357 -164.96443551355333 0 -164.96443551355333 347.38710501743481 0 0 0 0 -20.390278664592188 -137.41475572672789 0 -137.41475572672789 471.06384408131998 0 0 0 0 -25.278659025175841 -10.768547781167044 0 -10.768547781167044 -2.7465146879178306 0 0 0 0 65.596500207546342 -111.30859630137638 0 -111.30859630137638 314.99089264080249 0 0 0 0 185.38806762269087 -155.89409204776166 0 -155.89409204776166 248.71003822878993 0 0 0 0 181.23533794375544 -170.78745089541189 0 -170.78745089541189 196.52943111710192 0 0 0 0 11.079884337210387 -145.65491842717893 0 -145.65491842717893 150.23942199917656 0 0 0 0 26.266295347115374 -14.067614054394653 0 -14.067614054394653 245.93458897109667 0 0 0 0 81.230756439341349 -28.619809057825478 0 -28.619809057825478 116.83547337035998 0 0 0 0 357.86638585104083 -241.84556306801824 0 -241.84556306801824 -14.028269239559449 0 0 0 0 -70.311327073293796 -402.01722139440244 0 -402.01722139440244 -178.24437423911149 0 0 0 0 52.575236520746842 -79.366164066018229 0 -79.366164066018229 81.561546842013058 0 0 0 0 -343.44314570509596 -9.1306861882694648 0 -9.1306861882694648 98.130453532074171 0 0 0 0 -14.551582559877716 -261.14379489894964 0 -261.14379489894964 120.92375767724297 0 0 0 0 -108.96069334269851 -64.235375774624117 0 -64.235375774624117 356.87514689582167 0 0 0 0 36.445553479919909 -12.912047771300422 0 -12.912047771300422 374.78689048453816 0 0 0 0 -38.809473807923496 -42.653049909102265 0 -42.653049909102265 197.46109570496355 0 0 0 0 35.45907265227288 -179.20953106490197 0 -179.20953106490197 429.87205293314764 0 0 0 0 63.161854986450635 -139.47576338352519 0 -139.47576338352519 421.4993358326974 0 0 0 0 -58.571015505178366 -177.28851885301992 0 -177.28851885301992 517.37865980007336 0 0 0 0 -72.75779559869261 -35.861367184872506 0 -35.861367184872506 527.19953729980625 0 0 0 0 67.318986409416539 -50.447661167461774 0 -50.447661167461774 231.3689801870496 0 0 0 0 -3.9688045562176342 5.3984867103718557 0 5.3984867103718557 5.5799594534346397 0 0 0 0 -50.928583274740959 -234.10894410444962 0 -234.10894410444962 797.92617655455251 0 0 0 0 56.3486152694677 -102.63468130741967 0 -102.63468130741967 551.588165882873 0 0 0 0 -16.412806921784068 -198.70733076374745 0 -198.70733076374745 834.69567992415978 0 0 0 0 1.2777082791890848 -5.9711986132640504 0 -5.9711986132640504 -2.7396592365755552 0 0 0 0 -30.491513448137994 -16.05553936969045 0 -16.05553936969045 93.868964577879524 0 0 0 0 -28.560699758749507 -11.539918613386575 0 -11.539918613386575 -2.2139864314721507 0 0 0 0 -20.31454855674383 -18.712542098772246 0 -18.712542098772246 92.825096917920746 0 0 0 0 -43.126725992391584 -8.231224898918299 0 -8.231224898918299 422.94041252257011 0 0 0 0 -20.78888378010015 -27.126845558770583 0 -27.126845558770583 80.474993433190321 0 0 0 0 -14.626499157042417 -19.24155622127364 0 -19.24155622127364 90.47758650828473 0 0 0 0 -22.923364100744948 -14.699123534373939 0 -14.699123534373939 91.229360940640618 0 0 0 0 -55.963917550790939 -173.93066037520475 0 -173.93066037520475 433.9525926040269 0 0 0 0 127.95945329111419 -95.626520359626738 0 -95.626520359626738 -125.75351838601637 0 0 0 0 -170.77159562661836 -22.388816660357406 0 -22.388816660357406 273.48531659711443 0 0 0 0 71.643112006000592 -174.2427172743337 0 -174.2427172743337 33.677390020158782 0 0 0 0 49.936123758442619 -84.227224786321585 0 -84.227224786321585 72.628723168579086 0 0 0 0 49.39323891105596 -102.68298216531912 0 -102.68298216531912 -29.084267968821223 0 0 0 0 101.17701276566731 -62.211946346036711 0 -62.211946346036711 -12.101937426850782 0 0 0 0 14.957744744272773 -45.805882401827205 0 -45.805882401827205 31.035535956505253 0 0 0 0 17.90767366279033 -47.779145789743779 0 -47.779145789743779 47.598453277067165 0 0 0 0 16.50835072618797 -45.211788968572627 0 -45.211788968572627 35.841589948663255 0 0 0 0 -5.362386823304405 -60.056252292917634 0 -60.056252292917634 64.69651767801588 0 0 0 0 -26.907115250070348 -20.694384285846638 0 -20.694384285846638 33.595792411094621 0 0 0 0 -49.258959218012023 -218.90115917229014 0 -218.90115917229014 115.05573713798367 0 0 0 0 -13.038228263541896 -42.942383953040007 0 -42.942383953040007 83.462469759797386 0 0 0 0 12.477840777071833 -40.333896869757154 0 -40.333896869757154 72.331900771940127 0 0 0 0 -55.489304324095428 -376.34178533136583 0 -376.34178533136583 -625.61028884992993 0 0 0 0 -134.56340466210168 -200.10669229232735 0 -200.10669229232735 -274.30645407464181 0 0 0 0 -118.83306354375964 -188.50780866621062 0 -188.50780866621062 -282.56638156985719 0 0 0 0 4.6667127896097966 -5.520911866157924 0 -5.520911866157924 -0.38150120962990286 0 0 0 0 -98.212588458096434 -190.10522185728769 0 -190.10522185728769 -285.72729151518433 0 0 0 0 -117.37869236068218 -204.10538837952845 0 -204.10538837952845 -279.11603971126897 0 0 0 0 1.1092478815212132 -4.9976112917587159 0 -4.9976112917587159 6.3590081645568617 0 0 0 0 8.2320078872499352 -41.339052384730792 0 -41.339052384730792 64.544219095641836 0 0 0 0 0.25362104300438659 -65.6245084589209 0 -65.6245084589209 16.398885328628239 0 0 0 0 -125.31744277401231 -63.487338390645164 0 -63.487338390645164 117.38529638312684 0 0 0 0 -59.725342510315386 -199.34764678548345 0 -199.34764678548345 -16.608291946031386 0 0 0 0 7.0535920188194723 -79.436412950846716 0 -79.436412950846716 65.083010610716883 0 0 0 0 -48.125071878615927 -109.7638504022907 0 -109.7638504022907 93.580490486056078 0 0 0 0 -20.767855635138403 -16.570323443884263 0 -16.570323443884263 157.73392908793176 0 0 0 0 -30.040966728863395 -54.436926782446122 0 -54.436926782446122 83.300090790209651 0 0 0 0 -129.27135986008216 -92.337788055679994 0 -92.337788055679994 109.2555595569429 0 0 0 0 6.8887380817664905 -43.272481515246206 0 -43.272481515246206 63.921398161028407 0 0 0 0 21.073776738234301 -72.885931872406218 0 -72.885931872406218 61.570926315667748 0 0 0 0 7.938371089319844 -99.807957974735473 0 -99.807957974735473 25.570511212426936 0 0 0 0 25.712424841708504 -49.636743213252402 0 -49.636743213252402 29.631964023835394 0 0 0 0 -69.833203153924842 -75.885650850395905 0 -75.885650850395905 -18.58853935811203 0 0 0 0 -38.496841280990338 -107.51596521295141 0 -107.51596521295141 -112.4571667315613 0 0 0 0 -1.6965520320223391 -0.10592816454001763 0 -0.10592816454001763 22.160160813685081 0 0 0 0 14.596302716654463 -41.923866408653339 0 -41.923866408653339 47.847035611994215 0 0 0 0 30.779231139938929 -38.334221221404732 0 -38.334221221404732 47.727379044028339 0 0 0 0 21.711867903657549 -48.791321662756673 0 -48.791321662756673 43.809192959750362 0 0 0 0 42.660238693693827 -54.693891607177648 0 -54.693891607177648 35.419031271907443 0 0 0 0 25.630724918875785 -48.215172302556311 0 -48.215172302556311 33.011464315452031 0 0 0 0 52.638017392266192 -38.270779164264241 0 -38.270779164264241 21.753296121805761 0 0 0 0 22.195609973467072 -24.671531885083823 0 -24.671531885083823 26.228389553660236 0 0 0 0 47.263626250074594 -25.138602453189378 0 -25.138602453189378 -5.8034113685862394 0 0 0 0 44.942470459362085 -80.715569003332348 0 -80.715569003332348 20.783461884158896 0 0 0 0 44.936731386307542 -81.189283305209784 0 -81.189283305209784 85.258971577262855 0 0 0 0 74.444320873983088 -91.535785328480415 0 -91.535785328480415 56.464064231040538 0 0 0 0 46.423216998828138 -70.641612482098935 0 -70.641612482098935 75.903720347676426 0 0 0 0 58.013890106070903 -56.959196378691558 0 -56.959196378691558 27.178384401187941 0 0 0 0 57.728078427000582 -70.64053827900716 0 -70.64053827900716 9.9846859617173322 0 0 0 0 -64.175235719361808 -85.496371117329545 0 -85.496371117329545 65.399885211125365 0 0 0 0 22.44413604239233 -30.359724267006655 0 -30.359724267006655 30.781188728810946 0 0 0 0 -144.50895253372119 -27.03657939279924 0 -27.03657939279924 43.32058602500183 0 0 0 0 220.51704934648296 -112.46979441759686 0 -112.46979441759686 42.463012532331049 0 0 0 0 -0.018916670895551491 -0.049431792210228309 0 -0.049431792210228309 0.7692501967419787 0 0 0 0 -133.84539669242076 -44.57665789895691 0 -44.57665789895691 12.039809818532376 0 0 0 0 -35.922522692071652 -32.823422206205578 0 -32.823422206205578 -7.9182782016305282 0 0 0 0 -32.95462104566468 4.4203052950588244 0 4.4203052950588244 -0.7790643237894983 0 0 0 0 0.62122659116090873 -0.30486864285160209 0 -0.30486864285160209 1.993604057894629 0 0 0 0 49.496183921422926 -13.765029539295938 0 -13.765029539295938 4.0631350528892654 0 0 0 0 96.304285510180307 -26.878665805809305 0 -26.878665805809305 2.5663879927742528 0 0 0 0 47.060020329328836 -29.807126551160763 0 -29.807126551160763 13.072643398212676 0 0 0 0 30.70562058113137 -52.501823152975703 0 -52.501823152975703 0.093089674584916793 0 0 0 0 19.950662370923965 -40.148158253243309 0 -40.148158253243309 -16.939919270420432 0 0 0 0 15.708255401354108 -60.336262204400555 0 -60.336262204400555 47.682536701962817 0 0 0 0 0.97837974749563728 -95.215690260381962 0 -95.215690260381962 122.40675153560733 0 0 0 0 28.672936388476955 -62.922237060676707 0 -62.922237060676707 44.973643881763564 0 0 0 0 52.543317542098521 -40.020504813655862 0 -40.020504813655862 31.631534632375406 0 0 0 0 87.81653674440895 -37.027118925267132 0 -37.027118925267132 31.883173809954314 0 0 0 0 -49.491254462926918 -48.385371833806857 0 -48.385371833806857 -4.2491499313000531 0 0 0 0 -1.3972822978345714 -32.919884578384668 0 -32.919884578384668 -0.81925345236956559 0 0 0 0 -45.321283244011283 -39.544779268311686 0 -39.544779268311686 8.5539359209287795 0 0 0 0 -52.585085515498008 -52.58040376282861 0 -52.58040376282861 3.9078388551133685 0 0 0 0 -50.904476356532541 -51.634251367955585 0 -51.634251367955585 1.2217875346977962 0 0 0 0 -57.027351406015441 -59.4495083441725 0 -59.4495083441725 -4.5558798263737117 0 0 0 0 -64.078924796687716 -48.49752791534047 0 -48.49752791534047 4.3120250947176828 0 0 0 0 -52.306146302799647 -50.707657802004178 0 -50.707657802004178 -1.5992334009933984 0 0 0 0 32.423318162836949 -87.883198946292396 0 -87.883198946292396 -83.214749963790382 0 0 0 0 59.800454658608942 33.053887281785137 0 33.053887281785137 -52.632600861863466 0 0 0 0 64.340770530383452 6.2453229656384792 0 6.2453229656384792 110.13617004276603 0 0 0 0 -93.974764827406034 -104.17911846206698 0 -104.17911846206698 210.00565967669536 0 0 0 0 462.46939619697514 -160.96905124123441 0 -160.96905124123441 100.20482375832216 0 0 0 0 21.811326971939707 -180.09153920487006 0 -180.09153920487006 200.43116123689106 0 0 0 0 -121.46436617527797 -176.3570197686131 0 -176.3570197686131 87.273650977251236 0 0 0 0 -20.89646330750773 -14.762410999831417 0 -14.762410999831417 -4.0204460361219105 0 0 0 0 151.41760239229916 -154.82624533447233 0 -154.82624533447233 45.835473547980655 0 0 0 0 -15.414762237294283 -22.299380868672316 0 -22.299380868672316 -7.9704675261880595 0 0 0 0 29.91544800052543 -48.903216605158377 0 -48.903216605158377 13.238518388869124 0 0 0 0 22.358042083251348 -47.550090245582396 0 -47.550090245582396 19.849593961058417 0 0 0 0 -6.6459366767812753 -64.189482305646379 0 -64.189482305646379 -3.9303884121400188 0 0 0 0 54.787428481766256 -117.31743012745574 0 -117.31743012745574 144.84195276261016 0 0 0 0 -3.4868354746054138 -1.6622542078409381 0 -1.6622542078409381 -0.3458692473499525 0 0 0 0 -34.431778534926707 -29.046095921810775 0 -29.046095921810775 1.6524699847109332 0 0 0 0 -18.578702585172238 -24.888601534645968 0 -24.888601534645968 -4.0615129366959764 0 0 0 0 3.9852954966409015 22.704895343289536 0 22.704895343289536 -34.868579339716234 0 0 0 0 3.231770005671045 -1.9278614461738925 0 -1.9278614461738925 -1.5754489157614557 0 0 0 0 -186.13633378357054 -123.96745610994913 0 -123.96745610994913 154.59345192622277 0 0 0 0 150.84568698262592 -0.57931703049689531 0 -0.57931703049689531 -114.03542536466557 0 0 0 0 -17.752978690434247 -132.58838674661092 0 -132.58838674661092 79.503166994876665 0 0 0 0 98.276149828277994 -96.153066282015061 0 -96.153066282015061 90.228491167617904 0 0 0 0 -10.076736688920136 -23.289622410174786 0 -23.289622410174786 -17.822414169758872 0 0 0 0 59.611811438597215 -67.359762203035643 0 -67.359762203035643 -89.166220777027775 0 0 0 0 -6.9233326178436982 -222.97278409115461 0 -222.97278409115461 36.947916096894915 0 0 0 0 -3.1554067583085015 -33.849841126008897 0 -33.849841126008897 -15.724035991938365 0 0 0 0 17.830483451667533 -88.552392402735677 0 -88.552392402735677 -2.2260241987969493 0 0 0 0 12.889048501529984 -31.514713556473652 0 -31.514713556473652 15.204422150927741 0 0 0 0 -0.38912129689379071 -50.680152535209345 0 -50.680152535209345 18.650500752723019 0 0 0 0 8.3784622704988578 -46.279711258852331 0 -46.279711258852331 14.926643846032675 0 0 0 0 -38.952438949960197 -59.31777040956149 0 -59.31777040956149 11.639496718325972 0 0 0 0 -19.523820263268135 -47.327248977546333 0 -47.327248977546333 -18.755489642833709 0 0 0 0 9.0966322252039902 -35.751237171576335 0 -35.751237171576335 24.748999376737487 0 0 0 0 -20.069683800574808 -79.502105519838324 0 -79.502105519838324 -12.007800273539033 0 0 0 0 -3.7801169087360904 -89.922778853004274 0 -89.922778853004274 -13.634537921805531 0 0 0 0 9.1880629981751554 -42.216040173952933 0 -42.216040173952933 6.9991998458572198 0 0 0 0 -104.42228019710456 -65.6213889306091 0 -65.6213889306091 -26.338900276229424 0 0 0 0 -7.0093786948169345 -48.342594093855197 0 -48.342594093855197 -21.989784302887244 0 0 0 0 53.277457866195618 -83.185871957437485 0 -83.185871957437485 -78.059292691294104 0 0 0 0 -96.491609444801725 -86.705120162350795 0 -86.705120162350795 10.819731124385726 0 0 0 0 2.5555444095966919 -10.211239344199043 0 -10.211239344199043 13.48643143333706 0 0 0 0 57.549464409414213 -46.86340974754421 0 -46.86340974754421 -1.2023985808482394 0 0 0 0 -87.568504239135919 -69.269052852073102 0 -69.269052852073102 36.572940087863884 0 0 0 0 -83.941110045204908 -55.555585358118606 0 -55.555585358118606 -4.5704047600520425 0 0 0 0 -30.599863490071762 -22.121130945345087 0 -22.121130945345087 30.09982056116695 0 0 0 0 -8.5873464385056337 -44.670776631697365 0 -44.670776631697365 7.5819406050885902 0 0 0 0 42.947190343475086 -38.827795408047677 0 -38.827795408047677 -52.474631198070711 0 0 0 0 -60.689946764945489 -76.34373926292028 0 -76.34373926292028 11.459475156174449 0 0 0 0 -55.556582881099075 -44.494236604049092 0 -44.494236604049092 -24.83629705387284 0 0 0 0 -45.716088488314199 -44.288128888118081 0 -44.288128888118081 30.343163281126181 0 0 0 0 -15.709688728195033 -85.533711252559442 0 -85.533711252559442 -26.560520464889123 0 0 0 0 -132.71683225530205 -372.82848135279801 0 -372.82848135279801 -381.13140053969983 0 0 0 0 -34.435432345146658 -44.637092877463672 0 -44.637092877463672 14.824682055454247 0 0 0 0 -205.62682599714753 -38.477177424188994 0 -38.477177424188994 54.033626796583121 0 0 0 0 -139.45944421873912 -153.5191182759977 0 -153.5191182759977 -178.06453755876282 0 0 0 0 -518.6125040334191 -103.5432276748179 0 -103.5432276748179 -25.860619545026566 0 0 0 0 -4.4631024445144014 -13.361717285088289 0 -13.361717285088289 -20.971552320089927 0 0 0 0 -606.64267394924377 -777.09989236175534 0 -777.09989236175534 -449.71352894119627 0 0 0 0 -82.580000682472019 -75.508744275197387 0 -75.508744275197387 142.8662043392178 0 0 0 0 -18.78738763788715 -63.751443499524612 0 -63.751443499524612 -21.47519768292841 0 0 0 0 -39.335415896847735 -125.71736275215096 0 -125.71736275215096 -31.184388423011114 0 0 0 0 8.7560006503788941 -24.152803310012203 0 -24.152803310012203 15.285316397601576 0 0 0 0 -14.204009590755092 -36.952269751567002 0 -36.952269751567002 43.950405372140636 0 0 0 0 -17.004569730466756 -38.019517483699019 0 -38.019517483699019 -3.3824944964690076 0 0 0 0 -11.716420497372212 -46.957463874302007 0 -46.957463874302007 19.879901130666099 0 0 0 0 96.093084504968374 -125.40661429910142 0 -125.40661429910142 -15.98145500618557 0 0 0 0 -40.410936773361755 -148.89910062080889 0 -148.89910062080889 92.863463843721547 0 0 0 0 -66.615769118256139 -64.741063263041724 0 -64.741063263041724 98.235945253662067 0 0 0 0 -44.379503952979576 -73.463087647891371 0 -73.463087647891371 20.51593975027572 0 0 0 0 13.30765857472943 -82.462428470789746 0 -82.462428470789746 -277.67120602098294 0 0 0 0 -86.788765014382079 -12.900997878372436 0 -12.900997878372436 111.90094530714669 0 0 0 0 408.70519732936009 43.594828876306565 0 43.594828876306565 -579.17185793343378 0 0 0 0 310.29493545779042 -299.30129014140402 0 -299.30129014140402 -1168.3902143696178 0 0 0 0 -202.14417784555553 -208.09894055516634 0 -208.09894055516634 -271.30569525354076 0 0 0 0 -562.36882285438878 -972.55035870035863 0 -972.55035870035863 -1565.2770716738087 0 0 0 0 -1471.3731650303434 -876.63075228816524 0 -876.63075228816524 -477.05180115518669 0 0 0 0 -0.15373314338017963 0.60088518850243844 0 0.60088518850243844 -9.6345222093357847 0 0 0 0 -1001.9113904164478 -1011.2232876349372 0 -1011.2232876349372 -1549.8224003031719 0 0 0 0 -1874.8072829038556 -1178.8548318946778 0 -1178.8548318946778 -663.54795724584437 0 0 0 0 -767.6891133006975 -485.67537192805321 0 -485.67537192805321 -385.76867523789588 0 0 0 0 -935.14857880791533 -752.06640807469557 0 -752.06640807469557 -650.8505502257467 0 0 0 0 -935.29641831785375 -710.08598104316661 0 -710.08598104316661 -311.26033069260302 0 0 0 0 4.5324154734647131 -3.8845924112341592 0 -3.8845924112341592 -28.084667595489236 0 0 0 0 -12.089093156915624 -138.58897264571715 0 -138.58897264571715 -568.91835990239633 0 0 0 0 -404.02898149519024 -264.28520379366819 0 -264.28520379366819 -95.027261149349215 0 0 0 0 753.09464909264807 110.72363003920327 0 110.72363003920327 -38.493418839483638 0 0 0 0 6.7643065733406722 -5.1022194825462392 0 -5.1022194825462392 -34.496787914656863 0 0 0 0 -390.957658946023 -465.76699462822216 0 -465.76699462822216 -729.43974279447866 0 0 0 0 -376.99452477693194 -427.04038559779292 0 -427.04038559779292 -964.32153198671585 0 0 0 0 -1015.9163869269323 -461.07553620853287 0 -461.07553620853287 -523.00305760180345 0 0 0 0 -765.93370652143858 -827.72355172893003 0 -827.72355172893003 -609.84816477078243 0 0 0 0 -599.80810147113152 -644.67068654021568 0 -644.67068654021568 -465.48501955031134 0 0 0 0 -503.05531346560747 -693.08869264550958 0 -693.08869264550958 -664.53830165926774 0 0 0 0 -752.92912178901679 -835.94374772234369 0 -835.94374772234369 -622.76780740841059 0 0 0 0 -481.66947312292905 -972.67395420013054 0 -972.67395420013054 -1061.0050971125374 0 0 0 0 -147.61639453118005 -535.41758125660454 0 -535.41758125660454 -722.73972178832628 0 0 0 0 -146.72632032418915 -407.0999710744145 0 -407.0999710744145 -543.00685900966346 0 0 0 0 -249.08581979532028 -507.01243126379995 0 -507.01243126379995 -529.53142244115588 0 0 0 0 -287.06161626549147 -415.85666992139886 0 -415.85666992139886 -394.83024305684376 0 0 0 0 -198.70468139468721 -586.87619435437955 0 -586.87619435437955 -382.86132724504841 0 0 0 0 -196.52995739364269 -558.60928317423532 0 -558.60928317423532 -642.74516160415078 0 0 0 0 149.54745005532095 -282.29326252658575 0 -282.29326252658575 -127.92028687425773 0 0 0 0 -0.15032965135388565 -0.48089654396671477 0 -0.48089654396671477 1.2200894118173551 0 0 0 0 461.34258534607943 -36.194516476229182 0 -36.194516476229182 -51.012123969814638 0 0 0 0 -417.08488601338104 -516.95935751241996 0 -516.95935751241996 -390.63984845975938 0 0 0 0 -77.562125906888468 -658.71814591901784 0 -658.71814591901784 -580.69457337648782 0 0 0 0 -217.10407502186717 -354.59637409293646 0 -354.59637409293646 -124.85846889980894 0 0 0 0 -454.09323458413201 -470.40482037386028 0 -470.40482037386028 -300.70379218766175 0 0 0 0 -220.38892605226283 -608.497833247995 0 -608.497833247995 -569.83682293553647 0 0 0 0 1.7006157518953842 -491.32463651989747 0 -491.32463651989747 -524.68359865502862 0 0 0 0 -187.91503969506357 -722.63143446614413 0 -722.63143446614413 -666.58623768291727 0 0 0 0 -211.61729967544306 -717.09990842051047 0 -717.09990842051047 -868.32385929925658 0 0 0 0 -742.73382185857918 -1098.8791309134685 0 -1098.8791309134685 -889.59409418430141 0 0 0 0 -216.4238603276026 -580.08604176227709 0 -580.08604176227709 -616.04335341502156 0 0 0 0 -249.68433674425614 -503.37528651630055 0 -503.37528651630055 -749.35297163079667 0 0 0 0 -147.48802921116294 -636.704112108142 0 -636.704112108142 -578.3475127171987 0 0 0 0 -146.99851395152655 -648.92144641205232 0 -648.92144641205232 -730.85663360285253 0 0 0 0 -84.726727935107192 -752.64666418101115 0 -752.64666418101115 -939.6172814968013 0 0 0 0 -81.37846477254061 -795.70336302858777 0 -795.70336302858777 -622.9564569752547 0 0 0 0 -123.62619570987226 -592.48081505737355 0 -592.48081505737355 -773.27861479548119 0 0 0 0 -132.722287892022 -638.24003851831367 0 -638.24003851831367 -746.41131408691581 0 0 0 0 -44.573380525336688 -380.7179038574177 0 -380.7179038574177 -676.43944138901134 0 0 0 0 126.09719845959989 -946.38190900677 0 -946.38190900677 -1285.111180575841 0 0 0 0 356.78350275577395 -655.7563667789691 0 -655.7563667789691 -972.58915424779116 0 0 0 0 -3.0679046931668523 -5.8414201072619392 0 -5.8414201072619392 -7.4756048351679283 0 0 0 0 568.04075773181103 -464.9122604049262 0 -464.9122604049262 -1118.9883848568807 0 0 0 0 520.17368990246518 121.95810500990046 0 121.95810500990046 -428.75138992862776 0 0 0 0 2.2159677679432974 -2.2753655656759548 0 -2.2753655656759548 -1.8019851259618918 0 0 0 0 62.229092011715693 -81.194151155177678 0 -81.194151155177678 -935.53398355642275 0 0 0 0 -224.03666474048077 -1038.7286916741868 0 -1038.7286916741868 -844.77682296437706 0 0 0 0 -280.26557253840656 -794.94185518135782 0 -794.94185518135782 -851.65057823471125 0 0 0 0 -324.2164778984843 -909.87105561750104 0 -909.87105561750104 10.009886454194202 0 0 0 0 -482.78280401778648 -929.68872776554781 0 -929.68872776554781 -662.05127882576198 0 0 0 0 -357.02518139825406 -363.83032018091399 0 -363.83032018091399 -572.30718059038918 0 0 0 0 -291.86979810765115 -460.59569251403082 0 -460.59569251403082 -428.60321799057419 0 0 0 0 -136.10363277971919 7.0065975017278106 0 7.0065975017278106 -238.44838889744278 0 0 0 0 -6.3525652717469967 -10.654588856288541 0 -10.654588856288541 -13.245318790070598 0 0 0 0 73.187120723756379 -0.55959003319003386 0 -0.55959003319003386 104.46404209414459 0 0 0 0 524.7800593536831 -381.70192406822935 0 -381.70192406822935 -70.255042283628427 0 0 0 0 494.18023474844449 -450.62526788204195 0 -450.62526788204195 110.0706778766471 0 0 0 0 -345.08254267142911 -181.97079758383916 0 -181.97079758383916 274.7049983984034 0 0 0 0 -642.59725630006506 -152.70318951240552 0 -152.70318951240552 123.80771798916248 0 0 0 0 -367.08748678795382 133.87221851456707 0 133.87221851456707 -28.120855578188639 0 0 0 0 -398.55799140439194 21.770545704457618 0 21.770545704457618 201.2916727966367 0 0 0 0 71.641046421156716 18.212881320825545 0 18.212881320825545 -19.05546569265789 0 0 0 0 21.814890981571807 -4.136075300455559 0 -4.136075300455559 -12.914606230748177 0 0 0 0 401.64399061310905 -190.88300339428679 0 -190.88300339428679 -88.969107058277586 0 0 0 0 11.081882283129978 1.4822733574836491 0 1.4822733574836491 -24.356650720390689 0 0 0 0 9.7404449992510571 -19.09011196191403 0 -19.09011196191403 -39.143913667297852 0 0 0 0 544.48006111357154 -220.2717464459347 0 -220.2717464459347 -135.38314886951412 0 0 0 0 482.5856024438508 -300.53643180206564 0 -300.53643180206564 25.688974957363826 0 0 0 0 413.1233566046576 105.43868437531637 0 105.43868437531637 -130.97874706660423 0 0 0 0 497.85547088552266 -185.7085440504452 0 -185.7085440504452 -159.93613346029451 0 0 0 0 6.0968914457634185 -4.6706935267818466 0 -4.6706935267818466 -19.3625518112093 0 0 0 0 60.49900611585872 40.87003700646892 0 40.87003700646892 16.047505727008684 0 0 0 0 6.7019753118353904 -10.16367989404171 0 -10.16367989404171 -35.315759527017576 0 0 0 0 564.9829240059189 41.836044950578071 0 41.836044950578071 -120.85764717080747 0 0 0 0 427.87734955454471 103.38942112577206 0 103.38942112577206 44.767221787027665 0 0 0 0 -96.411419887028387 -42.677252013374527 0 -42.677252013374527 115.5549998376373 0 0 0 0 48.856774772295466 -136.18524449961114 0 -136.18524449961114 -588.02543154171076 0 0 0 0 -1473.6207759512836 -428.64044941288012 0 -428.64044941288012 -344.85093797747686 0 0 0 0 -2.9731547714835145 -3.3266065727297871 0 -3.3266065727297871 -5.1364190457583163 0 0 0 0 -174.1574568519718 -531.04523615232756 0 -531.04523615232756 -804.12843879651336 0 0 0 0 -203.4520286589177 -138.02606272521371 0 -138.02606272521371 -141.84781969725736 0 0 0 0 -597.60178717821327 -143.74810432711456 0 -143.74810432711456 -83.717320596726495 0 0 0 0 -458.53292624994356 15.449636062854552 0 15.449636062854552 -163.6366093233155 0 0 0 0 -678.90571004978665 46.871364066257229 0 46.871364066257229 -27.250822305810289 0 0 0 0 46.7830525930612 -50.775590244036962 0 -50.775590244036962 48.118566268722134 0 0 0 0 19.098563724146516 -41.524130578349286 0 -41.524130578349286 -35.053344697353168 0 0 0 0 37.8251336178364 -124.19497701818182 0 -124.19497701818182 -11.081855710857781 0 0 0 0 54.106989989857539 -199.67403161700349 0 -199.67403161700349 17.018907049219706 0 0 0 0 44.163739840336348 -131.20771379191319 0 -131.20771379191319 -94.102893881965429 0 0 0 0 -37.997680938773556 -210.63141194973286 0 -210.63141194973286 226.91282709009829 0 0 0 0 -56.219591801331262 -138.9396692506707 0 -138.9396692506707 35.7592230696755 0 0 0 0 -102.09750913946482 -115.4972119892409 0 -115.4972119892409 111.93357621727046 0 0 0 0 -53.879974638763088 -81.178053135734444 0 -81.178053135734444 48.865368205573759 0 0 0 0 -14.314561995982558 -48.984112664792491 0 -48.984112664792491 -41.825889451937996 0 0 0 0 1.3659457914764062 -45.527013747370802 0 -45.527013747370802 3.6596167689422145 0 0 0 0 -76.360312638993491 -27.624776595366711 0 -27.624776595366711 -34.964882012864109 0 0 0 0 -34.867429196882426 -66.38044812630207 0 -66.38044812630207 31.62370007248677 0 0 0 0 -32.900800699256905 -122.5639758919832 0 -122.5639758919832 -52.224987038495783 0 0 0 0 -15.792986562722945 -70.111847681968356 0 -70.111847681968356 13.565655175023494 0 0 0 0 -26.709816250955129 -45.337697434340214 0 -45.337697434340214 -24.798499375157036 0 0 0 0 -8.4405312520393636 -54.714139511452231 0 -54.714139511452231 -70.911657716758782 0 0 0 0 -21.593572090019109 -41.819394806736568 0 -41.819394806736568 -25.689312931856659 0 0 0 0 11.584013247738767 -43.601176657528413 0 -43.601176657528413 -53.804568136765738 0 0 0 0 14.958271563191374 -110.46355405075155 0 -110.46355405075155 -8.4750464554090286 0 0 0 0 -15.998353839459014 -107.67819749351838 0 -107.67819749351838 50.868260353003279 0 0 0 0 68.462269851828751 -55.733988351523294 0 -55.733988351523294 -122.48829477652907 0 0 0 0 -9.221782696704679 -40.860463420593959 0 -40.860463420593959 -50.743613288457254 0 0 0 0 -8.1427157509901917 -38.042594128487778 0 -38.042594128487778 -45.680405500007453 0 0 0 0 -1.5930091452246415 -67.056386018710327 0 -67.056386018710327 -0.99020878522424027 0 0 0 0 18.36402953841025 -105.07073872331239 0 -105.07073872331239 -7.3959042544302065 0 0 0 0 -16.446780899188667 -33.977978728523368 0 -33.977978728523368 -18.174395545942566 0 0 0 0 -64.386974096873018 -62.267796853098844 0 -62.267796853098844 -15.939562927582301 0 0 0 0 13.14403683158892 -1.6579794589618473 0 -1.6579794589618473 -6.7012080084381012 0 0 0 0 36.441033050243277 -34.09481583089655 0 -34.09481583089655 -65.505910812609727 0 0 0 0 72.48671383009787 -89.014171680035361 0 -89.014171680035361 74.275689018999401 0 0 0 0 44.703418416276691 -12.525566175339918 0 -12.525566175339918 -113.23442499320663 0 0 0 0 72.18853490678157 -51.417370159149868 0 -51.417370159149868 -191.69879019336076 0 0 0 0 18.67106471931038 -145.4569341738752 0 -145.4569341738752 -34.541197222482879 0 0 0 0 15.901498518711378 -61.08988762669108 0 -61.08988762669108 -23.961886887282844 0 0 0 0 63.553552817942546 -64.762437030571164 0 -64.762437030571164 -18.907679812051356 0 0 0 0 9.3177343401039252 -64.527690602568327 0 -64.527690602568327 20.380230120128545 0 0 0 0 66.410561503096687 -138.47670201267465 0 -138.47670201267465 -7.2073030371539062 0 0 0 0 20.172044606064446 -58.032440878727357 0 -58.032440878727357 18.239662770385621 0 0 0 0 -0.28341794433171685 -60.334389374895778 0 -60.334389374895778 2.29143929154543 0 0 0 0 28.701873221151061 -52.220916151964559 0 -52.220916151964559 -28.302299943807384 0 0 0 0 4.5350341892299184 -91.003018476581929 0 -91.003018476581929 -16.135916565777734 0 0 0 0 29.778243381544598 -111.24593257129163 0 -111.24593257129163 -26.665371205628617 0 0 0 0 43.219826702803033 -56.373470485077931 0 -56.373470485077931 39.885537522203208 0 0 0 0 4.2339072253075685 -31.498753233333787 0 -31.498753233333787 -52.102026338912935 0 0 0 0 -158.95249373150727 -65.917942488573317 0 -65.917942488573317 -46.45845137003198 0 0 0 0 -159.69137555605266 -422.10865570114402 0 -422.10865570114402 -99.67212030301198 0 0 0 0 38.893262236304508 -178.0388706054764 0 -178.0388706054764 -74.904224831596366 0 0 0 0 -64.12919719042111 -83.406607408513082 0 -83.406607408513082 -152.15163135685725 0 0 0 0 6.7871504808234278 -7.5232783726635262 0 -7.5232783726635262 11.862605337284947 0 0 0 0 69.941882476600767 -34.493316406217218 0 -34.493316406217218 -107.85291327258165 0 0 0 0 65.921473872698698 -84.142385920014931 0 -84.142385920014931 86.064220831634884 0 0 0 0 28.953850725624761 -162.16464826216998 0 -162.16464826216998 -290.22724176065822 0 0 0 0 45.898802618606254 -74.633238314700179 0 -74.633238314700179 58.595592783496301 0 0 0 0 -214.1872316126246 0.60477582782186801 0 0.60477582782186801 -141.43900754140486 0 0 0 0 180.75649288434943 -297.80350752521917 0 -297.80350752521917 398.8070422791061 0 0 0 0 4.0790892109070001 1.9042436092229451 0 1.9042436092229451 0.76150836490647755 0 0 0 0 46.64492204916769 -3.7696947742206248 0 -3.7696947742206248 -302.00562471884768 0 0 0 0 50.771801602510408 -76.141976219270859 0 -76.141976219270859 78.403932388431755 0 0 0 0 278.56416413896295 -750.2580809245992 0 -750.2580809245992 -134.49272303842736 0 0 0 0 156.35945994184294 4.9766687820119841 0 4.9766687820119841 -304.3632080580719 0 0 0 0 -5.6654686828878766 20.160837553725287 0 20.160837553725287 113.69235655969533 0 0 0 0 -17.604082294341197 -214.31951476326572 0 -214.31951476326572 -37.26567159856495 0 0 0 0 -53.501843521284172 -77.178647488897695 0 -77.178647488897695 104.53732155412581 0 0 0 0 -85.97619526188646 -216.15653985005338 0 -216.15653985005338 33.002933554176707 0 0 0 0 -192.10161861042798 -137.46190614948136 0 -137.46190614948136 -70.500875751240528 0 0 0 0 -104.26473399874521 -360.52911418058284 0 -360.52911418058284 -329.29061772857676 0 0 0 0 -125.07926524105278 -336.98508661820961 0 -336.98508661820961 -309.11447825179494 0 0 0 0 -218.52454412619954 -256.62780068134998 0 -256.62780068134998 -377.21810273060692 0 0 0 0 -384.7892455199908 -430.47964508965379 0 -430.47964508965379 -160.65031924639334 0 0 0 0 -245.18918183990536 -517.34165610954369 0 -517.34165610954369 -689.97203128075489 0 0 0 0 -398.199968835037 -778.0575957615074 0 -778.0575957615074 -801.82806086719938 0 0 0 0 -617.07839736663982 -520.03395092009487 0 -520.03395092009487 -603.74085817868763 0 0 0 0 -342.57367713869644 -682.87570911800321 0 -682.87570911800321 -848.7525446661748 0 0 0 0 5.0599655153062741 -4.1425361821267188 0 -4.1425361821267188 -3.0830031775012685 0 0 0 0 -747.11944705241694 -666.50171242906799 0 -666.50171242906799 -716.60810469025455 0 0 0 0 -356.18368234270747 -155.88339402688871 0 -155.88339402688871 -617.39322507898396 0 0 0 0 -400.30091163098405 -538.69135484728031 0 -538.69135484728031 -1108.0137565254636 0 0 0 0 -746.91858288188166 -1018.8202761891348 0 -1018.8202761891348 -1130.1219908294443 0 0 0 0 70.8359948928628 -357.52874169775896 0 -357.52874169775896 -711.18699668083718 0 0 0 0 2.1519732475267404 -2.4223432603803019 0 -2.4223432603803019 -1.7129643920892477 0 0 0 0 -140.82405242140521 -904.08174990381667 0 -904.08174990381667 -1931.3735186277918 0 0 0 0 -982.34705737169861 18.043441146241094 0 18.043441146241094 -1000.4105083548784 0 0 0 0 -1288.9927637723695 -867.52112026578288 0 -867.52112026578288 -859.17502497669193 0 0 0 0 267.85362763364174 292.41553447637853 0 292.41553447637853 -1377.7347313715291 0 0 0 0 -1661.8839925602497 -980.66976822444849 0 -980.66976822444849 -385.34387798138778 0 0 0 0 -2.6454343013466612 -5.8789570457543618 0 -5.8789570457543618 -15.943012299637303 0 0 0 0 -643.57167724813553 -707.88404026701755 0 -707.88404026701755 -345.42459321557544 0 0 0 0 -305.18404630992882 -239.71726031714934 0 -239.71726031714934 -78.352598262565152 0 0 0 0 -108.61998540458444 -260.33862301735098 0 -260.33862301735098 -192.39313953040983 0 0 0 0 -22.170000330985204 -135.28103404684953 0 -135.28103404684953 -89.85530682055105 0 0 0 0 -6.7117839445601462 -14.702194379790498 0 -14.702194379790498 -41.453200321685699 0 0 0 0 292.00924147885962 -213.60477081461431 0 -213.60477081461431 -163.83561841274786 0 0 0 0 51.794088240556448 125.46337159560062 0 125.46337159560062 -544.75464999452379 0 0 0 0 -51.208810053904017 -31.213103553105611 0 -31.213103553105611 -20.156674046298576 0 0 0 0 6.7813645756468759 -804.54870933779603 0 -804.54870933779603 -1868.0647724102855 0 0 0 0 74.180407471406852 -302.26929600573794 0 -302.26929600573794 -856.48157086558058 0 0 0 0 -147.23811024451425 -659.82548241535551 0 -659.82548241535551 -913.39802974373197 0 0 0 0 96.847522603784455 -369.56533529075386 0 -369.56533529075386 -974.49919526003941 0 0 0 0 88.074148747851723 -228.14816369491746 0 -228.14816369491746 -920.73206771110563 0 0 0 0 30.078619611771501 -353.92813656800718 0 -353.92813656800718 -670.22052880923729 0 0 0 0 130.85889818598844 -99.484240901261728 0 -99.484240901261728 -625.72188139910577 0 0 0 0 85.685098036148702 -349.90283952350001 0 -349.90283952350001 -732.18888092810812 0 0 0 0 78.018901798270235 -294.19160301838565 0 -294.19160301838565 -555.82517075786018 0 0 0 0 46.814623200036294 -188.98767798396148 0 -188.98767798396148 -345.68793129951518 0 0 0 0 17.441158347961391 -51.93794598056229 0 -51.93794598056229 -297.30013841392065 0 0 0 0 46.080824603057408 -149.59415941862972 0 -149.59415941862972 -400.15543012697162 0 0 0 0 51.768973728751007 -223.20128445408045 0 -223.20128445408045 -380.63743052016071 0 0 0 0 -18.382121308459318 -68.749082812144479 0 -68.749082812144479 -16.687976308938232 0 0 0 0 -5.6382040538228466 -525.94105168971873 0 -525.94105168971873 -544.52885071426863 0 0 0 0 -27.456780474014522 -471.3272333116256 0 -471.3272333116256 -567.43726637281361 0 0 0 0 -168.61770828186127 -491.4031345095791 0 -491.4031345095791 -521.12275879745721 0 0 0 0 -95.133733241220398 -458.6078497525923 0 -458.6078497525923 -553.51517204055563 0 0 0 0 -87.910675359100424 -514.63383116861223 0 -514.63383116861223 -548.45404616014275 0 0 0 0 -92.100547677255236 -470.57242149852391 0 -470.57242149852391 -525.79070206350298 0 0 0 0 -74.047629896234866 -501.21546776491959 0 -501.21546776491959 -546.51755920509459 0 0 0 0 -30.013644585698785 -494.71782339829952 0 -494.71782339829952 -555.01485166206112 0 0 0 0 -3.8307576548177167 -487.32462654329356 0 -487.32462654329356 -642.69251470267773 0 0 0 0 8.3785057159693679 -455.70493482542952 0 -455.70493482542952 -564.72410645235232 0 0 0 0 -57.61712667942993 -526.93356273700192 0 -526.93356273700192 -572.33268426169525 0 0 0 0 21.279786365281325 -420.21857247285516 0 -420.21857247285516 -617.80396743545134 0 0 0 0 22.093012208068103 -429.343104362757 0 -429.343104362757 -594.66165701192222 0 0 0 0 -11.392358525947202 -483.10714163302328 0 -483.10714163302328 -657.67190589847451 0 0 0 0 18.373271036263759 -501.57332418224905 0 -501.57332418224905 -763.30624445775175 0 0 0 0 -128.03201322859968 -563.82180452442117 0 -563.82180452442117 -605.41136487077347 0 0 0 0 -214.6156628609242 -569.61910121046822 0 -569.61910121046822 -605.03059008489799 0 0 0 0 -377.63491683097163 -616.98218283459937 0 -616.98218283459937 -680.57467879589967 0 0 0 0 -321.00377989754634 -592.55454236819787 0 -592.55454236819787 -578.58682251943537 0 0 0 0 -211.14762719736314 -539.97798089830121 0 -539.97798089830121 -646.05670841991378 0 0 0 0 -167.25855350547499 -498.74681911215885 0 -498.74681911215885 -493.10111191901888 0 0 0 0 -231.69087547351228 -502.8061115777964 0 -502.8061115777964 -488.41765312845382 0 0 0 0 -168.92543758682359 -488.77912205185976 0 -488.77912205185976 -474.01568838622188 0 0 0 0 -273.06691291434254 -412.18638177785397 0 -412.18638177785397 -404.64156529499451 0 0 0 0 -43.337808517826488 -315.02910857963434 0 -315.02910857963434 -387.85108250652047 0 0 0 0 -79.624370254139649 -329.08776077032962 0 -329.08776077032962 -324.52515029122151 0 0 0 0 -290.08132431209742 -271.57887931093228 0 -271.57887931093228 -297.6353328559926 0 0 0 0 -360.38321562326382 -405.33580776292729 0 -405.33580776292729 -390.6524124793068 0 0 0 0 -246.65068878917737 -403.79433519376107 0 -403.79433519376107 -428.49502695070987 0 0 0 0 -322.72585670107401 -379.73076072511321 0 -379.73076072511321 -500.08996564357949 0 0 0 0 -437.65674783655413 -435.27656332448532 0 -435.27656332448532 -406.54432666796856 0 0 0 0 -354.48146877854742 -614.67247260964359 0 -614.67247260964359 -791.72089689252243 0 0 0 0 -822.50188239262934 -432.52275558005567 0 -432.52275558005567 -501.5817278350878 0 0 0 0 -336.85134692709835 -296.80555694284703 0 -296.80555694284703 -859.42776987358229 0 0 0 0 -261.73742508969372 -312.37070514282095 0 -312.37070514282095 -611.55082664621295 0 0 0 0 -268.20653511045384 -125.28854244667309 0 -125.28854244667309 -420.16088009621308 0 0 0 0 -350.35339493118227 -270.50022246945082 0 -270.50022246945082 -631.32925300297211 0 0 0 0 -367.34030339104174 -176.14355802321734 0 -176.14355802321734 -356.28258633580117 0 0 0 0 -77.922758471722773 -79.680649254194577 0 -79.680649254194577 -409.9622600772127 0 0 0 0 -264.98567376544815 -183.82303709408006 0 -183.82303709408006 -271.26110420555051 0 0 0 0 -21.52670868383575 -108.73074327096401 0 -108.73074327096401 -291.49317098107895 0 0 0 0 -141.75376561380472 -70.808395373234816 0 -70.808395373234816 -105.64990967679478 0 0 0 0 58.114931787116802 -37.627327561705897 0 -37.627327561705897 -71.960980102307076 0 0 0 0 -111.91235482375669 1.9588353339313471 0 1.9588353339313471 -81.166374413427548 0 0 0 0 34.821076592531725 -14.838432313008155 0 -14.838432313008155 4.5361761257053814 0 0 0 0 232.88853790189023 -43.874146643458516 0 -43.874146643458516 -268.49078668808215 0 0 0 0 -32.384538923495711 52.883760339018409 0 52.883760339018409 138.78614698296587 0 0 0 0 69.236665549635291 -84.939108537222637 0 -84.939108537222637 -115.24267759008217 0 0 0 0 -64.158362792055414 -16.158176732344145 0 -16.158176732344145 148.20839961831371 0 0 0 0 -23.709326761272678 -128.9630437264932 0 -128.9630437264932 -98.551201104361098 0 0 0 0 31.701046857286599 -16.862964195730711 0 -16.862964195730711 3.7141775105379935 0 0 0 0 16.868373289140436 -222.78830642547837 0 -222.78830642547837 84.564143288793275 0 0 0 0 117.21698387541619 165.25343699273071 0 165.25343699273071 101.71669811519678 0 0 0 0 0.78543326368279054 -2.6886121221769201 0 -2.6886121221769201 3.1315147739623228 0 0 0 0 291.04430938605219 130.02760708113055 0 130.02760708113055 -164.20677524345228 0 0 0 0 147.22950515974662 -133.26855822328071 0 -133.26855822328071 -16.705785321923031 0 0 0 0 123.92188924960828 -138.58604117139839 0 -138.58604117139839 -4.9637477902288083 0 0 0 0 79.158873893579965 1.5761669359919779 0 1.5761669359919779 -39.053335489676101 0 0 0 0 76.730971092638015 -161.91335145937273 0 -161.91335145937273 -28.341562987450743 0 0 0 0 574.74627666466404 -52.252059845253825 0 -52.252059845253825 0.024953584252647754 0 0 0 0 303.10630664677592 -193.58766136909253 0 -193.58766136909253 -99.469972104103363 0 0 0 0 123.45293946272432 -271.32191030645481 0 -271.32191030645481 15.70313831945532 0 0 0 0 437.27347484540951 -135.1714008525596 0 -135.1714008525596 -79.906907869786664 0 0 0 0 40.660977635310701 -22.833986388766789 0 -22.833986388766789 0.013387604136369191 0 0 0 0 -334.98667535037748 4.9653312007685599 0 4.9653312007685599 77.192946713854326 0 0 0 0 1.2280438071271575 1.1856781325985821 0 1.1856781325985821 -4.0987575069963214 0 0 0 0 -119.02936356286955 -55.385076725215185 0 -55.385076725215185 183.75347662010245 0 0 0 0 229.24398106830085 -5.4623104671554756 0 -5.4623104671554756 -38.727416624664329 0 0 0 0 30.306162621855037 -25.969535928808909 0 -25.969535928808909 3.3861866153747542 0 0 0 0 33.428347159360783 -16.460378914060129 0 -16.460378914060129 2.2959508595376974 0 0 0 0 24.020287758346967 -24.200464401743375 0 -24.200464401743375 -0.0004077000921824947 0 0 0 0 -80.917759115436638 -98.274695204090676 0 -98.274695204090676 -88.302369229211763 0 0 0 0 25.564223879209749 -19.918774785852293 0 -19.918774785852293 -3.2463872973748948 0 0 0 0 21.000316352697567 -18.324743771522606 0 -18.324743771522606 4.7809808173097821 0 0 0 0 -128.27938606443786 -17.559447683062899 0 -17.559447683062899 32.02689839474624 0 0 0 0 5.9982877632303513 -5.8272089090946224 0 -5.8272089090946224 -4.0194961033346317 0 0 0 0 6.9027213716882159 -4.2873504534325377 0 -4.2873504534325377 0.91989905675609407 0 0 0 0 106.36573532423063 -69.589951340461994 0 -69.589951340461994 -228.93633623313508 0 0 0 0 -272.00522832027127 -323.61460296928271 0 -323.61460296928271 -249.60223665570084 0 0 0 0 -11.927946199342841 -308.71653157603578 0 -308.71653157603578 -532.62970928712457 0 0 0 0 -181.09178238953609 -412.21517446106009 0 -412.21517446106009 -424.24099859535636 0 0 0 0 -161.14779438015103 -441.586632906452 0 -441.586632906452 -504.40733518805791 0 0 0 0 -154.92483221766452 -458.30426537234598 0 -458.30426537234598 -557.75473064102698 0 0 0 0 -110.44840831663896 -375.31560100323259 0 -375.31560100323259 -576.39995896883192 0 0 0 0 15.250207930133911 -22.293984753225232 0 -22.293984753225232 -579.5024862212158 0 0 0 0 13.687084325182894 -16.099728403169081 0 -16.099728403169081 5.7170776134286143 0 0 0 0 -201.73938210100459 -351.27499300301133 0 -351.27499300301133 -556.14548030607693 0 0 0 0 15.835309977035649 -23.440110542465845 0 -23.440110542465845 2.1980995790290763 0 0 0 0 19.131473803159679 -19.273937283061969 0 -19.273937283061969 1.6087361587415216 0 0 0 0 8.694218189251842 -25.369341679906938 0 -25.369341679906938 -0.0013560618600276411 0 0 0 0 3.3412611629573803 -15.524284013537908 0 -15.524284013537908 0.60201547986071091 0 0 0 0 8.6371988594582945 -18.999236958854453 0 -18.999236958854453 6.3145164444140391 0 0 0 0 3.2215704447578233 -6.5000682513868 0 -6.5000682513868 11.068354232700358 0 0 0 0 5.7724482111443649 -22.74489011948026 0 -22.74489011948026 1.8311796326815966 0 0 0 0 437.89126501556893 -345.2701255619686 0 -345.2701255619686 266.88789217906015 0 0 0 0 -16.962881687511981 -25.728721692015824 0 -25.728721692015824 0.0017033726471709087 0 0 0 0 1.2491313388470928 -0.65327415840661018 0 -0.65327415840661018 5.1902435073362199 0 0 0 0 755.38023272380087 -1062.0682280288602 0 -1062.0682280288602 0.28230880009266368 0 0 0 0 1995.8433577000578 -282.18144552044396 0 -282.18144552044396 -228.65988633807865 0 0 0 0 467.43494499639928 -507.66798750196176 0 -507.66798750196176 -218.33470042295039 0 0 0 0 693.94048414372082 -666.43132349030566 0 -666.43132349030566 -394.69348401552998 0 0 0 0 238.70510662374727 -705.42380608017265 0 -705.42380608017265 -397.81362078188977 0 0 0 0 0.54384649921848904 -417.35262952675112 0 -417.35262952675112 -696.32811942910485 0 0 0 0 352.66042891281541 -687.00946770010341 0 -687.00946770010341 -944.75572810033918 0 0 0 0 -1.1613471135088673 -4.3144588776935109 0 -4.3144588776935109 3.1382143863250747 0 0 0 0 110.19841946082306 -449.53492938660929 0 -449.53492938660929 -1174.6770280469937 0 0 0 0 -425.95611757782171 -608.0295764170296 0 -608.0295764170296 -1120.3424176753033 0 0 0 0 3.895601187412332 -3.4000253130375562 0 -3.4000253130375562 -3.9575601155596587 0 0 0 0 -191.00452771576238 -267.32792500783398 0 -267.32792500783398 -827.42965766656562 0 0 0 0 -32.149749674106715 -310.58491332861013 0 -310.58491332861013 -1074.7729316077093 0 0 0 0 0.32224526305799372 -431.02972757196403 0 -431.02972757196403 -851.43764027542784 0 0 0 0 -66.529145914755645 -419.90135093501885 0 -419.90135093501885 -629.94288650376984 0 0 0 0 -168.51360330976604 -376.52993430498464 0 -376.52993430498464 -627.72635805085883 0 0 0 0 -166.070991329756 -432.56405500470646 0 -432.56405500470646 -540.3657665164792 0 0 0 0 -55.459980791472844 -473.30383015503321 0 -473.30383015503321 -561.09448760692612 0 0 0 0 159.75965956020809 -603.82055086833134 0 -603.82055086833134 -562.97929341484269 0 0 0 0 98.710704937744595 -423.57726750185248 0 -423.57726750185248 -706.16616759327007 0 0 0 0 14.642331901874002 -4.0248699119315354 0 -4.0248699119315354 -75.816804649689061 0 0 0 0 -0.19818518209744695 -8.783311574434947 0 -8.783311574434947 -10.647560719031276 0 0 0 0 35.522132324927952 -94.115777962539141 0 -94.115777962539141 -167.62142480152397 0 0 0 0 -133.68265747315854 -215.47327799412415 0 -215.47327799412415 -254.41510783613194 0 0 0 0 -12.657735493783548 -13.430899313578266 0 -13.430899313578266 -57.073108786775265 0 0 0 0 26.295344525764449 -50.152594539760685 0 -50.152594539760685 -77.006307391799055 0 0 0 0 25.128607376444336 -5.7418624269803331 0 -5.7418624269803331 -24.749652918753952 0 0 0 0 18.597756804246416 -16.57083753748671 0 -16.57083753748671 -3.3189325887530714 0 0 0 0 19.521805337735788 -4.5170802555658227 0 -4.5170802555658227 -68.541085726348456 0 0 0 0 33.426841758787489 -54.964517363876382 0 -54.964517363876382 9.3390877766910947 0 0 0 0 98.022899614119524 -56.791714590341144 0 -56.791714590341144 -189.60896216063702 0 0 0 0 27.544847336979252 -49.389810347635603 0 -49.389810347635603 16.49897483765146 0 0 0 0 152.36051915443386 -113.91192523491918 0 -113.91192523491918 -317.97237230270912 0 0 0 0 -33.236418081800366 -44.588418330640707 0 -44.588418330640707 -95.115310023531492 0 0 0 0 23.7087324128006 -67.021901517146034 0 -67.021901517146034 -53.76786040684965 0 0 0 0 -27.907320794546649 -197.38785737289254 0 -197.38785737289254 -352.52324077574303 0 0 0 0 243.14690494174647 -35.847630485412083 0 -35.847630485412083 -486.25946939345886 0 0 0 0 -103.88283386621697 -50.19276123711461 0 -50.19276123711461 -302.18291041435441 0 0 0 0 54.349676283149165 -70.078031720033323 0 -70.078031720033323 -125.24250358782592 0 0 0 0 166.11862791755266 175.92246396514383 0 175.92246396514383 -86.961781249790874 0 0 0 0 105.13731669669505 -44.677790157933487 0 -44.677790157933487 -114.55670186638599 0 0 0 0 121.86940351240537 -12.777871175030668 0 -12.777871175030668 -167.37118046346586 0 0 0 0 103.69693270261632 20.229456547720474 0 20.229456547720474 -188.94830156383978 0 0 0 0 71.999388019612525 -10.871587453242682 0 -10.871587453242682 -105.6537497563113 0 0 0 0 70.728832067848998 -3.3983224134572083 0 -3.3983224134572083 -137.30456397532544 0 0 0 0 359.32264746404871 -268.52719735685605 0 -268.52719735685605 -147.1508193097543 0 0 0 0 -303.89079161142945 271.48322742068558 0 271.48322742068558 107.19277878144203 0 0 0 0 1.7178472339027344 1.6421617713871228 0 1.6421617713871228 -4.8290281661750782 0 0 0 0 267.68096342637728 -229.29649748402153 0 -229.29649748402153 26.52466613312572 0 0 0 0 492.94739558279616 -126.00955269409314 0 -126.00955269409314 106.5380892274552 0 0 0 0 1.2989632503192539 0.23176381881808084 0 0.23176381881808084 -12.022291693267107 0 0 0 0 532.3265482107272 -152.69779156337245 0 -152.69779156337245 45.024990558435093 0 0 0 0 784.73457714159304 47.614757432500483 0 47.614757432500483 151.76132599019911 0 0 0 0 596.88169150650992 -312.47208277873506 0 -312.47208277873506 106.60514135975973 0 0 0 0 -49.660682222938703 53.019492116651236 0 53.019492116651236 -50.782428471196909 0 0 0 0 108.90242320304242 19.357820009572606 0 19.357820009572606 -115.11341789798462 0 0 0 0 51.935953211010201 66.379758911032695 0 66.379758911032695 -148.64006643993343 0 0 0 0 54.456121827002789 -20.421497778603225 0 -20.421497778603225 -51.133631494711153 0 0 0 0 109.65337715613441 25.192373444921941 0 25.192373444921941 -107.13880155503284 0 0 0 0 -349.53090745965164 -522.43702239162667 0 -522.43702239162667 144.04802971422487 0 0 0 0 10.719557461078793 -11.334361977254073 0 -11.334361977254073 -59.044751476717408 0 0 0 0 -203.42594584761537 -559.13199453728157 0 -559.13199453728157 -266.4027591253398 0 0 0 0 -30.943266047437646 -2.7255309513893735 0 -2.7255309513893735 -195.35792540531838 0 0 0 0 7.2045821979372704 -56.956096955553221 0 -56.956096955553221 -86.765600140483002 0 0 0 0 80.426749895288594 11.82582428643218 0 11.82582428643218 -57.067201777303126 0 0 0 0 -1396.1143865178165 155.13224777861615 0 155.13224777861615 92.460181946073135 0 0 0 0 201.79294102003405 -149.39211775873264 0 -149.39211775873264 -316.97468875204504 0 0 0 0 -78.3693665435203 -391.40019700778066 0 -391.40019700778066 -518.20151342349709 0 0 0 0 305.79603368043172 -145.37338508407265 0 -145.37338508407265 -457.37290881457739 0 0 0 0 -3.2705361121313388 -4.8528748350063609 0 -4.8528748350063609 -5.7167221717969596 0 0 0 0 191.88145019302465 46.365582269070728 0 46.365582269070728 -47.863240442430197 0 0 0 0 355.62824277655909 42.650627880232605 0 42.650627880232605 -327.23751063096279 0 0 0 0 182.62965732357407 -66.139365938273841 0 -66.139365938273841 -284.61593438507407 0 0 0 0 143.27854086122534 41.857970475430193 0 41.857970475430193 -277.27694722355727 0 0 0 0 239.95801906234919 -18.267429918978451 0 -18.267429918978451 -304.98556361332885 0 0 0 0 169.99815133330412 -96.498892644129228 0 -96.498892644129228 -379.89921391809185 0 0 0 0 -300.24031074324739 -257.86937914939335 0 -257.86937914939335 -465.20320973663183 0 0 0 0 -182.87096113389998 -8.9061083506276191 0 -8.9061083506276191 -374.44845260825241 0 0 0 0 178.62939138116917 -22.88538180650221 0 -22.88538180650221 -366.92012248387618 0 0 0 0 113.52795434752261 3.6607549446234771 0 3.6607549446234771 -278.05782002712658 0 0 0 0 24.438181976594933 86.145316361027653 0 86.145316361027653 -325.12988854638934 0 0 0 0 -18.703274046609295 -72.313268797584897 0 -72.313268797584897 -389.06883372350421 0 0 0 0 -133.12669131045732 -21.620303115185379 0 -21.620303115185379 -237.80820793210296 0 0 0 0 47.185896931092429 14.567554955523519 0 14.567554955523519 -253.95401266050612 0 0 0 0 144.55844540024191 30.195304073720763 0 30.195304073720763 -295.77099086095404 0 0 0 0 113.80460150075669 72.777124668296892 0 72.777124668296892 -228.5411975896277 0 0 0 0 31.211525445392908 -23.043412365106633 0 -23.043412365106633 -91.105596554058138 0 0 0 0 48.424006587716576 86.463041941533447 0 86.463041941533447 -46.635728469736932 0 0 0 0 104.16702392489969 -51.276669657061575 0 -51.276669657061575 -307.60800490988186 0 0 0 0 28.167526352659479 -68.351917069776391 0 -68.351917069776391 -215.22790364117827 0 0 0 0 121.58958967595754 -15.615702031784167 0 -15.615702031784167 -251.4417612758989 0 0 0 0 126.3301667926462 19.593396408912668 0 19.593396408912668 -225.44452317045943 0 0 0 0 48.291948629659601 -0.56856465684541035 0 -0.56856465684541035 -116.75417690786344 0 0 0 0 51.984769841255911 -15.184601405373542 0 -15.184601405373542 -65.526440198766068 0 0 0 0 35.013747396420385 1.6554609550193504 0 1.6554609550193504 -9.1549882966841096 0 0 0 0 102.82195882894484 73.49004221303403 0 73.49004221303403 -144.75723315103096 0 0 0 0 17.510235586642921 -59.257042393859592 0 -59.257042393859592 -104.08965719860862 0 0 0 0 45.320050686779723 -29.937081401338219 0 -29.937081401338219 -131.14344903427991 0 0 0 0 9.6250022197373255 -25.690158291434273 0 -25.690158291434273 -4.7627551781624788 0 0 0 0 36.131570600348255 -25.459837761583458 0 -25.459837761583458 -15.268712447781581 0 0 0 0 15.312761597077269 -15.794312817966045 0 -15.794312817966045 2.1087437737580998 0 0 0 0 35.919318102450688 -18.205557948472574 0 -18.205557948472574 -14.372079992768704 0 0 0 0 18.541430085802858 -32.9178233036655 0 -32.9178233036655 -26.511072815796069 0 0 0 0 28.667094324691845 -9.2591902377639315 0 -9.2591902377639315 -12.604655801913381 0 0 0 0 24.059052021376615 -8.2529024219876419 0 -8.2529024219876419 -15.405597073294757 0 0 0 0 10.610463142672394 -5.4954146053864434 0 -5.4954146053864434 -16.980220608981767 0 0 0 0 12.388480278761563 -22.260127399888006 0 -22.260127399888006 -5.0625539716638741 0 0 0 0 20.625745488250686 -19.987437562391278 0 -19.987437562391278 -4.4415317735838471 0 0 0 0 4.208329443226237 -2.0848632464707038 0 -2.0848632464707038 -10.258582020913877 0 0 0 0 20.299413683795137 3.2014156903023832 0 3.2014156903023832 -6.2254844141425565 0 0 0 0 12.339105563902194 -21.999457550897205 0 -21.999457550897205 -3.2515445662575075 0 0 0 0 15.805133417665743 -16.922917531732224 0 -16.922917531732224 11.728746860511535 0 0 0 0 61.996757430977596 68.58344191290962 0 68.58344191290962 -105.18534775055741 0 0 0 0 4.411020109520905 7.2758613786409114 0 7.2758613786409114 -6.0764892172301188 0 0 0 0 35.380536552291929 -15.766838785536152 0 -15.766838785536152 2.1533062220027261 0 0 0 0 10.151272579989296 -4.5016393211987236 0 -4.5016393211987236 -2.3054861990944175 0 0 0 0 75.849606386072992 17.082858964000479 0 17.082858964000479 45.184482628086698 0 0 0 0 48.857315866611316 7.14511736795248 0 7.14511736795248 -18.56536475935718 0 0 0 0 14.463556588154411 -3.0642614535423434 0 -3.0642614535423434 0.78517721109693639 0 0 0 0 7.6603334849351086 -10.578196864400525 0 -10.578196864400525 -25.392494203348178 0 0 0 0 62.086426487084736 -22.121609678271028 0 -22.121609678271028 -11.206409345014038 0 0 0 0 33.850171925634641 -16.393984213245858 0 -16.393984213245858 -73.497690487609361 0 0 0 0 27.852653125566576 -20.623938878685294 0 -20.623938878685294 -32.595695420284756 0 0 0 0 22.79535516623946 10.990285129009862 0 10.990285129009862 -20.675894536878332 0 0 0 0 27.908051044578315 32.041519526639604 0 32.041519526639604 -12.45310899137985 0 0 0 0 21.023607191002156 5.6461596174376609 0 5.6461596174376609 -35.624364092655014 0 0 0 0 31.55566793827893 -106.74734310663189 0 -106.74734310663189 9.0661004216672154 0 0 0 0 28.259322508150944 22.09619979391573 0 22.09619979391573 -62.269167342681612 0 0 0 0 14.08042111400573 -14.569014618420624 0 -14.569014618420624 1.2765911954920739 0 0 0 0 -29.891361219044484 14.309841334274097 0 14.309841334274097 -17.653037156560458 0 0 0 0 -105.96473186719959 -138.66623580345185 0 -138.66623580345185 98.005601273529464 0 0 0 0 239.87170698759292 -10.594879318538005 0 -10.594879318538005 -26.222187867828325 0 0 0 0 91.193038802768569 -26.178050547630846 0 -26.178050547630846 -21.889619612047682 0 0 0 0 93.54483775780318 -16.941802575944166 0 -16.941802575944166 -1.4667927248519845 0 0 0 0 0.78359904994613316 -4.5516536891464057 0 -4.5516536891464057 6.016787245447631 0 0 0 0 10.229307283108938 -3.773544281400973 0 -3.773544281400973 -6.2526626978215063 0 0 0 0 2.4165006752650697 -4.1900463711196494 0 -4.1900463711196494 3.4089224264166091 0 0 0 0 9.5878450390810031 10.238263963039572 0 10.238263963039572 4.1245143978303531 0 0 0 0 -10.369962484102871 13.888954655805719 0 13.888954655805719 40.333574160838907 0 0 0 0 34.305787674929888 33.624661219451809 0 33.624661219451809 21.543315483708284 0 0 0 0 6.836037839158962 14.55211055043037 0 14.55211055043037 8.4013074745889753 0 0 0 0 -11.664926035118697 -5.9848311864916468 0 -5.9848311864916468 0.064280736332875676 0 0 0 0 -3.6491281887774676 0.92223928498424357 0 0.92223928498424357 -4.4919747122621629 0 0 0 0 80.974994891905226 -50.708753038634313 0 -50.708753038634313 12.330157386895735 0 0 0 0 276.9341232247898 121.58283336734166 0 121.58283336734166 64.559080364677357 0 0 0 0 -0.52663327379366365 -2.0996962931431824 0 -2.0996962931431824 2.9925401455282952 0 0 0 0 79.145353911619168 70.049818413361209 0 70.049818413361209 68.106171613646438 0 0 0 0 461.05935232126194 -9.8682523032748577 0 -9.8682523032748577 -59.356261014618212 0 0 0 0 225.33974063147252 -16.71441031039285 0 -16.71441031039285 -18.285948176169768 0 0 0 0 173.39892902167048 9.0468266754542128 0 9.0468266754542128 -45.29488114862761 0 0 0 0 -1.4492148018099797 1.779206894646439 0 1.779206894646439 -0.45915050202324892 0 0 0 0 0.75069913063271088 -6.2656673430060437 0 -6.2656673430060437 13.11764139024308 0 0 0 0 11.756207415482194 -10.23773852605504 0 -10.23773852605504 6.6412307306985099 0 0 0 0 4.2383819945588357 -58.139540138333359 0 -58.139540138333359 -12.621987263992196 0 0 0 0 7.0303611590788933 -8.1200357146262832 0 -8.1200357146262832 -0.020846398139838129 0 0 0 0 3.4380102040766971 1.6986495518996207 0 1.6986495518996207 -1.9486229716601429 0 0 0 0 14.984796588742938 -9.4309991743248247 0 -9.4309991743248247 -6.0806428657087963 0 0 0 0 -122.93436542392556 -12.64369814870588 0 -12.64369814870588 12.024483731844157 0 0 0 0 -37.32937572130686 -157.24305991969959 0 -157.24305991969959 -25.261200280932826 0 0 0 0 -293.22343114061641 -58.269806676013104 0 -58.269806676013104 0.021472762244229671 0 0 0 0 267.70653850683811 56.482384190392622 0 56.482384190392622 -77.02501849685359 0 0 0 0 264.6973257073609 -235.64036399681544 0 -235.64036399681544 7.9841103735088836 0 0 0 0 404.18200706773644 303.38745954499905 0 303.38745954499905 -47.005442977533676 0 0 0 0 -84.385878150358621 -161.85721886494866 0 -161.85721886494866 17.162289592582965 0 0 0 0 4.4313326233789354 -4.7036265274640527 0 -4.7036265274640527 5.0131533753236113 0 0 0 0 -938.12684633225035 -313.17066508506832 0 -313.17066508506832 436.04319075247622 0 0 0 0 456.38919964483466 -419.32074030389049 0 -419.32074030389049 -320.19392427004641 0 0 0 0 3.1276411792935193 0.83872836528561834 0 0.83872836528561834 -7.4610218004477247 0 0 0 0 -475.46438513179874 -332.74994512403646 0 -332.74994512403646 -76.738239417725708 0 0 0 0 52.046907410785934 -29.297954732115613 0 -29.297954732115613 -37.53983083768253 0 0 0 0 67.848394497406844 -246.7687455626874 0 -246.7687455626874 -313.92159757664194 0 0 0 0 -4.4837244618225576 -3.2338702365058793 0 -3.2338702365058793 -0.86208158446046923 0 0 0 0 -31.575136148751426 -39.102746182812552 0 -39.102746182812552 57.864845274947584 0 0 0 0 132.60478219693323 -79.663942937608226 0 -79.663942937608226 -78.930310651270702 0 0 0 0 -18.553112955898541 -94.884668572463852 0 -94.884668572463852 -24.517591586369235 0 0 0 0 36.10124337966954 -114.24245965261071 0 -114.24245965261071 -59.475514851670596 0 0 0 0 2.9750791574078903 -52.260816844180226 0 -52.260816844180226 42.349726378713967 0 0 0 0 16.081685976153679 -22.554795339451363 0 -22.554795339451363 2.5054623215699507 0 0 0 0 19.123067045034986 -30.503039518276637 0 -30.503039518276637 -34.618612283577022 0 0 0 0 55.992719450023287 -25.443854255150654 0 -25.443854255150654 -18.325549326240434 0 0 0 0 14.690290523257163 -14.011176210381137 0 -14.011176210381137 14.824995506640391 0 0 0 0 125.78672352754438 9.5955341767185018 0 9.5955341767185018 -34.519784811844147 0 0 0 0 -55.49046797238816 -77.545795951111359 0 -77.545795951111359 -116.61303962825832 0 0 0 0 -69.510368624784633 -146.65015441441938 0 -146.65015441441938 -112.82887231804489 0 0 0 0 -76.696744781984478 -109.52694669547873 0 -109.52694669547873 -65.203868860320654 0 0 0 0 -55.064788370649829 -94.106326926876136 0 -94.106326926876136 -14.954576929361792 0 0 0 0 -63.588053098226681 -95.724782301982486 0 -95.724782301982486 -14.762513834270067 0 0 0 0 -99.548430988617952 -66.350136037764059 0 -66.350136037764059 -19.050438291917089 0 0 0 0 9.8786189808101881 -115.60800420241139 0 -115.60800420241139 -0.071808538312325254 0 0 0 0 -46.81306516014638 -145.05406867427519 0 -145.05406867427519 45.79972141590406 0 0 0 0 -48.349470716662779 -104.42854216994601 0 -104.42854216994601 0.050812927432798909 0 0 0 0 -34.234171829239244 -87.459941082299338 0 -87.459941082299338 -11.397846958185255 0 0 0 0 -1.8272454608268163 -111.38551231158635 0 -111.38551231158635 -0.02678561342327157 0 0 0 0 0.68467754826542659 -117.10199686473061 0 -117.10199686473061 -31.753172662603902 0 0 0 0 60.771328595982595 -117.96752414446928 0 -117.96752414446928 0.035419817410001997 0 0 0 0 40.699036996095856 -91.065605997471721 0 -91.065605997471721 -10.515689476495027 0 0 0 0 1.0414910039708047 -111.16631316212442 0 -111.16631316212442 1.5002596868325782 0 0 0 0 62.098132108264394 -107.83855395262117 0 -107.83855395262117 -10.950781011008075 0 0 0 0 59.065486565017807 -130.77464214106521 0 -130.77464214106521 -47.551202764123445 0 0 0 0 22.046368693038403 -135.97319282866374 0 -135.97319282866374 -43.455844265918131 0 0 0 0 65.425912433322083 -125.80073744982656 0 -125.80073744982656 -85.182087668814347 0 0 0 0 78.54993195244333 -157.03913480752453 0 -157.03913480752453 -28.818313809490064 0 0 0 0 -28.851774215597175 -101.48361675298656 0 -101.48361675298656 -81.017504197370727 0 0 0 0 4.0401368629095487 -131.8727725869976 0 -131.8727725869976 -65.528833529737312 0 0 0 0 -30.875925147659132 -94.321195300659383 0 -94.321195300659383 -48.039276089213672 0 0 0 0 22.465704842843934 -126.02312988154154 0 -126.02312988154154 -88.64857450092677 0 0 0 0 -33.323028753387462 -97.578515769884689 0 -97.578515769884689 -94.190579390284256 0 0 0 0 24.822098765071757 -52.429900198434098 0 -52.429900198434098 -47.83928390123765 0 0 0 0 10.183124723811488 -121.32700695304084 0 -121.32700695304084 -97.474265806896256 0 0 0 0 16.428743866820994 -54.585289351513211 0 -54.585289351513211 34.271104754750439 0 0 0 0 29.621346286984117 -27.244637604633141 0 -27.244637604633141 11.729817279535496 0 0 0 0 66.557652104696899 -96.795083789722412 0 -96.795083789722412 -313.2222102260348 0 0 0 0 25.937956009784102 -113.08314937965588 0 -113.08314937965588 -288.52206906944048 0 0 0 0 131.41157249448952 -218.39668896904914 0 -218.39668896904914 -216.55817507993197 0 0 0 0 124.24870792340971 -214.60815198053751 0 -214.60815198053751 -142.3708366289793 0 0 0 0 291.49998412853165 -143.81864606612362 0 -143.81864606612362 -373.42690084368951 0 0 0 0 62.052259035574849 -74.68648279356178 0 -74.68648279356178 17.158013896197517 0 0 0 0 77.40916627747356 -209.15675293099412 0 -209.15675293099412 -206.32453425183485 0 0 0 0 19.528701533527055 -185.28978983785055 0 -185.28978983785055 -147.05739152555179 0 0 0 0 71.217703691447241 -264.09197498609137 0 -264.09197498609137 -136.15841052899486 0 0 0 0 44.8230884678851 -202.34378828907938 0 -202.34378828907938 -176.47351554664783 0 0 0 0 9.3781496186898039 -129.31241852248058 0 -129.31241852248058 -85.898410313475324 0 0 0 0 43.62381541895229 -123.31047376138304 0 -123.31047376138304 -93.80471133395622 0 0 0 0 43.620973315129049 -122.59959420619271 0 -122.59959420619271 -133.97655281682091 0 0 0 0 11.516678192554537 -145.14466141468438 0 -145.14466141468438 -88.800739790585794 0 0 0 0 100.87933558538862 -90.970508420650731 0 -90.970508420650731 -105.73654841713142 0 0 0 0 -103.65017159906529 -127.47746354195988 0 -127.47746354195988 -95.420330482069403 0 0 0 0 9.5940073665610726 -187.9725846774345 0 -187.9725846774345 -201.27084346818447 0 0 0 0 0.14690601379152213 -159.26328077572907 0 -159.26328077572907 6.1608974769951601 0 0 0 0 67.788595387584408 -74.708878665278064 0 -74.708878665278064 25.592306478924513 0 0 0 0 -25.707403236003302 -168.74418382040312 0 -168.74418382040312 -21.967248411892797 0 0 0 0 -48.00740600561312 -160.81043896657138 0 -160.81043896657138 -5.9192225596998469 0 0 0 0 -47.129234174509293 -93.024244239186373 0 -93.024244239186373 -117.97335096195457 0 0 0 0 17.484834886074168 -170.89537727233801 0 -170.89537727233801 -27.454901850316674 0 0 0 0 53.65658361774058 -102.54592212257194 0 -102.54592212257194 18.883762258803472 0 0 0 0 -30.016494096274073 -171.65927770511189 0 -171.65927770511189 -6.2156684865840361 0 0 0 0 -35.420931779466628 -68.622479749297781 0 -68.622479749297781 88.502879842957555 0 0 0 0 18.867158142078551 -232.02637896963279 0 -232.02637896963279 72.281824729598156 0 0 0 0 -23.262062240350133 -117.62377572938567 0 -117.62377572938567 203.35682216616806 0 0 0 0 272.75244817533166 -303.74048660538392 0 -303.74048660538392 110.77107009682913 0 0 0 0 28.053538162730547 -285.83381900559471 0 -285.83381900559471 245.47297311499096 0 0 0 0 266.54597681495807 -273.29015199291098 0 -273.29015199291098 38.68751483107917 0 0 0 0 271.45078012867452 -245.21036083468789 0 -245.21036083468789 -160.62495970117743 0 0 0 0 111.93820333730037 -280.8700473823701 0 -280.8700473823701 38.405215120568755 0 0 0 0 96.822998145777092 -231.24306734390848 0 -231.24306734390848 -118.06163112636568 0 0 0 0 -30.357399770343363 -196.67341269187591 0 -196.67341269187591 49.295029380708002 0 0 0 0 37.51270964469586 -248.3527449332687 0 -248.3527449332687 10.338651369151194 0 0 0 0 24.207718274967462 -51.923578066828163 0 -51.923578066828163 42.125930729990216 0 0 0 0 75.151866500829783 -82.687851972041244 0 -82.687851972041244 54.502596275662654 0 0 0 0 89.236267517619581 -55.689435069150932 0 -55.689435069150932 101.5315111404052 0 0 0 0 13.288008760987054 -51.741642259222573 0 -51.741642259222573 27.859379445713415 0 0 0 0 21.100174293009331 -62.964315184439329 0 -62.964315184439329 10.984317602953524 0 0 0 0 40.318805451230219 -98.340612845469877 0 -98.340612845469877 26.778528354920127 0 0 0 0 84.075258561731061 -7.8255466782429721 0 -7.8255466782429721 22.722532533965932 0 0 0 0 126.03326222828446 -44.501934592795806 0 -44.501934592795806 16.271424249425763 0 0 0 0 163.61892578871266 -120.47050369765202 0 -120.47050369765202 68.715372093167389 0 0 0 0 8.4768705692567821 -21.490381870793115 0 -21.490381870793115 0.68098484994598607 0 0 0 0 35.286513461612685 -142.10997849640989 0 -142.10997849640989 -128.47915223405289 0 0 0 0 4.2461393881421827 -103.95471768607968 0 -103.95471768607968 71.058712941307022 0 0 0 0 -28.278995949041928 -61.963285774188989 0 -61.963285774188989 30.497136131882144 0 0 0 0 69.313034300183972 -89.760441032143717 0 -89.760441032143717 34.408294467568339 0 0 0 0 56.033915440442797 -17.316420298207959 0 -17.316420298207959 57.546968995306088 0 0 0 0 4.0578454592977877 -3.587941568044954 0 -3.587941568044954 -0.30727722591394668 0 0 0 0 -57.599265392753296 -94.250030863709981 0 -94.250030863709981 -375.72367374034366 0 0 0 0 -21.804964889888652 -122.4505613016081 0 -122.4505613016081 144.46151102299336 0 0 0 0 -16.172262613621569 26.2193920071295 0 26.2193920071295 -272.83384063925769 0 0 0 0 -7.6506023589536198 111.03409178977017 0 111.03409178977017 -465.54657000837324 0 0 0 0 6.6955948231507136 -80.811342294393398 0 -80.811342294393398 113.9048046082753 0 0 0 0 72.579193171229846 -73.515206112230572 0 -73.515206112230572 24.071145887578702 0 0 0 0 455.64301869857445 -314.63359252669034 0 -314.63359252669034 -408.07318347640103 0 0 0 0 42.268589167350001 67.576777242822573 0 67.576777242822573 -152.42255070991814 0 0 0 0 312.30525117735533 -231.90110637319231 0 -231.90110637319231 -101.11505360764568 0 0 0 0 354.14428263938498 -36.364955811593973 0 -36.364955811593973 -189.1021276768879 0 0 0 0 97.750156420694566 -78.9909691019202 0 -78.9909691019202 -140.89431876174058 0 0 0 0 91.464802554291964 -219.72852770340978 0 -219.72852770340978 72.487931600117008 0 0 0 0 26.788489599683089 -99.615342711069388 0 -99.615342711069388 -78.191752921207808 0 0 0 0 93.192942552068416 -109.19987211485568 0 -109.19987211485568 -168.28170520281128 0 0 0 0 19.197096991538274 -223.03227490867721 0 -223.03227490867721 -133.88247051534563 0 0 0 0 5.0415159255717299 -81.264884278076352 0 -81.264884278076352 -171.38073895544221 0 0 0 0 58.110765322424413 -223.56034658117278 0 -223.56034658117278 -306.54858924401924 0 0 0 0 29.652523813194421 -112.02471332960704 0 -112.02471332960704 -275.65935055128648 0 0 0 0 58.613677589659346 -73.527738215081627 0 -73.527738215081627 -280.54694051244951 0 0 0 0 -2.3062489375370205 -123.81174949026899 0 -123.81174949026899 -212.53649184826645 0 0 0 0 24.353823762088723 -22.180591104392079 0 -22.180591104392079 -264.57917456762516 0 0 0 0 9.4199356001954584 -61.05588324265409 0 -61.05588324265409 -177.51205397007288 0 0 0 0 2.8706375478359405 -8.1046331949473824 0 -8.1046331949473824 -203.13464729221596 0 0 0 0 -4.9553253207996022 27.660607067664387 0 27.660607067664387 -20.629765389145177 0 0 0 0 -10.400999980625784 -147.26905611431721 0 -147.26905611431721 -73.87865478626918 0 0 0 0 95.039034217988956 -279.41970006209158 0 -279.41970006209158 -45.355150688905269 0 0 0 0 -127.52550634063664 414.49037990730722 0 414.49037990730722 -190.01867815619335 0 0 0 0 73.904199650776931 -75.879520901689332 0 -75.879520901689332 26.800497302633801 0 0 0 0 -246.35441565785732 435.52154884641641 0 435.52154884641641 26.211292048217729 0 0 0 0 103.47623692864727 -497.71840661582246 0 -497.71840661582246 340.66684651531978 0 0 0 0 26.9838148767879 -27.379999427154956 0 -27.379999427154956 -21.939141161195721 0 0 0 0 255.02629194030305 -299.44180444879748 0 -299.44180444879748 152.89762795066781 0 0 0 0 71.710507065945421 -69.232990575488657 0 -69.232990575488657 79.155378146562725 0 0 0 0 98.197840786117013 -50.950969260316924 0 -50.950969260316924 -220.93868044022202 0 0 0 0 -4.7075046806239698 -49.487704022452817 0 -49.487704022452817 28.911773630534299 0 0 0 0 54.216362410967122 -64.358489854508662 0 -64.358489854508662 -311.5052245400002 0 0 0 0 91.894076670207141 -110.51521467560087 0 -110.51521467560087 -172.77530394986388 0 0 0 0 -1.8193120217256364 -16.299401701340685 0 -16.299401701340685 -54.834725816894206 0 0 0 0 6.7949012309080246 -5.4667472472764018 0 -5.4667472472764018 -0.48439946349184426 0 0 0 0 70.850402881333139 -95.364247405545029 0 -95.364247405545029 -46.281179606186925 0 0 0 0 50.537430040213167 -64.933654609181303 0 -64.933654609181303 -259.14245893561747 0 0 0 0 25.058414319795702 -91.404865303848055 0 -91.404865303848055 -280.67950393469073 0 0 0 0 19.52602696960821 -66.924065626459196 0 -66.924065626459196 -274.37551520601846 0 0 0 0 49.022800025370088 -88.697895056626294 0 -88.697895056626294 -257.26964398525888 0 0 0 0 52.206182136171265 -87.97618288884405 0 -87.97618288884405 -264.82593032947625 0 0 0 0 49.794002197304508 -82.256231711769942 0 -82.256231711769942 -259.08418036255171 0 0 0 0 47.39996366451669 -83.18123121157987 0 -83.18123121157987 -248.55577836933662 0 0 0 0 55.692698636652494 -64.725034494651482 0 -64.725034494651482 -209.87731044302927 0 0 0 0 47.646133286456461 -65.226135670091026 0 -65.226135670091026 -204.15040420519654 0 0 0 0 62.430051365408872 -77.525672853575088 0 -77.525672853575088 -252.31251061595685 0 0 0 0 67.193164504045853 -76.226109154697042 0 -76.226109154697042 -254.11896024420275 0 0 0 0 34.394306634370878 -56.033313622043352 0 -56.033313622043352 -206.14493475022027 0 0 0 0 78.607914703447022 -57.07638756048982 0 -57.07638756048982 -169.07064375071786 0 0 0 0 82.370002042571286 -39.470309017313411 0 -39.470309017313411 -208.88216245954391 0 0 0 0 63.356599144997745 -57.750718334609701 0 -57.750718334609701 -158.68023454287322 0 0 0 0 85.712359904467121 -66.261454301486083 0 -66.261454301486083 -155.44205465406412 0 0 0 0 88.626033655162246 -31.789979665021747 0 -31.789979665021747 -157.89681638142793 0 0 0 0 82.994711026576624 -22.744285144941387 0 -22.744285144941387 -73.813615148537792 0 0 0 0 88.383800990719465 -66.794919120933628 0 -66.794919120933628 -109.20994888228597 0 0 0 0 93.376032076183037 -59.76602658840784 0 -59.76602658840784 -105.18797546532005 0 0 0 0 76.596103517455049 -35.68229712540051 0 -35.68229712540051 -121.00303222896764 0 0 0 0 86.877921781502664 -26.237419521086849 0 -26.237419521086849 -41.57062098604365 0 0 0 0 69.73067248496227 -28.178898751153611 0 -28.178898751153611 -41.714638444213051 0 0 0 0 48.974043672766129 -35.706357474715333 0 -35.706357474715333 61.688053972931812 0 0 0 0 96.696929075798835 -79.061938886850839 0 -79.061938886850839 -33.977239672851283 0 0 0 0 43.53682197193848 -42.171261448049336 0 -42.171261448049336 -140.38487579726643 0 0 0 0 -9.2271760937292129 21.960407335893251 0 21.960407335893251 -63.121386047103442 0 0 0 0 53.299950099622947 -15.07059316104278 0 -15.07059316104278 -67.429678689921275 0 0 0 0 50.161053054078366 -28.91999777185265 0 -28.91999777185265 23.562976036628243 0 0 0 0 71.007930134364869 -69.842940250993706 0 -69.842940250993706 -145.65448770017247 0 0 0 0 75.119379759871663 -42.427581964668207 0 -42.427581964668207 -129.82083120185416 0 0 0 0 52.497760675822065 -54.408360668203386 0 -54.408360668203386 -207.59246101783356 0 0 0 0 51.74502979949466 -63.239836326392833 0 -63.239836326392833 -147.51682282885304 0 0 0 0 74.786113034380833 -58.063434484691243 0 -58.063434484691243 -214.42065442790044 0 0 0 0 36.839688486186787 -39.956717969456804 0 -39.956717969456804 -207.49617263345863 0 0 0 0 29.134519740386168 -56.250592402175243 0 -56.250592402175243 -133.19527836173074 0 0 0 0 2.3371942037980418 -2.3095878584441039 0 -2.3095878584441039 -3.4445687656468351 0 0 0 0 50.152804208181351 27.801012525660553 0 27.801012525660553 -552.74013686718536 0 0 0 0 117.89776754879858 -298.32128306012601 0 -298.32128306012601 269.24976095411694 0 0 0 0 2.9669689510659865 -4.4701423013250974 0 -4.4701423013250974 -5.052359380869774 0 0 0 0 56.943887638979504 -100.43186506230268 0 -100.43186506230268 95.765858886181377 0 0 0 0 154.9135202957093 -169.26912305064707 0 -169.26912305064707 128.3958461068687 0 0 0 0 159.33194746075549 -109.13795089379755 0 -109.13795089379755 63.534886279696366 0 0 0 0 1.5983663076862911 -0.10262121040084793 0 -0.10262121040084793 -2.1460677106670119 0 0 0 0 156.75151789393567 -113.88489426804881 0 -113.88489426804881 86.382175714388723 0 0 0 0 56.598623613856034 -6.5245263143006014 0 -6.5245263143006014 69.429024041543016 0 0 0 0 36.330724421117338 -92.794410041184165 0 -92.794410041184165 102.82377689162968 0 0 0 0 189.76052986772265 -57.04944562993478 0 -57.04944562993478 29.055799103574827 0 0 0 0 -0.12580069462906351 -0.46157337071947779 0 -0.46157337071947779 0.61932047488500075 0 0 0 0 194.94175036802699 -127.11385525141668 0 -127.11385525141668 -117.23378458562365 0 0 0 0 132.26580878710229 -150.82928767217527 0 -150.82928767217527 -125.64935537228303 0 0 0 0 124.2892172154352 -245.76451373284362 0 -245.76451373284362 -131.73892196530505 0 0 0 0 186.10195948095043 -159.97710981281853 0 -159.97710981281853 -234.41316715034191 0 0 0 0 128.49768311868684 -161.73344028404972 0 -161.73344028404972 -9.2968095702381106 0 0 0 0 92.269277929175587 -11.417393542338687 0 -11.417393542338687 -93.903448652159568 0 0 0 0 3.4514293142697525 -1.2094996605149504 0 -1.2094996605149504 -3.0806745268685631 0 0 0 0 149.69233951199567 -147.4757660867981 0 -147.4757660867981 -1.1626697264582617 0 0 0 0 111.3712168815 -87.324740885422216 0 -87.324740885422216 76.359983587673923 0 0 0 0 141.59785198167356 -190.1826448670754 0 -190.1826448670754 150.92119525653834 0 0 0 0 134.07842168373827 -109.23579644857091 0 -109.23579644857091 28.815629147946311 0 0 0 0 141.29471166140866 -89.336319895228371 0 -89.336319895228371 -0.010747501670266502 0 0 0 0 121.37162778014317 -75.529405612469418 0 -75.529405612469418 17.483927829718596 0 0 0 0 160.00638056433945 -128.81770683263494 0 -128.81770683263494 74.935095791064668 0 0 0 0 131.83754254203086 -142.42849460294383 0 -142.42849460294383 129.07033201900776 0 0 0 0 182.1250172393411 -114.79252462555451 0 -114.79252462555451 82.872196659940528 0 0 0 0 116.9340725274742 -93.125968195279711 0 -93.125968195279711 62.177658825685285 0 0 0 0 4.3804716182708887 -1.5101539527610299 0 -1.5101539527610299 -3.7900576487561466 0 0 0 0 119.95848966178619 -98.454474557322101 0 -98.454474557322101 56.392382808335242 0 0 0 0 136.86038995839226 -133.95937252084696 0 -133.95937252084696 66.222442476559081 0 0 0 0 93.494952745342744 -76.076601651424426 0 -76.076601651424426 51.458353404625086 0 0 0 0 63.399569894454544 -36.743388964361657 0 -36.743388964361657 0.11144279885775177 0 0 0 0 3.93158282300233 -1.4795627224317798 0 -1.4795627224317798 -3.3836294869669814 0 0 0 0 196.08184994915246 -215.53600140738854 0 -215.53600140738854 205.426247723095 0 0 0 0 2.5491261356261745 1.0855324936201498 0 1.0855324936201498 -2.7530000479453065 0 0 0 0 271.45916888240845 -150.47351188374887 0 -150.47351188374887 1.9016211240377743 0 0 0 0 264.25006919044608 -185.01923599006113 0 -185.01923599006113 110.91810446183081 0 0 0 0 -113.44744922477184 -12.554772189287178 0 -12.554772189287178 -4.71101860532508 0 0 0 0 10.90082139185688 2.4981202322087483 0 2.4981202322087483 -9.5221899480093271 0 0 0 0 3.4351972299650839 -3.6235141094391565 0 -3.6235141094391565 -5.0105198833450117 0 0 0 0 -46.409521444893471 -56.997710507552256 0 -56.997710507552256 -20.123831400676863 0 0 0 0 -52.770824792336498 -69.467526655324036 0 -69.467526655324036 -6.9616330383505556 0 0 0 0 -8.6171438832352578 -96.893461398351064 0 -96.893461398351064 -0.085414770714123733 0 0 0 0 -112.73273329900258 -67.859632419080299 0 -67.859632419080299 26.973151537225931 0 0 0 0 -236.17833111192158 -145.38657167786732 0 -145.38657167786732 1.0047743237519171 0 0 0 0 255.99426937480166 -7.7349919332482386 0 -7.7349919332482386 -20.861276298383018 0 0 0 0 557.77691677616531 125.04017730662599 0 125.04017730662599 -415.79248814229504 0 0 0 0 -50.76342228061003 -46.246098865339718 0 -46.246098865339718 -25.086998034123098 0 0 0 0 13.165214765540441 -53.493638412444852 0 -53.493638412444852 -34.066408381506335 0 0 0 0 236.91748678264253 -136.93174987379916 0 -136.93174987379916 53.56853609099926 0 0 0 0 27.538152951703523 -10.539200720377266 0 -10.539200720377266 0.1601261953037465 0 0 0 0 3.4945567717664829 -2.3727334599244045 0 -2.3727334599244045 -0.3258065211142771 0 0 0 0 145.99142314972414 -27.910431480398984 0 -27.910431480398984 8.4087296601064736 0 0 0 0 -14.146893488374189 -2.6992846607608953 0 -2.6992846607608953 46.978868751146365 0 0 0 0 1.4246702423552051 11.010132008887012 0 11.010132008887012 35.130721435489249 0 0 0 0 -28.343228199682926 -23.414775669385563 0 -23.414775669385563 28.63395781275176 0 0 0 0 -11.630234203286818 4.8836653117614333 0 4.8836653117614333 63.879131739551667 0 0 0 0 31.930394644699845 -72.100277716584969 0 -72.100277716584969 114.8206407847465 0 0 0 0 22.654923957699793 28.986577746298281 0 28.986577746298281 80.84671925281873 0 0 0 0 72.164474839009927 -246.19714541082794 0 -246.19714541082794 305.49819856159775 0 0 0 0 2.4824015023092443 -2.1827005862442803 0 -2.1827005862442803 -3.1545804837740548 0 0 0 0 154.95677745377179 -355.50077149525168 0 -355.50077149525168 297.48154724284541 0 0 0 0 322.53096686076969 -259.4881363997556 0 -259.4881363997556 142.23511157778557 0 0 0 0 -52.304794395720819 -115.51389457919868 0 -115.51389457919868 217.81538755782822 0 0 0 0 119.17607179611514 -38.461263601573592 0 -38.461263601573592 50.440941803411988 0 0 0 0 -7.8998720332710946 -101.13015296628146 0 -101.13015296628146 19.620802632183768 0 0 0 0 -5.4167026445793454 -197.18643534620787 0 -197.18643534620787 -377.06650021634414 0 0 0 0 -285.38639362090544 19.072279847492609 0 19.072279847492609 21.656152794806985 0 0 0 0 43.015348286753579 114.63211810644134 0 114.63211810644134 -481.61870898407142 0 0 0 0 69.491694085743802 -22.843381189799402 0 -22.843381189799402 -324.28716894591344 0 0 0 0 126.81161843793234 -132.53417750168592 0 -132.53417750168592 -263.02409916138095 0 0 0 0 92.566909316643432 22.501062616924173 0 22.501062616924173 -244.36644872416946 0 0 0 0 146.48852424733013 -4.6094184686880908 0 -4.6094184686880908 -294.94391954111052 0 0 0 0 119.38132291538932 -29.453241146329674 0 -29.453241146329674 -187.84485570290417 0 0 0 0 73.298190659304964 -14.017251426994335 0 -14.017251426994335 -176.21068355788157 0 0 0 0 105.41750994719041 -34.597043707821285 0 -34.597043707821285 -170.16247509553796 0 0 0 0 107.69006312466809 -72.121470223151846 0 -72.121470223151846 -97.71042416326236 0 0 0 0 79.554899292903428 -40.230154509830754 0 -40.230154509830754 -64.193042849205085 0 0 0 0 111.04626465099136 -11.67552771649207 0 -11.67552771649207 -168.76674164889846 0 0 0 0 76.831013195762353 -144.73656708926137 0 -144.73656708926137 84.022012001230905 0 0 0 0 4.6326139217340483 -3.7209628451180095 0 -3.7209628451180095 -5.8571018594853115 0 0 0 0 8.2624480749982467 0.42123347710730741 0 0.42123347710730741 11.242486846866086 0 0 0 0 150.23644193256769 -107.96582132201002 0 -107.96582132201002 -110.96198548058601 0 0 0 0 80.882531987266702 -90.772992713005806 0 -90.772992713005806 15.197379163204459 0 0 0 0 120.20967123623268 -108.00456776379724 0 -108.00456776379724 -21.600904062390327 0 0 0 0 164.94203082898821 -88.573554443966714 0 -88.573554443966714 13.983697193616536 0 0 0 0 84.636621791185462 -196.37531713128556 0 -196.37531713128556 263.97933229983028 0 0 0 0 172.31007787313138 -198.74148473553032 0 -198.74148473553032 13.677125992719084 0 0 0 0 100.13746055187585 -48.793548691035539 0 -48.793548691035539 -0.74749244315898977 0 0 0 0 -9.0255689740297385 -28.873735142886289 0 -28.873735142886289 -12.771129200365976 0 0 0 0 -13.566106338242889 -14.776150613860068 0 -14.776150613860068 -3.4653864348283889 0 0 0 0 -5.5899538505254895 -19.868975106430298 0 -19.868975106430298 17.014278826478403 0 0 0 0 -13.710950574961316 -15.351377209830389 0 -15.351377209830389 16.377194981963839 0 0 0 0 -22.262514184985776 -25.851434112046263 0 -25.851434112046263 -0.018117890795110725 0 0 0 0 -25.930435812828364 -21.18221774241465 0 -21.18221774241465 13.975157635024516 0 0 0 0 -21.1702582243488 -29.113290923731256 0 -29.113290923731256 9.2871667045401409 0 0 0 0 0.31344599174241239 -2.670213778369515 0 -2.670213778369515 -0.40579710546977665 0 0 0 0 -11.624605432520184 -5.8079498097795295 0 -5.8079498097795295 13.092101061702124 0 0 0 0 -11.33012901438633 -17.935223672815482 0 -17.935223672815482 -8.7105629847792443 0 0 0 0 2.6256746643739461 -11.181107958640496 0 -11.181107958640496 8.1535411234654021 0 0 0 0 3.3165185509114963 -8.4597713346493038 0 -8.4597713346493038 4.6084969096700661 0 0 0 0 2.5616365558380494 -2.2325302753888536 0 -2.2325302753888536 -0.019471463449008297 0 0 0 0 0.45696902168489828 -4.8516666424207529 0 -4.8516666424207529 -0.37250939474612821 0 0 0 0 5.4078598226433883 -4.7410172020823609 0 -4.7410172020823609 4.2033349484370319 0 0 0 0 18.828988304137141 -8.1639967102487105 0 -8.1639967102487105 -9.4907122215307993 0 0 0 0 0.65855608256970299 -12.211668104944692 0 -12.211668104944692 8.4579215194971766 0 0 0 0 1.8101728298458966 -3.6191866618917743 0 -3.6191866618917743 -0.40855791217271076 0 0 0 0 -457.36761391637265 -338.66677596676163 0 -338.66677596676163 432.33122693577025 0 0 0 0 -38.391294597597152 16.092894992267247 0 16.092894992267247 -226.06549464560521 0 0 0 0 352.99503452789213 25.798160855818423 0 25.798160855818423 -102.87232686947391 0 0 0 0 113.25082501616998 117.85280605880325 0 117.85280605880325 43.64313809009036 0 0 0 0 89.714710799624299 -67.7019052151918 0 -67.7019052151918 -126.96137462675688 0 0 0 0 133.57977101410142 24.082935493956029 0 24.082935493956029 -23.053533314378001 0 0 0 0 3.0359977253538091 -4.781925288203638 0 -4.781925288203638 0.93044933530836715 0 0 0 0 10.520127417346885 -5.3634473536185396 0 -5.3634473536185396 4.2420380171679426 0 0 0 0 -9.0180429102983908 -84.720360692066606 0 -84.720360692066606 -6.9404428640264086 0 0 0 0 2.9286509569847965 3.1642119838646181 0 3.1642119838646181 2.422617090260303 0 0 0 0 26.384741845191456 -11.497129003226291 0 -11.497129003226291 -24.278408063226379 0 0 0 0 14.306224347572424 -42.707924605318112 0 -42.707924605318112 37.202353000378935 0 0 0 0 24.285678997257492 4.9500072780065238 0 4.9500072780065238 53.973268257686868 0 0 0 0 9.6698329078557492 -3.0337371453756248 0 -3.0337371453756248 -0.73097179452888383 0 0 0 0 2.1523928065944347 -18.91360178636387 0 -18.91360178636387 71.480520012133638 0 0 0 0 27.450106247357326 -10.181280249496922 0 -10.181280249496922 -0.043940310235814163 0 0 0 0 4.259215450641932 16.51882135446067 0 16.51882135446067 44.346345706377178 0 0 0 0 4.5883338382627699 14.935000131263223 0 14.935000131263223 51.631523720716359 0 0 0 0 -10.132396089138638 23.852592368799378 0 23.852592368799378 92.027814676504931 0 0 0 0 45.960098344366997 71.28903244745743 0 71.28903244745743 2.0147439829888754 0 0 0 0 -2.7424318892735755 31.534481829672586 0 31.534481829672586 50.07865947524806 0 0 0 0 101.66643084452517 73.93252236317494 0 73.93252236317494 1.3068417167305597 0 0 0 0 -96.698264231672511 60.182241853632149 0 60.182241853632149 79.473887753119925 0 0 0 0 10.052489346693619 136.00847660708678 0 136.00847660708678 5.3764939320099074 0 0 0 0 12.925716737685434 6.0588810161862057 0 6.0588810161862057 6.6964805496390909 0 0 0 0 119.09886518360872 -153.52499697419989 0 -153.52499697419989 -450.18382186045346 0 0 0 0 -63.0462852966848 163.54867796880353 0 163.54867796880353 -294.6232706890587 0 0 0 0 102.18514182900981 -193.15190392517252 0 -193.15190392517252 -421.94589165144862 0 0 0 0 108.77071641012299 -142.75509156973567 0 -142.75509156973567 -403.7664633399836 0 0 0 0 44.30866678460734 -213.59904779025237 0 -213.59904779025237 -110.92364483801794 0 0 0 0 23.144813134087599 -301.91839548898861 0 -301.91839548898861 -365.54184505602461 0 0 0 0 102.80973805685244 -140.54357828457432 0 -140.54357828457432 -258.03604405096848 0 0 0 0 -1120.2058272908034 -60.140478634712053 0 -60.140478634712053 -11.48200932983309 0 0 0 0 229.93724242328608 4.1542036344471853 0 4.1542036344471853 -119.96240196177678 0 0 0 0 47.194868945353392 74.411536492199843 0 74.411536492199843 92.713452716066968 0 0 0 0 517.44765074353199 -86.811379174978356 0 -86.811379174978356 20.319468987203436 0 0 0 0 477.88560820053681 157.83941671541834 0 157.83941671541834 -66.223038518859539 0 0 0 0 -0.010183188700402468 1.1752107809233365 0 1.1752107809233365 -1.3133957170310282 0 0 0 0 129.09421919634406 37.87538558421511 0 37.87538558421511 257.95239323438727 0 0 0 0 109.63304042071832 117.61029815944494 0 117.61029815944494 -7.7213068566416041 0 0 0 0 337.03669669543888 204.60744538961444 0 204.60744538961444 66.506141890466097 0 0 0 0 -451.28780281611398 -277.39289948978694 0 -277.39289948978694 186.88017968815984 0 0 0 0 43.87838918777561 8.5275169358938001 0 8.5275169358938001 -4.7702262637794774 0 0 0 0 -241.45307214393324 15.733958245975373 0 15.733958245975373 -97.610614054254256 0 0 0 0 -451.10774188862706 -249.42287406018295 0 -249.42287406018295 31.544586376207008 0 0 0 0 2.1727613058907167 -0.30879339134213524 0 -0.30879339134213524 1.0323888758783824 0 0 0 0 962.94098369042331 504.3224201238263 0 504.3224201238263 -195.60260793758789 0 0 0 0 -238.50073108297511 -115.51000507351273 0 -115.51000507351273 -42.262088925024727 0 0 0 0 -3.400641736071762 -3.2404250712826297 0 -3.2404250712826297 -4.9671346606209568 0 0 0 0 -14.641734779761464 915.83064219782318 0 915.83064219782318 189.9647432169877 0 0 0 0 -153.00980750741292 -65.935248938811128 0 -65.935248938811128 -55.81329452880891 0 0 0 0 -163.40895154932514 -144.23758850367449 0 -144.23758850367449 -70.327288732878515 0 0 0 0 -0.62891503522459402 0.34435198012675983 0 0.34435198012675983 0.86854025580765892 0 0 0 0 -79.277512161410414 10.794363396475092 0 10.794363396475092 -148.98396034119651 0 0 0 0 92.651764659422042 47.168915946473135 0 47.168915946473135 -31.622439510276308 0 0 0 0 15.505533368446351 -13.557292719157402 0 -13.557292719157402 -9.1307895872958511 0 0 0 0 28.896692730013456 -53.594362353094766 0 -53.594362353094766 -21.405526304413797 0 0 0 0 -146.53735566656542 -103.67979289682626 0 -103.67979289682626 -82.01516728833667 0 0 0 0 -92.474287468983675 -130.61582501343219 0 -130.61582501343219 -68.611564310369431 0 0 0 0 -16.819458889469388 -32.433987913389501 0 -32.433987913389501 7.7641820327844471 0 0 0 0 14.430682618661287 -13.919774912558864 0 -13.919774912558864 -10.089852921817624 0 0 0 0 42.786418411355044 0.078823383033522987 0 0.078823383033522987 12.455716271389974 0 0 0 0 -17.677542452147463 -36.339910866001446 0 -36.339910866001446 -0.6199157168448437 0 0 0 0 -10.938435504046964 -14.815088056870138 0 -14.815088056870138 11.550447951289698 0 0 0 0 -62.186997143740882 -79.331090015213704 0 -79.331090015213704 -55.320657610216585 0 0 0 0 -32.162532515381827 -25.373620336655222 0 -25.373620336655222 -15.707074453748646 0 0 0 0 -50.868582338734996 -60.743929210584611 0 -60.743929210584611 -64.522625866826274 0 0 0 0 -64.684170878470468 -62.800676930462942 0 -62.800676930462942 -20.964894734468544 0 0 0 0 -72.317918450309662 -48.834004406293388 0 -48.834004406293388 -45.588651362078963 0 0 0 0 -38.166506349156407 -27.415705857587454 0 -27.415705857587454 -21.321367901167832 0 0 0 0 -8.3775808888385654 -80.237091783092183 0 -80.237091783092183 -68.524355496105272 0 0 0 0 -102.39028780145964 -83.616154418159567 0 -83.616154418159567 -33.0931740560045 0 0 0 0 7.4089324571547337 -16.38737581620714 0 -16.38737581620714 -16.318243661383917 0 0 0 0 -11.392616373455297 -0.78307082837375219 0 -0.78307082837375219 10.795669074145337 0 0 0 0 1132.0854131671622 -297.35544143456355 0 -297.35544143456355 -515.03683055931469 0 0 0 0 -94.62333878589925 -97.38550949346245 0 -97.38550949346245 -46.169261797331274 0 0 0 0 -48.932660532460432 -35.840369808247488 0 -35.840369808247488 -9.8183256314368919 0 0 0 0 428.87633585640287 -831.61557430762332 0 -831.61557430762332 -46.516768204790424 0 0 0 0 -147.60423324299336 189.58149818933452 0 189.58149818933452 733.85711111285491 0 0 0 0 319.287458046143 -7.5430096550408052 0 -7.5430096550408052 64.601817155373283 0 0 0 0 0.85201499153481564 -37.869506857787201 0 -37.869506857787201 -43.735992399451789 0 0 0 0 3.0649181794063871 -20.147361756776391 0 -20.147361756776391 -13.510754340389212 0 0 0 0 14.610916313657071 -162.62501163862908 0 -162.62501163862908 165.10861450532684 0 0 0 0 134.37018734129015 -116.80862248178892 0 -116.80862248178892 19.361993998900289 0 0 0 0 -36.983028550908784 -31.805315770361631 0 -31.805315770361631 -9.0059255014348309 0 0 0 0 4.1891198593640695 -1.3040292896851611 0 -1.3040292896851611 0.048176157184911972 0 0 0 0 11.184423154016258 -102.87361211918324 0 -102.87361211918324 70.103577259811573 0 0 0 0 -0.081065058126114309 -113.87429179002356 0 -113.87429179002356 88.668881247955142 0 0 0 0 -1.9411255224222259 -87.617701945986482 0 -87.617701945986482 53.500153619010234 0 0 0 0 -19.060147843709274 -102.56878690367739 0 -102.56878690367739 83.137609704994247 0 0 0 0 -423.73684172437788 -599.29685653706838 0 -599.29685653706838 -58.914712035068078 0 0 0 0 -441.55419964195812 69.873216122043004 0 69.873216122043004 34.274225607514381 0 0 0 0 430.89203452125071 -735.61783000901551 0 -735.61783000901551 -1017.2221860651043 0 0 0 0 -36.199237792825443 -443.02761687571183 0 -443.02761687571183 -658.18881919782143 0 0 0 0 -342.92371752773761 767.79328536115645 0 767.79328536115645 -521.8076177086914 0 0 0 0 117.38744863081956 -111.31570216210093 0 -111.31570216210093 -602.7764760625123 0 0 0 0 154.77021590050572 -16.680698680618661 0 -16.680698680618661 -363.40229813510086 0 0 0 0 166.81445918674581 -188.10149437846849 0 -188.10149437846849 -538.20714525415679 0 0 0 0 -4.1165096440498417 -6.8263300422177764 0 -6.8263300422177764 -2.1492356824190892 0 0 0 0 136.52252760129522 36.152620996301266 0 36.152620996301266 -178.80009333230555 0 0 0 0 143.05392657938683 -149.79592679476991 0 -149.79592679476991 -269.80946560596931 0 0 0 0 104.48066315768665 -206.55825630546315 0 -206.55825630546315 -350.97456291498384 0 0 0 0 29.135473354872374 -42.969260758691235 0 -42.969260758691235 28.358954648312647 0 0 0 0 -12.150677653854281 -15.084280981715686 0 -15.084280981715686 5.7053188383797533 0 0 0 0 19.003685629952088 -164.41791669921076 0 -164.41791669921076 131.19928386479296 0 0 0 0 20.238729706208687 -43.88167878708191 0 -43.88167878708191 12.989202684519114 0 0 0 0 73.53494315716307 -53.081221070799074 0 -53.081221070799074 1.4217167136084754 0 0 0 0 5.504421893499142 -8.4699496561191694 0 -8.4699496561191694 -18.083491675600754 0 0 0 0 2.8795656896897697 -7.5163539159380264 0 -7.5163539159380264 4.3456852366747256 0 0 0 0 37.589490183796443 -117.21084509359935 0 -117.21084509359935 132.55599315086511 0 0 0 0 -2.2606580326010857 -32.225469764804558 0 -32.225469764804558 43.434611922986278 0 0 0 0 47.256410906287783 -83.874464641943632 0 -83.874464641943632 45.591906686837319 0 0 0 0 42.692467102169275 -52.826527719465446 0 -52.826527719465446 16.116220702133454 0 0 0 0 55.259908748066664 -55.447545158764115 0 -55.447545158764115 -25.217923957869061 0 0 0 0 28.303484793912503 -61.114102556857688 0 -61.114102556857688 -11.176033240495599 0 0 0 0 23.744788935255201 -66.119309310197423 0 -66.119309310197423 26.06265501897542 0 0 0 0 33.129115222385735 -75.618835327448323 0 -75.618835327448323 -30.28968472933775 0 0 0 0 -25.407354557819971 -36.55385172906513 0 -36.55385172906513 -11.671824575854913 0 0 0 0 29.714535794604672 -67.257875990956563 0 -67.257875990956563 0.05281370657030493 0 0 0 0 21.45710695983523 -47.624805936503662 0 -47.624805936503662 11.078420169890286 0 0 0 0 24.133407748609898 -67.283483916799014 0 -67.283483916799014 3.2200876196002355 0 0 0 0 -10.114679695318046 -53.975258588667202 0 -53.975258588667202 -7.8830177253694274 0 0 0 0 16.258296344836708 -80.179289032676024 0 -80.179289032676024 -1.6831731462370954 0 0 0 0 -2.6754687240390922 -61.944104149297345 0 -61.944104149297345 5.0873405517777428 0 0 0 0 46.57208601468119 -46.544458294622927 0 -46.544458294622927 0.044342897163005546 0 0 0 0 10.02301214660838 -67.490524090215331 0 -67.490524090215331 75.100630497996463 0 0 0 0 -3.3522557318283361 -105.97164147961303 0 -105.97164147961303 80.20948624110315 0 0 0 0 35.157604122463454 -52.29672188593031 0 -52.29672188593031 -22.548563862568699 0 0 0 0 45.959072627520072 -114.32620021846378 0 -114.32620021846378 32.502622070693178 0 0 0 0 -12.02756321589689 -29.857084421876088 0 -29.857084421876088 -11.694396556691174 0 0 0 0 11.738602939418342 -34.762159037203674 0 -34.762159037203674 4.5521897147700656 0 0 0 0 -2.815094817679352 -23.934998910128485 0 -23.934998910128485 -9.8145359826688434 0 0 0 0 -17.600174771333165 -26.706968992064375 0 -26.706968992064375 8.7940230222312152 0 0 0 0 1.2273109584712074 -68.490128304751124 0 -68.490128304751124 -23.512847939593485 0 0 0 0 -24.632658777176403 -32.330677711579483 0 -32.330677711579483 -3.2819949385666405 0 0 0 0 -1.4430839073902462 -36.66344385384582 0 -36.66344385384582 -52.300572321575601 0 0 0 0 -8.5154880273912568 -45.90363864324172 0 -45.90363864324172 40.054225333122304 0 0 0 0 -12.448916582882148 -36.71483067826928 0 -36.71483067826928 -3.0827645420897625 0 0 0 0 -28.545537833711833 -29.852583384419404 0 -29.852583384419404 28.08500358512461 0 0 0 0 17.576650303146664 -47.277528834296874 0 -47.277528834296874 -25.927107436559226 0 0 0 0 -22.811413428309606 -70.625458780115878 0 -70.625458780115878 6.0869152079249034 0 0 0 0 -32.236094652267639 -55.492750216217246 0 -55.492750216217246 -11.403238234604942 0 0 0 0 -77.37017032620497 -77.873932893940946 0 -77.873932893940946 19.838192133698612 0 0 0 0 -22.239550328493351 -41.99714146291808 0 -41.99714146291808 11.209283836833492 0 0 0 0 -14.730124976788161 -25.627969907918583 0 -25.627969907918583 7.0591517067306313 0 0 0 0 -16.0381009790799 -41.965055271717574 0 -41.965055271717574 7.725752986225416 0 0 0 0 -31.845819869868507 -31.444587356178062 0 -31.444587356178062 12.723982045220261 0 0 0 0 -33.653398091286363 -31.9407321452818 0 -31.9407321452818 17.053851969096286 0 0 0 0 -15.399908953462727 -38.313733883624081 0 -38.313733883624081 3.6638342358419322 0 0 0 0 -24.44458644845335 -33.022737508215727 0 -33.022737508215727 10.724270381880999 0 0 0 0 -50.518729758732661 -74.054306130899931 0 -74.054306130899931 198.60772820422426 0 0 0 0 -28.139306104385469 -168.85643819734833 0 -168.85643819734833 176.71725194847386 0 0 0 0 0.4325691074729292 -11.793440285275352 0 -11.793440285275352 -4.6543514798828767 0 0 0 0 56.847754622882348 -25.832264563763601 0 -25.832264563763601 -4.8034393543202896 0 0 0 0 -28.273902702378109 -95.206496944127139 0 -95.206496944127139 50.887021425063722 0 0 0 0 -25.928113736445084 -60.712415946123656 0 -60.712415946123656 84.05789415325853 0 0 0 0 -25.950838878721697 -54.44102127320366 0 -54.44102127320366 25.918870448425878 0 0 0 0 -50.565309988822264 -49.001145144593465 0 -49.001145144593465 1.0467397166939918 0 0 0 0 -30.827019514246786 -39.111851539077179 0 -39.111851539077179 4.8818048096509301 0 0 0 0 -28.50902821737651 -28.816139517788173 0 -28.816139517788173 -8.6945634216722283 0 0 0 0 -21.366205986409113 -39.820359579161959 0 -39.820359579161959 2.8646859819273232 0 0 0 0 -0.18991755157581736 -15.56636239223694 0 -15.56636239223694 -9.1273517619102904 0 0 0 0 2.6129724644633825 -132.04247663042042 0 -132.04247663042042 102.95593822484079 0 0 0 0 218.88733464830511 63.942573820997495 0 63.942573820997495 75.302624261690653 0 0 0 0 2.7536177449812129 -4.1953938303000768 0 -4.1953938303000768 -0.18085517802646667 0 0 0 0 -42.289546802952827 -84.182958630422945 0 -84.182958630422945 166.12191566427646 0 0 0 0 -15.261868842510012 -36.464091389876558 0 -36.464091389876558 60.854190464306157 0 0 0 0 22.461021130429799 69.262430104099622 0 69.262430104099622 -280.84838330317871 0 0 0 0 -56.25372217367476 -28.074788509125938 0 -28.074788509125938 -236.7299023331725 0 0 0 0 71.658545652200701 -21.201225874036027 0 -21.201225874036027 -236.36059409120935 0 0 0 0 70.570265612397634 -37.928699858050095 0 -37.928699858050095 -206.37062238015642 0 0 0 0 126.90010058193002 35.147886335253133 0 35.147886335253133 -270.98186743454426 0 0 0 0 75.64133872452885 34.94336008481514 0 34.94336008481514 -249.4540960957529 0 0 0 0 113.73338612538646 71.982075611565961 0 71.982075611565961 -305.38036822926369 0 0 0 0 118.8863462303525 50.869653305839165 0 50.869653305839165 -293.20692497881828 0 0 0 0 180.0293662933982 54.015337940450991 0 54.015337940450991 -316.69930134025344 0 0 0 0 114.178948232533 37.162495154363569 0 37.162495154363569 -318.20325414725812 0 0 0 0 87.617509864547173 70.104973895067815 0 70.104973895067815 -330.93008245584133 0 0 0 0 -150.89538477180758 196.30551754507178 0 196.30551754507178 -346.06047828836017 0 0 0 0 -140.97021968898093 -18.338074615405276 0 -18.338074615405276 -225.90288154949667 0 0 0 0 194.61101978361694 -205.63671524115489 0 -205.63671524115489 -162.72930396077572 0 0 0 0 -93.327976030712307 -30.22791315682116 0 -30.22791315682116 11.579047685125261 0 0 0 0 -111.77175271965098 -202.84073087212892 0 -202.84073087212892 -109.37110941323044 0 0 0 0 -0.010644161038555922 -1.0430868228024934 0 -1.0430868228024934 -8.6021284641696525 0 0 0 0 -11.748485379624981 -26.544838715830338 0 -26.544838715830338 69.030393907189136 0 0 0 0 -16.952204555134813 -70.223074578781961 0 -70.223074578781961 111.51504081799067 0 0 0 0 36.73310825831777 -43.777528867511137 0 -43.777528867511137 37.742540858438588 0 0 0 0 28.98224867186218 -27.427482319806586 0 -27.427482319806586 10.214500226404198 0 0 0 0 34.626556482946398 -51.407465503163621 0 -51.407465503163621 32.206217618571827 0 0 0 0 33.67396727295818 -52.214039093840256 0 -52.214039093840256 36.719973849627422 0 0 0 0 8.1782069221662823 -19.533167584304465 0 -19.533167584304465 18.461029312646133 0 0 0 0 16.998488240825409 -32.404792746058121 0 -32.404792746058121 0.28464182920399139 0 0 0 0 21.557446827223572 -31.309070920530644 0 -31.309070920530644 -17.757257409889476 0 0 0 0 12.354911374067498 -24.462535663215277 0 -24.462535663215277 -6.2225001659074337 0 0 0 0 30.543628839404846 -109.38979394300259 0 -109.38979394300259 101.084968893123 0 0 0 0 1.985110713960097 -20.303199136479449 0 -20.303199136479449 -8.50694413977061 0 0 0 0 30.506486531270639 -53.645719734549402 0 -53.645719734549402 25.16116676137608 0 0 0 0 44.351385094647412 -66.379939194215694 0 -66.379939194215694 54.890330360314692 0 0 0 0 12.959147174129612 -36.628731974800758 0 -36.628731974800758 25.438749971886864 0 0 0 0 14.329462196931061 -37.434013404007445 0 -37.434013404007445 43.679615551003138 0 0 0 0 10.243378582628793 -41.912220469326712 0 -41.912220469326712 33.924767525561037 0 0 0 0 22.462553365312004 -35.923952257197442 0 -35.923952257197442 5.4642916599766522 0 0 0 0 32.454482992765406 -46.297106219222769 0 -46.297106219222769 38.601207200890713 0 0 0 0 60.809470216967384 -61.899764067176875 0 -61.899764067176875 -22.496404283461743 0 0 0 0 7.7869491731407905 -16.85747694601206 0 -16.85747694601206 -5.9339912031412325 0 0 0 0 36.090781947892538 -59.953222830084997 0 -59.953222830084997 54.599947105903993 0 0 0 0 32.736139905213349 -48.388380087111727 0 -48.388380087111727 68.685468742934972 0 0 0 0 2.0347314286828819 -9.9629264332500682 0 -9.9629264332500682 6.5938989916804474 0 0 0 0 43.569537708805001 -72.890121014366741 0 -72.890121014366741 68.755965650372673 0 0 0 0 21.375224636796702 -60.83268326855432 0 -60.83268326855432 65.686725835432298 0 0 0 0 14.328624965104879 -29.369071147867089 0 -29.369071147867089 -0.01556802885469466 0 0 0 0 21.146049047478002 -34.803792882806306 0 -34.803792882806306 -9.4402257979714079 0 0 0 0 3.0838761064587743 -31.666736740313354 0 -31.666736740313354 22.909841153661546 0 0 0 0 0.065384549094147815 -32.998623927492609 0 -32.998623927492609 37.455474246876918 0 0 0 0 20.0189790190434 -108.01021944805689 0 -108.01021944805689 -24.850984543634695 0 0 0 0 15.023910665764319 -47.010209377934615 0 -47.010209377934615 15.019665838979719 0 0 0 0 13.358653326613421 -58.943741040537134 0 -58.943741040537134 44.44102813059726 0 0 0 0 4.9433914238270518 -58.358139829448191 0 -58.358139829448191 48.749031177532743 0 0 0 0 -44.840451385724009 -67.353836136302561 0 -67.353836136302561 15.776445842660905 0 0 0 0 -7.2433583213737762 -41.251604714406284 0 -41.251604714406284 -2.8765030019678264 0 0 0 0 1.5976818811807121 -9.3511116760163304 0 -9.3511116760163304 13.395202709394113 0 0 0 0 -12.251642794580221 -179.58529082718997 0 -179.58529082718997 -61.683651582992752 0 0 0 0 -110.79043362160292 78.792753563350743 0 78.792753563350743 -26.381907953764312 0 0 0 0 77.343905991840074 35.543824907777889 0 35.543824907777889 -57.401334172405768 0 0 0 0 29.261441771634839 -38.66121464777666 0 -38.66121464777666 -2.6486343604349258 0 0 0 0 25.378514073425322 -97.984127486401121 0 -97.984127486401121 -146.81006697656267 0 0 0 0 -16.496354810289631 -33.345221899930038 0 -33.345221899930038 -43.18265809798686 0 0 0 0 -63.201592074286964 -107.38244353919345 0 -107.38244353919345 -74.423410106101073 0 0 0 0 43.960446662746108 -73.610757797920087 0 -73.610757797920087 -121.066167487239 0 0 0 0 -0.16706076358013178 -0.39816618027589357 0 -0.39816618027589357 -3.5405296581147638 0 0 0 0 -94.838996395774302 -46.322760459355777 0 -46.322760459355777 63.880762834847701 0 0 0 0 49.01931472880824 -88.737553451683198 0 -88.737553451683198 -144.40701444724982 0 0 0 0 1.0149600823283436 0.24702684542552333 0 0.24702684542552333 -7.8343244723232317 0 0 0 0 -14.891039107325923 -95.757784929046466 0 -95.757784929046466 -76.460463048962993 0 0 0 0 25.706949751260709 14.789703362465843 0 14.789703362465843 26.667344468529336 0 0 0 0 57.680962668317079 -63.86821434355079 0 -63.86821434355079 -23.603186573789571 0 0 0 0 14.436935392106534 103.27445050001552 0 103.27445050001552 -84.179879645147594 0 0 0 0 130.39280043520739 -99.396157950706765 0 -99.396157950706765 -9.3657196177809965 0 0 0 0 77.585109967963945 -209.59176399632997 0 -209.59176399632997 341.83231119081029 0 0 0 0 4.1760528073269256 -0.94217808905685274 0 -0.94217808905685274 -0.12675485461515068 0 0 0 0 186.96173032322258 -6.986078797832306 0 -6.986078797832306 -233.25510058013606 0 0 0 0 710.56991563116026 -114.95491520472569 0 -114.95491520472569 -423.10685581975849 0 0 0 0 384.73602655124614 -203.22085133296969 0 -203.22085133296969 -74.279360854998231 0 0 0 0 21.355510262997996 10.964984123638715 0 10.964984123638715 -307.57933450149721 0 0 0 0 301.83884244370711 -445.15526762389345 0 -445.15526762389345 113.73789570978261 0 0 0 0 -406.80895648935257 -361.09260262831231 0 -361.09260262831231 358.1581965564983 0 0 0 0 -20.400609490679926 -107.02261492179241 0 -107.02261492179241 93.996891580463853 0 0 0 0 -55.279355270089582 11.130669706937624 0 11.130669706937624 -93.729997474118136 0 0 0 0 -387.73470830248925 172.66041222730814 0 172.66041222730814 -92.889516376540996 0 0 0 0 28.69389493586641 -93.720113124581985 0 -93.720113124581985 93.466610622868757 0 0 0 0 -66.970289068565762 -167.39847546027886 0 -167.39847546027886 18.050138285703724 0 0 0 0 207.69562649861473 -147.3374410983306 0 -147.3374410983306 15.257150098859711 0 0 0 0 -15.298908508819295 -60.871998534661543 0 -60.871998534661543 -6.5523155578703154 0 0 0 0 207.11907117238934 -136.11603826881537 0 -136.11603826881537 -95.944275526533602 0 0 0 0 69.280833148397505 -139.44430639358325 0 -139.44430639358325 79.934650088544004 0 0 0 0 32.753944991016397 -71.869515388418222 0 -71.869515388418222 -4.8484362722956575 0 0 0 0 -10.192346334493777 -64.294760589102225 0 -64.294760589102225 91.510700667880883 0 0 0 0 -5.3876848698404416 -5.8766621075699561 0 -5.8766621075699561 -1.9883326710405527 0 0 0 0 54.955225698933646 -17.357763034273376 0 -17.357763034273376 -62.535289780644234 0 0 0 0 108.3153957026334 -63.588128744893766 0 -63.588128744893766 -92.245641650282778 0 0 0 0 154.75167557317218 -174.55425157931313 0 -174.55425157931313 -6.3569968660303857 0 0 0 0 48.410986249964481 -58.269914362961572 0 -58.269914362961572 33.638761570324277 0 0 0 0 27.857292952278424 -37.637261661215902 0 -37.637261661215902 -3.3444158990735104 0 0 0 0 -38.282212867286944 33.861900528121623 0 33.861900528121623 -6.3990231275965925 0 0 0 0 -11.904476176463504 -69.468360115402902 0 -69.468360115402902 28.069857702037552 0 0 0 0 -7.5051906799562857 -56.365951490137377 0 -56.365951490137377 39.521979965204082 0 0 0 0 34.043035937999775 -90.482739207063787 0 -90.482739207063787 29.432120911136735 0 0 0 0 -31.017614217118535 -68.746539465922979 0 -68.746539465922979 35.462386805957067 0 0 0 0 -8.5268385520503216 -36.373720250910992 0 -36.373720250910992 121.11806385537056 0 0 0 0 67.826502473501023 -30.140863362939854 0 -30.140863362939854 -200.62146773112181 0 0 0 0 0.77279130230709825 -2.8078648594900528 0 -2.8078648594900528 0.19691119836208637 0 0 0 0 79.158398019695596 -64.387825094541768 0 -64.387825094541768 -175.9421520052274 0 0 0 0 71.800536567126983 -60.633602311761933 0 -60.633602311761933 -171.36172396162146 0 0 0 0 75.595118718651065 -146.48593560244626 0 -146.48593560244626 -166.39391708430776 0 0 0 0 72.747255822039733 -66.381415630363335 0 -66.381415630363335 -176.10056410526158 0 0 0 0 13.036685644299723 -129.64110178010014 0 -129.64110178010014 13.277351050459401 0 0 0 0 -4.8063993744144682 -116.03764630505611 0 -116.03764630505611 11.223418038745876 0 0 0 0 -28.384330552042229 -94.24141752088326 0 -94.24141752088326 78.278258182912396 0 0 0 0 63.551739224232733 -61.309175440430408 0 -61.309175440430408 -171.40369592733259 0 0 0 0 1.3218152001791168 -95.839459424438246 0 -95.839459424438246 -58.39619277746533 0 0 0 0 -3.5352634470618796 -64.153662435426668 0 -64.153662435426668 -65.745716027886374 0 0 0 0 -21.376301778647758 -72.434081718894959 0 -72.434081718894959 -7.3264166597946314 0 0 0 0 -4.3603659665313899 -60.587213195678487 0 -60.587213195678487 -50.181937699286209 0 0 0 0 7.0280079948097409 -76.348884575487318 0 -76.348884575487318 -71.263629503795528 0 0 0 0 -33.376518681085145 -76.406183472827252 0 -76.406183472827252 6.4975246453395812 0 0 0 0 -11.297832673473749 -95.780230873202527 0 -95.780230873202527 1.9779217984469142 0 0 0 0 -57.365820942533901 -19.480330632737605 0 -19.480330632737605 -65.180762182906619 0 0 0 0 -26.36746441989817 -48.422501414817816 0 -48.422501414817816 20.026160700834794 0 0 0 0 2.1158452144846365 -10.892494551168085 0 -10.892494551168085 -2.1034815239501419 0 0 0 0 21.696732896467438 -61.653228462586412 0 -61.653228462586412 -47.150492531287455 0 0 0 0 25.52164311739034 -47.882828198940842 0 -47.882828198940842 -59.252500888757368 0 0 0 0 -9.4104731361148879 -23.082836783403764 0 -23.082836783403764 -12.978266819424562 0 0 0 0 -19.786633983395149 -30.571076919043009 0 -30.571076919043009 1.6948873250519227 0 0 0 0 -9.6219987057430956 -46.050098210967263 0 -46.050098210967263 -7.9950117781866226 0 0 0 0 -5.6766128281597048 -24.823987241601571 0 -24.823987241601571 -0.20928307148187741 0 0 0 0 21.640064351777824 -22.938534743997899 0 -22.938534743997899 -20.070747053829251 0 0 0 0 6.8024744753056439 -2.8235614939767402 0 -2.8235614939767402 -6.1543564960884396 0 0 0 0 -24.325743105607458 -30.37770346021388 0 -30.37770346021388 -17.746342185496928 0 0 0 0 -2.0028983051743126 -52.301151393075997 0 -52.301151393075997 17.726263598946389 0 0 0 0 2.1202676807224634 -40.00763808334159 0 -40.00763808334159 2.1004672982235206 0 0 0 0 23.196796661977714 -64.148739729251247 0 -64.148739729251247 -0.84304241713834926 0 0 0 0 32.499431876312883 -73.071456139427028 0 -73.071456139427028 12.099567354111059 0 0 0 0 23.944569110993598 -75.693693285897098 0 -75.693693285897098 16.085664627578808 0 0 0 0 59.463475862256018 -76.528415961736755 0 -76.528415961736755 -4.2132189468029537 0 0 0 0 37.250316832854878 -86.644875616417266 0 -86.644875616417266 37.730619831389049 0 0 0 0 44.153292849769059 -69.072975143120857 0 -69.072975143120857 30.549632827176538 0 0 0 0 20.956407502526417 -74.975011050402827 0 -74.975011050402827 40.602057529322337 0 0 0 0 11.691240254232312 -14.564110748029748 0 -14.564110748029748 -5.7729693501296495 0 0 0 0 19.022668651585263 -86.924709617742337 0 -86.924709617742337 -66.181118719825804 0 0 0 0 0.66933018164581881 -70.828058251750917 0 -70.828058251750917 31.268144354253309 0 0 0 0 -15.587300636623695 -25.681905858476966 0 -25.681905858476966 -18.241892295700382 0 0 0 0 -2.5599604590970557 -58.573326813122549 0 -58.573326813122549 5.9559905228961725 0 0 0 0 -20.493080951867654 -30.490261274514339 0 -30.490261274514339 -19.824563015929868 0 0 0 0 -0.49234156391685246 -47.590179796199664 0 -47.590179796199664 17.090817648611846 0 0 0 0 -17.244443863745538 -30.434497873744938 0 -30.434497873744938 -22.188513682865391 0 0 0 0 38.585040748301253 -79.742924405167287 0 -79.742924405167287 -57.360308715491556 0 0 0 0 -34.483280393298628 -12.423890296851823 0 -12.423890296851823 40.691442548326449 0 0 0 0 21.638487662079569 -37.293095221692056 0 -37.293095221692056 -17.129869467782555 0 0 0 0 31.470583163121887 -22.874724249498314 0 -22.874724249498314 -22.887875400058306 0 0 0 0 -24.217713546138839 -92.384833333861025 0 -92.384833333861025 -42.827090521408536 0 0 0 0 22.019731870772375 -32.577435375525965 0 -32.577435375525965 -107.10602076577197 0 0 0 0 3.2659437280104697 -4.1005208665836506 0 -4.1005208665836506 2.7419175908673594 0 0 0 0 11.31517933738678 -15.724544901976799 0 -15.724544901976799 8.2835887408095346 0 0 0 0 -61.180297396502283 -46.547703916301543 0 -46.547703916301543 24.001744224093272 0 0 0 0 -14.102276172208803 -41.020533965645882 0 -41.020533965645882 15.081758612112026 0 0 0 0 13.495263073775277 -64.595589487704274 0 -64.595589487704274 -11.147794605582021 0 0 0 0 12.253658543457277 -17.927567537586583 0 -17.927567537586583 8.2957675722282147 0 0 0 0 13.754609153587154 -24.153385801040741 0 -24.153385801040741 14.373122491134467 0 0 0 0 -1.1327336142530839 3.6001653820003412 0 3.6001653820003412 -23.012744053099595 0 0 0 0 -26.847524314172915 -52.17450978620036 0 -52.17450978620036 2.0309005286399042 0 0 0 0 -3.068197401613304 -15.973668151886827 0 -15.973668151886827 -15.717971040794168 0 0 0 0 -12.57917240633833 -69.235436787144863 0 -69.235436787144863 -12.996298675250728 0 0 0 0 19.952771969485184 -40.647607200352468 0 -40.647607200352468 26.145252992530004 0 0 0 0 -2.0323701932502445 -106.80220331189048 0 -106.80220331189048 3.6288610424671788 0 0 0 0 -23.434048952844023 -57.183868366500974 0 -57.183868366500974 -15.253024566627573 0 0 0 0 61.734777376193961 -24.687541952785978 0 -24.687541952785978 -11.084979278079118 0 0 0 0 5.9475699401442057 -23.134035281041349 0 -23.134035281041349 17.378234365264291 0 0 0 0 -3.7484988042997429 -56.858675091725672 0 -56.858675091725672 -3.5263718435599003 0 0 0 0 -16.533779593002748 -33.118937980241846 0 -33.118937980241846 -16.055864951971387 0 0 0 0 -11.454005283543665 -102.06577427784941 0 -102.06577427784941 -27.323313659458108 0 0 0 0 -4.7765684963178501 -64.111496398011695 0 -64.111496398011695 -88.353337588130671 0 0 0 0 -13.463849652929639 -39.826356201323506 0 -39.826356201323506 4.7969633683478605 0 0 0 0 10.342548845264304 -24.297144746837887 0 -24.297144746837887 21.683319798966053 0 0 0 0 6.39242994414235 -82.472423742132378 0 -82.472423742132378 -259.55690249170584 0 0 0 0 -249.63646742364654 -81.89445470803912 0 -81.89445470803912 32.251956647429324 0 0 0 0 0.96066653440298921 -6.5095877474508654 0 -6.5095877474508654 4.6727276170630319 0 0 0 0 -11.378380572117607 -33.542320889438628 0 -33.542320889438628 28.042222943444543 0 0 0 0 -43.253166553098708 -23.323497696559571 0 -23.323497696559571 24.247575820685597 0 0 0 0 -36.989569434226723 -46.851366980597959 0 -46.851366980597959 37.594447219948051 0 0 0 0 -30.092200566396485 -66.08605800306259 0 -66.08605800306259 -48.849302182985952 0 0 0 0 -26.900429107106902 -90.183483083110332 0 -90.183483083110332 -52.459288052246848 0 0 0 0 -64.734249151691074 -179.11911111954441 0 -179.11911111954441 -32.547442347437027 0 0 0 0 125.08249527064618 -79.026561318121821 0 -79.026561318121821 -96.152932761091506 0 0 0 0 11.272645976969216 -255.15272012651258 0 -255.15272012651258 -310.06064611124748 0 0 0 0 -188.11795176810847 46.51475223939633 0 46.51475223939633 30.536014876466652 0 0 0 0 34.624379918003392 -47.969406740601706 0 -47.969406740601706 -39.966758010541668 0 0 0 0 115.53021410227666 36.103846947487909 0 36.103846947487909 -50.161930973212293 0 0 0 0 -42.528784269336029 -83.028361686170683 0 -83.028361686170683 -3.6321369116485585 0 0 0 0 -10.28244801726396 -96.555705941282213 0 -96.555705941282213 -58.538450312891655 0 0 0 0 -151.04517598059647 -225.58181158913203 0 -225.58181158913203 -135.66564770835976 0 0 0 0 -38.559720474564529 -117.93522747361567 0 -117.93522747361567 -43.53332101614069 0 0 0 0 -51.612388125133293 -141.61263593687181 0 -141.61263593687181 -132.12895399250556 0 0 0 0 -38.551645112312016 -160.99395372274026 0 -160.99395372274026 -113.64323136534949 0 0 0 0 0.26277700945502147 -99.748376103947521 0 -99.748376103947521 -84.984770469418436 0 0 0 0 -31.84091091722803 -115.64422331095557 0 -115.64422331095557 -45.082218410199857 0 0 0 0 -194.48684028522257 -164.26182131190581 0 -164.26182131190581 -59.842203957516176 0 0 0 0 -11.187194389316574 -136.55937335801173 0 -136.55937335801173 -198.16180097604229 0 0 0 0 3.1911664003989131 -17.871368276008781 0 -17.871368276008781 15.923807826217143 0 0 0 0 -43.808033527572661 -94.563107686064541 0 -94.563107686064541 -63.174323220577207 0 0 0 0 34.497366142316146 -38.639895990237804 0 -38.639895990237804 -5.5553058838851825 0 0 0 0 111.56636120050098 22.376994625166844 0 22.376994625166844 -70.107181715866318 0 0 0 0 109.79998564344714 -33.129349924281996 0 -33.129349924281996 -14.707285867596511 0 0 0 0 95.62196607401404 -13.346423056393178 0 -13.346423056393178 -115.16404093532765 0 0 0 0 -155.93740879016673 -24.066078504609322 0 -24.066078504609322 54.117444948875345 0 0 0 0 84.716963712582583 -52.666449494885455 0 -52.666449494885455 -27.238303869147785 0 0 0 0 102.52398464448197 -21.579401868832065 0 -21.579401868832065 -27.673011887599273 0 0 0 0 133.35702158011554 -31.286016593934619 0 -31.286016593934619 -51.816356306924718 0 0 0 0 -31.274268510318507 -106.43976804416889 0 -106.43976804416889 -110.13790384876847 0 0 0 0 5.7492959656309957 -11.772112400944749 0 -11.772112400944749 -8.3061251003640564 0 0 0 0 143.95115478241701 -22.114240561842962 0 -22.114240561842962 -38.704568846034817 0 0 0 0 35.390960829370684 -57.770166155718726 0 -57.770166155718726 -44.828321129569701 0 0 0 0 73.853900150904394 1.1235658494911576 0 1.1235658494911576 -36.546512347984589 0 0 0 0 103.90132925517173 -25.695181157600018 0 -25.695181157600018 -50.679951401332801 0 0 0 0 73.158032376853711 6.9174987381305755 0 6.9174987381305755 -27.985552439993626 0 0 0 0 141.61166642841226 -24.171634447588076 0 -24.171634447588076 -33.14668614618131 0 0 0 0 105.90552703195434 21.299007224064553 0 21.299007224064553 -46.075507872592425 0 0 0 0 126.54703116719929 -23.613745334027044 0 -23.613745334027044 -29.705448125452676 0 0 0 0 139.31090058014343 -24.292085503457201 0 -24.292085503457201 -31.627859106927644 0 0 0 0 168.84692230304915 0.45510780475888168 0 0.45510780475888168 -40.579796449375863 0 0 0 0 7.6724751993012763 6.6177258736064246 0 6.6177258736064246 -23.766227926870613 0 0 0 0 -15.134402341447213 -86.025365870500536 0 -86.025365870500536 -153.31163527720491 0 0 0 0 -58.151735984391678 -30.225113520813466 0 -30.225113520813466 -206.5420131956198 0 0 0 0 127.03744844097719 -167.25308875257178 0 -167.25308875257178 35.717046565350756 0 0 0 0 7.2219189744827474 -9.3752968763912037 0 -9.3752968763912037 -9.8031575779556306 0 0 0 0 82.914660648295694 27.075534116399467 0 27.075534116399467 -168.16866563633084 0 0 0 0 -285.84033966271227 29.962316497832944 0 29.962316497832944 -46.938369714414875 0 0 0 0 47.193293531427457 -279.93802915373817 0 -279.93802915373817 -1005.0574248311168 0 0 0 0 -2.5122436954687442 -1.661681111592415 0 -1.661681111592415 -1.187297089935015 0 0 0 0 -406.63409402366733 -372.94972039519052 0 -372.94972039519052 142.75090896899928 0 0 0 0 -308.47288576037909 -469.15338742586027 0 -469.15338742586027 -983.68269854717801 0 0 0 0 -527.57861643067145 -656.14986748560477 0 -656.14986748560477 -846.28178135025519 0 0 0 0 -669.94345248788886 -786.39367636328234 0 -786.39367636328234 -191.10614345209615 0 0 0 0 -753.33150488605554 48.321778384058689 0 48.321778384058689 -276.95531454868615 0 0 0 0 -400.95312988629939 -212.81372574740089 0 -212.81372574740089 -120.49430150016269 0 0 0 0 -345.49066531001517 -102.16835658153286 0 -102.16835658153286 -46.345438085751084 0 0 0 0 -496.5458490422925 -374.74788271536454 0 -374.74788271536454 -228.14487354419543 0 0 0 0 -159.94349934245201 -135.81671710807859 0 -135.81671710807859 -169.84290724644961 0 0 0 0 -246.38782788610501 -102.08769693971772 0 -102.08769693971772 -13.133779806346865 0 0 0 0 -124.21759064968364 -77.048360645538196 0 -77.048360645538196 -153.0331295897704 0 0 0 0 -62.688677332212137 -278.90890612961084 0 -278.90890612961084 -161.5804024036006 0 0 0 0 -300.1130509934128 -302.93047374383605 0 -302.93047374383605 -94.493240430059814 0 0 0 0 -106.66581316163138 -194.10713684687653 0 -194.10713684687653 -404.31326104556501 0 0 0 0 -208.93503107097513 -509.03219050899133 0 -509.03219050899133 -717.83139069803292 0 0 0 0 -0.57332538443835546 -3.7402599364122295 0 -3.7402599364122295 1.5466561691534935 0 0 0 0 92.510210300513791 -303.89496128255269 0 -303.89496128255269 -488.40161964020808 0 0 0 0 -138.05906503205688 -273.51622336378477 0 -273.51622336378477 -143.55443909979658 0 0 0 0 0.87075193979489995 -5.4967505321480417 0 -5.4967505321480417 2.3154208354824277 0 0 0 0 -70.059340510310903 -237.29685040303593 0 -237.29685040303593 -348.66869007340574 0 0 0 0 117.46841870547451 -232.41771426646483 0 -232.41771426646483 -357.2292745941304 0 0 0 0 -225.98495482390899 -208.41788311307027 0 -208.41788311307027 193.12425107871968 0 0 0 0 38.008821730661111 -427.29034495140513 0 -427.29034495140513 -827.58486323354009 0 0 0 0 101.8096068497216 104.97243365901522 0 104.97243365901522 -618.12174589590177 0 0 0 0 68.322347839950453 1.0054786450127722 0 1.0054786450127722 -282.47326889198121 0 0 0 0 19.209102156510198 -223.78942345123505 0 -223.78942345123505 -258.12121597161058 0 0 0 0 144.82261917912319 -4.1035356618040169 0 -4.1035356618040169 -161.48614704434294 0 0 0 0 568.13314653197813 -40.003526781903929 0 -40.003526781903929 -245.55052909522055 0 0 0 0 0.56706734667836045 -0.91845334351615193 0 -0.91845334351615193 -10.821211392004045 0 0 0 0 1139.7417538943591 426.50200430173936 0 426.50200430173936 -169.56529870727536 0 0 0 0 639.65945907859532 -123.70424622669816 0 -123.70424622669816 -754.39187107501493 0 0 0 0 802.25010908788681 -157.40257466996991 0 -157.40257466996991 -290.30998111326517 0 0 0 0 1151.9684750504503 153.82878806706321 0 153.82878806706321 -126.11882554418116 0 0 0 0 434.76719700599097 -168.20452505856156 0 -168.20452505856156 7.1227985037839971 0 0 0 0 617.52340444007859 -98.032645590115862 0 -98.032645590115862 -11.030293453215563 0 0 0 0 540.70766294707755 23.365710011697956 0 23.365710011697956 65.996281242660189 0 0 0 0 -70.247608751853477 -191.58122775861557 0 -191.58122775861557 -211.46043544401073 0 0 0 0 433.49193705334062 -141.01530279000872 0 -141.01530279000872 -566.87269965997984 0 0 0 0 0.37506993779205544 -3.3724720428329533 0 -3.3724720428329533 1.6009002338942651 0 0 0 0 -1.5284409943269566 -363.84913976713506 0 -363.84913976713506 362.50062180836903 0 0 0 0 -67.995099198837124 -220.90844853671115 0 -220.90844853671115 77.073917104578868 0 0 0 0 112.98339872420183 -293.09886314950563 0 -293.09886314950563 -118.35902380693733 0 0 0 0 -65.938620574946981 -317.06647546626482 0 -317.06647546626482 82.071570407417312 0 0 0 0 295.15924446344798 -98.100854018743121 0 -98.100854018743121 45.498900956605212 0 0 0 0 485.77171497565087 47.367006767030034 0 47.367006767030034 -125.92664682013856 0 0 0 0 392.07115852190509 -192.9568001475327 0 -192.9568001475327 -42.551867165668227 0 0 0 0 -20.673853775066164 -137.11602286780544 0 -137.11602286780544 -34.882825268130546 0 0 0 0 376.32599098271112 -87.510783050845021 0 -87.510783050845021 -128.58964797500812 0 0 0 0 14.883093572366761 -269.3469525360033 0 -269.3469525360033 -219.81985274540784 0 0 0 0 128.91389758529658 88.330763599064085 0 88.330763599064085 -218.17287738703453 0 0 0 0 3.5089219995656507 -3.7441377121066068 0 -3.7441377121066068 1.2109678400986184 0 0 0 0 481.99030021344743 -47.180234452494915 0 -47.180234452494915 -613.38853731197742 0 0 0 0 146.29384404822849 -318.47354656547395 0 -318.47354656547395 440.41622387734242 0 0 0 0 -34.75188092077633 -255.93663358004778 0 -255.93663358004778 -47.703725105580816 0 0 0 0 99.07466110742098 -228.45214462225704 0 -228.45214462225704 -532.76964654013136 0 0 0 0 -105.88184237699534 -136.82474316675325 0 -136.82474316675325 -174.83011086001352 0 0 0 0 -7.0566135994886281 -122.18073393193117 0 -122.18073393193117 -165.00943175177235 0 0 0 0 7.6021916886330345 -7.105407855413489 0 -7.105407855413489 2.0458540026958048 0 0 0 0 2.1172824625632529 -189.18271688595632 0 -189.18271688595632 -333.0763358268232 0 0 0 0 5.9616167614209274 -7.0134488519574063 0 -7.0134488519574063 2.3047056715454772 0 0 0 0 1.8504975000803974 -3.6953012104462744 0 -3.6953012104462744 1.4356960537178409 0 0 0 0 -153.08706209504362 -167.79895663227217 0 -167.79895663227217 553.57895699346773 0 0 0 0 136.09492463088827 -122.77775720294449 0 -122.77775720294449 -552.40535613131942 0 0 0 0 -90.383883716998298 -85.876490324239057 0 -85.876490324239057 -153.58456107105303 0 0 0 0 88.323849185653216 -203.85121874200559 0 -203.85121874200559 -251.00902521514854 0 0 0 0 170.27665274795254 -64.012470720343117 0 -64.012470720343117 -233.2496934687515 0 0 0 0 30.437633856536991 -41.214277443103811 0 -41.214277443103811 -2.9061385353343212 0 0 0 0 32.554398737784595 -107.74962080524529 0 -107.74962080524529 -137.03493564958626 0 0 0 0 89.279860754466881 -179.30638872183772 0 -179.30638872183772 -72.743678101134719 0 0 0 0 -165.99859654528427 -113.75458413216984 0 -113.75458413216984 161.82636673293018 0 0 0 0 105.73498499908669 -300.91218239665341 0 -300.91218239665341 188.60361813167401 0 0 0 0 14.396277875699525 -40.487482468117378 0 -40.487482468117378 29.361745548027102 0 0 0 0 -120.06184695822776 -1.9350030407949816 0 -1.9350030407949816 47.521917818448856 0 0 0 0 -14.149762992318756 -54.120724224434525 0 -54.120724224434525 -10.910470481106131 0 0 0 0 -174.01844647884445 -135.35152982872751 0 -135.35152982872751 121.45643530182861 0 0 0 0 -57.397919235764675 -188.16060522710904 0 -188.16060522710904 -47.278455968924391 0 0 0 0 -144.38992435697901 -315.98033808444961 0 -315.98033808444961 77.801197664368374 0 0 0 0 -92.714517370388421 -257.89982093638173 0 -257.89982093638173 -31.322802675633284 0 0 0 0 -53.962687122064381 -160.62786128214975 0 -160.62786128214975 198.81121976698341 0 0 0 0 -142.40285691928875 98.027746570660383 0 98.027746570660383 -100.26146195992624 0 0 0 0 38.401425542484503 53.831011256690545 0 53.831011256690545 -122.88073310103209 0 0 0 0 -43.606021134903131 -32.54814503997477 0 -32.54814503997477 55.362704759972985 0 0 0 0 0.16530779800086748 -40.90760170014255 0 -40.90760170014255 -216.84947079361882 0 0 0 0 -2.7933418181586944 -2.4620405873080387 0 -2.4620405873080387 -2.3614886893904838 0 0 0 0 -197.99484634631699 358.75123412777884 0 358.75123412777884 -689.03889433873701 0 0 0 0 46.334594332583947 -101.25022514384182 0 -101.25022514384182 -127.18226518794836 0 0 0 0 38.707305216699751 -191.15160181773717 0 -191.15160181773717 -1170.0025823291508 0 0 0 0 23.203467175597325 13.895529629677185 0 13.895529629677185 25.491150361194741 0 0 0 0 40.529784285561618 -4.8516692216762749 0 -4.8516692216762749 6.9453773266286589 0 0 0 0 39.054638895875541 -16.715722788612766 0 -16.715722788612766 4.7696726733120158 0 0 0 0 -3.5365124519598226 -7.4515174796684391 0 -7.4515174796684391 -7.9814488543690914 0 0 0 0 -59.770069781021448 91.125338903395459 0 91.125338903395459 -81.320990729640471 0 0 0 0 29.422706258133985 -26.424382966390112 0 -26.424382966390112 4.5641603441908956 0 0 0 0 58.772432608046074 -19.281798543697732 0 -19.281798543697732 -62.825059898779728 0 0 0 0 -59.528388746795827 21.504820544469112 0 21.504820544469112 -58.232175620956696 0 0 0 0 24.466902677784674 -7.3112724019156303 0 -7.3112724019156303 -81.390985583391739 0 0 0 0 5.1030810111988103 -11.518873430370149 0 -11.518873430370149 -10.736828507244354 0 0 0 0 61.635742136102635 -91.790610200478113 0 -91.790610200478113 12.529464756975358 0 0 0 0 -13.705107759189559 38.876316418798524 0 38.876316418798524 -90.394563997426303 0 0 0 0 0.38651008990564151 -44.73470621150409 0 -44.73470621150409 133.15088619719609 0 0 0 0 39.497352446080185 -37.695478623318195 0 -37.695478623318195 -17.338718198152492 0 0 0 0 54.866813852335326 -172.82866973208365 0 -172.82866973208365 115.01588846227969 0 0 0 0 -3.0758071272128973 -2.1840692578918066 0 -2.1840692578918066 -1.3007930113066379 0 0 0 0 -57.106410251712077 178.78841536072287 0 178.78841536072287 -71.335765387986612 0 0 0 0 228.71772484562825 -424.90401120896422 0 -424.90401120896422 192.11237038620311 0 0 0 0 25.299637903997791 -42.202692512924841 0 -42.202692512924841 -49.699780448805541 0 0 0 0 114.17990160087356 -122.61333491183177 0 -122.61333491183177 -42.373738921538461 0 0 0 0 94.976533291861415 -88.597292690326867 0 -88.597292690326867 -83.392125016973296 0 0 0 0 -507.37196071844664 -139.23474279681614 0 -139.23474279681614 743.38702815820579 0 0 0 0 1.6514508122008351 -1.3107754491522741 0 -1.3107754491522741 -1.0016845162901689 0 0 0 0 312.5385990062714 76.17805286022849 0 76.17805286022849 -1520.2937661785618 0 0 0 0 656.92556867269741 -116.10797840554005 0 -116.10797840554005 -131.22919023984286 0 0 0 0 -116.09839743875455 -246.14284693234822 0 -246.14284693234822 -497.47422493307386 0 0 0 0 136.39892847146257 62.494621154830384 0 62.494621154830384 -413.80861978288885 0 0 0 0 -172.48815973112141 15.662484058878363 0 15.662484058878363 -416.5897987937642 0 0 0 0 264.20519514461193 -207.43471031461195 0 -207.43471031461195 -494.43593857494125 0 0 0 0 -26.019675339906826 -245.69486768540264 0 -245.69486768540264 -553.24332031863742 0 0 0 0 -66.325744904723251 -323.16582494191243 0 -323.16582494191243 -487.15400981681523 0 0 0 0 387.19350796214712 -192.20991644004971 0 -192.20991644004971 -613.22744685525686 0 0 0 0 16.826252264290815 -220.15537125698756 0 -220.15537125698756 -541.64452897649608 0 0 0 0 167.12769384731655 -15.88622542941448 0 -15.88622542941448 -675.27036125853192 0 0 0 0 -461.57302340591559 78.740410331607563 0 78.740410331607563 -905.18538960916339 0 0 0 0 -15.660099164466374 -325.15072561969282 0 -325.15072561969282 -832.52760128254158 0 0 0 0 134.81012461776845 -122.00297475093976 0 -122.00297475093976 -987.81921947513911 0 0 0 0 -0.8333744195260806 -291.1026784163696 0 -291.1026784163696 -612.41147992439073 0 0 0 0 -110.26938194360264 -261.90805354483382 0 -261.90805354483382 -280.44723252409312 0 0 0 0 -0.69956929204636253 -1171.0710176711109 0 -1171.0710176711109 -2310.7526999066904 0 0 0 0 -774.26543739033514 -870.9158103288064 0 -870.9158103288064 -288.73217226998031 0 0 0 0 -508.77046410003823 -292.03055100888378 0 -292.03055100888378 952.54137035844906 0 0 0 0 -996.90580573159968 -2529.9361710272133 0 -2529.9361710272133 -2903.7835907338213 0 0 0 0 -11.658425271531257 -5.6281350179930598 0 -5.6281350179930598 -2.4544665442650881 0 0 0 0 -241.90601155670447 -2057.4491613828541 0 -2057.4491613828541 -2798.2042523373821 0 0 0 0 -540.01300340346643 -1993.4183844661311 0 -1993.4183844661311 -2602.4317945185758 0 0 0 0 -224.01794096796948 -803.97001166603877 0 -803.97001166603877 -2118.2240656828981 0 0 0 0 -438.29476515630813 -1053.4204717862413 0 -1053.4204717862413 -1.5793540970807953 0 0 0 0 1.2069325874617789 -1351.9998160395007 0 -1351.9998160395007 -1017.4491567759833 0 0 0 0 -855.34285405695846 -1170.9731009442185 0 -1170.9731009442185 1214.7367521640772 0 0 0 0 -94.181953333754791 -147.10804691481462 0 -147.10804691481462 -459.67776186257834 0 0 0 0 427.14675129429088 -459.86953282980539 0 -459.86953282980539 -3230.1640106641034 0 0 0 0 -6.9825290938384228 -7.2663359591909966 0 -7.2663359591909966 -2.1914737529560497 0 0 0 0 6.2786025973618962 -3352.0550084867136 0 -3352.0550084867136 -2877.9599354556412 0 0 0 0 -1303.2103184367443 -1599.3587352536852 0 -1599.3587352536852 711.65934259055939 0 0 0 0 -1063.178311306423 -1433.2529101404361 0 -1433.2529101404361 -1970.2574512943975 0 0 0 0 -6.7109336497603636 -8.891245940206403 0 -8.891245940206403 -2.7121536013512575 0 0 0 0 -602.66950507934962 -2163.0400828881102 0 -2163.0400828881102 -3136.9952444964001 0 0 0 0 -720.6288980654208 -2009.8156109266565 0 -2009.8156109266565 -3295.3106169635357 0 0 0 0 299.81395870851702 -312.00793180396067 0 -312.00793180396067 -1303.5822068989801 0 0 0 0 -57.546531933709048 -72.336755510747025 0 -72.336755510747025 558.06499869492836 0 0 0 0 -20.037263895220519 -10.246089150313708 0 -10.246089150313708 -4.8442455416695367 0 0 0 0 272.70964514346269 -107.82778651989065 0 -107.82778651989065 -390.23558866144595 0 0 0 0 -22.671907623189497 -11.508425403679439 0 -11.508425403679439 -3.6069262542067264 0 0 0 0 -45.053756640423671 -460.81879890624805 0 -460.81879890624805 558.07029880740447 0 0 0 0 -5.6272809025831521 -344.65006222375087 0 -344.65006222375087 790.38525531453342 0 0 0 0 -49.831091912430566 -52.797991585360251 0 -52.797991585360251 658.07499039664981 0 0 0 0 -16.315457044154755 -245.56538449065556 0 -245.56538449065556 815.73418070236221 0 0 0 0 -17.751103335532207 -9.1722600507423806 0 -9.1722600507423806 -2.9641337894601492 0 0 0 0 -13.628503643092699 -66.165208784354036 0 -66.165208784354036 530.44879941565159 0 0 0 0 109.6214323289023 -249.05233581775246 0 -249.05233581775246 549.17928438412491 0 0 0 0 235.4608817993867 -210.34257892081951 0 -210.34257892081951 -157.53183483041357 0 0 0 0 -51.928231982250225 -19.54294753293297 0 -19.54294753293297 -5.2133667243432598 0 0 0 0 -1179.5423603916424 -10.143521757418057 0 -10.143521757418057 469.23953267664183 0 0 0 0 -700.06983653106727 -336.77692804140679 0 -336.77692804140679 614.94460506433097 0 0 0 0 107.35551789330202 -82.647236207725655 0 -82.647236207725655 418.6617769481818 0 0 0 0 -827.58334129856667 -596.40734081238043 0 -596.40734081238043 -1.148337204962445 0 0 0 0 -255.29478483134881 176.19281253613735 0 176.19281253613735 -432.9302505099331 0 0 0 0 -8.5552912414453317 -3.0294802597888406 0 -3.0294802597888406 -1.4989464843608964 0 0 0 0 -311.98379847941396 -699.63423982544919 0 -699.63423982544919 -1438.0040974216772 0 0 0 0 -71.874653059596312 -157.36617279918573 0 -157.36617279918573 -491.30179672136728 0 0 0 0 -193.40744617179735 -460.42383117526333 0 -460.42383117526333 -539.69315725672641 0 0 0 0 -987.49160957148706 -945.57630200688072 0 -945.57630200688072 -347.67331267691043 0 0 0 0 -110.02369463354262 -136.84386673910194 0 -136.84386673910194 -0.093305483969743364 0 0 0 0 -218.38787264372513 -283.31625223779702 0 -283.31625223779702 -165.33045001354185 0 0 0 0 54.670167634030804 43.731958456846769 0 43.731958456846769 -245.77385859075912 0 0 0 0 -26.434528110839892 -78.01645321722026 0 -78.01645321722026 -226.59749614894463 0 0 0 0 -26.425237644402443 -6.147228225144687 0 -6.147228225144687 -0.5169835621294645 0 0 0 0 -54.010244852572214 -59.298289865546394 0 -59.298289865546394 -266.77435054763919 0 0 0 0 -185.5656314920052 -169.1362914604324 0 -169.1362914604324 -228.41387304596719 0 0 0 0 -5.2480761146782129 4.3783694952131498 0 4.3783694952131498 3.8913481041398086 0 0 0 0 -18.634994953205592 -8.9219500028204948 0 -8.9219500028204948 -0.71320558436124415 0 0 0 0 -57.022613013972659 -28.356468923577268 0 -28.356468923577268 -17.225606156294816 0 0 0 0 -19.502207225363236 -110.63292504497804 0 -110.63292504497804 -162.7767310270865 0 0 0 0 -26.621141176019705 -2.4900727333777439 0 -2.4900727333777439 2.4009027520081361 0 0 0 0 -55.053571082375129 99.846373856758873 0 99.846373856758873 -93.247239012998762 0 0 0 0 -127.34199754463043 40.758825843771774 0 40.758825843771774 105.06270785446395 0 0 0 0 -15.884512132339296 -71.972037786632427 0 -71.972037786632427 71.732185339013085 0 0 0 0 -26.838438062171008 38.089304059054029 0 38.089304059054029 58.223749064462027 0 0 0 0 -84.711814219743246 -6.3051001988060307 0 -6.3051001988060307 29.842032337313867 0 0 0 0 74.763532750748709 250.20811249477083 0 250.20811249477083 99.794270566126215 0 0 0 0 -145.86072166512895 -17.060490172276332 0 -17.060490172276332 375.43219294935261 0 0 0 0 -202.19848663394805 -99.23319021089992 0 -99.23319021089992 538.36139199779427 0 0 0 0 -68.904623777321888 -20.878843997884104 0 -20.878843997884104 -5.8070473970432346 0 0 0 0 -161.70504018448992 -130.45471799884399 0 -130.45471799884399 555.77441008515598 0 0 0 0 64.302715548517881 -162.09518788375863 0 -162.09518788375863 136.38815074434387 0 0 0 0 56.083095123230123 -262.52999537650567 0 -262.52999537650567 16.102882396487985 0 0 0 0 34.080768484331202 -140.29047916862328 0 -140.29047916862328 -31.288468979648314 0 0 0 0 -80.197770654689521 -515.16855249962828 0 -515.16855249962828 -198.98040539047361 0 0 0 0 232.50364588946104 -115.53481583385292 0 -115.53481583385292 -702.80036278013722 0 0 0 0 146.65049655777693 -111.82292510646948 0 -111.82292510646948 -188.813991980016 0 0 0 0 27.730642067712324 -0.17889091057804762 0 -0.17889091057804762 -266.04731652518967 0 0 0 0 10.772782441588788 -7.3524638892849907 0 -7.3524638892849907 -15.380567726169829 0 0 0 0 129.31360635065357 10.341007758710475 0 10.341007758710475 5.9052159949860652 0 0 0 0 8.0920886588687608 -3.0922709660890533 0 -3.0922709660890533 -2.1452236188900144 0 0 0 0 12.070752015735707 -9.7844522560586995 0 -9.7844522560586995 -2.3239881335303778 0 0 0 0 85.940081403867225 108.88332930079923 0 108.88332930079923 -192.06758867210738 0 0 0 0 -120.56331836926984 -398.69894644120359 0 -398.69894644120359 -744.28988492554345 0 0 0 0 -48.01354189630365 -214.60495240388263 0 -214.60495240388263 -353.81759847178182 0 0 0 0 -472.52476058335014 -409.46525146954082 0 -409.46525146954082 -167.60389809912886 0 0 0 0 -218.08936105066823 -223.28813584177624 0 -223.28813584177624 686.33572401634592 0 0 0 0 -557.256380711362 -81.212654845658108 0 -81.212654845658108 5.3687426673277514 0 0 0 0 -289.5897496563266 -411.35177740806103 0 -411.35177740806103 264.19035826552863 0 0 0 0 106.4480744136672 -109.9776216611499 0 -109.9776216611499 -932.94714716615999 0 0 0 0 -7.1576142186453922 -2.8087682981235531 0 -2.8087682981235531 -0.95957796321413014 0 0 0 0 31.636817015663837 -326.87874968424876 0 -326.87874968424876 36.934590774362732 0 0 0 0 137.50511657132301 2.215111791563686 0 2.215111791563686 -530.06965789785318 0 0 0 0 6.1084767792880257 -6.4671775439437056 0 -6.4671775439437056 -2.7282391982811873 0 0 0 0 37.182230902340962 -92.57297611048125 0 -92.57297611048125 -553.40145704727183 0 0 0 0 212.43539422874164 -131.3338298525814 0 -131.3338298525814 -967.46465310303756 0 0 0 0 -175.01853896182729 -112.63208950406988 0 -112.63208950406988 268.0506288124925 0 0 0 0 -166.94614640137297 -190.17587119545351 0 -190.17587119545351 -211.30177719476342 0 0 0 0 5.8574861191154923 -96.67824604933412 0 -96.67824604933412 -342.03860453651578 0 0 0 0 144.79969132972474 -62.824178287952236 0 -62.824178287952236 10.39955575112981 0 0 0 0 11.013442947673241 -8.8515668939882062 0 -8.8515668939882062 -2.0110519425506794 0 0 0 0 -155.00048075549421 -50.067944302834803 0 -50.067944302834803 225.02718515429297 0 0 0 0 39.988241458129778 -156.42075554209441 0 -156.42075554209441 26.052347794888192 0 0 0 0 74.107572090171743 -105.12922901545244 0 -105.12922901545244 40.868340112210717 0 0 0 0 61.070698419469409 0.2873255826998502 0 0.2873255826998502 8.033811999761383 0 0 0 0 89.359340461611282 222.18980096864107 0 222.18980096864107 -88.793652445969201 0 0 0 0 -8.4217756798976779 -7.4462947652198608 0 -7.4462947652198608 -8.0215542970789784 0 0 0 0 -21.468974231684115 -150.76317822087003 0 -150.76317822087003 121.17450283050857 0 0 0 0 32.778659951305599 -81.596270473090044 0 -81.596270473090044 -107.13912939168222 0 0 0 0 6.4853252893663011 -98.151134339917917 0 -98.151134339917917 20.045274385774974 0 0 0 0 -15.322344564618106 -73.492657787386634 0 -73.492657787386634 42.488580382298096 0 0 0 0 -9.2121093339519575 -45.7548195296622 0 -45.7548195296622 90.228216253846767 0 0 0 0 -7.0799085210455814 -34.225612640053441 0 -34.225612640053441 96.752585104652098 0 0 0 0 6.837536581070367 -11.669019966092421 0 -11.669019966092421 -1.9435784980142898 0 0 0 0 11.258427442822722 -34.342362481023883 0 -34.342362481023883 63.835380577118485 0 0 0 0 -14.261876301723532 34.253094558865996 0 34.253094558865996 227.13372067404634 0 0 0 0 2.7228657594678225 -35.246640828270756 0 -35.246640828270756 79.671038460051932 0 0 0 0 2.9281259509954225 -1.5879832330496697 0 -1.5879832330496697 -2.3706231097310706 0 0 0 0 -2.1399452858375412 -26.324629202843667 0 -26.324629202843667 -25.606675518671324 0 0 0 0 -13.004103639221285 -112.2853591737512 0 -112.2853591737512 45.990369490817102 0 0 0 0 58.353301659226418 -82.417089061185834 0 -82.417089061185834 46.696673639926303 0 0 0 0 77.683292259578593 -80.25278982429154 0 -80.25278982429154 -119.26949007691292 0 0 0 0 68.681966809555888 -16.25300954488921 0 -16.25300954488921 11.394131254870445 0 0 0 0 42.278875757561764 -56.958773187841871 0 -56.958773187841871 13.652005209791241 0 0 0 0 45.148586758645251 -21.777897286010557 0 -21.777897286010557 11.991890400720877 0 0 0 0 185.92347104928922 -126.77653948660009 0 -126.77653948660009 18.279610276338644 0 0 0 0 1.3701437274178829 -4.2116342023385016 0 -4.2116342023385016 -4.2456136578615613 0 0 0 0 6.6545584113082441 -15.615120171700255 0 -15.615120171700255 -6.5340311257023131 0 0 0 0 -8.9258446143940091 -63.583292114213691 0 -63.583292114213691 37.805155500043838 0 0 0 0 4.1193143641379493 -11.828795498772337 0 -11.828795498772337 -9.2295084021448233 0 0 0 0 -10.972489097242942 -53.104186703676532 0 -53.104186703676532 7.0522879640629981 0 0 0 0 5.7829691738588735 -67.687821831183101 0 -67.687821831183101 31.683897140013869 0 0 0 0 -19.540503051292035 -81.439806643524207 0 -81.439806643524207 25.105998329891008 0 0 0 0 32.415147417261323 -43.055038591093762 0 -43.055038591093762 -18.605254769077874 0 0 0 0 40.885102482279763 -123.58335517859814 0 -123.58335517859814 31.950496376848605 0 0 0 0 -11.210527242934916 -31.633341735406397 0 -31.633341735406397 -15.573567149368813 0 0 0 0 -2.3493875107960775 -59.908836438640719 0 -59.908836438640719 -4.2620552944645169 0 0 0 0 4.727341996418545 -61.195180254071602 0 -61.195180254071602 -5.3023090045462595 0 0 0 0 2.5655698045447934 -53.961478339275345 0 -53.961478339275345 -6.4763726848759688 0 0 0 0 1.9490094415086787 -54.568440648334217 0 -54.568440648334217 -6.2398947460751515 0 0 0 0 0.0236487860820489 -54.46618918456079 0 -54.46618918456079 -5.8717273943475448 0 0 0 0 -7.6667029722157167 -51.701777596128522 0 -51.701777596128522 -6.8120655526581686 0 0 0 0 -4.214991259665112 -57.525659823553724 0 -57.525659823553724 -1.3614510961488122 0 0 0 0 -11.804047872516094 -51.733715257621952 0 -51.733715257621952 -1.4310122956590021 0 0 0 0 -9.2490639290699619 -49.98609835397292 0 -49.98609835397292 -0.6159117491915822 0 0 0 0 -9.9037727419927251 -60.028573396339198 0 -60.028573396339198 4.1392944384570001 0 0 0 0 -6.3844201179308584 -59.955307083961088 0 -59.955307083961088 -4.0798152538809518 0 0 0 0 -21.224278307596066 -32.642490757012325 0 -32.642490757012325 1.8633031505988811 0 0 0 0 -3.8186064557085047 -49.002443262339511 0 -49.002443262339511 9.6657898543417105 0 0 0 0 34.64646616319078 -55.706366631042329 0 -55.706366631042329 -9.5235659524914809 0 0 0 0 -6.9779274221073138 -55.865276428874495 0 -55.865276428874495 0.65515746621531434 0 0 0 0 -5.1189141637005378 -63.541169547868776 0 -63.541169547868776 -1.7766788890730822 0 0 0 0 -24.881875431572553 -41.37173341079324 0 -41.37173341079324 -1.9940807276470878 0 0 0 0 -16.402071589807747 -52.063371921816724 0 -52.063371921816724 7.9342506130778929 0 0 0 0 -50.81171869955142 -43.383785088488366 0 -43.383785088488366 5.7457059595180908 0 0 0 0 -13.673371173223131 -36.053091932233656 0 -36.053091932233656 -13.677111914541456 0 0 0 0 -21.071992950953245 -168.36469131006083 0 -168.36469131006083 -58.71946671846672 0 0 0 0 -63.340703154584844 -32.249682739835407 0 -32.249682739835407 4.0658920321584446 0 0 0 0 -18.893311286177777 -25.675552293585497 0 -25.675552293585497 -0.71693013675394468 0 0 0 0 -28.661704478777239 -25.880139819429004 0 -25.880139819429004 -19.743740163190978 0 0 0 0 27.010452880829689 -85.321926281008928 0 -85.321926281008928 -37.411859751940938 0 0 0 0 63.528251047653612 -49.300261823576875 0 -49.300261823576875 -29.98429925419623 0 0 0 0 -53.291031398519408 -79.274925278092269 0 -79.274925278092269 -12.758876056159352 0 0 0 0 -8.0506760210701032 -70.581243561464362 0 -70.581243561464362 -11.610995076072868 0 0 0 0 -11.831549446476856 -107.16318276536185 0 -107.16318276536185 -101.92719878844218 0 0 0 0 -87.912870800115343 -108.65112732626585 0 -108.65112732626585 -37.421395930461586 0 0 0 0 30.277533039828995 -76.192042615177343 0 -76.192042615177343 -80.838094498874852 0 0 0 0 30.432933297328418 -71.557687342450663 0 -71.557687342450663 -43.529861216782592 0 0 0 0 80.855338291730732 -47.844420307752443 0 -47.844420307752443 -82.38122339284746 0 0 0 0 3.4812415289015917 -50.580325228185757 0 -50.580325228185757 -22.021714077127399 0 0 0 0 122.0528591099137 6.5454332191875437 0 6.5454332191875437 -10.805591872835066 0 0 0 0 -27.820928202505456 -9.9213301865092944 0 -9.9213301865092944 4.461946869676467 0 0 0 0 -18.017438061572761 -9.9997960687489638 0 -9.9997960687489638 8.5807251915179563 0 0 0 0 66.847961657738779 -56.470539746602299 0 -56.470539746602299 -33.243638747044315 0 0 0 0 -6.1547840134589933 -27.03999746266345 0 -27.03999746266345 6.56745636134292 0 0 0 0 5.1292626926442608 -39.679854657704709 0 -39.679854657704709 -0.87174364345992217 0 0 0 0 -59.578387289797149 -42.79601925131999 0 -42.79601925131999 6.0475378367466135 0 0 0 0 10.220488910471957 -17.768171301453648 0 -17.768171301453648 -11.739786011011859 0 0 0 0 44.444884758879198 -51.028629252527026 0 -51.028629252527026 5.4120728823036188 0 0 0 0 -12.697670437432183 -24.381886941105265 0 -24.381886941105265 -3.483667177449945 0 0 0 0 91.168195148515224 -47.085881899049127 0 -47.085881899049127 -38.86526279541431 0 0 0 0 44.163856037675941 -28.670436201256962 0 -28.670436201256962 -10.545855139906053 0 0 0 0 -206.01798906282056 -19.393256706047396 0 -19.393256706047396 89.401836807766813 0 0 0 0 -6.806544551358769 -30.421777791467676 0 -30.421777791467676 -10.425665528347849 0 0 0 0 -8.9784010389015414 0.83842063584509674 0 0.83842063584509674 -1.2289942837189187 0 0 0 0 48.389467411303485 -31.420105051762221 0 -31.420105051762221 -21.846532315044897 0 0 0 0 42.477254092409567 -72.540779551713058 0 -72.540779551713058 -15.706655334826792 0 0 0 0 37.664159855557955 -47.140975000460458 0 -47.140975000460458 -2.2315495318325702 0 0 0 0 6.0957897219632287 -45.987489212187938 0 -45.987489212187938 -1.5857870680665656 0 0 0 0 -5.3197433297127645 -14.127160269587904 0 -14.127160269587904 -8.6504691868610166 0 0 0 0 33.951961937238536 -11.906044758041077 0 -11.906044758041077 -1.1545796797128389 0 0 0 0 59.080473463043745 -98.410198335106543 0 -98.410198335106543 -132.09628867852734 0 0 0 0 8.754527572367806 -89.075736568964203 0 -89.075736568964203 -125.50208035521428 0 0 0 0 31.485032366531016 -31.786283084690893 0 -31.786283084690893 1.3447894915142911 0 0 0 0 -29.43176140479045 -143.48243637540872 0 -143.48243637540872 45.952811978757381 0 0 0 0 -2.2443175094085746 -147.39522297693475 0 -147.39522297693475 -68.828680064267246 0 0 0 0 -74.511800492891552 -29.602263537189259 0 -29.602263537189259 -2.9798067099575718 0 0 0 0 -67.321150747186039 -202.22688994584314 0 -202.22688994584314 203.222876764994 0 0 0 0 -91.730334932130063 -13.88933645169891 0 -13.88933645169891 128.82529267564678 0 0 0 0 -48.30298182995466 -41.559461641008966 0 -41.559461641008966 53.619928888758295 0 0 0 0 -39.395641378476284 -45.080559277397697 0 -45.080559277397697 82.407852212498256 0 0 0 0 -27.075186167683569 -33.348199327359907 0 -33.348199327359907 5.7965836570656393 0 0 0 0 -21.503266520732723 -55.944313543253884 0 -55.944313543253884 80.063900734021445 0 0 0 0 -33.888196796158667 -16.233381221995018 0 -16.233381221995018 21.814120080736984 0 0 0 0 44.286672906077001 32.930154834379209 0 32.930154834379209 -44.131230660597794 0 0 0 0 -23.19839509090674 -32.166842698441201 0 -32.166842698441201 4.5699698159810964 0 0 0 0 -99.730154512653826 -25.664408025957528 0 -25.664408025957528 10.072906626941403 0 0 0 0 -13.009875712956273 -34.070149586885236 0 -34.070149586885236 4.7073259242461063 0 0 0 0 -17.427618948953167 -43.847961732178177 0 -43.847961732178177 -4.6454437080257094 0 0 0 0 1.678912479602559 -51.654747749087861 0 -51.654747749087861 10.237927447161368 0 0 0 0 -20.705981391772795 -24.382441388668838 0 -24.382441388668838 14.365551137493469 0 0 0 0 -25.576051170952269 -35.979380937184033 0 -35.979380937184033 4.093048835908121 0 0 0 0 -14.547113169552176 -18.822449614817742 0 -18.822449614817742 6.0111319329807884 0 0 0 0 -9.4241105995948118 -18.249469982076548 0 -18.249469982076548 -4.3268106074623347 0 0 0 0 2.7109481849042822 -33.993779714842276 0 -33.993779714842276 -32.474076193000656 0 0 0 0 -11.372246235213538 -21.949915547636238 0 -21.949915547636238 8.3913332353482417 0 0 0 0 -15.043155272061995 -18.030304911790154 0 -18.030304911790154 4.7883051601529587 0 0 0 0 -60.787641284696292 40.456097587608383 0 40.456097587608383 6.6547790148324566 0 0 0 0 -20.78205524387544 -9.9891162482905997 0 -9.9891162482905997 5.6579258087519975 0 0 0 0 -23.739912544468552 -12.508391762091648 0 -12.508391762091648 0.91681994817491841 0 0 0 0 -24.105906296681496 -17.284480983682442 0 -17.284480983682442 17.307451512926491 0 0 0 0 -15.610195387329441 -16.293184329304495 0 -16.293184329304495 13.701735507813282 0 0 0 0 -29.762626340227143 -4.4462349781861121 0 -4.4462349781861121 12.120744397716862 0 0 0 0 -10.065887538237263 -11.922549318819449 0 -11.922549318819449 1.1309478832413546 0 0 0 0 5.798697405087097 -5.4961245119890236 0 -5.4961245119890236 0.77230504673989842 0 0 0 0 80.895340783114079 -144.10824617319304 0 -144.10824617319304 365.4862972588453 0 0 0 0 522.60605776034754 -268.80384286336448 0 -268.80384286336448 -78.756016322004143 0 0 0 0 0.046192210484910845 1.5691989494762311 0 1.5691989494762311 2.8142275131288557 0 0 0 0 217.89246524161717 -511.77887445616943 0 -511.77887445616943 -139.68991026339063 0 0 0 0 -1.1481107800075563 2.3534170482137284 0 2.3534170482137284 -1.4810736791287127 0 0 0 0 -4.0161900829116348 -43.61337382802958 0 -43.61337382802958 -0.0064241479412885383 0 0 0 0 -133.60486953588406 -88.406488068838371 0 -88.406488068838371 -63.493308170422097 0 0 0 0 1.7365927035571076 -4.7315522449280252 0 -4.7315522449280252 0.0055827495380071923 0 0 0 0 4.0152017802320188 -11.271528192832193 0 -11.271528192832193 9.1451463827688713 0 0 0 0 -164.08502332343414 343.18718166334293 0 343.18718166334293 -192.39159864406975 0 0 0 0 0.18626719294115901 -7.5584830622829031 0 -7.5584830622829031 1.1984073488711147 0 0 0 0 0.042458933157945467 -5.3768777898040696 0 -5.3768777898040696 -2.4829469344711868 0 0 0 0 -4.3523036555126851 -0.85684948195566335 0 -0.85684948195566335 0.65147505174107323 0 0 0 0 -197.19060915609589 -434.27920167459524 0 -434.27920167459524 -0.51727856311167941 0 0 0 0 -746.87061065678427 506.04948327460443 0 506.04948327460443 -499.98194175217213 0 0 0 0 -1190.1991804091958 429.45338723785244 0 429.45338723785244 -157.10698580706958 0 0 0 0 -521.17794345367292 -319.31318931964051 0 -319.31318931964051 45.185142322472529 0 0 0 0 2.5907745451431197 -2.2240827570347363 0 -2.2240827570347363 -1.1234910179151996 0 0 0 0 0.46192788242095162 -1.5848483356056988 0 -1.5848483356056988 -0.1482389653352385 0 0 0 0 -1250.1991812054257 301.82160430552904 0 301.82160430552904 -406.9975612659473 0 0 0 0 -166.18229581597552 -90.769392129026528 0 -90.769392129026528 87.814055017719511 0 0 0 0 -381.51931211744522 -2.3815293988955091 0 -2.3815293988955091 152.73411385130021 0 0 0 0 -141.13299268607807 89.523411240588757 0 89.523411240588757 177.50582362886053 0 0 0 0 15.43889281891461 -260.48684452644375 0 -260.48684452644375 176.52433225579443 0 0 0 0 1.6028493681155851 -1.1361596127997586 0 -1.1361596127997586 0.2138157842136188 0 0 0 0 -114.59943286093767 -202.13765266626433 0 -202.13765266626433 645.04358712503472 0 0 0 0 13.017519644998174 44.789435715940272 0 44.789435715940272 -124.19254118776007 0 0 0 0 -194.88465078167792 43.978436300851172 0 43.978436300851172 154.76950021637094 0 0 0 0 -72.849996871198528 -102.99088424041838 0 -102.99088424041838 137.40952423590352 0 0 0 0 23.517371092486428 -105.7573838920689 0 -105.7573838920689 -6.2282651480782079 0 0 0 0 -9.0751049924219842 -36.63888075279101 0 -36.63888075279101 -13.058102432580199 0 0 0 0 19.877623998618219 -55.323415729581029 0 -55.323415729581029 -145.72186922115634 0 0 0 0 -10.244542577696848 -66.895327605612692 0 -66.895327605612692 -3.1612884163769195 0 0 0 0 54.110041294014081 -30.628287999439635 0 -30.628287999439635 -116.76009278589845 0 0 0 0 1.4649007210023228 -7.1569935834141489 0 -7.1569935834141489 0.96448943149235333 0 0 0 0 -23.167090675612855 -28.277743943144031 0 -28.277743943144031 -17.292251107157938 0 0 0 0 2.5060699373716488 44.728922812195378 0 44.728922812195378 66.288163754426932 0 0 0 0 -7.2307751106382057 -48.784931073015287 0 -48.784931073015287 17.845558888802771 0 0 0 0 -28.005039364674303 -62.634392644184118 0 -62.634392644184118 41.669344053298119 0 0 0 0 -18.795726748285233 -39.22188233754423 0 -39.22188233754423 18.163988559244899 0 0 0 0 -38.367168600620062 -23.885218088347756 0 -23.885218088347756 15.084102956207062 0 0 0 0 -36.396239112233161 -22.091339121587225 0 -22.091339121587225 16.714695645088796 0 0 0 0 -9.851061343199575 -9.4352743734478111 0 -9.4352743734478111 -0.11963140823985441 0 0 0 0 -55.65016270633987 -4.331945674400913 0 -4.331945674400913 5.7657552214659518 0 0 0 0 -87.90141519847748 -2.4309752106464657 0 -2.4309752106464657 5.741867199758417 0 0 0 0 -57.438552893807355 -27.860483436576033 0 -27.860483436576033 26.646510349779419 0 0 0 0 -6.4076748188963393 -14.957780942357203 0 -14.957780942357203 15.969127183838282 0 0 0 0 -158.11331542150947 129.92750953909308 0 129.92750953909308 -9.0858371922658989 0 0 0 0 -9.0962859278607766 -2.8267708113492631 0 -2.8267708113492631 -0.16350651060545829 0 0 0 0 -1.7912110638098966 -10.713494716441346 0 -10.713494716441346 2.8482816508912947 0 0 0 0 -4.9393266447150381 -7.250895721197594 0 -7.250895721197594 2.9135896583611611 0 0 0 0 -10.642539850246976 -10.140381324759801 0 -10.140381324759801 4.2873061441532627 0 0 0 0 -7.0288619845100015 -7.6509038485791621 0 -7.6509038485791621 -2.5517336141307112 0 0 0 0 -0.15898004559858236 -8.3708961532975081 0 -8.3708961532975081 -0.00022273618378676474 0 0 0 0 1.3383670769471792 -30.009548605259624 0 -30.009548605259624 -0.98833233295590617 0 0 0 0 22.122306254714204 -19.651446461706655 0 -19.651446461706655 -1.9766218910954194 0 0 0 0 -11.595577910873544 -25.151142574666665 0 -25.151142574666665 9.7055038206744939 0 0 0 0 -14.643639609930688 -12.885528949118452 0 -12.885528949118452 2.7309681695260224 0 0 0 0 -3.0792932471226067 1.5619453237267606 0 1.5619453237267606 0.72922982872353259 0 0 0 0 -10.215504398249323 -11.280339958728291 0 -11.280339958728291 0.0064356305229011923 0 0 0 0 -2.0903224806814293 -5.8916001411487997 0 -5.8916001411487997 6.3279090528150164 0 0 0 0 -7.7560918292801944 -14.927231299021514 0 -14.927231299021514 8.9813817096146522 0 0 0 0 -0.44167373589880299 -19.020141392022197 0 -19.020141392022197 3.3134047922649188 0 0 0 0 -21.004291883771657 -15.755607604092802 0 -15.755607604092802 14.220701797101356 0 0 0 0 -6.6306229246519877 -9.6508797345786377 0 -9.6508797345786377 -3.8426150882784214 0 0 0 0 -35.497137243655743 1.7444764342653798 0 1.7444764342653798 1.8024137714601238 0 0 0 0 -6.9437045566264715 -22.528693722524622 0 -22.528693722524622 2.016333261562977 0 0 0 0 -36.831606260384433 -34.76832732935145 0 -34.76832732935145 19.607367057004012 0 0 0 0 -2.7578118764977262 -6.8857409186421137 0 -6.8857409186421137 3.8697818218497559 0 0 0 0 1.2850184008153605 -13.865003468859996 0 -13.865003468859996 6.4685183646046767 0 0 0 0 13.69844519986691 -5.2103056500345701 0 -5.2103056500345701 -18.289312244160101 0 0 0 0 15.599737228272716 -18.301896647019021 0 -18.301896647019021 -74.810603710910073 0 0 0 0 -56.920820097235264 6.420051578534185 0 6.420051578534185 5.0946918959161849 0 0 0 0 2.8408102786976315 -2.8162107491477144 0 -2.8162107491477144 -0.75100157494159703 0 0 0 0 -88.217001144876122 -26.375530549281393 0 -26.375530549281393 21.307401127978665 0 0 0 0 0.32732858385134023 -117.15865196354571 0 -117.15865196354571 -65.952604901800441 0 0 0 0 -20.503131503202894 -39.06601160216087 0 -39.06601160216087 4.840040047216462 0 0 0 0 -16.085722415082273 -61.962033368909033 0 -61.962033368909033 15.117696407440235 0 0 0 0 -45.91188761642843 -70.505587557723629 0 -70.505587557723629 -46.541047258098843 0 0 0 0 7.7746987081686143 -20.202269921352439 0 -20.202269921352439 -12.150116121492829 0 0 0 0 -41.174780515981183 -55.279046047680822 0 -55.279046047680822 -48.944443401996978 0 0 0 0 -33.772789968124016 -40.138788234715648 0 -40.138788234715648 -6.9882318819656746 0 0 0 0 -69.251997271530854 -61.214190863916883 0 -61.214190863916883 -25.48194615211105 0 0 0 0 -16.209270035134978 -42.532740959621151 0 -42.532740959621151 -17.450250847730786 0 0 0 0 -16.727391463701878 -25.431805074735536 0 -25.431805074735536 -15.721274190699745 0 0 0 0 -16.856264820289653 -36.092706010484108 0 -36.092706010484108 -20.063719575831783 0 0 0 0 -4.2963590490726347 -29.943036654982279 0 -29.943036654982279 -20.843364012427628 0 0 0 0 -13.987595194106689 -47.649515953286027 0 -47.649515953286027 -6.8471874712704448 0 0 0 0 -3.675445736688701 -20.786787314652599 0 -20.786787314652599 1.4771023892169524 0 0 0 0 -18.24077519463026 -53.859960418238188 0 -53.859960418238188 -15.252735709704211 0 0 0 0 -24.450906146761554 -44.353494530405442 0 -44.353494530405442 24.632853958195483 0 0 0 0 -25.510582031716353 -30.123421803537909 0 -30.123421803537909 -20.936761481361771 0 0 0 0 -3.4036850272785726 -34.532537458806132 0 -34.532537458806132 -28.303116060938919 0 0 0 0 -3.4016417136735981 -26.669368977571139 0 -26.669368977571139 -11.411430839143577 0 0 0 0 -8.7927508272405248 -40.469702291724388 0 -40.469702291724388 -9.8640515395090915 0 0 0 0 -9.8590612557454733 -46.310036270551791 0 -46.310036270551791 -25.086637748139765 0 0 0 0 3.0894995592338006 -24.061239166186851 0 -24.061239166186851 -13.564114695653075 0 0 0 0 -34.543865978521353 -44.150770237327379 0 -44.150770237327379 -11.473000375583069 0 0 0 0 -3.1695173019252252 -40.197322478677961 0 -40.197322478677961 -11.69390281829692 0 0 0 0 -12.713457970534364 -42.28726343935341 0 -42.28726343935341 -10.313432613940677 0 0 0 0 -7.9530043585400563 -47.824229468802514 0 -47.824229468802514 -7.3034892936411779 0 0 0 0 -3.3257920485630166 -50.12820387960528 0 -50.12820387960528 -9.5428658284363337 0 0 0 0 -1.4122322307230206 -46.614155335788382 0 -46.614155335788382 -4.7400291409576312 0 0 0 0 1.0450983676273609 -46.270031282270793 0 -46.270031282270793 -7.1882997666107258 0 0 0 0 -31.940657880957588 -42.764769563451409 0 -42.764769563451409 -10.955485818965826 0 0 0 0 5.8552542177898204 -25.71946276449728 0 -25.71946276449728 -0.40879676253109665 0 0 0 0 3.7654924699745607 -44.061482531338697 0 -44.061482531338697 -9.559839967841981 0 0 0 0 -35.068734833166673 -40.944027638186526 0 -40.944027638186526 -10.102898146840744 0 0 0 0 -41.495283713156823 -33.902989820344374 0 -33.902989820344374 -4.7691848627691797 0 0 0 0 -29.725516033358872 -34.859531582798809 0 -34.859531582798809 -18.630390633014031 0 0 0 0 -35.822898075843113 -39.919376445061062 0 -39.919376445061062 -3.3055673554772511 0 0 0 0 -51.221817381796427 -53.247877176974725 0 -53.247877176974725 -6.7394673045155287 0 0 0 0 -9.2200392835692639 -18.309347029086268 0 -18.309347029086268 2.6596739340722593 0 0 0 0 -32.663690733276241 -28.620953344180691 0 -28.620953344180691 16.698987124333875 0 0 0 0 -6.2503125745122361 -26.510918888553419 0 -26.510918888553419 -21.522053856192315 0 0 0 0 10.107163067116531 -17.860900148140246 0 -17.860900148140246 -5.1993348597711702 0 0 0 0 -39.762100178966648 -46.328672077030205 0 -46.328672077030205 -9.8145472716714721 0 0 0 0 -87.796729799141758 -74.829766511145863 0 -74.829766511145863 -37.542818734946195 0 0 0 0 -9.670761567059543 -9.5056285447883226 0 -9.5056285447883226 13.379582259313196 0 0 0 0 -23.657561632237048 -30.388992819003761 0 -30.388992819003761 -7.9334773267328274 0 0 0 0 -41.104645659695962 -57.349231736690854 0 -57.349231736690854 -13.384826457438976 0 0 0 0 -42.484427223529565 -53.368985640921892 0 -53.368985640921892 -14.521287123701768 0 0 0 0 -7.0266892724097829 -19.849887190284022 0 -19.849887190284022 11.099564654601465 0 0 0 0 2.0418632553331975 -22.988950136055678 0 -22.988950136055678 -4.434163752297593 0 0 0 0 -40.683404761904967 -44.809641708110576 0 -44.809641708110576 -11.364082502688689 0 0 0 0 -44.738231640149024 -44.612675772448711 0 -44.612675772448711 -17.917488508392125 0 0 0 0 -24.314505708345678 -27.609705259841576 0 -27.609705259841576 -10.05775351995544 0 0 0 0 -35.716155180205533 -46.417477616203541 0 -46.417477616203541 -12.838073484890629 0 0 0 0 -367.80858740364783 -211.51310607058258 0 -211.51310607058258 -0.14191524260968436 0 0 0 0 -121.53102175914682 -160.74409036409634 0 -160.74409036409634 60.346478562343691 0 0 0 0 -67.969942568039187 -45.507012700588348 0 -45.507012700588348 122.0457842911128 0 0 0 0 -74.324371747126861 -83.795590414711114 0 -83.795590414711114 36.750889326329343 0 0 0 0 -442.34361729219199 55.786051735281035 0 55.786051735281035 62.211234232730931 0 0 0 0 -2.1336587828568838 -3.0855429302927533 0 -3.0855429302927533 -8.0322660709615548 0 0 0 0 32.359885675919941 87.940106475551147 0 87.940106475551147 -94.319218178789015 0 0 0 0 98.700439522039233 -25.564678953656767 0 -25.564678953656767 -303.93559601365996 0 0 0 0 93.40898218665825 -230.3697879167139 0 -230.3697879167139 -268.26349317609856 0 0 0 0 69.323258353295387 -245.14730093296384 0 -245.14730093296384 27.721004380000522 0 0 0 0 227.01098246089532 -76.522651413280983 0 -76.522651413280983 -509.24516278689407 0 0 0 0 -536.13388153436244 43.00752467356142 0 43.00752467356142 516.80300359375542 0 0 0 0 -31.697397290969946 -8.2262474467272853 0 -8.2262474467272853 36.900198383767716 0 0 0 0 -43.787033887259895 -40.316520084743388 0 -40.316520084743388 14.149312741119502 0 0 0 0 -14.828472413006239 -47.982965603121556 0 -47.982965603121556 0.34058572282083333 0 0 0 0 -4.6743909009140765 -14.662567215593924 0 -14.662567215593924 24.377782863393179 0 0 0 0 -37.728279934293823 -37.567858128488297 0 -37.567858128488297 0.23489046140457503 0 0 0 0 -32.446603978325555 -24.64133063789069 0 -24.64133063789069 19.893786407047926 0 0 0 0 1.326551835446665 -13.039924318512988 0 -13.039924318512988 -4.670693403883547 0 0 0 0 9.0088859161769506 -32.353690715273842 0 -32.353690715273842 -6.0713196249562316 0 0 0 0 12.185644313585726 -37.728962985881481 0 -37.728962985881481 -8.4647445126392995 0 0 0 0 7.686096579869627 -39.985755419926136 0 -39.985755419926136 -0.91893439186242176 0 0 0 0 15.072194461472435 -24.257679892363001 0 -24.257679892363001 2.4219101179723737 0 0 0 0 22.537541320518358 -61.895447407849133 0 -61.895447407849133 -36.948514369840268 0 0 0 0 -3.1721585139415396 -22.585852368068579 0 -22.585852368068579 11.91200139847686 0 0 0 0 -15.161522769543808 -43.212651089786959 0 -43.212651089786959 -1.4815708923470083 0 0 0 0 10.872790384382824 -13.758237582311267 0 -13.758237582311267 1.062639043906529 0 0 0 0 72.130327481640052 -98.709042677004618 0 -98.709042677004618 18.603721186547773 0 0 0 0 0.65982128358771774 -8.168908069405532 0 -8.168908069405532 -13.275767299854351 0 0 0 0 -0.80994522247934242 -12.340368269876578 0 -12.340368269876578 -12.40025724986657 0 0 0 0 237.27276203733891 129.75136821337992 0 129.75136821337992 -130.94297099484538 0 0 0 0 2.7569128813669863 -2.0613855911891363 0 -2.0613855911891363 1.4903624646094897 0 0 0 0 132.17714719739161 -201.5200652556523 0 -201.5200652556523 199.14898141719459 0 0 0 0 183.66340225795284 -136.50118783517064 0 -136.50118783517064 84.538731494307285 0 0 0 0 119.80057605628099 -154.40166037735435 0 -154.40166037735435 34.244180710433284 0 0 0 0 44.353355861647287 10.462674515438266 0 10.462674515438266 -20.748176002467517 0 0 0 0 1.9900829036526204 -10.013255833754954 0 -10.013255833754954 -3.2031801077535818 0 0 0 0 16.5022827407156 -26.466734674213512 0 -26.466734674213512 -12.473408939200453 0 0 0 0 41.034099285898264 -14.248725553210534 0 -14.248725553210534 -16.968769077007892 0 0 0 0 -82.986467916663969 -111.97355661116308 0 -111.97355661116308 29.198524240186089 0 0 0 0 228.86097477341536 -105.69115162207163 0 -105.69115162207163 13.122791586458334 0 0 0 0 -0.33813747952511619 -1.1634028603231741 0 -1.1634028603231741 -0.78920135830779259 0 0 0 0 36.159946256462717 -98.574681078294816 0 -98.574681078294816 39.376027182181133 0 0 0 0 65.409992865548702 -49.343823466770118 0 -49.343823466770118 111.16781887655816 0 0 0 0 37.141558858551434 -12.470926118586249 0 -12.470926118586249 27.526495127065573 0 0 0 0 198.85755337044247 -72.326299074862618 0 -72.326299074862618 9.7422934009955497 0 0 0 0 24.543953141168458 -103.34883219523908 0 -103.34883219523908 38.416910454783647 0 0 0 0 105.83705605957948 -158.36578233482578 0 -158.36578233482578 29.449941700593627 0 0 0 0 -0.47717125620661704 -4.5456278692955081 0 -4.5456278692955081 -10.242247045421237 0 0 0 0 -74.956257300029392 -29.939042288249766 0 -29.939042288249766 -5.0943206377851311 0 0 0 0 178.5346248728838 -168.60879033996844 0 -168.60879033996844 5.914684077622951 0 0 0 0 -66.400600162112823 -48.86993839625211 0 -48.86993839625211 0.97149101580725983 0 0 0 0 -146.58853095967788 -31.687393008127401 0 -31.687393008127401 2.5916731866891496 0 0 0 0 -237.68018349488557 -83.166753626384889 0 -83.166753626384889 43.675977937007929 0 0 0 0 -152.30808345263358 -83.615349457752018 0 -83.615349457752018 43.654790128450259 0 0 0 0 -149.62411917740246 -82.193724320051842 0 -82.193724320051842 35.16378814476775 0 0 0 0 -106.242373258312 -97.919892143690959 0 -97.919892143690959 35.306422283265533 0 0 0 0 -162.58797687645711 -104.63658987087547 0 -104.63658987087547 82.924808813084383 0 0 0 0 -308.30715684055758 -79.23555330652016 0 -79.23555330652016 88.176807935087709 0 0 0 0 -117.1973834723176 -121.46368951888871 0 -121.46368951888871 158.31669934838283 0 0 0 0 -186.10681744484464 16.107868022765615 0 16.107868022765615 0.93983389150525909 0 0 0 0 -194.68822577901301 -70.117450620713498 0 -70.117450620713498 48.520228328372468 0 0 0 0 -66.571897486719536 -9.386433364241384 0 -9.386433364241384 6.353034493571613 0 0 0 0 -39.938492111949017 -102.74930617918289 0 -102.74930617918289 -6.7325844411971048 0 0 0 0 -159.4025855238724 -91.134304701408837 0 -91.134304701408837 37.352748455617984 0 0 0 0 -138.3971112184081 -145.34636056821182 0 -145.34636056821182 -18.880388530349592 0 0 0 0 -33.318672169123602 -85.146517799174035 0 -85.146517799174035 11.333889901026851 0 0 0 0 -15.04370855432353 -89.807993000536953 0 -89.807993000536953 -42.150648884591646 0 0 0 0 107.75426310922194 85.970670465270814 0 85.970670465270814 -15.614584349865254 0 0 0 0 -242.86554254549992 -228.20081940758246 0 -228.20081940758246 -78.939766703020723 0 0 0 0 -469.55513749705278 -17.348107011559478 0 -17.348107011559478 31.495131036324892 0 0 0 0 -55.007940146417241 125.47745197897893 0 125.47745197897893 51.185005586423358 0 0 0 0 -212.15957581652037 -254.91347100337043 0 -254.91347100337043 144.60985108571185 0 0 0 0 76.360168617538875 -111.33281871032523 0 -111.33281871032523 -199.7922009144022 0 0 0 0 11.140288232073772 -15.388429620468486 0 -15.388429620468486 24.26489791455532 0 0 0 0 -24.922509548050584 -46.266926368032728 0 -46.266926368032728 -6.9042220024712151 0 0 0 0 -24.587032237614039 -54.778109339415096 0 -54.778109339415096 -22.476669376839709 0 0 0 0 1.9998350660799531 -25.72327941226726 0 -25.72327941226726 13.490269885001396 0 0 0 0 -42.858109368135047 -53.041635820383817 0 -53.041635820383817 -20.469674543768633 0 0 0 0 115.44594656808476 -72.424744879655918 0 -72.424744879655918 -29.78413184825331 0 0 0 0 -7.8021369057618699 -10.726197239126833 0 -10.726197239126833 -11.302086358158903 0 0 0 0 -28.191703241443435 -40.069456021562537 0 -40.069456021562537 -22.208595928154722 0 0 0 0 23.444902252395565 -21.727502452123247 0 -21.727502452123247 -29.494093952145548 0 0 0 0 -42.838606714190973 -124.00943372613619 0 -124.00943372613619 -17.568860155006405 0 0 0 0 -10.768020748080744 -125.7157147364087 0 -125.7157147364087 -80.244424996511952 0 0 0 0 4.8387559877737658 -165.85483222724724 0 -165.85483222724724 -361.14545034262119 0 0 0 0 7.7761523970671078 -5.3107973252753879 0 -5.3107973252753879 -4.2060765352712792 0 0 0 0 -170.18578663525113 -153.57053501477276 0 -153.57053501477276 51.379381579892652 0 0 0 0 -32.457883373372454 -73.624418719423545 0 -73.624418719423545 -48.956698658428145 0 0 0 0 -6.6817071203396665 -15.887374253246492 0 -15.887374253246492 8.7327805186747867 0 0 0 0 -35.101753402908798 -38.692391646582109 0 -38.692391646582109 -132.86189992372601 0 0 0 0 -16.161851240200008 -65.268166629714955 0 -65.268166629714955 -59.186948771528016 0 0 0 0 94.577555006573675 8.1204584669212636 0 8.1204584669212636 -162.45607224901323 0 0 0 0 17.333878764591645 -217.69031479746263 0 -217.69031479746263 -463.36636032653769 0 0 0 0 20.944908379904518 -152.63520151821558 0 -152.63520151821558 -66.789686687741778 0 0 0 0 -30.604075355673558 -132.12525744081358 0 -132.12525744081358 -16.758949495306297 0 0 0 0 28.571332360515953 -110.19645015545757 0 -110.19645015545757 -23.039371902686071 0 0 0 0 -74.195894607226364 -47.19577793047938 0 -47.19577793047938 -33.266003908152925 0 0 0 0 -21.453037744640824 -40.135201275209369 0 -40.135201275209369 -41.321789838337239 0 0 0 0 35.029126917230315 -94.878347756472067 0 -94.878347756472067 -42.382320205407268 0 0 0 0 -40.473059920848755 -41.39213483272033 0 -41.39213483272033 -1.3096038623261848 0 0 0 0 -84.923503603989957 -74.926611479539133 0 -74.926611479539133 -24.060662782700092 0 0 0 0 -19.541101970629811 -53.087435856645016 0 -53.087435856645016 -22.975720787131564 0 0 0 0 133.92332325875759 -122.00259602778533 0 -122.00259602778533 -9.9963336045766482 0 0 0 0 -17.150039282550011 -39.263680894937174 0 -39.263680894937174 -39.723301455471756 0 0 0 0 -33.890049189649289 -82.664927783247549 0 -82.664927783247549 28.187567660854256 0 0 0 0 4.2796532574138837 -87.641278662318655 0 -87.641278662318655 22.187720403278945 0 0 0 0 179.21278363750841 -95.783383202565787 0 -95.783383202565787 -52.207810538355261 0 0 0 0 179.28882418041758 -121.10304052810534 0 -121.10304052810534 -164.13525405278779 0 0 0 0 -0.23004744511985109 -1.0747201035715364 0 -1.0747201035715364 -4.246837837275848 0 0 0 0 167.84649095795612 -12.475780263590423 0 -12.475780263590423 -56.374978308725986 0 0 0 0 204.51446068683435 -51.241971636798553 0 -51.241971636798553 -113.72443919356738 0 0 0 0 79.278398338268744 -79.117078234659857 0 -79.117078234659857 -3.6933696585692815 0 0 0 0 112.44002685690066 -43.549099794181529 0 -43.549099794181529 -70.680339640617603 0 0 0 0 -9.9915094324058487 -8.9266121472787461 0 -8.9266121472787461 -8.6318737087113391 0 0 0 0 -58.414988735647057 -65.548796425428009 0 -65.548796425428009 -65.147898562107002 0 0 0 0 -20.097038042532404 -43.423908077991342 0 -43.423908077991342 -14.961322303889801 0 0 0 0 -35.576565799099626 -71.093446103499446 0 -71.093446103499446 4.3310109424637631 0 0 0 0 -4.1538682835234795 -42.576806552482594 0 -42.576806552482594 -5.892088063294068 0 0 0 0 -18.270177043268419 -39.658472072771389 0 -39.658472072771389 -9.5771930528892426 0 0 0 0 -23.780119253779787 -52.42127149087878 0 -52.42127149087878 7.299485639708962 0 0 0 0 -17.59366948142997 -58.246460226218915 0 -58.246460226218915 -7.5857502742928773 0 0 0 0 -12.058399308429216 -44.77384415268898 0 -44.77384415268898 10.848493014980704 0 0 0 0 -28.309272971237078 -73.380914453024161 0 -73.380914453024161 -3.3924609432124271 0 0 0 0 -33.210820696753217 -59.957295380012511 0 -59.957295380012511 6.3698285028658574 0 0 0 0 -26.240054478505044 -67.768140882602893 0 -67.768140882602893 10.480421363987261 0 0 0 0 -24.754373703588499 -83.545633008845471 0 -83.545633008845471 10.070264654652306 0 0 0 0 -23.820491964004759 -68.346217371404236 0 -68.346217371404236 -6.7168028629675973 0 0 0 0 -26.21702530492621 -79.407682479766663 0 -79.407682479766663 3.1718927201068254 0 0 0 0 7.5882721858672539 -38.837459711602889 0 -38.837459711602889 18.022707745725285 0 0 0 0 -5.4255019871851289 -37.859708326035729 0 -37.859708326035729 -16.146926132235564 0 0 0 0 12.388635196930409 -71.127672345524843 0 -71.127672345524843 -8.4561451985791791 0 0 0 0 -1.0438874066903168 -59.756472829813703 0 -59.756472829813703 -24.006002408283777 0 0 0 0 -0.63995544200588483 -88.839639946509124 0 -88.839639946509124 138.51991713262396 0 0 0 0 -40.417480243530008 -147.6316535458991 0 -147.6316535458991 81.181422164567266 0 0 0 0 147.4031748285197 -184.30132815012803 0 -184.30132815012803 29.097305547147698 0 0 0 0 -34.595200005802326 -108.94270244329527 0 -108.94270244329527 -27.861908703584049 0 0 0 0 24.133903406611353 -55.101815427552054 0 -55.101815427552054 56.155306809007953 0 0 0 0 -105.10107732009783 -107.97589602759035 0 -107.97589602759035 60.278087984235754 0 0 0 0 -48.119200267282736 -38.278531731309549 0 -38.278531731309549 -0.91135846561444112 0 0 0 0 -68.056284118065378 -33.034183295818366 0 -33.034183295818366 93.856152806663886 0 0 0 0 -5.4167325808302849 -58.475133814310539 0 -58.475133814310539 66.301451733896101 0 0 0 0 5.5917391918283101 0.028737577913943824 0 0.028737577913943824 15.997669063450303 0 0 0 0 -40.865023948434327 -25.316561210479897 0 -25.316561210479897 -14.918212496695332 0 0 0 0 13.425313885323703 -23.195580182433332 0 -23.195580182433332 -53.025541525130393 0 0 0 0 -8.9339990457665408 -101.30602107372761 0 -101.30602107372761 31.952837211822043 0 0 0 0 -23.248051416936505 -81.30203391572104 0 -81.30203391572104 6.1718630667382968 0 0 0 0 -12.871055567840813 -94.185606413608184 0 -94.185606413608184 19.571122702109278 0 0 0 0 -44.427532882022206 -63.881962226478208 0 -63.881962226478208 30.265880325232501 0 0 0 0 -34.036451731735724 -85.10787696371699 0 -85.10787696371699 73.239693998504663 0 0 0 0 -101.20739197547664 -31.824953436858777 0 -31.824953436858777 50.111438870171696 0 0 0 0 -0.54473696235342572 0.57464029934575933 0 0.57464029934575933 0.85392121449706337 0 0 0 0 -10.857893052016152 -85.015822555171326 0 -85.015822555171326 79.849333839018072 0 0 0 0 151.57348061719495 -77.588155450615886 0 -77.588155450615886 12.237295929677202 0 0 0 0 32.588618748122826 -46.073192568110244 0 -46.073192568110244 -2.1689608636224875 0 0 0 0 19.112460193224251 -45.152395928413171 0 -45.152395928413171 6.683761498570675 0 0 0 0 15.445380095756263 -34.688344369656988 0 -34.688344369656988 -8.6132186430731963 0 0 0 0 -4.3843002080206475 -17.577631928767495 0 -17.577631928767495 -18.160718126059237 0 0 0 0 -11.299889521978912 -40.247307065281348 0 -40.247307065281348 -6.2280494634469505 0 0 0 0 -34.212473948064144 -24.632602640900586 0 -24.632602640900586 1.7881352729309583 0 0 0 0 -36.158687317449221 -44.108765565538761 0 -44.108765565538761 5.1304256299772533 0 0 0 0 -29.237421535822193 -24.102806439025368 0 -24.102806439025368 -16.255592418585479 0 0 0 0 -7.4068993654265967 -7.036206846246273 0 -7.036206846246273 0.24080263663915957 0 0 0 0 10.098601509365835 -47.068440835930232 0 -47.068440835930232 -3.600587829023425 0 0 0 0 -19.480950151584466 -27.38153188166584 0 -27.38153188166584 -21.596508839621706 0 0 0 0 -26.113755650605029 -35.577834181466898 0 -35.577834181466898 -6.1046342739247734 0 0 0 0 -8.942031918981229 -77.032679146708688 0 -77.032679146708688 -62.494251819363853 0 0 0 0 -63.386398590817407 -28.625603363578193 0 -28.625603363578193 39.267422875636839 0 0 0 0 -0.0078534995882364456 -29.58959091090037 0 -29.58959091090037 -0.83544505370082334 0 0 0 0 26.251569372456288 -97.167997134347388 0 -97.167997134347388 17.742322779948154 0 0 0 0 -11.050424150795152 -38.271588002931821 0 -38.271588002931821 8.6795981254908838 0 0 0 0 -11.084480429606629 -43.517689967055048 0 -43.517689967055048 0.28705804998753592 0 0 0 0 -11.669397753047548 -35.277312760821147 0 -35.277312760821147 7.6357446390336747 0 0 0 0 -1.5090425830567256 -69.531514758971753 0 -69.531514758971753 31.735526096410467 0 0 0 0 67.510556041250311 -69.954938495812712 0 -69.954938495812712 9.1920181016175775 0 0 0 0 20.459386855668413 -43.444569210567295 0 -43.444569210567295 -3.3204770742977416 0 0 0 0 23.763249643368908 -67.476449752432018 0 -67.476449752432018 21.040076562829199 0 0 0 0 0.51148584911118178 -24.588644035940781 0 -24.588644035940781 -10.919611972733492 0 0 0 0 8.2232755041331984 -25.452041017619194 0 -25.452041017619194 19.048257294489304 0 0 0 0 21.863424207214848 -62.634960032388335 0 -62.634960032388335 18.364844605639519 0 0 0 0 3.8051949386353954 -53.008469497333863 0 -53.008469497333863 -10.960931270266883 0 0 0 0 7.6802170787632065 -25.984433523249635 0 -25.984433523249635 -12.198513006609794 0 0 0 0 -4.6384984118481043 -10.004460596297683 0 -10.004460596297683 10.925728025285935 0 0 0 0 -31.752056314551737 -47.862112772359978 0 -47.862112772359978 44.141566041915212 0 0 0 0 -14.715820153185632 -53.632580624220282 0 -53.632580624220282 28.110516583023127 0 0 0 0 -13.565638345248942 -34.395231927611292 0 -34.395231927611292 7.8444374282814238 0 0 0 0 9.794454191433033 -54.486081446484604 0 -54.486081446484604 11.763590617090813 0 0 0 0 7.726820019915067 -31.378565811428274 0 -31.378565811428274 12.751517819991179 0 0 0 0 109.5399435764557 -70.697582228265674 0 -70.697582228265674 -16.813667697962956 0 0 0 0 -1.2349132191021539 -6.0073667377761808 0 -6.0073667377761808 -1.009261654880504 0 0 0 0 -63.617601634248786 -53.79755812008716 0 -53.79755812008716 7.9457429093163228 0 0 0 0 65.982731868250994 -56.274808199501422 0 -56.274808199501422 4.5246341258462053 0 0 0 0 -14.545764404290821 -43.11225456928878 0 -43.11225456928878 -36.204346496786457 0 0 0 0 -14.0840485127992 -46.319592843174178 0 -46.319592843174178 -13.945543746143812 0 0 0 0 -2.646081113780383 -21.459399644576479 0 -21.459399644576479 -16.182008432915609 0 0 0 0 -9.9631898013958562 -30.918697008348317 0 -30.918697008348317 7.2975677461072337 0 0 0 0 -11.752117590575381 -19.524856558977461 0 -19.524856558977461 8.6321144086520718 0 0 0 0 0.93200875000893291 -22.754181590835202 0 -22.754181590835202 1.9342131172814447 0 0 0 0 -16.382506216905313 -44.561446203468222 0 -44.561446203468222 3.9498698284951388 0 0 0 0 -13.201686590778991 -42.126840734177676 0 -42.126840734177676 5.5682533454382792 0 0 0 0 12.05639851696202 -29.141717483830575 0 -29.141717483830575 -7.2342155666865011 0 0 0 0 -20.347143102611881 -51.110568665899336 0 -51.110568665899336 78.134672201784269 0 0 0 0 2.235197300746222 -43.516189002002648 0 -43.516189002002648 -34.135054190966912 0 0 0 0 0.73687914799745613 -3.1375331537908409 0 -3.1375331537908409 11.13800527078331 0 0 0 0 0.3201990831294097 -42.360576092309202 0 -42.360576092309202 6.667937166075717 0 0 0 0 14.568692922941409 -50.328439716278808 0 -50.328439716278808 0.65766821237048134 0 0 0 0 -10.383584714981339 -21.481412562258107 0 -21.481412562258107 -6.3376410207632148 0 0 0 0 -3.4743766644230618 -23.076813034856059 0 -23.076813034856059 -0.55275834452665862 0 0 0 0 2.0123035100714333 -41.408001517498633 0 -41.408001517498633 10.043867734624655 0 0 0 0 -22.905538276332663 -35.319363047983643 0 -35.319363047983643 -42.564799009662238 0 0 0 0 -7.947920037608128 -48.573847931431374 0 -48.573847931431374 -51.114840044174343 0 0 0 0 -1.7318919021345209 -72.007342493947363 0 -72.007342493947363 -12.552528641019308 0 0 0 0 7.7899312339068274 -47.404133585347154 0 -47.404133585347154 -61.689502352761338 0 0 0 0 9.3447017096914351 -62.760479706092156 0 -62.760479706092156 37.608182705118452 0 0 0 0 -15.387477470326303 -17.856480639497683 0 -17.856480639497683 -6.2990104788378574 0 0 0 0 3.4048994991317159 1.8802504193918139 0 1.8802504193918139 -107.37367787696712 0 0 0 0 58.287548164451437 -30.98369376291339 0 -30.98369376291339 -29.358813451588503 0 0 0 0 69.991348348026804 -0.21508849261226715 0 -0.21508849261226715 -106.55303524904593 0 0 0 0 -38.485202306532301 -24.542404763677041 0 -24.542404763677041 41.442323145895443 0 0 0 0 2.4606832680917705 -9.5268486279417033 0 -9.5268486279417033 -5.4238054132785862 0 0 0 0 -4.7283920791378478 -8.7334241132921306 0 -8.7334241132921306 20.941618445467611 0 0 0 0 5.7134731966493177 -11.475175081768271 0 -11.475175081768271 1.3389806831333431 0 0 0 0 5.1857750109338667 -20.0989896837782 0 -20.0989896837782 10.496072018875566 0 0 0 0 -7.0585589899274055 -23.323343408526853 0 -23.323343408526853 8.615082014388463 0 0 0 0 3.8638330990361283 -11.766180108110632 0 -11.766180108110632 2.3856079968868187 0 0 0 0 -2.7883073546399828 -5.4086676113452086 0 -5.4086676113452086 10.855461864644894 0 0 0 0 0.24356381736288313 -21.458244603800267 0 -21.458244603800267 6.5659442879405105 0 0 0 0 -11.055928894231329 -21.573474935441482 0 -21.573474935441482 3.28487042992856 0 0 0 0 -18.482735260447953 -16.302569488434528 0 -16.302569488434528 7.2643467219095328 0 0 0 0 -30.303858531508013 -23.725103449905873 0 -23.725103449905873 8.100874025619305 0 0 0 0 -11.17633331604884 -27.846563987868649 0 -27.846563987868649 8.6639684459951241 0 0 0 0 -31.840700463973917 -30.874052196886623 0 -30.874052196886623 15.109756766796636 0 0 0 0 -9.9057634837008663 -44.819438483213162 0 -44.819438483213162 18.477787973955856 0 0 0 0 5.9469544090388808 -30.57787705499868 0 -30.57787705499868 5.5813508841383737 0 0 0 0 -17.97850921319332 -32.845472473029076 0 -32.845472473029076 6.711877543173614 0 0 0 0 15.983555914661338 -45.075359138046451 0 -45.075359138046451 2.9715766304871067 0 0 0 0 -4.6062797896156553 -48.162792209604959 0 -48.162792209604959 6.4580527193611488 0 0 0 0 -2.979780303518055 -43.194241012250131 0 -43.194241012250131 6.6860256563682015 0 0 0 0 0.30067406936723273 -48.288348886133463 0 -48.288348886133463 6.2042770492262207 0 0 0 0 23.408367659896612 -56.420507776187151 0 -56.420507776187151 9.0553156634923653 0 0 0 0 -18.839191503953771 -56.228152632036654 0 -56.228152632036654 36.98368282415322 0 0 0 0 -66.936318633233896 -31.355257290590089 0 -31.355257290590089 31.421142075872922 0 0 0 0 -9.8134913364699514 -33.806794004285791 0 -33.806794004285791 18.580116787663428 0 0 0 0 -24.721862242637144 -30.449939830337826 0 -30.449939830337826 1.5662060973991174 0 0 0 0 -31.642235613770026 0.010804022624142817 0 0.010804022624142817 -24.974074332865712 0 0 0 0 -73.350010224035941 -95.859863799869345 0 -95.859863799869345 93.830893626523903 0 0 0 0 -29.526343749586204 -22.371967817014244 0 -22.371967817014244 -11.829383190958993 0 0 0 0 -4.8973617484880378 -48.707537388754645 0 -48.707537388754645 103.86875162844808 0 0 0 0 3.7957812545355409 -58.132941303916596 0 -58.132941303916596 50.305351422448439 0 0 0 0 -98.798497945917916 -76.277375685018342 0 -76.277375685018342 107.45165578561136 0 0 0 0 -122.03368694728124 14.810348648461513 0 14.810348648461513 70.672210288525093 0 0 0 0 -10.069685902722995 -186.77270463073728 0 -186.77270463073728 433.23074720032309 0 0 0 0 -119.56906583577802 -157.62889915471533 0 -157.62889915471533 484.05178383926977 0 0 0 0 -297.32406849125982 -46.653837597150414 0 -46.653837597150414 480.58473039283126 0 0 0 0 92.205944497371092 -392.04093490006926 0 -392.04093490006926 730.26546438610967 0 0 0 0 121.32400366922957 -76.635579380908894 0 -76.635579380908894 82.122766170403338 0 0 0 0 -16.559262589929858 -31.600283725776535 0 -31.600283725776535 207.39388101867371 0 0 0 0 113.52909712393739 -159.13600152575236 0 -159.13600152575236 159.02838612680353 0 0 0 0 335.79515993081441 -513.92421273951913 0 -513.92421273951913 543.59546044572926 0 0 0 0 -370.03955734512056 198.27424991881162 0 198.27424991881162 108.72440248942439 0 0 0 0 -2.4795857990097261 -0.65398435810206479 0 -0.65398435810206479 6.1460433248162758 0 0 0 0 -126.07407362665981 325.99902361010754 0 325.99902361010754 346.31366437665929 0 0 0 0 -2.4008650618685863 1.2990900067397888 0 1.2990900067397888 12.672036935735804 0 0 0 0 -78.651064502484587 15.773286718842428 0 15.773286718842428 -63.452401468894095 0 0 0 0 278.76762624285766 -262.94314511555058 0 -262.94314511555058 184.61277708178932 0 0 0 0 180.31960861602056 -89.524147148854354 0 -89.524147148854354 222.3900374392615 0 0 0 0 139.94294102207641 -133.62566808024712 0 -133.62566808024712 172.77968976156262 0 0 0 0 -166.12730596910114 -0.48501385078634485 0 -0.48501385078634485 42.839569587056758 0 0 0 0 14.968098462675698 -2.7150775231057196 0 -2.7150775231057196 20.182579528474889 0 0 0 0 -20.83133470339817 -10.985999156634534 0 -10.985999156634534 -6.7401551624643616 0 0 0 0 -4.0536797282367161 1.6196919544558028 0 1.6196919544558028 21.643040267439972 0 0 0 0 -63.974332633777522 -32.639193466562574 0 -32.639193466562574 85.095606540460722 0 0 0 0 -18.618483645851768 -18.627254323142473 0 -18.627254323142473 -8.3654752862425283 0 0 0 0 65.928852786280913 -185.08494083749974 0 -185.08494083749974 144.37516557512572 0 0 0 0 3.6906815198018421 -0.42490075306163533 0 -0.42490075306163533 2.4382443365265942 0 0 0 0 165.14915034615842 -274.18510363643145 0 -274.18510363643145 185.32122286722006 0 0 0 0 327.69340854708571 423.28215748645016 0 423.28215748645016 457.35386686040874 0 0 0 0 105.22756565114832 -262.90416548433132 0 -262.90416548433132 251.86973855571705 0 0 0 0 72.794474597409135 -223.88591057623853 0 -223.88591057623853 210.33473430271988 0 0 0 0 236.97290471855013 -180.36142813664264 0 -180.36142813664264 4.9850485588758602 0 0 0 0 -1.06892474849883 -57.8992619381861 0 -57.8992619381861 520.62841000831395 0 0 0 0 5.3079438868837201 -4.2708397682187069 0 -4.2708397682187069 2.6176560371565074 0 0 0 0 -351.94524781155633 -629.41711127455346 0 -629.41711127455346 821.25310687621095 0 0 0 0 -47.701895120117115 1.5542405966225488 0 1.5542405966225488 22.417168607309577 0 0 0 0 135.53776468521392 -156.55526442336395 0 -156.55526442336395 62.773460712924134 0 0 0 0 147.62527916427644 -240.81897231722905 0 -240.81897231722905 123.26701062647044 0 0 0 0 70.124523294740357 -132.47486859647688 0 -132.47486859647688 178.77586689464079 0 0 0 0 52.337229927725275 -44.40895597276176 0 -44.40895597276176 21.338822048761358 0 0 0 0 -47.455985290274839 1.4050940005427037 0 1.4050940005427037 79.738210211049591 0 0 0 0 0.22038555124890991 19.802852935932606 0 19.802852935932606 28.778821414438426 0 0 0 0 36.902933353121625 -8.1854443582706153 0 -8.1854443582706153 68.860527613800514 0 0 0 0 19.043364877186832 -24.548771899982967 0 -24.548771899982967 53.959962155757239 0 0 0 0 -10.200526628814259 8.0528230217896635 0 8.0528230217896635 20.838707033341052 0 0 0 0 1.6542725653997081 -2.0706423192057173 0 -2.0706423192057173 -3.2898245543697158 0 0 0 0 -0.0025886821531457826 -8.7746844244138629 0 -8.7746844244138629 -4.2503170005393258 0 0 0 0 -5.2048810952428397 -12.62474997870325 0 -12.62474997870325 10.364417646131983 0 0 0 0 -52.776812703003088 -15.572307858868044 0 -15.572307858868044 29.334908385593735 0 0 0 0 -50.522812042967416 25.460969704672607 0 25.460969704672607 11.879760700787301 0 0 0 0 -61.447958179021953 -69.407483364186191 0 -69.407483364186191 26.13936417345667 0 0 0 0 6.7194700701364809 -11.762767326365235 0 -11.762767326365235 10.449132049393427 0 0 0 0 -61.827129752608016 -2.5608651864386047 0 -2.5608651864386047 11.322469514518161 0 0 0 0 1.8361199583596317 -8.379748665032821 0 -8.379748665032821 -4.1689304429073673 0 0 0 0 -1.3897742375267654 -6.997061806840577 0 -6.997061806840577 -7.3019330801672595 0 0 0 0 -0.0041936578927561641 -5.8657460469912621 0 -5.8657460469912621 -2.7126625945675187 0 0 0 0 11.414365494740196 -31.402769887024078 0 -31.402769887024078 -32.500317851343425 0 0 0 0 9.635111249415786 62.892894938668178 0 62.892894938668178 19.059918177576037 0 0 0 0 168.55232616483408 -183.19550711388365 0 -183.19550711388365 222.74099817419483 0 0 0 0 -1.9352552405585612 -3.295029074836151 0 -3.295029074836151 -1.3121033434578635 0 0 0 0 -11.967524524225155 -6.8817203409125796 0 -6.8817203409125796 -2.7101823818338744 0 0 0 0 36.119923926194133 -741.8252191179181 0 -741.8252191179181 411.2824867349118 0 0 0 0 0.10969354916647944 1.1909244940744586 0 1.1909244940744586 1.6543301010890872 0 0 0 0 47.276983278261469 -120.67141559678021 0 -120.67141559678021 426.90282974881848 0 0 0 0 2.682231978145353 2.6808096591720414 0 2.6808096591720414 -1.0225652783613768 0 0 0 0 19.860207900652313 42.090538504831784 0 42.090538504831784 -39.010373235945735 0 0 0 0 8.6897904814686626 -6.8088851735228673 0 -6.8088851735228673 -34.543888103096833 0 0 0 0 -3.4486179246007671 -357.1974844612256 0 -357.1974844612256 264.38611724496877 0 0 0 0 26.407115686160068 -49.114739787253939 0 -49.114739787253939 3.5485844768554671 0 0 0 0 10.73179093010549 -313.05975647974446 0 -313.05975647974446 324.18475760176807 0 0 0 0 3.8787640146993567 0.99052303631840033 0 0.99052303631840033 0.51164056385927381 0 0 0 0 1.5438510746898828 -12.525543692998326 0 -12.525543692998326 14.154739365912974 0 0 0 0 23.681948341574753 -4.2102740164918941 0 -4.2102740164918941 -36.760251175059238 0 0 0 0 11.663537286833161 -14.145331068881205 0 -14.145331068881205 9.2375663413367874 0 0 0 0 -17.839639936479216 -13.708083704505043 0 -13.708083704505043 10.461545571059105 0 0 0 0 -7.4156275932255653 -7.1505381721730146 0 -7.1505381721730146 4.2589098534431287 0 0 0 0 -3.2845647760186694 -9.5439467345167941 0 -9.5439467345167941 21.675889580459625 0 0 0 0 -4.1876439220370401 -2.1977975044303832 0 -2.1977975044303832 9.8831950923024863 0 0 0 0 -3.8681884502293542 -18.493498750627623 0 -18.493498750627623 58.48666069227329 0 0 0 0 8.517925662221387 -14.15101560583571 0 -14.15101560583571 13.110129410837544 0 0 0 0 5.3558773512851872 0.12868407254785552 0 0.12868407254785552 0.29278273649975972 0 0 0 0 12.881315566279227 -16.059121491904079 0 -16.059121491904079 -8.0546424637905147 0 0 0 0 -5.25497274252848 -4.7706417111658084 0 -4.7706417111658084 9.0178753295476781 0 0 0 0 -6.098875333151426 -8.9931043183674149 0 -8.9931043183674149 0.52046880538478035 0 0 0 0 5.8124442197295139 -17.760594620314805 0 -17.760594620314805 -1.0192480581899872 0 0 0 0 0.31726358632585061 -11.24565368433187 0 -11.24565368433187 4.5484645618555533 0 0 0 0 -31.112531239166856 35.475093010296405 0 35.475093010296405 -36.799723090602129 0 0 0 0 14.721085867466172 -51.346766110815224 0 -51.346766110815224 -35.351956177670218 0 0 0 0 0.75780027212118739 -9.8605634276124761 0 -9.8605634276124761 -5.6891696574555084 0 0 0 0 -5.0529253505519591 -15.481758908732445 0 -15.481758908732445 19.639748218061868 0 0 0 0 11.114778876188211 31.71292639661624 0 31.71292639661624 -106.88071520482481 0 0 0 0 -6.570537991296078 -5.0820024294774129 0 -5.0820024294774129 6.0868334033366978 0 0 0 0 -34.407328119268641 2.3745405080262572 0 2.3745405080262572 -71.328764335521555 0 0 0 0 0.64466762827913726 -1.2544546439807789 0 -1.2544546439807789 -1.0968746015552568 0 0 0 0 13.393790279369568 -22.008226537654991 0 -22.008226537654991 4.3513627924548928 0 0 0 0 11.374682914669393 -22.5946872633358 0 -22.5946872633358 15.81949807221099 0 0 0 0 10.978206377760216 -20.478587582361797 0 -20.478587582361797 4.5298008038953412 0 0 0 0 4.539993763784878 -18.809768414124846 0 -18.809768414124846 6.0271984473038174 0 0 0 0 20.590758808481041 -22.411742751370184 0 -22.411742751370184 3.9048855329310754 0 0 0 0 -0.074445506266783923 -2.772628839535173 0 -2.772628839535173 16.818036604810914 0 0 0 0 16.960816775139392 -5.2245843127293483 0 -5.2245843127293483 7.0665514723514207 0 0 0 0 14.613116302716662 -8.6675077112595318 0 -8.6675077112595318 2.0726054933184059 0 0 0 0 0.025492860167891356 -13.605683363247477 0 -13.605683363247477 -8.1938467302825302 0 0 0 0 5.8258166867599357 -3.5816418853137293 0 -3.5816418853137293 -0.3856901564868167 0 0 0 0 9.683300413802499 -22.027100353210699 0 -22.027100353210699 5.6157923125429079 0 0 0 0 -0.35279877000721171 -11.336270037547365 0 -11.336270037547365 2.0402471691777464 0 0 0 0 38.955979559905245 -261.93831837543257 0 -261.93831837543257 -346.5314010852444 0 0 0 0 -3.6932048671733355 -153.94564152568273 0 -153.94564152568273 -231.84750335602075 0 0 0 0 -0.068893084586306941 -268.26020175963004 0 -268.26020175963004 -383.7982651965649 0 0 0 0 44.315815939073218 -202.00884984722052 0 -202.00884984722052 -567.81438476864423 0 0 0 0 -61.796068682553596 -225.15611541501312 0 -225.15611541501312 -356.68903082966335 0 0 0 0 9.5228217914627749 -264.10251618267012 0 -264.10251618267012 -519.05329963620534 0 0 0 0 -14.197413633111864 -292.52377957690351 0 -292.52377957690351 -445.78667033373131 0 0 0 0 -61.723970730810834 -239.45888903049399 0 -239.45888903049399 -327.66929719098334 0 0 0 0 33.49365303957893 -270.19738166354364 0 -270.19738166354364 -318.34174453543437 0 0 0 0 -28.902053364650783 -202.23456896410426 0 -202.23456896410426 -166.37291378810187 0 0 0 0 69.960500596760539 -264.11837467742771 0 -264.11837467742771 -139.9981514946594 0 0 0 0 -55.40393260178098 -279.66147102014838 0 -279.66147102014838 -143.3974073245372 0 0 0 0 -27.637762732570991 -195.05603175314172 0 -195.05603175314172 -131.61329671462227 0 0 0 0 -85.264137425416266 -139.41293486824907 0 -139.41293486824907 67.746298037862289 0 0 0 0 0.12121982142525667 -297.68749913703596 0 -297.68749913703596 29.698972894628241 0 0 0 0 -17.689867130717175 -175.20602042902556 0 -175.20602042902556 58.434238962217933 0 0 0 0 181.87592179083731 -200.99204112670122 0 -200.99204112670122 60.298237525828881 0 0 0 0 -37.470761813179706 -164.40502139477258 0 -164.40502139477258 108.41251238863333 0 0 0 0 36.743286799697671 -180.3578086436828 0 -180.3578086436828 108.11549914796245 0 0 0 0 0.09844299775431864 -270.34450297565127 0 -270.34450297565127 -135.55628062066171 0 0 0 0 -0.10929924952506553 -269.41681270357367 0 -269.41681270357367 322.88138247950701 0 0 0 0 131.41861693807004 -300.16275752221009 0 -300.16275752221009 324.4738618617157 0 0 0 0 -17.816319019482762 -161.73548347431824 0 -161.73548347431824 388.68335932776245 0 0 0 0 -13.384243201984702 -126.55034712028734 0 -126.55034712028734 119.51562229320552 0 0 0 0 29.557283977992483 56.993758786029503 0 56.993758786029503 301.88448899169089 0 0 0 0 -13.281269172225109 -150.58833255440226 0 -150.58833255440226 461.22347790169442 0 0 0 0 1.2327017182701638 2.8288817845489973 0 2.8288817845489973 -0.62357472844943374 0 0 0 0 -1.3451336591679137 -22.758761538418185 0 -22.758761538418185 -29.892311640454864 0 0 0 0 -0.026096660518749436 -9.1512755219730781 0 -9.1512755219730781 5.4254399114579428 0 0 0 0 3.6916155809784641 -1.3913757681605148 0 -1.3913757681605148 -1.570310498723984 0 0 0 0 -4.1837655812239376 -0.9768907039454291 0 -0.9768907039454291 8.0330119076799917 0 0 0 0 29.820867023838218 20.940952668584941 0 20.940952668584941 -51.364367356552975 0 0 0 0 -38.720967628061771 26.359403766291507 0 26.359403766291507 180.42257863582199 0 0 0 0 -5.0006567218224518 -3.6248405906662811 0 -3.6248405906662811 3.4675105927999539 0 0 0 0 -7.4632842477745811 -7.041849766773197 0 -7.041849766773197 6.7737577596396363 0 0 0 0 -4.0006524486718149 0.1124989192280168 0 0.1124989192280168 5.1713302397516117 0 0 0 0 0.78966894080346606 -5.5200999778832909 0 -5.5200999778832909 3.3842455958745035 0 0 0 0 -6.5615828703199526 -10.309389557026691 0 -10.309389557026691 11.287044235928789 0 0 0 0 -10.788519227542565 -20.526515497960645 0 -20.526515497960645 9.3076365771412384 0 0 0 0 -49.229119117619121 19.421137382527377 0 19.421137382527377 -3.1408806969120633 0 0 0 0 -20.424172975952388 -14.655931688379496 0 -14.655931688379496 13.642510916848551 0 0 0 0 -11.107399468324729 -14.375808010918263 0 -14.375808010918263 4.8407904457562836 0 0 0 0 -3.6021271916903856 -0.38832980768188463 0 -0.38832980768188463 2.0549894311616725 0 0 0 0 -22.851977241283748 -19.241925339432782 0 -19.241925339432782 35.209268524682557 0 0 0 0 0.0045789483962114528 -37.125692198308151 0 -37.125692198308151 3.7818818277301034 0 0 0 0 -15.204482199886115 20.783881062925502 0 20.783881062925502 35.773695777323155 0 0 0 0 41.682468130486086 3.3194920147834637 0 3.3194920147834637 -61.029714567193878 0 0 0 0 -2.7853558780446974 1.4191035009600341 0 1.4191035009600341 -0.83511827922320236 0 0 0 0 -3.9223906462721061 24.471222331427271 0 24.471222331427271 -10.248121977292612 0 0 0 0 -29.008907826901122 18.031669806164246 0 18.031669806164246 -11.76104066883272 0 0 0 0 -36.563741057958396 1.8907286505709635 0 1.8907286505709635 24.537934807522106 0 0 0 0 -53.041993959923275 -11.639086568946368 0 -11.639086568946368 6.8153549768430821 0 0 0 0 -34.048048867989564 -26.572760803959682 0 -26.572760803959682 -15.899703623124879 0 0 0 0 -10.16234974309981 2.6641127028888434 0 2.6641127028888434 1.0921394448913873 0 0 0 0 -33.009166176634608 -34.571866192552079 0 -34.571866192552079 -20.205189348591375 0 0 0 0 -34.398151827299444 -34.851337001498905 0 -34.851337001498905 9.175014483385894 0 0 0 0 -72.991745212755632 28.751532116046292 0 28.751532116046292 35.556338117640166 0 0 0 0 -51.343344608889311 -23.718719186617818 0 -23.718719186617818 37.953376755318459 0 0 0 0 -1.0612609067637209 -1.6362864925044676 0 -1.6362864925044676 3.7926886819588503 0 0 0 0 -99.908979090949288 -41.661570194784872 0 -41.661570194784872 249.64415416214615 0 0 0 0 -36.484607875507209 -253.41123749869257 0 -253.41123749869257 298.97577960305352 0 0 0 0 -98.292904473712952 -37.15099435577622 0 -37.15099435577622 89.194922888775181 0 0 0 0 -106.63655473387917 -143.88060668103935 0 -143.88060668103935 133.1157175516737 0 0 0 0 -70.017704861485981 -57.907108670187881 0 -57.907108670187881 42.064722607956355 0 0 0 0 -87.864819324298878 -117.93102914266274 0 -117.93102914266274 3.9667794390043127 0 0 0 0 -74.890289791801479 -126.0334694567573 0 -126.0334694567573 -6.131752154105925 0 0 0 0 -64.745986487556365 -98.758411364801759 0 -98.758411364801759 28.596871633737464 0 0 0 0 -97.229403196601197 -72.011235221209063 0 -72.011235221209063 40.407597935016383 0 0 0 0 -99.770906516088871 -77.322708942097961 0 -77.322708942097961 76.307902378812287 0 0 0 0 -46.457248988168431 -75.298222540586721 0 -75.298222540586721 -70.222849976926227 0 0 0 0 -48.651775281017763 -56.404153388211853 0 -56.404153388211853 -45.294882827118272 0 0 0 0 -17.61792776598304 -97.736823491763062 0 -97.736823491763062 -178.48259726677497 0 0 0 0 -45.494656237788149 -166.40441792778802 0 -166.40441792778802 -24.775474853471678 0 0 0 0 2.5671324415210961 0.05143399889909972 0 0.05143399889909972 -0.49662632015146357 0 0 0 0 234.34594069854938 -83.155480833665933 0 -83.155480833665933 -112.81875138086616 0 0 0 0 -52.178952438145643 -152.56142012526107 0 -152.56142012526107 -209.87334225511222 0 0 0 0 -140.34760663795169 29.133792637694569 0 29.133792637694569 172.50875464131241 0 0 0 0 93.808640324830776 -63.334050013429078 0 -63.334050013429078 -207.79252577574061 0 0 0 0 33.081114885419083 -254.6303875134563 0 -254.6303875134563 83.867379658360733 0 0 0 0 87.369662251890986 -210.23333274016295 0 -210.23333274016295 -218.07436000436428 0 0 0 0 121.65092615506728 -151.70961115586397 0 -151.70961115586397 -432.65304334055691 0 0 0 0 2.62678016374565 0.54235968261700407 0 0.54235968261700407 -0.50075500457700883 0 0 0 0 -37.568582992913434 -12.893075231815601 0 -12.893075231815601 -255.56263311662042 0 0 0 0 40.694975461694412 -135.47066052476293 0 -135.47066052476293 -161.14138179249494 0 0 0 0 126.93523363511486 -207.01107175250763 0 -207.01107175250763 -5.2825996947358362 0 0 0 0 17.962726181707694 -80.812538343321648 0 -80.812538343321648 -121.33721057609364 0 0 0 0 43.534692799294135 -69.221585557899743 0 -69.221585557899743 -115.56245496603515 0 0 0 0 158.38463012587454 -64.757443547094226 0 -64.757443547094226 -115.83107539992488 0 0 0 0 4.4653423026461496 -5.5994023395855379 0 -5.5994023395855379 8.0190274342023713 0 0 0 0 -47.415080182247038 -176.3989222460641 0 -176.3989222460641 203.9656019934846 0 0 0 0 -42.627388500521192 12.957857540262921 0 12.957857540262921 221.1441186811544 0 0 0 0 371.63879931363044 13.80325337380782 0 13.80325337380782 -166.54378687587086 0 0 0 0 60.813426902714127 -696.77134095783777 0 -696.77134095783777 -248.68113516914309 0 0 0 0 -159.29948532770504 -274.61601051377329 0 -274.61601051377329 -240.21822724474623 0 0 0 0 -185.42150286779361 -359.81403624682889 0 -359.81403624682889 -214.92260865076241 0 0 0 0 -169.47777058996144 -325.84682589384465 0 -325.84682589384465 -253.05433961338622 0 0 0 0 -218.80929942953662 -257.03102574303739 0 -257.03102574303739 -278.26312664467332 0 0 0 0 -106.65355524714687 -251.37373374079925 0 -251.37373374079925 -235.22750523931609 0 0 0 0 -87.880194288802159 -273.97809570149366 0 -273.97809570149366 -282.06200918373361 0 0 0 0 -35.904883842667914 -293.18109146816278 0 -293.18109146816278 -314.4257693175623 0 0 0 0 58.606074430150329 -114.54855802976545 0 -114.54855802976545 -153.71267945794534 0 0 0 0 -85.627880407693738 -119.5238324246684 0 -119.5238324246684 -13.506949931666895 0 0 0 0 -69.414041143027134 -233.43454309671142 0 -233.43454309671142 -39.633286296408187 0 0 0 0 -64.902403629181208 -278.57003762833119 0 -278.57003762833119 -210.99754406922648 0 0 0 0 -51.866576258587884 -258.64913166157203 0 -258.64913166157203 -243.30673334807034 0 0 0 0 -20.122332115774043 -183.49446532120237 0 -183.49446532120237 -205.46053175768247 0 0 0 0 -75.471590996108716 -286.52659302493339 0 -286.52659302493339 -279.57014092333702 0 0 0 0 -55.253641924333351 -249.66784310314779 0 -249.66784310314779 -310.79921853260021 0 0 0 0 -75.761466168100014 -288.32072552245518 0 -288.32072552245518 -315.90556890992912 0 0 0 0 -15.179698432431906 -246.91970393489464 0 -246.91970393489464 -309.89487504074714 0 0 0 0 -65.160615306987893 -269.74464457328759 0 -269.74464457328759 -306.25056959022777 0 0 0 0 -39.141695726968464 -284.79245340160469 0 -284.79245340160469 -402.33661609904811 0 0 0 0 -90.265865351175307 -281.04525364082292 0 -281.04525364082292 -391.66294642624052 0 0 0 0 -76.445500709727639 -241.68598600470068 0 -241.68598600470068 -427.70232748523358 0 0 0 0 -67.594710606819717 -271.35103053644525 0 -271.35103053644525 -393.0776052629808 0 0 0 0 49.666333933506394 -110.72177280907545 0 -110.72177280907545 -389.46629532489897 0 0 0 0 -82.215056007160456 -286.68146877267645 0 -286.68146877267645 -411.526187404143 0 0 0 0 57.83584753028947 5.2217499853033189 0 5.2217499853033189 -57.606021984455843 0 0 0 0 -112.04528579855105 -244.42671978983344 0 -244.42671978983344 -403.27959538775303 0 0 0 0 -115.72900198539719 -291.95904898316076 0 -291.95904898316076 -259.36975921674912 0 0 0 0 -176.98185689964521 -275.07318746308101 0 -275.07318746308101 -278.49402121578532 0 0 0 0 -180.39675830140914 -262.76947190709689 0 -262.76947190709689 -313.55125307045819 0 0 0 0 65.472686157055108 -6.7905061731233047 0 -6.7905061731233047 -43.293175901720538 0 0 0 0 -134.16534473391948 -296.73577946207297 0 -296.73577946207297 -288.73606851187287 0 0 0 0 -88.754655322423787 -256.43299954857684 0 -256.43299954857684 -335.34280399594718 0 0 0 0 -89.350976800327771 -284.2155539771029 0 -284.2155539771029 -338.86752390913898 0 0 0 0 -109.25383222129312 -228.19513427292986 0 -228.19513427292986 -165.54172420356008 0 0 0 0 64.178966276202118 -270.21053048994509 0 -270.21053048994509 -462.362763422032 0 0 0 0 21.657787811155728 3.1793123197921602 0 3.1793123197921602 -0.060570564358016554 0 0 0 0 103.51754428031563 10.535065448897512 0 10.535065448897512 -235.50004567699943 0 0 0 0 1.8602320467070967 -139.93117737859711 0 -139.93117737859711 -420.77481349829759 0 0 0 0 67.354965479986276 -175.23351784272381 0 -175.23351784272381 -431.99197782332521 0 0 0 0 1.1009738599118464 -66.625525910005749 0 -66.625525910005749 39.291524275578311 0 0 0 0 -155.3024256842109 -419.51511577954534 0 -419.51511577954534 -565.10027219645508 0 0 0 0 11.197568661054049 -71.404442157143734 0 -71.404442157143734 39.608523256929715 0 0 0 0 -123.99249479168793 -434.43035910925846 0 -434.43035910925846 -753.11748395874474 0 0 0 0 49.20021570532117 -449.34466779856393 0 -449.34466779856393 -913.70641074785817 0 0 0 0 21.081543618142859 -73.092460374822394 0 -73.092460374822394 39.717995366634497 0 0 0 0 26.255083185084004 -252.96101031226726 0 -252.96101031226726 -412.57809499656287 0 0 0 0 -63.390373993723188 -76.09213784990061 0 -76.09213784990061 -257.21450996467684 0 0 0 0 40.09801114948641 -190.8952530893439 0 -190.8952530893439 -160.91463462721367 0 0 0 0 3.3830307478183386 -156.09890891460213 0 -156.09890891460213 -115.32736546081287 0 0 0 0 -19.556738271116046 -249.27375613980985 0 -249.27375613980985 -178.35742698962804 0 0 0 0 41.09697425956702 -32.023133693307898 0 -32.023133693307898 26.092722719768616 0 0 0 0 33.479711944039991 28.661376776798534 0 28.661376776798534 -4.6622766428117757 0 0 0 0 480.32365956573631 -103.72445549749318 0 -103.72445549749318 -152.57103748527516 0 0 0 0 11.700617366334882 -11.997830736801689 0 -11.997830736801689 -42.503834197879769 0 0 0 0 54.810061647176497 -44.610430242104485 0 -44.610430242104485 20.14515660426332 0 0 0 0 23.02253262315935 18.131992613365583 0 18.131992613365583 -50.661748031669049 0 0 0 0 192.86906402921886 -163.64893157323604 0 -163.64893157323604 -150.27675122949586 0 0 0 0 24.67565892675163 -2.2023557343552227 0 -2.2023557343552227 -84.430713644392029 0 0 0 0 -420.68468741842662 -330.7321553278889 0 -330.7321553278889 -205.2041700105583 0 0 0 0 -1.8564433734451704 -1.348931758594432 0 -1.348931758594432 -50.052289699128778 0 0 0 0 -1159.2849036350963 -529.96201209927494 0 -529.96201209927494 -79.440867955225258 0 0 0 0 32.621800282548065 -122.32995155461322 0 -122.32995155461322 -36.50047235976308 0 0 0 0 161.25193657621276 -304.69459871628715 0 -304.69459871628715 -929.88360654211283 0 0 0 0 497.0481120825807 202.60385390123179 0 202.60385390123179 -420.73617398680653 0 0 0 0 -1841.0629722362646 -597.24274891512323 0 -597.24274891512323 294.85507538761703 0 0 0 0 1021.3439324319479 777.39937337413721 0 777.39937337413721 -1055.3797442676478 0 0 0 0 -0.93279842803946167 1.2529336814049259 0 1.2529336814049259 -16.147843516465343 0 0 0 0 -1548.2546632293815 -617.05487006941803 0 -617.05487006941803 708.48845793875444 0 0 0 0 -82.167125247244257 -712.6576668291782 0 -712.6576668291782 -824.84637484103041 0 0 0 0 5.8103213199938182 338.36132337772506 0 338.36132337772506 571.79840692001744 0 0 0 0 -206.01296990914125 -278.81660108157712 0 -278.81660108157712 45.148196769987408 0 0 0 0 -91.81900086706446 -111.70731160064679 0 -111.70731160064679 -72.313956541038351 0 0 0 0 -108.08240376232425 -225.9482137813502 0 -225.9482137813502 8.4291520461483742 0 0 0 0 14.06374906159482 -20.996626208210358 0 -20.996626208210358 37.079017725174225 0 0 0 0 -50.437056245224085 -240.50472059959793 0 -240.50472059959793 14.714624868120154 0 0 0 0 -7.2913175884095835 -198.72641839744301 0 -198.72641839744301 -54.710369178174005 0 0 0 0 -114.82433626771672 -179.77893155533093 0 -179.77893155533093 143.44020926749272 0 0 0 0 -42.968570349024958 -263.24449491714768 0 -263.24449491714768 -60.529064187711811 0 0 0 0 -39.677794790652115 -252.83057699157871 0 -252.83057699157871 -27.609573894365894 0 0 0 0 -32.269204256208468 -523.24103636790323 0 -523.24103636790323 -243.62900872624596 0 0 0 0 8.9710602392879082 -234.75306350084611 0 -234.75306350084611 -221.01473190413526 0 0 0 0 -19.194405213580467 -214.79040813428219 0 -214.79040813428219 -222.97920203927424 0 0 0 0 -87.233232669343124 -171.44385501288707 0 -171.44385501288707 -233.79423984725872 0 0 0 0 78.182768277838477 -112.6615575959313 0 -112.6615575959313 -257.7572890570882 0 0 0 0 219.19801622630621 -140.60838014982073 0 -140.60838014982073 -520.15445791445018 0 0 0 0 -63.20363107221965 -136.71648666083911 0 -136.71648666083911 -248.62794177256728 0 0 0 0 2.6973607613326749 -49.712867006011948 0 -49.712867006011948 -134.42186594231225 0 0 0 0 29.236561468537843 -23.669540652267472 0 -23.669540652267472 18.40540372589146 0 0 0 0 -45.125786265867646 -207.08606804821284 0 -207.08606804821284 -272.00926703650475 0 0 0 0 -12.793641770171234 -54.037417378545797 0 -54.037417378545797 14.573031673172409 0 0 0 0 135.84492883761413 67.749613498261169 0 67.749613498261169 47.539488446609539 0 0 0 0 16.266443249363135 -15.127920696155655 0 -15.127920696155655 13.33374368502291 0 0 0 0 -99.460340746212751 -285.59315674359459 0 -285.59315674359459 -250.38351533437162 0 0 0 0 -131.12224771230831 -209.82143202870247 0 -209.82143202870247 -177.7305368785801 0 0 0 0 -183.86369660393029 -298.94486213063465 0 -298.94486213063465 -87.08545907883672 0 0 0 0 -114.80272845802028 -290.31702746619612 0 -290.31702746619612 -74.838471404145821 0 0 0 0 -91.114445552098914 -325.65707424814718 0 -325.65707424814718 -81.813053710371605 0 0 0 0 28.832195503171533 -489.93624536288553 0 -489.93624536288553 -279.64500110680092 0 0 0 0 -18.17091499210801 -281.91292067634095 0 -281.91292067634095 -133.55096245926688 0 0 0 0 -39.903489734315372 -185.47950748748372 0 -185.47950748748372 -70.988118925459275 0 0 0 0 643.62435206644295 290.92209755864315 0 290.92209755864315 -816.33365921372024 0 0 0 0 -45.195044909520675 -82.707046703564146 0 -82.707046703564146 -42.557778054468557 0 0 0 0 11.710405606434506 -492.09919166646978 0 -492.09919166646978 -191.54144514114159 0 0 0 0 2.9013399396278032 -5.8233727901426846 0 -5.8233727901426846 7.5132004505742316 0 0 0 0 -154.71892333926735 -385.79920819172457 0 -385.79920819172457 162.94730639253976 0 0 0 0 -296.55786192575033 -122.1819979440188 0 -122.1819979440188 304.70459131593816 0 0 0 0 584.44653611696208 -397.47216903062099 0 -397.47216903062099 -38.40823824537074 0 0 0 0 -13.018607295409311 -172.75156028376296 0 -172.75156028376296 -40.21653986909223 0 0 0 0 128.60072081563658 -34.503656704891796 0 -34.503656704891796 -31.912079173824168 0 0 0 0 579.49003974794323 241.34844248875015 0 241.34844248875015 94.028519677656732 0 0 0 0 206.35161566276656 -15.420866647446019 0 -15.420866647446019 -91.868078200219315 0 0 0 0 168.05411969598754 -314.60464125256999 0 -314.60464125256999 -124.26345503038465 0 0 0 0 38.509690593593405 -212.85716811675593 0 -212.85716811675593 -197.89569845874576 0 0 0 0 36.680152603402973 -76.93828027245803 0 -76.93828027245803 47.928667461304528 0 0 0 0 -2107.8262262109492 2581.9235881735076 0 2581.9235881735076 -431.0655174642925 0 0 0 0 76.3799227516065 -280.92106775894445 0 -280.92106775894445 -372.88307105177228 0 0 0 0 -15.703488927067156 -116.52186045234203 0 -116.52186045234203 -197.88903601509446 0 0 0 0 127.7017705811304 -136.10888186982447 0 -136.10888186982447 -199.63204292117553 0 0 0 0 56.078567385899078 24.220063836230111 0 24.220063836230111 -17.607414926820638 0 0 0 0 -14.349927950024721 -68.711548207673331 0 -68.711548207673331 -204.98955452320661 0 0 0 0 38.188184045931848 -228.83764433699798 0 -228.83764433699798 -409.51560081540083 0 0 0 0 398.99585337132157 -168.05851788857944 0 -168.05851788857944 -892.97198371959803 0 0 0 0 25.921930312172321 -73.56667916313576 0 -73.56667916313576 39.047953223561827 0 0 0 0 -103.1117209289805 -314.67533669159275 0 -314.67533669159275 -791.67196678035543 0 0 0 0 149.81341387299472 -369.87970782763477 0 -369.87970782763477 -784.25349255681886 0 0 0 0 192.61811451644462 -638.57244991178777 0 -638.57244991178777 -916.19016384876159 0 0 0 0 36.410194885495002 -477.16184898848405 0 -477.16184898848405 -784.8839592742388 0 0 0 0 -473.55132799129933 -396.16749209901718 0 -396.16749209901718 -307.179814488396 0 0 0 0 -1128.5414427722426 -585.24304327128084 0 -585.24304327128084 -236.2252158635747 0 0 0 0 -694.15081619369448 -279.4432247384193 0 -279.4432247384193 -85.905733816547581 0 0 0 0 -285.20893241796148 -1177.9723787941875 0 -1177.9723787941875 -1126.6693542977118 0 0 0 0 -601.33210830105236 -1703.1331958052233 0 -1703.1331958052233 -1610.2594732153702 0 0 0 0 -2899.6582385966467 -667.40635355840732 0 -667.40635355840732 -153.72984036973912 0 0 0 0 729.78980663496623 -421.40676246291241 0 -421.40676246291241 -1127.5059537611123 0 0 0 0 601.99429945492011 -871.24569711184267 0 -871.24569711184267 -1204.005964568627 0 0 0 0 -49.531797588490008 -237.52824791418061 0 -237.52824791418061 -242.76424860781844 0 0 0 0 1.9024902822129661 -262.97793751193421 0 -262.97793751193421 -232.03233746563455 0 0 0 0 -1.1536871385469567 -67.673915474095338 0 -67.673915474095338 -121.78200985013427 0 0 0 0 -196.39027688692295 -99.362174638934448 0 -99.362174638934448 -134.9337171359075 0 0 0 0 -257.88620609192003 -172.92568749972634 0 -172.92568749972634 -161.8326398697036 0 0 0 0 -417.80205785481667 -227.8750733535162 0 -227.8750733535162 -184.18617278964302 0 0 0 0 -271.70594802066262 -272.39412994352779 0 -272.39412994352779 -232.85072752161796 0 0 0 0 -351.38101769490095 -426.06968586857602 0 -426.06968586857602 -360.53798230093162 0 0 0 0 -39.855736633820925 -254.90268480393843 0 -254.90268480393843 -318.21498529718519 0 0 0 0 90.470881312285201 -366.33705127955227 0 -366.33705127955227 -558.01388311644041 0 0 0 0 73.589444457014906 -371.60966998903132 0 -371.60966998903132 -556.0252511463691 0 0 0 0 9.4687722836824832 -261.37644000166983 0 -261.37644000166983 -526.91324454483947 0 0 0 0 94.892899413090163 -341.10531018196463 0 -341.10531018196463 -467.84635170175898 0 0 0 0 85.021362016974308 -201.6418488454583 0 -201.6418488454583 -285.17473365788101 0 0 0 0 62.93315020785667 -338.87656895721921 0 -338.87656895721921 -141.45942615363674 0 0 0 0 65.03155331142807 -130.31753978906318 0 -130.31753978906318 48.162810424972122 0 0 0 0 12.202498853044744 -263.03888423281887 0 -263.03888423281887 101.54435415782064 0 0 0 0 66.920756326850096 -71.345141143104229 0 -71.345141143104229 -177.07451133330869 0 0 0 0 -18.151637135132461 -16.385926877174683 0 -16.385926877174683 -10.318556534659827 0 0 0 0 49.157759209425421 -56.064444274211382 0 -56.064444274211382 36.096646692736613 0 0 0 0 -21.547597689422929 -19.9992494502299 0 -19.9992494502299 -10.3206695195138 0 0 0 0 -21.589628832312883 -39.326450218530226 0 -39.326450218530226 -10.402311222393109 0 0 0 0 2.5031328004988609 -254.53710598552789 0 -254.53710598552789 386.21326513837539 0 0 0 0 -20.801337800672627 -33.266655253602949 0 -33.266655253602949 34.612009961285366 0 0 0 0 4.0324904906738084 -154.19672252342571 0 -154.19672252342571 362.81331503050023 0 0 0 0 1.1649248382309452 -221.84411248243123 0 -221.84411248243123 1005.2272930495819 0 0 0 0 -16.898884716471002 -90.660523780516542 0 -90.660523780516542 669.45986071060906 0 0 0 0 1139.5735651794093 -48.26084439229453 0 -48.26084439229453 254.30919052100217 0 0 0 0 933.42743888450786 289.24035611995714 0 289.24035611995714 83.537576992399408 0 0 0 0 5.7459593087486383 -4.9321095422329684 0 -4.9321095422329684 -5.8535007040052918 0 0 0 0 -3.3158713555577322 -5.42531277117331 0 -5.42531277117331 -0.57229485441951056 0 0 0 0 305.2192577192618 -393.24725119147843 0 -393.24725119147843 355.0612486227692 0 0 0 0 365.9040119231795 -533.94048319513968 0 -533.94048319513968 624.57693835312966 0 0 0 0 69.121806905182893 -170.25926768934369 0 -170.25926768934369 180.36596876960539 0 0 0 0 150.55649164261783 -288.15559154913927 0 -288.15559154913927 29.516079122578958 0 0 0 0 75.029101631589583 -146.28186528493825 0 -146.28186528493825 -109.49004968317968 0 0 0 0 -110.18149425801312 140.67865664014334 0 140.67865664014334 -15.841460084411665 0 0 0 0 -125.30870891751783 71.086733399514173 0 71.086733399514173 -24.438182342557411 0 0 0 0 149.56268751439615 4.7649278468130767 0 4.7649278468130767 -40.594314234378544 0 0 0 0 -109.12777982428088 -83.498569493618561 0 -83.498569493618561 -62.818492533733661 0 0 0 0 40.120248177991016 -124.62313675400947 0 -124.62313675400947 133.48766592380707 0 0 0 0 -113.90327040015109 -338.51141457245922 0 -338.51141457245922 -191.61754457884308 0 0 0 0 -507.82778733869031 -709.55442940942021 0 -709.55442940942021 153.5449126611129 0 0 0 0 -35.038748569699237 -35.840949694971641 0 -35.840949694971641 894.37791156616731 0 0 0 0 667.04981237290121 16.348687139100548 0 16.348687139100548 160.37601506419014 0 0 0 0 324.58938477281481 -657.58033668327334 0 -657.58033668327334 545.67438872416824 0 0 0 0 -307.37023819590104 -648.747723706736 0 -648.747723706736 639.11488573248789 0 0 0 0 -493.05784381207195 -275.60811329042917 0 -275.60811329042917 -80.512772960020811 0 0 0 0 -61.955120264174184 -68.442341960917474 0 -68.442341960917474 -42.622422587546225 0 0 0 0 61.950868919549976 107.63347055670602 0 107.63347055670602 312.63992349472392 0 0 0 0 -213.88352180804213 84.027887927938082 0 84.027887927938082 -453.18953613894701 0 0 0 0 3.412877048040599 -11.924743186987538 0 -11.924743186987538 -2.9062135427563298 0 0 0 0 -426.69473912725516 -157.72425944725728 0 -157.72425944725728 -33.939380212596006 0 0 0 0 -304.28487746238716 -628.73238531307561 0 -628.73238531307561 -1650.957577572859 0 0 0 0 -56.817895691187005 -56.583299937334232 0 -56.583299937334232 -37.850375740688833 0 0 0 0 -3.8173551036890956 -54.284173431307586 0 -54.284173431307586 9.8235327897047249 0 0 0 0 191.39058509256574 37.763585627977591 0 37.763585627977591 -331.54030327244982 0 0 0 0 26.228442864972806 -12.413813732624234 0 -12.413813732624234 -8.6754725668564348 0 0 0 0 412.72787368416903 412.85287084794254 0 412.85287084794254 471.27797048719003 0 0 0 0 214.7031036264525 -8.2014174591458868 0 -8.2014174591458868 -421.94434265771997 0 0 0 0 235.6891612696927 -303.88601478461351 0 -303.88601478461351 -153.99345323389571 0 0 0 0 243.18789870102773 -181.63444743472428 0 -181.63444743472428 -996.41583367074054 0 0 0 0 186.72885581043374 -18.017502923386928 0 -18.017502923386928 -393.34132057544775 0 0 0 0 158.73382821281848 -122.9659515083913 0 -122.9659515083913 -517.16091420964221 0 0 0 0 131.8071200913655 -88.200340265679188 0 -88.200340265679188 -257.33822496089124 0 0 0 0 0.57237560881185345 -119.88304640571369 0 -119.88304640571369 -90.692387011369647 0 0 0 0 -93.826418558091973 -293.74754791084706 0 -293.74754791084706 -218.98317625534037 0 0 0 0 5.0889239356241518 -10.865647203285548 0 -10.865647203285548 12.968371774677863 0 0 0 0 -4.3872921582369599 -0.25492262439092883 0 -0.25492262439092883 93.977170628415479 0 0 0 0 -109.8375594093668 -77.586074669830396 0 -77.586074669830396 68.67154933729762 0 0 0 0 -10.612672206442184 -20.413709543791285 0 -20.413709543791285 19.952118516226697 0 0 0 0 7.0880598028121682 -15.167035546626764 0 -15.167035546626764 -1.6861197518063307 0 0 0 0 -214.7628908122133 -491.95768714732912 0 -491.95768714732912 -487.25634649017957 0 0 0 0 -1.141539071697764 -2.2912145142239808 0 -2.2912145142239808 3.3801090789050789 0 0 0 0 47.331722143509978 126.16027133812258 0 126.16027133812258 98.739079045251856 0 0 0 0 346.37775879784022 -17.14963994989921 0 -17.14963994989921 -180.14352385981692 0 0 0 0 1.402244629280176 43.889009083060955 0 43.889009083060955 29.339083231054246 0 0 0 0 0.19131456641636646 -2.2453744875299151 0 -2.2453744875299151 6.9386231584194036 0 0 0 0 906.94321459616185 -449.52504447586034 0 -449.52504447586034 217.71712517787819 0 0 0 0 92.193934669054215 231.65471649516417 0 231.65471649516417 451.02818389451568 0 0 0 0 43.177797239841311 -45.672390349433044 0 -45.672390349433044 45.574701363949316 0 0 0 0 150.84378444511094 -316.73449928337504 0 -316.73449928337504 -253.67176054714946 0 0 0 0 418.9931910755331 -493.22100197142208 0 -493.22100197142208 -679.95735548053563 0 0 0 0 1039.0769644815591 -899.77394140036995 0 -899.77394140036995 113.30753439445107 0 0 0 0 -212.2842921535339 55.97033198313693 0 55.97033198313693 66.351070824515773 0 0 0 0 -224.99151393624561 -313.23878185747611 0 -313.23878185747611 -229.07358402826139 0 0 0 0 1.1293366029877063 -11.080360831712696 0 -11.080360831712696 -8.0187295384014377 0 0 0 0 111.29506779243093 80.704093551731603 0 80.704093551731603 -551.95033112520832 0 0 0 0 -689.20291512909171 302.0472098157552 0 302.0472098157552 103.07607359238136 0 0 0 0 -801.30784436050453 -320.24104582124164 0 -320.24104582124164 -61.16466616191974 0 0 0 0 -145.47180172346998 80.389008824775374 0 80.389008824775374 876.83477696769842 0 0 0 0 829.64736849776818 -572.99518251884729 0 -572.99518251884729 668.82547839000654 0 0 0 0 -71.379733777634101 191.35526561541337 0 191.35526561541337 260.54192519071512 0 0 0 0 -463.87942554639449 -192.64122374416456 0 -192.64122374416456 273.46076954529781 0 0 0 0 144.8998895452678 -261.36668399159134 0 -261.36668399159134 -349.41778641968995 0 0 0 0 -214.23185878098593 -494.09584048871693 0 -494.09584048871693 475.28877967298467 0 0 0 0 402.64286402372818 -551.94780051889029 0 -551.94780051889029 -21.854393437955878 0 0 0 0 -131.64253255400399 -290.06788537943794 0 -290.06788537943794 685.77842243730629 0 0 0 0 -450.26444567804356 -190.49894757143829 0 -190.49894757143829 -77.663515213687788 0 0 0 0 38.467658675825362 -27.235975518508539 0 -27.235975518508539 4.5534429163980477 0 0 0 0 64.496767074786476 -47.273702209216935 0 -47.273702209216935 -46.846571433157806 0 0 0 0 23.72115314606981 -42.017941609949503 0 -42.017941609949503 -29.685613205394475 0 0 0 0 -105.73021212112508 -488.13659034450393 0 -488.13659034450393 -303.34954671925834 0 0 0 0 34.124687295504089 -19.179343773055223 0 -19.179343773055223 1.0897287983154555 0 0 0 0 16.756074455217458 -98.173460388654348 0 -98.173460388654348 -48.449019299168867 0 0 0 0 68.830176611387287 -104.26290851544945 0 -104.26290851544945 -259.6870083065005 0 0 0 0 -40.983240657267743 -60.25260224566955 0 -60.25260224566955 -2.3367934059133404 0 0 0 0 -14.477942362820613 -33.474956864700289 0 -33.474956864700289 -19.254848297307035 0 0 0 0 35.105883432181145 -50.029146544665764 0 -50.029146544665764 47.368100607942324 0 0 0 0 30.549779805005528 -65.609774151063903 0 -65.609774151063903 2.9530942967430747 0 0 0 0 95.538660543694277 -160.51780347180647 0 -160.51780347180647 -72.165677659637367 0 0 0 0 150.81921434836113 51.452527540252049 0 51.452527540252049 -13.609411967861888 0 0 0 0 134.55513583864376 -85.370165222911965 0 -85.370165222911965 -23.546440785015875 0 0 0 0 -1.4514390261494441 -1.9514036805536676 0 -1.9514036805536676 1.9847949965240872 0 0 0 0 19.338840631309722 -16.549175284319062 0 -16.549175284319062 -96.168155831963304 0 0 0 0 0.79305093508173741 -2.7234684684699744 0 -2.7234684684699744 -5.9325318454178415 0 0 0 0 36.490845272593106 4.3352139193135599 0 4.3352139193135599 -30.927394236907276 0 0 0 0 48.849377350619761 -50.856622908899226 0 -50.856622908899226 73.031172898515251 0 0 0 0 23.24878911734703 -8.6045048986729569 0 -8.6045048986729569 -27.071013317644301 0 0 0 0 35.293618817233437 -5.2919922030109774 0 -5.2919922030109774 -31.049585951368499 0 0 0 0 68.36735570091696 -16.65859597677445 0 -16.65859597677445 -30.390050587911901 0 0 0 0 30.783126006700968 -4.168508039510435 0 -4.168508039510435 -24.161577940725323 0 0 0 0 213.58157333014969 -219.92621944001075 0 -219.92621944001075 129.04257614669405 0 0 0 0 97.858339406469895 -77.91990953266577 0 -77.91990953266577 35.724572664268635 0 0 0 0 100.72662014024536 -365.78716270802488 0 -365.78716270802488 329.15488075670146 0 0 0 0 506.57055460763513 -236.57003635569345 0 -236.57003635569345 55.937776976475334 0 0 0 0 29.860361303479294 -318.19261927996195 0 -318.19261927996195 260.00767654816082 0 0 0 0 0.71809567599711954 -2.5307200882895131 0 -2.5307200882895131 0.24689938613649076 0 0 0 0 262.81402241330943 -383.65147975283799 0 -383.65147975283799 -291.73053211514343 0 0 0 0 101.64477007942332 -435.68174703732439 0 -435.68174703732439 355.17330313585353 0 0 0 0 74.2347446159838 -322.5912733322366 0 -322.5912733322366 279.2940861437437 0 0 0 0 86.978905150732317 -360.01811406885827 0 -360.01811406885827 113.06014561095435 0 0 0 0 59.590048027908779 -275.09103124584362 0 -275.09103124584362 257.38258318393127 0 0 0 0 33.178122509612876 -248.57064929831267 0 -248.57064929831267 312.57503573577924 0 0 0 0 -37.236035805632127 -190.13050595597906 0 -190.13050595597906 362.87309790069958 0 0 0 0 16.62583155145694 -158.68154671508819 0 -158.68154671508819 237.24561636056842 0 0 0 0 -25.10665042900655 -273.02411686928008 0 -273.02411686928008 457.36623272958968 0 0 0 0 63.498897993995342 -127.94361763679626 0 -127.94361763679626 255.6364808073431 0 0 0 0 22.970968243665936 -17.384341207144672 0 -17.384341207144672 2.7812172324632876 0 0 0 0 -3.3176910694721755 -12.493734070712051 0 -12.493734070712051 -11.195713787564983 0 0 0 0 14.307209952625271 19.002262149652779 0 19.002262149652779 -107.83087212814826 0 0 0 0 61.044366156706019 21.035027384730711 0 21.035027384730711 1.5201405985280871 0 0 0 0 74.010891704514506 -35.737658926403128 0 -35.737658926403128 -14.545903646402621 0 0 0 0 -31.253694773256029 -36.556805619879583 0 -36.556805619879583 -1046.6422483449023 0 0 0 0 -2.3849666688077491 -3.4660870849178451 0 -3.4660870849178451 -5.8049095122466809 0 0 0 0 -171.19440164334083 -767.82722984121756 0 -767.82722984121756 -815.02772399461537 0 0 0 0 -180.6845225827783 -812.20365857267279 0 -812.20365857267279 -919.19592278681193 0 0 0 0 -342.53716628054099 -734.98781773819428 0 -734.98781773819428 -43.317057957704492 0 0 0 0 52.355546098508057 -162.29367400352385 0 -162.29367400352385 -451.39094121153994 0 0 0 0 91.381611898912524 -7.7239856096630319 0 -7.7239856096630319 139.55049682871686 0 0 0 0 -283.54997117604944 -535.55287246254193 0 -535.55287246254193 538.79280412263688 0 0 0 0 -54.601758177162992 64.312293219090748 0 64.312293219090748 -134.37316904528052 0 0 0 0 246.43946697555657 -111.76600365791637 0 -111.76600365791637 -39.602745241903222 0 0 0 0 28.177862517011818 3.0461788092670758 0 3.0461788092670758 -59.397577990246646 0 0 0 0 116.71057916702557 -106.38466929579954 0 -106.38466929579954 21.47298941502595 0 0 0 0 86.612730288747116 -26.693261642559264 0 -26.693261642559264 23.686787653769898 0 0 0 0 -11.487135074518847 -13.928514429350329 0 -13.928514429350329 -9.5586806809960017 0 0 0 0 41.494410394632723 -240.32306527991204 0 -240.32306527991204 -470.54513890721137 0 0 0 0 138.39695647719782 -225.04341141271016 0 -225.04341141271016 162.06969622665019 0 0 0 0 25.17704745932042 -346.40551768672947 0 -346.40551768672947 -1714.5611229807928 0 0 0 0 43.450693889411923 -190.04089855382153 0 -190.04089855382153 -536.51332342141905 0 0 0 0 69.194526033756119 -418.33634714137406 0 -418.33634714137406 -799.79148069384973 0 0 0 0 -173.31654362889822 -511.76571068509475 0 -511.76571068509475 -717.41804732281526 0 0 0 0 -452.3816986042948 -765.22833344021637 0 -765.22833344021637 -689.9873692951553 0 0 0 0 -141.08280539029511 -216.79022778328317 0 -216.79022778328317 -197.47516482604806 0 0 0 0 -71.150917364615452 -199.66934892355812 0 -199.66934892355812 -508.98283404492031 0 0 0 0 -591.41859301517252 -466.61071083438037 0 -466.61071083438037 -410.35169697318315 0 0 0 0 144.5928117659605 -400.79165320970787 0 -400.79165320970787 -1289.713025229561 0 0 0 0 -3.2565996811783862 -6.7405563826870925 0 -6.7405563826870925 -5.3618857194208935 0 0 0 0 -140.57155568253074 -132.58181240127033 0 -132.58181240127033 -667.80256371924406 0 0 0 0 -21.638282789841469 -132.88436553730389 0 -132.88436553730389 -485.64951314573045 0 0 0 0 0.27630362136602571 -2.5782617704404487 0 -2.5782617704404487 1.6512837742517483 0 0 0 0 -76.528689493352431 -540.41274562387161 0 -540.41274562387161 -700.93754459713909 0 0 0 0 -272.71522560639642 -102.45841951090279 0 -102.45841951090279 -160.91656549711843 0 0 0 0 -10.168014460685981 -67.500648439437242 0 -67.500648439437242 33.327797635099166 0 0 0 0 -324.28364534070715 -135.81538158241528 0 -135.81538158241528 -25.576305351445626 0 0 0 0 170.22142064501531 -205.82729540039145 0 -205.82729540039145 -197.13754699696619 0 0 0 0 9.3732808171112652 -11.344487225996232 0 -11.344487225996232 -20.351028667269041 0 0 0 0 7.6619248519709799 131.73900712580144 0 131.73900712580144 -24.910837967690895 0 0 0 0 -38.719565792169305 -269.52859670242287 0 -269.52859670242287 -501.21015368041844 0 0 0 0 33.668642911497841 -27.657037411118239 0 -27.657037411118239 -2.9783184913267089 0 0 0 0 111.37524310528534 -83.39061049373413 0 -83.39061049373413 -252.06358695207018 0 0 0 0 15.601342283782287 21.343938584097032 0 21.343938584097032 -96.448956556632766 0 0 0 0 -58.978504852348124 167.91800621668881 0 167.91800621668881 23.65795127290221 0 0 0 0 -1.193325483378544 -1.879495552767608 0 -1.879495552767608 3.5139154517876889 0 0 0 0 -265.48748466582038 -261.88934166290164 0 -261.88934166290164 -147.92314556438851 0 0 0 0 -64.114054540252255 -159.06704592822689 0 -159.06704592822689 -26.121659455231566 0 0 0 0 56.755211029594648 -120.0269438221585 0 -120.0269438221585 -370.2914214247794 0 0 0 0 -425.42905089253327 -366.4839477215537 0 -366.4839477215537 -261.65338663297962 0 0 0 0 228.73133973641961 -458.44508973079519 0 -458.44508973079519 -174.2660677616459 0 0 0 0 37.671204574297008 -154.29032750798751 0 -154.29032750798751 -569.811654484889 0 0 0 0 2.6506627320500797 -3.4411881012093772 0 -3.4411881012093772 0.92530798609205078 0 0 0 0 402.61105138910352 -525.63722412393327 0 -525.63722412393327 -594.24501468799281 0 0 0 0 -160.47604802988644 -935.55793544060907 0 -935.55793544060907 -663.56680097792741 0 0 0 0 -481.55258422864426 -415.34003385374854 0 -415.34003385374854 -638.06529792666515 0 0 0 0 -75.045512828073697 -494.99094828979469 0 -494.99094828979469 -911.85389141416272 0 0 0 0 -240.04501515033189 -653.65615937537405 0 -653.65615937537405 -718.46235647630022 0 0 0 0 4.964378518494982 -5.066924508991363 0 -5.066924508991363 1.2800225755128913 0 0 0 0 -513.18915491076768 -582.78064514444304 0 -582.78064514444304 -602.54154290532006 0 0 0 0 -158.66265969429514 -320.61894986636662 0 -320.61894986636662 -1133.191407360333 0 0 0 0 -354.78929151756165 -320.30199010351407 0 -320.30199010351407 -23.828036538778179 0 0 0 0 -147.37120361984125 -687.919190353874 0 -687.919190353874 -754.18002712344787 0 0 0 0 121.84494825665024 30.124693655536248 0 30.124693655536248 -72.475678646624829 0 0 0 0 5.4110051593161188 -505.14397162528257 0 -505.14397162528257 -136.75678423377758 0 0 0 0 -226.81719747847819 -376.14733986119336 0 -376.14733986119336 -208.41100394037312 0 0 0 0 28.365384991087922 -296.38142876394488 0 -296.38142876394488 36.16587447782149 0 0 0 0 731.85667600519082 -727.82276010461283 0 -727.82276010461283 297.85166306674182 0 0 0 0 6.4484989043260725 -6.3320127740461771 0 -6.3320127740461771 6.2572459467750043 0 0 0 0 375.968331862372 119.27946230236194 0 119.27946230236194 27.446549925407453 0 0 0 0 -121.69710273440069 -164.95647286898566 0 -164.95647286898566 1342.130427308759 0 0 0 0 913.45360363894724 -493.95958079007687 0 -493.95958079007687 283.1658631577684 0 0 0 0 -57.170661508738704 -122.46712184474382 0 -122.46712184474382 183.46115843017833 0 0 0 0 26.931229051595437 170.44403927291751 0 170.44403927291751 1142.813102741592 0 0 0 0 444.34545583795261 -57.714411562833448 0 -57.714411562833448 -324.43976525375547 0 0 0 0 -192.1251811235561 55.294427864442696 0 55.294427864442696 275.67909552113179 0 0 0 0 -195.62949624416069 -61.473107954951047 0 -61.473107954951047 160.9551288659668 0 0 0 0 -28.541346841072709 -40.597575248420881 0 -40.597575248420881 -31.811177706183855 0 0 0 0 -114.51670806581387 139.74024249279137 0 139.74024249279137 -122.25471505082533 0 0 0 0 -144.13767464263219 -54.865362918827486 0 -54.865362918827486 230.49490758257889 0 0 0 0 -60.795141023663746 -134.15999567245399 0 -134.15999567245399 51.912522773138335 0 0 0 0 -77.531351829864434 -110.07905689071231 0 -110.07905689071231 17.441131871425569 0 0 0 0 -119.49374691019693 -277.29799375416746 0 -277.29799375416746 -48.293123821513291 0 0 0 0 336.99487603496527 -288.74291728404205 0 -288.74291728404205 -157.01570366678789 0 0 0 0 -113.12881196645321 -333.37946840934273 0 -333.37946840934273 388.14899166037503 0 0 0 0 48.960732097054915 -616.24246475334439 0 -616.24246475334439 -23.592826910469739 0 0 0 0 -37.948776221157459 -683.88281384011498 0 -683.88281384011498 -482.53272831365393 0 0 0 0 -66.465381474685273 -419.16727696068847 0 -419.16727696068847 -184.94008286481403 0 0 0 0 -13.974501627673817 -702.92079360879882 0 -702.92079360879882 -567.28674272300486 0 0 0 0 263.76284350684728 -734.88113811137009 0 -734.88113811137009 -597.33807035687732 0 0 0 0 395.57505527731337 -196.86787413261311 0 -196.86787413261311 -1437.0892899838436 0 0 0 0 -1.3239927694262974 1.635454378624047 0 1.635454378624047 -2.454676837885085 0 0 0 0 179.66876574661001 -1057.2241303853807 0 -1057.2241303853807 -1796.1641052262562 0 0 0 0 -397.65585975775321 -378.23765732035827 0 -378.23765732035827 -919.34599762529797 0 0 0 0 -396.21780837632832 -978.69935771831297 0 -978.69935771831297 -1122.9511270253624 0 0 0 0 -19.158019102877006 -24.186758338845721 0 -24.186758338845721 -48.394999369420475 0 0 0 0 154.84440320704016 38.612300458467871 0 38.612300458467871 -27.412920485710856 0 0 0 0 5.8873057980890735 20.165147077948404 0 20.165147077948404 -102.39433137216838 0 0 0 0 -12.503113236771355 -32.895078085623389 0 -32.895078085623389 -26.528382301568875 0 0 0 0 163.00213403802854 -157.8114059644212 0 -157.8114059644212 412.72677144748877 0 0 0 0 151.89535670714395 -387.83806013111399 0 -387.83806013111399 253.0339282093463 0 0 0 0 -1.1062696062581381 -654.30359609422476 0 -654.30359609422476 -216.45883044268601 0 0 0 0 43.565373765566619 -501.0854767023593 0 -501.0854767023593 509.89928173912267 0 0 0 0 120.5427399877226 -330.38362307018997 0 -330.38362307018997 206.10926029618031 0 0 0 0 129.87737423286308 -389.80197298852949 0 -389.80197298852949 59.416410691985789 0 0 0 0 146.85097986883193 -310.9379647548285 0 -310.9379647548285 -264.1821418306655 0 0 0 0 -24.922378270493937 -499.51487724177014 0 -499.51487724177014 624.91090996316052 0 0 0 0 2.4381024449132269 -21.877445218898572 0 -21.877445218898572 -21.833686499503791 0 0 0 0 102.09544679973624 -371.96466977218734 0 -371.96466977218734 582.78690514014238 0 0 0 0 0.52015309421403799 -561.9751378402284 0 -561.9751378402284 644.99936381087991 0 0 0 0 8.8575188339600572 -216.73484503648115 0 -216.73484503648115 1506.0757294651003 0 0 0 0 -0.0064276244374923408 -3.1458121999203286 0 -3.1458121999203286 -34.365008084278998 0 0 0 0 22.946772254916141 -211.41714392438098 0 -211.41714392438098 -3013.1280314996538 0 0 0 0 3.4169119139200461 -0.31023230165389748 0 -0.31023230165389748 -13.037054562297103 0 0 0 0 -4.6642075204958928 2.5461166996594216 0 2.5461166996594216 -9.7287152320368122 0 0 0 0 -7.0429572938610931 10.910186523271534 0 10.910186523271534 -12.993858827719247 0 0 0 0 -20.14652910011182 23.349458074498067 0 23.349458074498067 -70.097697655341108 0 0 0 0 69.612844240458799 -691.07363297431948 0 -691.07363297431948 -1931.5575077808417 0 0 0 0 118.25101328402525 -424.55568693710529 0 -424.55568693710529 -1794.3785680160163 0 0 0 0 -0.038208195546758361 -943.80521130215402 0 -943.80521130215402 -1585.672748010591 0 0 0 0 -359.58790268460871 -769.84465562855166 0 -769.84465562855166 -632.51388464024421 0 0 0 0 -125.50503916711023 255.18249680528243 0 255.18249680528243 1851.0140650231533 0 0 0 0 0.30710915217263107 -1124.6870678644996 0 -1124.6870678644996 567.27574841338173 0 0 0 0 -310.43555447287508 -508.14331009235411 0 -508.14331009235411 597.27312375725523 0 0 0 0 31.563204755220795 -263.47550428878731 0 -263.47550428878731 -501.31947803099865 0 0 0 0 99.770971929030566 -884.82537964927906 0 -884.82537964927906 -737.51278973521767 0 0 0 0 -238.74473430583021 -642.90298663425438 0 -642.90298663425438 170.20267223267183 0 0 0 0 -167.8156009385275 -582.14897239712082 0 -582.14897239712082 -650.34178318206796 0 0 0 0 -47.87660696436069 -828.37814650720793 0 -828.37814650720793 -531.42738424632444 0 0 0 0 -41.920774784550304 -641.1815004652035 0 -641.1815004652035 -149.87424549144089 0 0 0 0 342.57775870194018 -727.07602037256402 0 -727.07602037256402 -605.19887520923294 0 0 0 0 24.625256874482147 -906.2735056722795 0 -906.2735056722795 -696.58894829268684 0 0 0 0 35.619794843412819 -500.07793551393661 0 -500.07793551393661 -186.93175013580185 0 0 0 0 254.89688325944007 -232.38690837840295 0 -232.38690837840295 75.994088438304971 0 0 0 0 -57.222855730651645 -380.45916836465585 0 -380.45916836465585 208.78628003500012 0 0 0 0 -177.57721235405188 -444.71436109801289 0 -444.71436109801289 357.38308288514236 0 0 0 0 14.435640016863545 -11.102560919563913 0 -11.102560919563913 5.205997442758644 0 0 0 0 -264.2831252374599 -91.978431120901405 0 -91.978431120901405 1019.2632212435692 0 0 0 0 -25.112920537125319 -139.20705989553244 0 -139.20705989553244 361.95586183530531 0 0 0 0 -59.751679524793872 -226.36879640209554 0 -226.36879640209554 145.91079719590562 0 0 0 0 26.834008845609844 -16.85912686043207 0 -16.85912686043207 8.0101780598924179 0 0 0 0 235.92395415980718 -284.64574754968271 0 -284.64574754968271 24.706882125615266 0 0 0 0 -17.500515172810992 -293.39071594435336 0 -293.39071594435336 -675.81343307801944 0 0 0 0 -60.998287364549469 -220.41387856414622 0 -220.41387856414622 -485.76598581792041 0 0 0 0 -82.167268865163351 -216.61079428076346 0 -216.61079428076346 -534.12485877511062 0 0 0 0 -70.625287799339276 -196.7989400258748 0 -196.7989400258748 -567.95571572828487 0 0 0 0 4.8809124251554294 -2.4600366087332901 0 -2.4600366087332901 2.0024232452221149 0 0 0 0 0.018658714688851354 -253.08124467638976 0 -253.08124467638976 -764.28331712033469 0 0 0 0 -9.1262950826203451 -286.33107654966807 0 -286.33107654966807 -771.19596053416899 0 0 0 0 -673.95315526509467 -459.18059931781318 0 -459.18059931781318 887.61813096345577 0 0 0 0 -41.900595318305712 -117.15476729608542 0 -117.15476729608542 49.833621401456824 0 0 0 0 -1075.1182982311493 1023.2487794559056 0 1023.2487794559056 889.49491592551931 0 0 0 0 759.46449242259723 -344.98397387857403 0 -344.98397387857403 -391.17415645650181 0 0 0 0 -3643.3570292799377 -1295.0911662378203 0 -1295.0911662378203 -486.15902786373044 0 0 0 0 -1141.9239057451614 1566.2793361367512 0 1566.2793361367512 -441.04807611778961 0 0 0 0 430.69745204946997 -518.57781252397376 0 -518.57781252397376 -1606.2066393097339 0 0 0 0 430.67975654495604 -512.17969180412183 0 -512.17969180412183 -3399.6287478497907 0 0 0 0 335.35336884676326 -46.344237981589686 0 -46.344237981589686 -614.41770246559463 0 0 0 0 477.65166833641945 471.84715718419602 0 471.84715718419602 -1998.7171622557216 0 0 0 0 436.88102045412597 1290.9031963531015 0 1290.9031963531015 -3003.6952148669807 0 0 0 0 -2002.4676851771328 -871.21200188256626 0 -871.21200188256626 -178.46516203145438 0 0 0 0 0.11030578098620225 -5.782454394628104 0 -5.782454394628104 -39.545977801153555 0 0 0 0 -1084.3289723294874 -480.40439387428341 0 -480.40439387428341 -15.073827284038998 0 0 0 0 10.216728037989014 -176.39534758003356 0 -176.39534758003356 -124.77101317336201 0 0 0 0 61.138572701123849 -220.55521299481188 0 -220.55521299481188 -271.19537921271694 0 0 0 0 433.63727246231792 -798.35962862226006 0 -798.35962862226006 -518.17388102209316 0 0 0 0 -11.387640841793282 -62.27460192868427 0 -62.27460192868427 -60.417904055579697 0 0 0 0 -6.1771238251151797 -30.525749964893315 0 -30.525749964893315 6.4521651589043643 0 0 0 0 109.61403623310161 -238.82226032309609 0 -238.82226032309609 72.291695865060319 0 0 0 0 29.929460358569834 -85.253897955076809 0 -85.253897955076809 2.1428926906938415 0 0 0 0 -78.560533740484971 -76.051313933636266 0 -76.051313933636266 60.435250364120293 0 0 0 0 3.1264481089218563 1.9096813417832692 0 1.9096813417832692 -20.756967695865676 0 0 0 0 0.32230297984651202 -10.446756891216594 0 -10.446756891216594 15.447840815898601 0 0 0 0 37.411081923269194 -219.77265517034357 0 -219.77265517034357 129.16773898506653 0 0 0 0 -117.31896411122761 -6.4326132117057568 0 -6.4326132117057568 238.75330943678273 0 0 0 0 -86.868044202637975 -138.25195180833543 0 -138.25195180833543 119.97955329678734 0 0 0 0 -154.70848479770393 -211.72644640888029 0 -211.72644640888029 42.000114988542919 0 0 0 0 49.505479630926857 -102.27778540670624 0 -102.27778540670624 61.352225565246044 0 0 0 0 -45.735531603282652 -206.36981616753565 0 -206.36981616753565 110.17608113448659 0 0 0 0 -162.3949764513527 -78.402439241588581 0 -78.402439241588581 18.396416766685434 0 0 0 0 -129.45295021754828 -128.24020153586207 0 -128.24020153586207 92.577831621201767 0 0 0 0 -186.32768009948632 -92.241605896440888 0 -92.241605896440888 139.47850914400442 0 0 0 0 -71.838654358308759 -189.38544329100478 0 -189.38544329100478 61.273409766727127 0 0 0 0 -367.34404590216309 -277.3210236550749 0 -277.3210236550749 35.12624571165361 0 0 0 0 327.98042145218096 -52.982445084513529 0 -52.982445084513529 -16.447296941423701 0 0 0 0 156.5794641118755 -171.63437360157695 0 -171.63437360157695 -94.760544169483182 0 0 0 0 208.9228806473202 -379.23903241311564 0 -379.23903241311564 -110.23818483136711 0 0 0 0 99.987511762756185 -7.5600098624054226 0 -7.5600098624054226 38.376256689664842 0 0 0 0 45.484716846902302 -84.157803832076752 0 -84.157803832076752 -69.25600578335434 0 0 0 0 -27.788151510416355 -57.579979706228187 0 -57.579979706228187 -56.461812257160091 0 0 0 0 35.335515879098239 -128.64150292446175 0 -128.64150292446175 -44.478058342305303 0 0 0 0 -56.285675553832334 -206.00636490366196 0 -206.00636490366196 -21.914285506012675 0 0 0 0 -49.693909711104425 -200.39705048811447 0 -200.39705048811447 -89.368672771734055 0 0 0 0 -22.431127321510758 -38.608264180751576 0 -38.608264180751576 6.2578142204038159 0 0 0 0 -40.500393681489186 -35.021680343728804 0 -35.021680343728804 11.820180411174078 0 0 0 0 -21.333295713386391 -23.016391376331519 0 -23.016391376331519 -18.209746932948846 0 0 0 0 -65.275064101489079 -47.132739765880615 0 -47.132739765880615 9.0155571456853068 0 0 0 0 -38.882886382530764 -24.616566716221769 0 -24.616566716221769 -8.7424736937298064 0 0 0 0 9.8242669847131765 -43.647502007290313 0 -43.647502007290313 -0.79894799282192253 0 0 0 0 -30.764773655475437 -55.809995582760166 0 -55.809995582760166 19.79116891558624 0 0 0 0 -36.975189735604808 -29.696412311790198 0 -29.696412311790198 -13.152190795604511 0 0 0 0 -27.059372037186112 -25.765328401694973 0 -25.765328401694973 -0.93834668568288748 0 0 0 0 -36.285142037449987 -5.6827326824241027 0 -5.6827326824241027 3.6681130609795218 0 0 0 0 -14.550539580202894 -62.086489510329557 0 -62.086489510329557 67.568166871315952 0 0 0 0 -42.224214666333864 -8.6254001764536952 0 -8.6254001764536952 54.981901397519323 0 0 0 0 -32.555110756253271 -41.48234319151743 0 -41.48234319151743 -54.158400009924662 0 0 0 0 -23.58463455576566 -49.452127700895289 0 -49.452127700895289 -44.741078523376927 0 0 0 0 -8.7914166796791164 -10.42793875414138 0 -10.42793875414138 -11.87671311668943 0 0 0 0 -4.3824328074010168 -66.55197508191668 0 -66.55197508191668 -8.86257230436604 0 0 0 0 -29.262471391348502 -37.531595595922681 0 -37.531595595922681 -42.662557996758608 0 0 0 0 -32.936401037720714 -50.669466820186877 0 -50.669466820186877 -29.231888737486429 0 0 0 0 -1.4680613425935007 -72.892733869644871 0 -72.892733869644871 -5.3037976606137818 0 0 0 0 -4.5592253722215901 -66.33371340134363 0 -66.33371340134363 3.985614513308974 0 0 0 0 -16.414616721945137 -47.422608432735217 0 -47.422608432735217 -25.936797139736271 0 0 0 0 -19.58561085965971 -27.150493273580977 0 -27.150493273580977 25.827918737844712 0 0 0 0 -40.413403520274187 -46.068828158384349 0 -46.068828158384349 7.894605774388765 0 0 0 0 -25.999297171315902 -45.914202548083267 0 -45.914202548083267 -2.9764759476092877 0 0 0 0 -15.022808040212112 -50.102745488075016 0 -50.102745488075016 4.7988112560196896 0 0 0 0 -63.664269628767215 -69.460596267344954 0 -69.460596267344954 3.1765767420001794 0 0 0 0 -17.19801259817541 -41.492618602715083 0 -41.492618602715083 -14.690286137196381 0 0 0 0 -38.52914138795677 -92.862456895127252 0 -92.862456895127252 -48.308965006996004 0 0 0 0 -46.985319885483023 -81.49419517725255 0 -81.49419517725255 -1.3228820626245579 0 0 0 0 -1.4445322787333907 -72.826632278077568 0 -72.826632278077568 -14.138561493047746 0 0 0 0 -42.613401433897884 -42.911574797100137 0 -42.911574797100137 -2.443099896641769 0 0 0 0 -19.24017364904455 -47.513874427113748 0 -47.513874427113748 20.320462168755199 0 0 0 0 -48.442002359894104 -99.260092050426465 0 -99.260092050426465 -244.88002434119699 0 0 0 0 -28.707353989932017 -52.044803733488152 0 -52.044803733488152 49.006728838583513 0 0 0 0 -67.66517807087439 -166.37481121357996 0 -166.37481121357996 -97.810003008384228 0 0 0 0 -25.395363837877049 -40.231818369895208 0 -40.231818369895208 24.13375492672364 0 0 0 0 -31.559255008063701 -77.055420000186132 0 -77.055420000186132 10.18799661439698 0 0 0 0 -92.313155211869699 -94.401476491292684 0 -94.401476491292684 53.077409340759324 0 0 0 0 -79.478032047029046 -189.70446277307565 0 -189.70446277307565 -6.4996120624691684 0 0 0 0 -115.6462496192471 -126.28653474617749 0 -126.28653474617749 -43.536867900191282 0 0 0 0 -60.49910171476359 -59.88542080450334 0 -59.88542080450334 -20.68043470968442 0 0 0 0 -44.354244674501842 -88.740591418238182 0 -88.740591418238182 4.9116711063616094 0 0 0 0 -141.29306772606287 6.5923665310110664 0 6.5923665310110664 101.36267960893747 0 0 0 0 -254.2905703664037 -71.551363781516557 0 -71.551363781516557 52.281325374999142 0 0 0 0 -44.909752579046497 -53.0723102119576 0 -53.0723102119576 8.9038662651473999 0 0 0 0 -10.733669652996195 -12.737412531597528 0 -12.737412531597528 9.643946074389703 0 0 0 0 1673.3173256085429 133.40951958438382 0 133.40951958438382 285.81682820108836 0 0 0 0 978.64250207091936 298.70043600721692 0 298.70043600721692 -572.48653224730697 0 0 0 0 -25.826417204623745 -3.2597077072170464 0 -3.2597077072170464 48.548467149752582 0 0 0 0 -29.149452549561829 -284.01885702060099 0 -284.01885702060099 -381.54164467571536 0 0 0 0 382.03024192588418 -570.06461662751826 0 -570.06461662751826 -1827.7056088217068 0 0 0 0 1215.7512935841914 -1139.1663944216707 0 -1139.1663944216707 -2902.9589009268093 0 0 0 0 -174.07188162475722 -319.94186688059563 0 -319.94186688059563 -1572.3932301000386 0 0 0 0 43.693037651431951 -18.447015207239019 0 -18.447015207239019 -1181.2966671029571 0 0 0 0 -2.780401027982407 -668.06621698373601 0 -668.06621698373601 -1004.8566560769541 0 0 0 0 -284.2336233928163 -705.93301421713113 0 -705.93301421713113 -1128.1385315473526 0 0 0 0 -137.2333121056763 -612.88049459312606 0 -612.88049459312606 -613.50466327355707 0 0 0 0 27.914350957168608 -192.48257220758751 0 -192.48257220758751 -644.85905699554132 0 0 0 0 31.282967828274195 -650.28033021563169 0 -650.28033021563169 -1001.958785074843 0 0 0 0 234.78967607131563 -1001.7365325850769 0 -1001.7365325850769 -844.65518229714144 0 0 0 0 -79.299291315208393 -472.15439937244082 0 -472.15439937244082 -285.2553209038233 0 0 0 0 -487.32192395508537 -535.80778605096566 0 -535.80778605096566 -723.59385791884415 0 0 0 0 -354.70160573871726 -932.39106350056318 0 -932.39106350056318 -320.14702217518789 0 0 0 0 400.35421148546629 -552.52206178476627 0 -552.52206178476627 -953.62032857073791 0 0 0 0 108.53555902267044 -82.624417403212647 0 -82.624417403212647 -198.21784142768593 0 0 0 0 109.83731138432847 -101.58302126580884 0 -101.58302126580884 -105.81267776718596 0 0 0 0 356.21704852719085 -451.12956081145967 0 -451.12956081145967 337.89584871511397 0 0 0 0 3.5720496904086474 -4.5542311545021619 0 -4.5542311545021619 3.4473137211246865 0 0 0 0 -12.750821966898002 -586.98823737874591 0 -586.98823737874591 -1086.1874387134303 0 0 0 0 13.387183631095695 -60.521467603819474 0 -60.521467603819474 -27.0909279181069 0 0 0 0 -2.6050069625769172 -14.614689694453837 0 -14.614689694453837 -22.922054459850074 0 0 0 0 32.438209159411599 -82.558502052343101 0 -82.558502052343101 -27.226895633959771 0 0 0 0 8.9057129414418341 -69.499169457692915 0 -69.499169457692915 40.750341647282767 0 0 0 0 -270.47073448071467 -381.02940761125956 0 -381.02940761125956 -418.1188758571443 0 0 0 0 11.21742921661636 -15.5985188098999 0 -15.5985188098999 -6.1151554424075982 0 0 0 0 -225.6400642856911 291.99075573578011 0 291.99075573578011 -490.52316342748236 0 0 0 0 -342.26408331182813 768.91262992899647 0 768.91262992899647 -1925.4446028810489 0 0 0 0 0.81525637574090837 -16.641106762641655 0 -16.641106762641655 -42.278078843397111 0 0 0 0 430.17144516666121 285.9198458726205 0 285.9198458726205 -2374.2457232412853 0 0 0 0 -1453.2820919921896 -1368.7859883646779 0 -1368.7859883646779 -1150.5110447823099 0 0 0 0 -1616.1684692561903 284.07136509854172 0 284.07136509854172 -119.47284908509755 0 0 0 0 456.38969823712978 -1057.4219058361778 0 -1057.4219058361778 -959.35490848992777 0 0 0 0 -1289.6725464595911 -2322.8698848142012 0 -2322.8698848142012 -1646.9750118418597 0 0 0 0 -5685.8835617836667 1933.9436137090088 0 1933.9436137090088 -3267.4958534816396 0 0 0 0 0.56259799865175353 -11.633291390133877 0 -11.633291390133877 4.7540025209867878 0 0 0 0 3078.0936452452261 -899.95535799461504 0 -899.95535799461504 -5707.0377078735764 0 0 0 0 1024.7889806156745 -663.1428389422872 0 -663.1428389422872 -1274.0667972356896 0 0 0 0 1031.2433306911153 -387.96058304469625 0 -387.96058304469625 -2247.3466250914753 0 0 0 0 698.42048171416536 -276.81548983874745 0 -276.81548983874745 -1229.3364066039212 0 0 0 0 779.11270774803415 -696.93460329353547 0 -696.93460329353547 -836.01209493442002 0 0 0 0 820.86868674709331 -450.8205782818477 0 -450.8205782818477 -1260.6709577758925 0 0 0 0 -290.04714600994885 201.1582241645192 0 201.1582241645192 -182.91350178142602 0 0 0 0 -64.578835445033747 -132.6056390961603 0 -132.6056390961603 -56.721545267719193 0 0 0 0 -30.722490597590955 -37.954423309414238 0 -37.954423309414238 7.2885317327743024 0 0 0 0 -84.056148924198169 42.858907076675678 0 42.858907076675678 46.246876022629294 0 0 0 0 -80.983741318067089 -18.663124873555546 0 -18.663124873555546 20.728033099912167 0 0 0 0 -131.72535123891248 -136.91353561746655 0 -136.91353561746655 19.697574886871735 0 0 0 0 -196.78426885694671 -40.896904235029069 0 -40.896904235029069 75.081188698517508 0 0 0 0 -207.5633257688196 -82.032698556620744 0 -82.032698556620744 -18.832397327540093 0 0 0 0 -234.05853031171804 -212.8265010007508 0 -212.8265010007508 -137.41607868080609 0 0 0 0 -332.07723606684067 -165.16371101332334 0 -165.16371101332334 -26.756972670485993 0 0 0 0 -95.562184804004573 -102.30639466343564 0 -102.30639466343564 -84.751508869681857 0 0 0 0 -335.78011636285237 -395.60153619847449 0 -395.60153619847449 -259.6337734850822 0 0 0 0 42.817709515229126 -49.33630920709038 0 -49.33630920709038 -80.642106213534134 0 0 0 0 -838.94629593614286 -402.84469816473211 0 -402.84469816473211 -242.21144025307149 0 0 0 0 -0.95345865125194962 -2.1556447475640539 0 -2.1556447475640539 -11.541440065953736 0 0 0 0 -324.9748666570058 79.542738915002701 0 79.542738915002701 90.340164957247907 0 0 0 0 -521.27749471346567 -376.55619717672562 0 -376.55619717672562 -215.11611367073783 0 0 0 0 -432.39734523607285 -309.5538432343601 0 -309.5538432343601 -422.38205860571179 0 0 0 0 -198.1159081241363 -477.02791524833447 0 -477.02791524833447 -450.99721823151049 0 0 0 0 -336.61581641139452 -600.95538400337318 0 -600.95538400337318 -560.19393102114554 0 0 0 0 -491.03133810520626 -486.92599685319692 0 -486.92599685319692 -369.92951273376821 0 0 0 0 -285.8668718125582 -378.93425602139177 0 -378.93425602139177 -323.02154509015236 0 0 0 0 -294.04277262725168 -451.45885110056406 0 -451.45885110056406 -343.59678685010294 0 0 0 0 -218.87060094874982 -352.4877554349514 0 -352.4877554349514 -335.81111524593143 0 0 0 0 -249.76796340981446 -381.90837041406485 0 -381.90837041406485 -291.40555910053808 0 0 0 0 -217.17618793318888 -229.55347792329121 0 -229.55347792329121 -122.14172082777804 0 0 0 0 -181.83718923207914 -424.36911483125732 0 -424.36911483125732 -407.26305415715797 0 0 0 0 -301.3541474352653 -331.62178095462878 0 -331.62178095462878 -428.19408593178377 0 0 0 0 -250.90086897599315 -387.62667867350683 0 -387.62667867350683 -379.30067165831952 0 0 0 0 -230.16355899131651 -382.64631408684727 0 -382.64631408684727 -411.10156300745439 0 0 0 0 -211.93145427131481 -382.82241261046147 0 -382.82241261046147 -438.30508252205618 0 0 0 0 -343.77697257815453 -397.398607883566 0 -397.398607883566 -358.65918389550279 0 0 0 0 -421.39275089822547 -554.73213797171775 0 -554.73213797171775 -430.86402672018448 0 0 0 0 238.75453601833669 35.490462014502555 0 35.490462014502555 -36.110717505434877 0 0 0 0 -3.5957220367237683 3.7171342263342169 0 3.7171342263342169 -6.5709793070818705 0 0 0 0 281.98954467552585 75.932020357970032 0 75.932020357970032 -116.12550419119361 0 0 0 0 -674.25318585347077 -873.01871594476688 0 -873.01871594476688 655.46341470960033 0 0 0 0 351.24510242264296 78.120166116445034 0 78.120166116445034 -180.48283337315661 0 0 0 0 -260.18636285868683 -372.66759452120459 0 -372.66759452120459 -402.61559734356706 0 0 0 0 -184.78579552342171 -522.43735637230566 0 -522.43735637230566 -595.86072404611332 0 0 0 0 182.89708842243817 -424.83782466332195 0 -424.83782466332195 -583.8833334027604 0 0 0 0 -106.20039391196769 -239.27733438813448 0 -239.27733438813448 -400.96945275364851 0 0 0 0 -305.74803563141154 -236.04985127680993 0 -236.04985127680993 -366.3947102950915 0 0 0 0 -785.81432976000178 -437.33142238403525 0 -437.33142238403525 -429.77043826022418 0 0 0 0 -73.105152371888494 -414.04315757693621 0 -414.04315757693621 -1077.4306226568297 0 0 0 0 -128.93106894274456 -211.68186563333802 0 -211.68186563333802 -752.83680283828289 0 0 0 0 -1.0138770027151622 6.2007806423716829 0 6.2007806423716829 -1099.0189360685326 0 0 0 0 135.76392127425515 -65.030040586774703 0 -65.030040586774703 -1410.8362540248054 0 0 0 0 -16.307288455548701 -1.2744671838390786 0 -1.2744671838390786 -510.55045773924212 0 0 0 0 -0.15093387311037532 3.3032027319947304 0 3.3032027319947304 2.6351969522975054 0 0 0 0 -162.50358153767957 -216.43952931019885 0 -216.43952931019885 -575.22022137347085 0 0 0 0 -110.93794646196397 -235.18940503398699 0 -235.18940503398699 -229.18095113613526 0 0 0 0 -124.97028177278435 -340.40089679199446 0 -340.40089679199446 -316.90395741776592 0 0 0 0 -44.550975492009002 -339.27143892383901 0 -339.27143892383901 -601.93654090871678 0 0 0 0 -257.61479632096166 -63.483366961780121 0 -63.483366961780121 -10.213152015530795 0 0 0 0 -396.26511400411709 -493.46838798369572 0 -493.46838798369572 -424.58171135515295 0 0 0 0 -46.999203114245873 -96.719128430887793 0 -96.719128430887793 32.569732011334267 0 0 0 0 -211.90501729674952 28.163263178830675 0 28.163263178830675 -75.708651968569029 0 0 0 0 -34.475570129434345 -196.70967164479953 0 -196.70967164479953 -554.94250801888484 0 0 0 0 -98.403348898190416 28.794918825064087 0 28.794918825064087 -671.16085317521356 0 0 0 0 -26.382914062954423 -7.2562305301139673 0 -7.2562305301139673 20.397282126723724 0 0 0 0 -102.72043811133722 92.255876701965462 0 92.255876701965462 -326.48198969190707 0 0 0 0 24.64546004682186 -44.902203170868077 0 -44.902203170868077 -103.37405205746578 0 0 0 0 -57.13805122692429 338.29826139179931 0 338.29826139179931 -425.27257267751702 0 0 0 0 -110.58694471524143 -3.4470745314521025 0 -3.4470745314521025 -1.8304713782004711 0 0 0 0 29.609471255830286 -15.228497917466711 0 -15.228497917466711 -51.147683061803832 0 0 0 0 -174.28226219495241 -155.20660232097725 0 -155.20660232097725 -131.4140745500481 0 0 0 0 -113.1953257530175 -165.33369417455106 0 -165.33369417455106 -296.6765021898027 0 0 0 0 -136.40131663733678 -191.25746732774132 0 -191.25746732774132 -194.67768416718172 0 0 0 0 -62.095134333478995 -52.312494382102159 0 -52.312494382102159 -102.98559571793885 0 0 0 0 -191.58894519065436 -263.23077475905302 0 -263.23077475905302 -244.09755346512247 0 0 0 0 -195.57687969891438 -366.95479547169816 0 -366.95479547169816 -508.05867543215572 0 0 0 0 -365.60123238759184 -398.5544837249472 0 -398.5544837249472 -380.05543021307676 0 0 0 0 -102.74024832359521 -196.78545470379322 0 -196.78545470379322 -445.3995558542083 0 0 0 0 -154.21158700760611 -346.84920051056542 0 -346.84920051056542 -833.17113576411793 0 0 0 0 -157.74623630975799 -168.41354205105745 0 -168.41354205105745 -458.94365133481915 0 0 0 0 -142.05629511362048 -94.695401919947471 0 -94.695401919947471 -215.88131845094904 0 0 0 0 -225.82537951898485 250.59644510628209 0 250.59644510628209 -427.83093114118674 0 0 0 0 -139.99400445226638 -90.567044243245618 0 -90.567044243245618 -109.72042761578268 0 0 0 0 -50.453807315783251 -71.810789721057333 0 -71.810789721057333 -44.613106147205372 0 0 0 0 -73.928945758023474 -107.55112180227297 0 -107.55112180227297 79.373678781306808 0 0 0 0 -130.21893193751748 72.596171200268145 0 72.596171200268145 -46.588494311439717 0 0 0 0 -24.451325639463903 -64.167997961221772 0 -64.167997961221772 -31.064195270606433 0 0 0 0 -157.73704128350801 14.83012736951423 0 14.83012736951423 -411.90606627839043 0 0 0 0 -38.675829097904028 -88.246977698729197 0 -88.246977698729197 -63.81163928220743 0 0 0 0 -5.4962019381673599 -94.705871745387412 0 -94.705871745387412 9.872331045451574 0 0 0 0 51.126149971212726 -46.677027359772183 0 -46.677027359772183 -13.56069086291609 0 0 0 0 41.751306801106693 -101.01685569265828 0 -101.01685569265828 -73.248999895673478 0 0 0 0 27.134903710641982 -63.791051180980737 0 -63.791051180980737 -47.814310907009627 0 0 0 0 375.11895053200033 -148.34291058237932 0 -148.34291058237932 -110.40135552360152 0 0 0 0 32.311030766610259 -24.24804742763277 0 -24.24804742763277 -41.819787762125117 0 0 0 0 68.932063441359787 -52.534155745735916 0 -52.534155745735916 -504.33029133265518 0 0 0 0 131.99142237551587 22.056870449527196 0 22.056870449527196 -478.74348498866311 0 0 0 0 -15.356192527277017 -209.72193686585524 0 -209.72193686585524 -670.38538506628538 0 0 0 0 -104.30287989647877 -236.53150350922806 0 -236.53150350922806 -329.50823788643902 0 0 0 0 4.0187795801077755 -119.14966326711783 0 -119.14966326711783 -274.2355605790508 0 0 0 0 55.987338315078929 -73.704329632921286 0 -73.704329632921286 -158.52536213637856 0 0 0 0 -173.51760278543588 -137.69760618646978 0 -137.69760618646978 -247.5473341628458 0 0 0 0 -85.676618566671095 -142.25718023664558 0 -142.25718023664558 -291.00134998541762 0 0 0 0 -37.606949835884734 -248.04059264677198 0 -248.04059264677198 -131.60248634817617 0 0 0 0 -10.280772015044931 -152.08446851056578 0 -152.08446851056578 -214.88690156224038 0 0 0 0 1109.1353546256578 -1099.2285171439216 0 -1099.2285171439216 -183.66681136715124 0 0 0 0 1579.8189705924087 -1898.1872070466752 0 -1898.1872070466752 -5269.739413924879 0 0 0 0 -21.270059743837919 -238.1018187506088 0 -238.1018187506088 -197.05051347369954 0 0 0 0 -17.264654985465313 -240.59032473435855 0 -240.59032473435855 -205.39805806059303 0 0 0 0 1.7952666831552051 -239.78951850373414 0 -239.78951850373414 -213.14796410151394 0 0 0 0 368.92637646500225 -587.41889379423446 0 -587.41889379423446 397.45932589021231 0 0 0 0 76.212562442652597 -114.83695981577227 0 -114.83695981577227 21.041801537062433 0 0 0 0 0.99207840560719873 -9.5404591109128063 0 -9.5404591109128063 -100.10173409772344 0 0 0 0 -638.35712396101371 -828.76137279152863 0 -828.76137279152863 -791.29167047285955 0 0 0 0 -383.72180916679645 -679.44798753178475 0 -679.44798753178475 -768.03492021423881 0 0 0 0 63.0802420405943 -91.522910707362342 0 -91.522910707362342 -155.99223532100868 0 0 0 0 -85.543111090584262 -107.90411768609989 0 -107.90411768609989 38.730728222378559 0 0 0 0 -256.71760612752405 -490.55307341578373 0 -490.55307341578373 -675.55666010015739 0 0 0 0 -62.551644897366145 -203.39590502985629 0 -203.39590502985629 -315.96829193523445 0 0 0 0 -145.92493808610743 -537.78345769244879 0 -537.78345769244879 -1055.6013326494285 0 0 0 0 -32.569227146683261 -712.53731145508209 0 -712.53731145508209 -1087.5714293032815 0 0 0 0 -162.41327057500166 -780.0755903049685 0 -780.0755903049685 -1057.5740273465926 0 0 0 0 64.62416466412833 -888.82332612340542 0 -888.82332612340542 -1025.445701218232 0 0 0 0 115.20128277468757 -696.52050145558678 0 -696.52050145558678 -1201.9208547042144 0 0 0 0 -114.72789407668461 -673.31980706027025 0 -673.31980706027025 -1094.6814712520209 0 0 0 0 61.27935800121486 -697.20282814227176 0 -697.20282814227176 -1116.7644275359635 0 0 0 0 -378.25632583050901 -1009.6918590939604 0 -1009.6918590939604 -953.18555466281396 0 0 0 0 357.60388448940603 -773.62335192989667 0 -773.62335192989667 -1134.2555115446521 0 0 0 0 323.7420102653241 -566.20345643803921 0 -566.20345643803921 -208.88469453877769 0 0 0 0 727.03867081311182 -644.73930714172457 0 -644.73930714172457 -1116.3699574280308 0 0 0 0 297.09023837314453 209.89626830061388 0 209.89626830061388 -303.06317133139692 0 0 0 0 682.21341648470479 -1115.6649279198609 0 -1115.6649279198609 344.00730286275939 0 0 0 0 276.93205738236793 475.26018228114481 0 475.26018228114481 1162.6445597150887 0 0 0 0 4.8047058550848334 -6.5364364135122628 0 -6.5364364135122628 13.688797367529929 0 0 0 0 -13.809118522360222 -460.53803061410508 0 -460.53803061410508 -93.633851583224896 0 0 0 0 -48.380747768445872 -70.091524850995484 0 -70.091524850995484 -463.35885007924662 0 0 0 0 -851.13733091560425 39.62180208652353 0 39.62180208652353 -406.58192787099688 0 0 0 0 -384.74423995832831 -805.58188081420667 0 -805.58188081420667 -818.87660495755335 0 0 0 0 -1601.179636225359 -1259.8334059951412 0 -1259.8334059951412 -979.57560850830305 0 0 0 0 29.392544962774991 -457.10442151437019 0 -457.10442151437019 -2001.0711313401625 0 0 0 0 -2519.6067427355556 -2426.9564403827662 0 -2426.9564403827662 -1670.7316942198813 0 0 0 0 -10.773352295134842 18.858598892615845 0 18.858598892615845 -20.458869500308893 0 0 0 0 986.85623499516805 1119.4522422509767 0 1119.4522422509767 -1748.3101172263741 0 0 0 0 -296.27981099228418 28.901178792977589 0 28.901178792977589 -4116.4183011803834 0 0 0 0 -1830.0342632453503 -63.454092455560385 0 -63.454092455560385 964.82212271765457 0 0 0 0 2327.1993034003608 -2171.8188905610805 0 -2171.8188905610805 -2094.3355436471402 0 0 0 0 -660.19150236254791 78.178294327830372 0 78.178294327830372 -122.13376178736507 0 0 0 0 -3.3950234318683385 -32.782899644702532 0 -32.782899644702532 -75.699030880024651 0 0 0 0 26.093564426581736 -6.835988823986213 0 -6.835988823986213 -28.189732667977857 0 0 0 0 -684.27990711081657 -182.62457743441337 0 -182.62457743441337 -64.844798254525813 0 0 0 0 -778.93762345005234 -185.46869064020029 0 -185.46869064020029 -179.61434654137156 0 0 0 0 -586.17882604032638 -47.874241350069497 0 -47.874241350069497 -86.440875692554982 0 0 0 0 0.94821188377606802 -4.85807707886066 0 -4.85807707886066 -35.18462916445533 0 0 0 0 1134.3179337283582 1925.3795857051032 0 1925.3795857051032 -2825.5712997309347 0 0 0 0 1301.2932843490562 1427.45665914446 0 1427.45665914446 -1483.2338865911197 0 0 0 0 -301.37846139477551 -195.53675424358516 0 -195.53675424358516 -966.20076856941887 0 0 0 0 -395.64254214309949 -404.89764015553828 0 -404.89764015553828 -997.77040356062935 0 0 0 0 -481.91846153406186 -289.42989156771182 0 -289.42989156771182 -492.69407515868079 0 0 0 0 20.529552245849807 -42.43774851428806 0 -42.43774851428806 -104.7476230267014 0 0 0 0 -545.77247685756811 -179.43994712898348 0 -179.43994712898348 -236.13466979226723 0 0 0 0 -356.20449322264903 -344.17900301979535 0 -344.17900301979535 -932.58719600428594 0 0 0 0 124.97124783176696 -795.40267209008016 0 -795.40267209008016 -1213.4257697552457 0 0 0 0 309.16220592349782 -1147.0652858476169 0 -1147.0652858476169 -1378.3119520904002 0 0 0 0 -501.98396956621582 -304.7391234049137 0 -304.7391234049137 -931.26707484709914 0 0 0 0 22.9858857399282 -30.338320062685167 0 -30.338320062685167 -124.45329652984927 0 0 0 0 -1.9853716429531261 5.1524253122680861 0 5.1524253122680861 -39.069962568585808 0 0 0 0 -550.19290743213787 -551.88494425649696 0 -551.88494425649696 -1155.7184826776102 0 0 0 0 -124.03668834095242 -239.16484481193584 0 -239.16484481193584 -634.08771400236583 0 0 0 0 -259.83076232120584 -640.71918106122939 0 -640.71918106122939 -1723.3334073382139 0 0 0 0 -50.175939039017976 -218.64513154209999 0 -218.64513154209999 -765.86867004840315 0 0 0 0 -5.2304736593562566 -2.369600195553403 0 -2.369600195553403 3.3086619471639125 0 0 0 0 131.86663797289293 -282.985610260258 0 -282.985610260258 -989.9999224873136 0 0 0 0 -172.28599760004363 -251.95467438044216 0 -251.95467438044216 -584.00612629202624 0 0 0 0 -63.675441846442297 -93.917225645018533 0 -93.917225645018533 64.7099782819853 0 0 0 0 330.96990270165406 -753.52783535945491 0 -753.52783535945491 -2063.174777264634 0 0 0 0 -269.34987187818479 -868.01671046677075 0 -868.01671046677075 -1378.6979044796244 0 0 0 0 300.23509739893052 -626.4910325119381 0 -626.4910325119381 -1373.284358948946 0 0 0 0 230.81917933648947 -563.77392743318342 0 -563.77392743318342 -1285.0627882422123 0 0 0 0 -86.683964505524045 -278.65386099860552 0 -278.65386099860552 -1537.94866575583 0 0 0 0 -202.0361894822272 -211.25106406158739 0 -211.25106406158739 -1392.431955396074 0 0 0 0 -450.90192443671913 -346.61626400081877 0 -346.61626400081877 -1134.6109651826337 0 0 0 0 42.573833447429934 -123.81794994911979 0 -123.81794994911979 -747.66436536277615 0 0 0 0 -78.658888040627062 -364.50316667401785 0 -364.50316667401785 -1141.2904635907544 0 0 0 0 -273.16723399523835 -76.606929491746996 0 -76.606929491746996 -645.11439391900058 0 0 0 0 -160.90345499925297 70.854821312783315 0 70.854821312783315 -154.17833553075616 0 0 0 0 8.5037458018487087 -200.75222291755927 0 -200.75222291755927 -694.67682989501918 0 0 0 0 387.34608438281793 258.96966859519671 0 258.96966859519671 -151.83009631301684 0 0 0 0 -124.41265785040014 102.71821039555653 0 102.71821039555653 406.69003814391908 0 0 0 0 -167.15432998732649 -61.825311965652872 0 -61.825311965652872 -148.3920280431048 0 0 0 0 1.4062208721709304 1.7603232966347981 0 1.7603232966347981 0.057229427389756893 0 0 0 0 697.88286852953024 -200.91817367881958 0 -200.91817367881958 -918.36809318546875 0 0 0 0 -12.398284310571398 -253.79862960272658 0 -253.79862960272658 -878.37963799849967 0 0 0 0 436.10923449337861 99.816631369027164 0 99.816631369027164 -635.2714251743746 0 0 0 0 -205.24491541304997 -115.08949003032649 0 -115.08949003032649 1511.0971635226779 0 0 0 0 -0.29262557355213126 -1.5567488449424651 0 -1.5567488449424651 1.1649463886321314 0 0 0 0 1994.7739515384674 -148.44486683538707 0 -148.44486683538707 -696.11018518835317 0 0 0 0 397.76499653186693 -141.49381704291227 0 -141.49381704291227 75.579246403904108 0 0 0 0 -196.11449696523778 -212.17224448954221 0 -212.17224448954221 376.93826309902443 0 0 0 0 -525.57539548524619 37.425159369890025 0 37.425159369890025 266.79573287185121 0 0 0 0 -642.56516247527907 -107.86682468060826 0 -107.86682468060826 226.37780993071647 0 0 0 0 -527.5042722870312 -51.766583776487096 0 -51.766583776487096 253.50780040325844 0 0 0 0 -111.85588939839454 -61.68241156260774 0 -61.68241156260774 138.1698308400446 0 0 0 0 -422.40310895339826 -89.044094412158302 0 -89.044094412158302 -63.764163109794026 0 0 0 0 -423.25798108210074 -23.696752927015041 0 -23.696752927015041 210.52537842803576 0 0 0 0 -502.76956526847425 -14.180380170675562 0 -14.180380170675562 221.27330113470816 0 0 0 0 -403.35020833387898 -116.21890152966444 0 -116.21890152966444 -432.37686650445903 0 0 0 0 -265.36789622260767 -183.96720424053274 0 -183.96720424053274 -599.30800149395327 0 0 0 0 -460.30064212917569 -63.484831892556031 0 -63.484831892556031 -64.405103285229416 0 0 0 0 -188.82995741875493 -40.626633000341826 0 -40.626633000341826 -182.29834985890921 0 0 0 0 -587.16625511574966 -228.43513985072786 0 -228.43513985072786 -27.787034625813249 0 0 0 0 -606.35639349724806 -115.90205098698425 0 -115.90205098698425 134.79045510540891 0 0 0 0 -488.0519952869472 28.791059765295358 0 28.791059765295358 121.07551562562685 0 0 0 0 -466.82909345068765 -77.889467472945398 0 -77.889467472945398 -10.934354451065701 0 0 0 0 -209.42414839285266 -119.70772305428181 0 -119.70772305428181 147.18971272276394 0 0 0 0 -303.92973033891758 -54.661002203432872 0 -54.661002203432872 149.26586471099006 0 0 0 0 -577.38906404320369 -208.93747629654899 0 -208.93747629654899 153.87147030967026 0 0 0 0 -485.93208497153046 -174.1289641667272 0 -174.1289641667272 166.21596927175415 0 0 0 0 -308.07994429628889 -240.83605838467338 0 -240.83605838467338 107.08699518434878 0 0 0 0 -1033.4678756060043 -561.71124998283676 0 -561.71124998283676 -31.392037009776686 0 0 0 0 357.67725384446749 -201.36721243927605 0 -201.36721243927605 -343.99948383904484 0 0 0 0 55.451605811118498 -495.6828004510171 0 -495.6828004510171 -566.43165972890711 0 0 0 0 -1211.622999563082 -579.89910133525336 0 -579.89910133525336 -353.88099005195727 0 0 0 0 -497.19562942694211 367.73618205576531 0 367.73618205576531 116.84731699783151 0 0 0 0 -317.21913873271478 -59.775848763349131 0 -59.775848763349131 134.77191714363289 0 0 0 0 -805.76247417554623 146.92102692678964 0 146.92102692678964 110.95968574641847 0 0 0 0 -252.39468481924814 99.227628525236469 0 99.227628525236469 194.26175078711094 0 0 0 0 637.85191262029912 -230.00324121291851 0 -230.00324121291851 -248.34208464090443 0 0 0 0 875.52988446056042 -104.75766343950818 0 -104.75766343950818 -207.44042811291729 0 0 0 0 857.88518110907114 183.6357932334281 0 183.6357932334281 -73.408299691720458 0 0 0 0 223.32864228238941 -239.1030508730455 0 -239.1030508730455 81.463303283584537 0 0 0 0 456.54124401734225 -269.45730477861071 0 -269.45730477861071 -132.71800813691516 0 0 0 0 -1.0916860994959912 -3.9942077098914126 0 -3.9942077098914126 -1.5437007934514213 0 0 0 0 403.69078803446155 -194.59867761726673 0 -194.59867761726673 -55.704308989494166 0 0 0 0 244.24118138308222 -209.938912663667 0 -209.938912663667 -273.69925770652662 0 0 0 0 -518.8515445877174 -437.30818121916218 0 -437.30818121916218 -168.7577217839862 0 0 0 0 616.13968483714234 -203.00811320000685 0 -203.00811320000685 330.45020166610266 0 0 0 0 -1.2525457641640507 -3.5431033838065495 0 -3.5431033838065495 -1.1722583263125301 0 0 0 0 766.53403946040635 -194.34361355085639 0 -194.34361355085639 -93.547542097503538 0 0 0 0 474.22305536937165 -471.13692593580618 0 -471.13692593580618 295.96827734744875 0 0 0 0 743.03497029176287 -560.02405578811886 0 -560.02405578811886 252.18202068308165 0 0 0 0 -19.353375809871565 -21.308716994005877 0 -21.308716994005877 -21.896909561203991 0 0 0 0 93.2652888765424 -3.7471836902641371 0 -3.7471836902641371 -214.51364076569371 0 0 0 0 37.622881406939996 -172.02515962420875 0 -172.02515962420875 -217.23141151693562 0 0 0 0 -25.814218093299132 -238.34944617606743 0 -238.34944617606743 -281.41990401926887 0 0 0 0 81.788323510576447 -65.5829581541675 0 -65.5829581541675 38.904010538564762 0 0 0 0 1429.9958216392843 466.5714113531667 0 466.5714113531667 784.48473699727037 0 0 0 0 -329.38016527547006 -310.74508753510963 0 -310.74508753510963 -91.785827070845698 0 0 0 0 -519.6594140478519 -775.49268948368262 0 -775.49268948368262 557.45427894788554 0 0 0 0 -1158.9332752844639 -1126.0100281199375 0 -1126.0100281199375 524.98973223457961 0 0 0 0 -1190.1599082940811 -590.11241149166017 0 -590.11241149166017 673.76936128322632 0 0 0 0 -1323.6557379453006 -519.72925018537353 0 -519.72925018537353 646.21940188757435 0 0 0 0 -746.71135430458526 -384.97253848193213 0 -384.97253848193213 405.25621148818755 0 0 0 0 -1242.4446038913593 -157.29773379689323 0 -157.29773379689323 303.63424927755841 0 0 0 0 -897.13551674103292 -89.946445061406848 0 -89.946445061406848 311.62657366688654 0 0 0 0 -57.930318846403679 -42.991580963294837 0 -42.991580963294837 62.737659942067694 0 0 0 0 -342.78620183507883 -162.01092533884366 0 -162.01092533884366 316.10588344909411 0 0 0 0 -7.9072714508344113 -10.266815374692772 0 -10.266815374692772 -12.175717712280459 0 0 0 0 -10.812409308897259 -9.0741570568961833 0 -9.0741570568961833 6.4062539745937102 0 0 0 0 -8.5217154949230505 -11.358185155508071 0 -11.358185155508071 -11.988160926192791 0 0 0 0 -65.775081352136283 -375.36319050007677 0 -375.36319050007677 143.77486323956691 0 0 0 0 -319.83875929350324 152.2894692747177 0 152.2894692747177 72.530912466048903 0 0 0 0 1.8885419569151054 -19.423318149450097 0 -19.423318149450097 -18.955736176983919 0 0 0 0 -1287.8132431766317 -516.21306725763134 0 -516.21306725763134 -209.58517822266731 0 0 0 0 -1.1293056510770398 -2.6046402100292543 0 -2.6046402100292543 -6.3080993845186981 0 0 0 0 -7.6071681035697551 -4.2137134083089727 0 -4.2137134083089727 -0.7226044408975838 0 0 0 0 188.2198540309455 6.7618711860213807 0 6.7618711860213807 27.453023677735473 0 0 0 0 -1081.2752800939379 -944.16466189773564 0 -944.16466189773564 -595.50929515031748 0 0 0 0 -1429.4147384401076 456.30750841858026 0 456.30750841858026 69.385693047275339 0 0 0 0 -1693.0843971137547 -152.7190542949611 0 -152.7190542949611 417.58099958523962 0 0 0 0 -252.73905991317588 -33.192366524051977 0 -33.192366524051977 -21.882073200813466 0 0 0 0 -265.60314930447203 9.6607624082898838 0 9.6607624082898838 -34.494761085818027 0 0 0 0 -306.26759125823446 -19.098757912423025 0 -19.098757912423025 -14.93833136684043 0 0 0 0 -320.24543207776151 -66.76322285149763 0 -66.76322285149763 -87.344810813661752 0 0 0 0 -498.1411814915482 -160.86222937483399 0 -160.86222937483399 -107.8861456698869 0 0 0 0 -375.15391959625413 -27.916561038713553 0 -27.916561038713553 -125.94445125352649 0 0 0 0 -335.38533869188541 -69.350787910459985 0 -69.350787910459985 -58.795832975367375 0 0 0 0 -447.32858112225949 38.213995811280256 0 38.213995811280256 -0.39873416675254703 0 0 0 0 -210.57516899148322 -27.995537470807903 0 -27.995537470807903 -88.968092160874221 0 0 0 0 -24.727549717324564 -36.884580963642975 0 -36.884580963642975 -22.069743712790427 0 0 0 0 -301.33714424161371 -3.8313076087542868 0 -3.8313076087542868 -9.155432324638241 0 0 0 0 67.187513303368178 -71.772376488481314 0 -71.772376488481314 -39.903950678257388 0 0 0 0 -53.065694036355126 -91.782412209471659 0 -91.782412209471659 -1.7520719746535178 0 0 0 0 -259.54095637300634 -1607.9638327242137 0 -1607.9638327242137 1571.9677676403062 0 0 0 0 7.373347648637008 -34.920592199008325 0 -34.920592199008325 -60.815415435692124 0 0 0 0 -274.4119446864172 487.48399031798783 0 487.48399031798783 330.44156049453886 0 0 0 0 -10.743666489280557 -6.1561566030498085 0 -6.1561566030498085 -2.6769247122510649 0 0 0 0 -1.2382528341258876 -66.165848094900866 0 -66.165848094900866 -36.918927838978561 0 0 0 0 -30.957831276917204 -44.009073164088477 0 -44.009073164088477 28.947264011956577 0 0 0 0 -71.589471492658049 -54.028678474562184 0 -54.028678474562184 44.990618527168408 0 0 0 0 -101.88004318398453 -13.981095041486697 0 -13.981095041486697 -53.608760950830401 0 0 0 0 -12.279845635602427 -31.608575311688291 0 -31.608575311688291 -28.765534413669741 0 0 0 0 -25.607973527192371 -67.407125790294231 0 -67.407125790294231 19.293036024915637 0 0 0 0 113.80551030156494 -53.508517244219547 0 -53.508517244219547 -67.957903422557138 0 0 0 0 3.3675557660407947 -29.987326777306691 0 -29.987326777306691 8.9858757909712637 0 0 0 0 -13.995043280172212 -48.788335582367793 0 -48.788335582367793 -39.752730981157896 0 0 0 0 92.745961539912969 6.3378340213093907 0 6.3378340213093907 14.503232822520658 0 0 0 0 -241.51526632401055 140.85200067607911 0 140.85200067607911 424.57851632997335 0 0 0 0 -157.2108152296787 -131.63551683359037 0 -131.63551683359037 1040.1090798960649 0 0 0 0 7.2100183252769057 281.29105054293723 0 281.29105054293723 462.18752218902227 0 0 0 0 9.1280818524605181 -34.807766821824686 0 -34.807766821824686 19.515685673445333 0 0 0 0 435.05982788793517 77.566077174906241 0 77.566077174906241 -44.271463776291057 0 0 0 0 89.346566716354573 -124.94484681479298 0 -124.94484681479298 17.244037934739026 0 0 0 0 -27.735957944896356 -38.282024662413306 0 -38.282024662413306 -25.306748304582264 0 0 0 0 218.35970864494359 -93.755054640386561 0 -93.755054640386561 4.9003971618440119 0 0 0 0 -0.78502131638015271 -66.000704701405994 0 -66.000704701405994 -47.718503690779471 0 0 0 0 -24.308263662736863 -102.60906107586015 0 -102.60906107586015 27.901181304881902 0 0 0 0 -54.16263104272366 -80.512393068509482 0 -80.512393068509482 29.12943304253713 0 0 0 0 2.488067116412914 2.4083338361337887 0 2.4083338361337887 -2.5406115014040296 0 0 0 0 -147.06665004847673 -156.71408765390333 0 -156.71408765390333 -41.553139366944379 0 0 0 0 268.75549438728194 -136.97311627115778 0 -136.97311627115778 -113.76911837545231 0 0 0 0 -207.20539675912732 -117.37302018476112 0 -117.37302018476112 -2.799261586376133 0 0 0 0 -47.820066339299956 -40.269613303342339 0 -40.269613303342339 -12.606248490570579 0 0 0 0 -449.93708146644349 -77.34525292388571 0 -77.34525292388571 0.24722282680158969 0 0 0 0 -110.30046987047535 -14.738039772397315 0 -14.738039772397315 0.11542001600901131 0 0 0 0 -4.5991969216993311 -38.90975831347896 0 -38.90975831347896 11.256387906072632 0 0 0 0 -74.686339572319412 -32.66333167624316 0 -32.66333167624316 11.293670243750967 0 0 0 0 -42.099985750668566 -90.124470216796908 0 -90.124470216796908 -1.8866236765730946 0 0 0 0 -35.365504252944447 -52.805901024687955 0 -52.805901024687955 -19.521544042105234 0 0 0 0 8.6478800415602208 -5.2208640263516628 0 -5.2208640263516628 -11.696900749195123 0 0 0 0 10.983445500758819 -20.344406223179632 0 -20.344406223179632 0.34514655875015876 0 0 0 0 16.481464291343769 -24.026561974202373 0 -24.026561974202373 -23.160177642148483 0 0 0 0 25.815864564830918 -44.121157387353378 0 -44.121157387353378 -22.985494954351452 0 0 0 0 49.277058942032454 -10.347068010782095 0 -10.347068010782095 -26.355150748675896 0 0 0 0 16.848757081144583 -17.580908984499644 0 -17.580908984499644 7.7230064193372527 0 0 0 0 -56.049927515588934 -73.456600010173133 0 -73.456600010173133 -42.646572882425971 0 0 0 0 -35.574206388468156 -50.469266030311701 0 -50.469266030311701 -22.810954613225476 0 0 0 0 -377.21300217910175 54.565937111718085 0 54.565937111718085 50.404682116655749 0 0 0 0 -411.74700706311705 -91.480841827982658 0 -91.480841827982658 4.6615465427967138 0 0 0 0 8.8244507738563698 -29.007691185091971 0 -29.007691185091971 20.519314464498621 0 0 0 0 -88.722778506125906 -53.69187616612362 0 -53.69187616612362 143.55090422837748 0 0 0 0 -34.172450892504031 -40.010671480661387 0 -40.010671480661387 -7.6233437884054354 0 0 0 0 8.6425906327111477 -13.487710899385206 0 -13.487710899385206 -1.0872133554787808 0 0 0 0 -10.480975859532919 -71.397083604510044 0 -71.397083604510044 -18.15377181902295 0 0 0 0 20.824107170394711 -16.075570141282938 0 -16.075570141282938 -0.99971019129915817 0 0 0 0 3.0778532952826936 -48.371551613579868 0 -48.371551613579868 -57.433381555605592 0 0 0 0 -1.3178136717506277 -172.91577156311359 0 -172.91577156311359 170.87181809044705 0 0 0 0 -37.502141979869535 -37.240662583583109 0 -37.240662583583109 -14.125551556383051 0 0 0 0 -86.871772312551911 -125.65200555170441 0 -125.65200555170441 116.49865495095946 0 0 0 0 -20.986355222667044 -118.64815581005314 0 -118.64815581005314 -45.63861821258979 0 0 0 0 -39.146061537649075 -9.4785267419683805 0 -9.4785267419683805 -25.239840757114507 0 0 0 0 30.026922037723125 -322.20283069510697 0 -322.20283069510697 -298.10125440112461 0 0 0 0 1.544442278077824 1.1839999114027506 0 1.1839999114027506 -6.2144961435461852 0 0 0 0 42.215496088389045 18.942091053683725 0 18.942091053683725 -120.27537921251496 0 0 0 0 -236.04492268247486 -248.19315989557253 0 -248.19315989557253 -186.97687192617013 0 0 0 0 -293.8203258071353 302.57466018090781 0 302.57466018090781 122.7534970354609 0 0 0 0 114.80731300041953 -5.0410937497290433 0 -5.0410937497290433 1.630513654446986 0 0 0 0 -37.261801278005805 40.986209584308199 0 40.986209584308199 48.178665572937462 0 0 0 0 -25.311059275409207 29.358706686900405 0 29.358706686900405 -323.23332156336255 0 0 0 0 -122.2309692105664 -70.251725121321215 0 -70.251725121321215 25.685290609711956 0 0 0 0 99.73765648924018 36.874627135217452 0 36.874627135217452 -102.85789769437179 0 0 0 0 -205.63405281422456 7.1831215538913966 0 7.1831215538913966 367.72736938470553 0 0 0 0 19.74190534513238 -20.665673641568489 0 -20.665673641568489 1.69590403593741 0 0 0 0 -34.886762608916456 -38.605921371653608 0 -38.605921371653608 -6.518814935096259 0 0 0 0 85.335720446719279 25.28501533322833 0 25.28501533322833 53.041621613541793 0 0 0 0 72.174439797308878 -14.090662684335257 0 -14.090662684335257 61.002232339355032 0 0 0 0 17.543025937386119 -3.3578417800576972 0 -3.3578417800576972 -189.3294068594023 0 0 0 0 0.094337172710766026 -0.80759094741119952 0 -0.80759094741119952 -139.09304834926661 0 0 0 0 -11.64923043168892 -33.745539831636961 0 -33.745539831636961 -29.634947560574801 0 0 0 0 97.441262121375985 72.200344980547925 0 72.200344980547925 -290.98056643608288 0 0 0 0 -25.879964257099346 103.94665780224386 0 103.94665780224386 -223.19898880705114 0 0 0 0 69.032814379324918 28.398935696530771 0 28.398935696530771 -306.93699500323055 0 0 0 0 55.138787440031592 -8.0065029119250539 0 -8.0065029119250539 -236.67502167906241 0 0 0 0 -29.689225077621813 -183.90238271882845 0 -183.90238271882845 -181.98892190368042 0 0 0 0 93.801971871008391 -139.53920738560248 0 -139.53920738560248 -449.48647998035085 0 0 0 0 24.86825605960783 -17.968768001882978 0 -17.968768001882978 12.116200589508438 0 0 0 0 7.6037217783814413 -26.552162355836117 0 -26.552162355836117 -290.69150743442697 0 0 0 0 24.519850626941377 -19.177582941895459 0 -19.177582941895459 11.226960097523694 0 0 0 0 19.448877217873815 -386.79308458473861 0 -386.79308458473861 -507.13095077549406 0 0 0 0 -52.082761420588213 -33.17420704864162 0 -33.17420704864162 -50.214122815594237 0 0 0 0 -136.07729930990899 -107.45675273932829 0 -107.45675273932829 2.7816243678912542 0 0 0 0 -1172.1645510347225 -1028.4942877243666 0 -1028.4942877243666 -305.12514085137445 0 0 0 0 -79.527892867186893 -538.87085681050849 0 -538.87085681050849 -209.6027114738099 0 0 0 0 -93.381168152616738 -597.25156611294005 0 -597.25156611294005 -133.70196164226763 0 0 0 0 -183.06334033860185 -589.26176187738383 0 -589.26176187738383 -90.05228388917385 0 0 0 0 -56.736218619236752 -10.360481233119572 0 -10.360481233119572 -150.64720244983982 0 0 0 0 -190.10130296997522 8.1204697038501763 0 8.1204697038501763 24.704974499363743 0 0 0 0 -74.417118632642087 -41.307488597878546 0 -41.307488597878546 -12.058235553003669 0 0 0 0 -338.05223036696407 -170.21063099535604 0 -170.21063099535604 -110.53873166849098 0 0 0 0 89.336618812487359 140.91625306535025 0 140.91625306535025 -353.4456153975043 0 0 0 0 -959.81079103043157 327.48454986173601 0 327.48454986173601 -277.87098219478503 0 0 0 0 -181.11411768047202 -162.74740682563106 0 -162.74740682563106 228.2174342541548 0 0 0 0 -364.4428509984682 -365.61011410678839 0 -365.61011410678839 159.3309979369642 0 0 0 0 -180.02440558560249 -126.05903018255555 0 -126.05903018255555 -498.5428648468951 0 0 0 0 722.40409165836172 598.529654537022 0 598.529654537022 -590.17539975581894 0 0 0 0 -7.8203957984072048 -7.7478654254962152 0 -7.7478654254962152 -6.4160194956890777 0 0 0 0 350.65875359393249 -1071.2367459038906 0 -1071.2367459038906 -1239.9945037199723 0 0 0 0 -539.69904543693701 57.686698771245574 0 57.686698771245574 275.38148289042874 0 0 0 0 -147.97227584039501 255.65150918801373 0 255.65150918801373 370.30934233276093 0 0 0 0 -153.32362014842511 -115.14981278721098 0 -115.14981278721098 125.26014729426242 0 0 0 0 -59.758918118840484 -130.66851805783517 0 -130.66851805783517 126.7147607568113 0 0 0 0 4.8366582502215181 -2.7892706755579724 0 -2.7892706755579724 1.4739234755371271 0 0 0 0 539.46889911731205 -63.884815809414249 0 -63.884815809414249 -314.84657040361708 0 0 0 0 2.2376759099045174 -1.8186340940793038 0 -1.8186340940793038 2.5385809197369724 0 0 0 0 89.434550033525738 -134.90019351059891 0 -134.90019351059891 97.272864783215482 0 0 0 0 39.060734899328963 -187.28734715042083 0 -187.28734715042083 50.684751740288448 0 0 0 0 -62.673785234215757 -117.35282465832279 0 -117.35282465832279 180.16739829258586 0 0 0 0 21.364967936853645 -53.573884678087779 0 -53.573884678087779 215.38525266017496 0 0 0 0 -12.760710499757778 -29.841149758938826 0 -29.841149758938826 -6.346721722996179 0 0 0 0 -114.91822657378725 -103.4872636465534 0 -103.4872636465534 -44.569113848760026 0 0 0 0 11.244510292745289 -13.079541950296118 0 -13.079541950296118 2.7008285515384927 0 0 0 0 -52.576244224790571 -60.311814651635359 0 -60.311814651635359 -15.976850115781417 0 0 0 0 -6.2536357626522658 -23.298548295133514 0 -23.298548295133514 -5.996219636654132 0 0 0 0 -16.344536168748164 -30.501339859136351 0 -30.501339859136351 -8.4423902966400419 0 0 0 0 -1.6230719138144281 -25.811662619863569 0 -25.811662619863569 -8.4461311623102588 0 0 0 0 -12.615810096723287 -28.179486260519241 0 -28.179486260519241 -1.526837949355496 0 0 0 0 -74.899132412574545 -408.94203652231954 0 -408.94203652231954 -457.30260870251732 0 0 0 0 -89.793244487023003 -337.89042367209481 0 -337.89042367209481 -221.59017735296948 0 0 0 0 -236.6552934092615 -494.44793824059889 0 -494.44793824059889 -93.967558495005505 0 0 0 0 -247.92763668890984 -428.35474329278804 0 -428.35474329278804 -136.24174018336998 0 0 0 0 -360.10168178395543 -554.25091031898955 0 -554.25091031898955 64.006068825900002 0 0 0 0 -534.62315037707594 -461.81248792997576 0 -461.81248792997576 32.554869305346074 0 0 0 0 -3.2786792325511733 -18.825046966475092 0 -18.825046966475092 -33.205387708431488 0 0 0 0 23.280225701248128 -27.212458878147118 0 -27.212458878147118 -66.489731267734896 0 0 0 0 12.718442373086873 -50.584143860063705 0 -50.584143860063705 -100.06211687010273 0 0 0 0 -681.25989547494828 -134.59641843573263 0 -134.59641843573263 -24.726505637908758 0 0 0 0 -67.907297555793775 37.89971980930568 0 37.89971980930568 -53.895602974212125 0 0 0 0 -115.61441539594853 202.11801228161039 0 202.11801228161039 -331.08361465441521 0 0 0 0 -518.49657649041183 -50.347940882798866 0 -50.347940882798866 15.859726087783201 0 0 0 0 -2104.8410243943326 -260.2119128750146 0 -260.2119128750146 508.93083399212264 0 0 0 0 -3.1322247235164831 -4.4920952756896426 0 -4.4920952756896426 -13.23919829446578 0 0 0 0 -702.87660059069458 -474.69445530382654 0 -474.69445530382654 1084.4225770165503 0 0 0 0 1134.7004202546086 135.63359697625856 0 135.63359697625856 57.531076440041033 0 0 0 0 741.48420225827067 -1019.2089411441848 0 -1019.2089411441848 444.42995738077298 0 0 0 0 591.91110625313377 -688.09868496248419 0 -688.09868496248419 64.234328760547214 0 0 0 0 -148.15462150422536 -509.46974479360142 0 -509.46974479360142 -98.269687421428898 0 0 0 0 -162.08838572159402 -472.03409774642796 0 -472.03409774642796 50.782922671714914 0 0 0 0 100.00561221500539 43.708726470744296 0 43.708726470744296 -16.183198072391065 0 0 0 0 -73.731977349441877 -65.615381645371599 0 -65.615381645371599 60.475909284050431 0 0 0 0 423.3679133939022 99.656840624042616 0 99.656840624042616 106.90469341223798 0 0 0 0 5.4012934376308834 -2.715998714746668 0 -2.715998714746668 2.045147342164384 0 0 0 0 -22.416592178837163 -380.14380580825673 0 -380.14380580825673 1225.4181947201614 0 0 0 0 5.4803469769971684 -4.5726028972402304 0 -4.5726028972402304 2.8959237338675692 0 0 0 0 -104.8694473746109 86.12826008137381 0 86.12826008137381 -5.448987488176499 0 0 0 0 400.08643923689669 -286.55097695801305 0 -286.55097695801305 -157.12956734873296 0 0 0 0 1028.8734489936032 -860.59259295398442 0 -860.59259295398442 266.76453676183428 0 0 0 0 217.54973425277421 -287.00591602504937 0 -287.00591602504937 170.18006068385148 0 0 0 0 41.41048997719372 -225.59780538276209 0 -225.59780538276209 341.79942901843606 0 0 0 0 14.610487022718303 -16.2936062058725 0 -16.2936062058725 -4.1730343090174742 0 0 0 0 70.363915133959381 -244.39169945459798 0 -244.39169945459798 -228.07311809506791 0 0 0 0 -10.513302108136486 -53.518034194319625 0 -53.518034194319625 5.2739603580157564 0 0 0 0 18.286071211383387 -659.84791511937146 0 -659.84791511937146 -694.73402205249022 0 0 0 0 34.873349844707263 41.944244155842171 0 41.944244155842171 -511.95842537727458 0 0 0 0 -368.34297526819046 -442.92993414966259 0 -442.92993414966259 -300.57205640973916 0 0 0 0 0.067216222323583708 -8.1056178173502769 0 -8.1056178173502769 -2.9303968092177684 0 0 0 0 -161.41737021377594 -0.16751810576533899 0 -0.16751810576533899 -0.212282495063846 0 0 0 0 -2.426351521517816 -24.201841924538591 0 -24.201841924538591 8.451659383011922 0 0 0 0 86.05623437536633 -57.321407606024877 0 -57.321407606024877 -137.93753690977246 0 0 0 0 -1.683590392126991 -31.726505929489157 0 -31.726505929489157 -44.691300897642421 0 0 0 0 25.903472509220592 -68.478733694861148 0 -68.478733694861148 -75.012112142032493 0 0 0 0 -58.33418432722101 -48.978731964827602 0 -48.978731964827602 -25.063140673280941 0 0 0 0 56.281964280003194 139.73989203568544 0 139.73989203568544 57.042693264389527 0 0 0 0 9.9514987551090357 -15.581323976666013 0 -15.581323976666013 -3.7158572079445662 0 0 0 0 -6.6863827432862308 -12.606739965163797 0 -12.606739965163797 -70.161502188305576 0 0 0 0 -137.59552427659219 37.384739179421558 0 37.384739179421558 -63.199320455772977 0 0 0 0 -714.74583172813072 -659.50896380269478 0 -659.50896380269478 -547.36167383181601 0 0 0 0 -136.75485378407029 -232.83951273172897 0 -232.83951273172897 -380.29025316898878 0 0 0 0 -7.7376422672299441 2.3895679948659776 0 2.3895679948659776 -1.117290589223483 0 0 0 0 52.618031936086481 -18.014148770344036 0 -18.014148770344036 -665.76814973224464 0 0 0 0 139.39362664720829 -167.74364968603186 0 -167.74364968603186 -784.48923123832719 0 0 0 0 61.571229701821721 -232.49207662885601 0 -232.49207662885601 -548.31693190016085 0 0 0 0 104.01100501985638 -84.212941095804126 0 -84.212941095804126 -492.76344684152173 0 0 0 0 -317.6016650484562 -9.3763593916373793 0 -9.3763593916373793 -651.07335112617511 0 0 0 0 183.97915143200225 -268.20439154468841 0 -268.20439154468841 -1132.4871918297667 0 0 0 0 160.78845474327318 -214.27626656016946 0 -214.27626656016946 -565.19907612092356 0 0 0 0 -95.686335869148024 -43.543892705756662 0 -43.543892705756662 -117.9788345419056 0 0 0 0 30.906505990220467 -145.41088776987453 0 -145.41088776987453 -115.67866101039181 0 0 0 0 183.4844823429903 -178.81806955768116 0 -178.81806955768116 -429.45990646225982 0 0 0 0 33.317318868334041 119.97246084952712 0 119.97246084952712 -296.98659930205395 0 0 0 0 4.6688506518238952 -23.025998491748027 0 -23.025998491748027 16.355891313769835 0 0 0 0 7.6640868494660026 -34.376993306701479 0 -34.376993306701479 -12.586283651951817 0 0 0 0 -102.63018687086333 59.183990286608605 0 59.183990286608605 -20.876036709950313 0 0 0 0 3.1940035216370157 -6.2611855322552898 0 -6.2611855322552898 -9.2726492754795373 0 0 0 0 -13.9303733631059 -167.75991883052848 0 -167.75991883052848 -122.06726085439004 0 0 0 0 41.841494076932577 19.625685960236297 0 19.625685960236297 -333.07365609241242 0 0 0 0 -161.31947016541562 -189.61239781668519 0 -189.61239781668519 -66.087300709947158 0 0 0 0 -63.886742616405172 -74.937206066235376 0 -74.937206066235376 -35.504640258721338 0 0 0 0 61.5623185626755 -99.246366857860266 0 -99.246366857860266 -105.51795215053426 0 0 0 0 30.930071040400435 -77.320237531381281 0 -77.320237531381281 -66.294260142794656 0 0 0 0 6.9288551371464564 -100.78751146690774 0 -100.78751146690774 -65.265307205997942 0 0 0 0 -41.233293285817126 -146.78674608663277 0 -146.78674608663277 -79.012513280220446 0 0 0 0 -23.699333300695798 -18.709449867827061 0 -18.709449867827061 112.94541993085659 0 0 0 0 13.109537221374922 -104.35168833461466 0 -104.35168833461466 -106.34445933022653 0 0 0 0 106.65062352403038 79.140876317938819 0 79.140876317938819 -22.035891426199669 0 0 0 0 3.3350131320967193 -2.5119521899746644 0 -2.5119521899746644 2.9628536010876445 0 0 0 0 167.02644106154685 -70.265499720083426 0 -70.265499720083426 -399.12251121466397 0 0 0 0 -10.960492030304522 76.48925373682323 0 76.48925373682323 71.209973398661532 0 0 0 0 238.14274553259747 -110.91443619471283 0 -110.91443619471283 -157.73322829201061 0 0 0 0 15.000386952380723 -25.632521422292484 0 -25.632521422292484 -9.2631086964756832 0 0 0 0 12.351626798103098 24.291279239660071 0 24.291279239660071 -54.584031323160161 0 0 0 0 9.4491964955548688 -10.227459945800057 0 -10.227459945800057 3.1166791718939919 0 0 0 0 -3.7233513942173886 -21.245469217947175 0 -21.245469217947175 -9.5577630893749301 0 0 0 0 7.8303304789989099 -23.930445928591801 0 -23.930445928591801 -29.669028991450048 0 0 0 0 4.6737570146106115 -2.5885813008515086 0 -2.5885813008515086 -1.1556057029292504 0 0 0 0 -107.63985714966657 -54.654305357858902 0 -54.654305357858902 -12.819298395479564 0 0 0 0 12.888908946017182 -50.865469680287788 0 -50.865469680287788 71.090059252575884 0 0 0 0 0.39556264197705104 -13.933427971771533 0 -13.933427971771533 -21.019191416752818 0 0 0 0 12.297187238340257 -46.993629082294774 0 -46.993629082294774 48.70640371083573 0 0 0 0 -9.5219096564285373 -20.601095499924448 0 -20.601095499924448 -18.636960280250037 0 0 0 0 130.30238189005286 -191.08932574731807 0 -191.08932574731807 91.490004561594105 0 0 0 0 56.794703163501254 -102.83296560126109 0 -102.83296560126109 59.054119620367601 0 0 0 0 34.521498799458641 -119.97542332660669 0 -119.97542332660669 166.44946270903165 0 0 0 0 34.494512034949366 -151.69556810645736 0 -151.69556810645736 1.7854077078300179 0 0 0 0 77.087545149886864 -96.450850153905776 0 -96.450850153905776 -40.13548094856742 0 0 0 0 -11.137123667751439 -125.54927497177778 0 -125.54927497177778 92.295519805960794 0 0 0 0 -41.652963524602455 -203.04240844192645 0 -203.04240844192645 -42.613844710271223 0 0 0 0 -51.767502366041299 -97.057790510812993 0 -97.057790510812993 199.71630370988714 0 0 0 0 -32.731069965189818 -133.74632970609855 0 -133.74632970609855 99.885853841806238 0 0 0 0 -45.443723634663229 77.745301154091067 0 77.745301154091067 409.79058021188393 0 0 0 0 -130.13843438933145 -143.01573738892694 0 -143.01573738892694 326.46024298486645 0 0 0 0 -134.43595406103213 69.068023800684387 0 69.068023800684387 -20.143260220618686 0 0 0 0 55.438792407404435 -76.185718873080987 0 -76.185718873080987 -43.443169400929037 0 0 0 0 -54.924663459392832 -189.87223967244427 0 -189.87223967244427 70.297013196712214 0 0 0 0 -56.594986724847331 -141.20902708088397 0 -141.20902708088397 40.432391655451283 0 0 0 0 -389.2640460206419 -345.28983121382862 0 -345.28983121382862 -77.344579919554235 0 0 0 0 -356.24243279326583 156.68262200446043 0 156.68262200446043 37.712157704929268 0 0 0 0 -129.45045817233949 228.9399919070438 0 228.9399919070438 -40.178238623640937 0 0 0 0 -468.81577038484784 -574.42889943724458 0 -574.42889943724458 47.132912925771961 0 0 0 0 -865.81684683441563 23.156986283036531 0 23.156986283036531 111.96898375253659 0 0 0 0 159.45872461403269 -329.59143967031923 0 -329.59143967031923 -301.46679564750048 0 0 0 0 337.25724402688684 -235.34002272631733 0 -235.34002272631733 -253.84268652682658 0 0 0 0 -0.11479806889176913 0.69613221837951222 0 0.69613221837951222 -9.6394615966745931 0 0 0 0 85.240390964505423 -153.64084880580776 0 -153.64084880580776 -172.78987425471951 0 0 0 0 278.19068568357034 -86.32178052674135 0 -86.32178052674135 -165.59857565396669 0 0 0 0 -79.65750985691011 -279.65089320020343 0 -279.65089320020343 -174.97671802736295 0 0 0 0 79.528461208919907 -169.82717065083489 0 -169.82717065083489 -245.39870048358534 0 0 0 0 -289.93683197937207 -207.47055713136069 0 -207.47055713136069 42.622400131063841 0 0 0 0 14.099618193730521 -189.74583872063909 0 -189.74583872063909 -203.5875465464851 0 0 0 0 130.35101596710592 -128.55003691199272 0 -128.55003691199272 -256.07897959256661 0 0 0 0 64.743223420142385 -159.04940318097579 0 -159.04940318097579 -206.5804369936377 0 0 0 0 75.119906190898291 -172.34563393211283 0 -172.34563393211283 -206.77071552272537 0 0 0 0 -61.268588449493109 -81.111178715128517 0 -81.111178715128517 160.91208448417456 0 0 0 0 0.13637709567046841 -66.366218348965049 0 -66.366218348965049 131.96792042617017 0 0 0 0 97.027113378790091 -202.14211299129238 0 -202.14211299129238 114.32584247467457 0 0 0 0 -49.983313671473297 -143.65814053268332 0 -143.65814053268332 136.19855014887435 0 0 0 0 -59.70795024869949 -188.82670699874507 0 -188.82670699874507 40.823787935492874 0 0 0 0 -70.949744488234501 -124.1257188357522 0 -124.1257188357522 118.03151546754088 0 0 0 0 -44.377909123519203 -106.07447548699929 0 -106.07447548699929 67.568618875724496 0 0 0 0 -56.970175473485142 -93.314398643600725 0 -93.314398643600725 124.74461453489948 0 0 0 0 -41.892162134914543 -116.17925793522591 0 -116.17925793522591 77.684478849958396 0 0 0 0 -25.589671804882528 -121.0458344300132 0 -121.0458344300132 73.434242555412311 0 0 0 0 -19.503448154024227 -115.33897095677821 0 -115.33897095677821 39.194429121955181 0 0 0 0 -27.964154357177904 -58.345258944420493 0 -58.345258944420493 15.320887039386434 0 0 0 0 0.818922996881156 -93.940607445456408 0 -93.940607445456408 36.177828048108495 0 0 0 0 -35.851377416202013 -56.340483399195364 0 -56.340483399195364 72.378276850708062 0 0 0 0 -39.392643724953814 -30.009555688942783 0 -30.009555688942783 111.02324710125686 0 0 0 0 -53.195276046946674 -98.263774182392808 0 -98.263774182392808 126.32944434599631 0 0 0 0 82.27097639058411 -81.627955705258501 0 -81.627955705258501 52.537654361573004 0 0 0 0 55.99452487301096 -130.22227402117642 0 -130.22227402117642 175.25626053568067 0 0 0 0 45.033748854793885 -135.30275144689585 0 -135.30275144689585 307.28527809378829 0 0 0 0 10.609267935347816 -18.843570619173988 0 -18.843570619173988 141.6293439995934 0 0 0 0 129.2881197597153 13.718058922127966 0 13.718058922127966 245.8003258758763 0 0 0 0 0.67646176815343928 -1.8837158398462677 0 -1.8837158398462677 7.1875531260332934 0 0 0 0 63.950429812863149 164.48141967065203 0 164.48141967065203 -108.13299677267059 0 0 0 0 503.35225600970261 -180.39228653033388 0 -180.39228653033388 87.11357301120006 0 0 0 0 98.558649553440091 -20.317942855765324 0 -20.317942855765324 67.745321079386486 0 0 0 0 125.09342104335155 -116.18313628144824 0 -116.18313628144824 47.593759613706425 0 0 0 0 285.00290276882424 -33.060300295204797 0 -33.060300295204797 -31.30468770294101 0 0 0 0 -440.16074078165002 74.83752795905275 0 74.83752795905275 683.22449540802336 0 0 0 0 0.80332602636318651 -4.6127225462907688 0 -4.6127225462907688 20.814514450082953 0 0 0 0 74.384199353909935 -65.317003314150497 0 -65.317003314150497 0.38430519140820252 0 0 0 0 122.86762511826055 -95.327904788173328 0 -95.327904788173328 -31.05535363900708 0 0 0 0 -20.76993092167686 -110.7089921368115 0 -110.7089921368115 -15.045335941154917 0 0 0 0 29.124456696074049 -144.53506254771128 0 -144.53506254771128 5.1022387184784748 0 0 0 0 -92.118344668466307 -202.52766280505966 0 -202.52766280505966 -20.839067591570711 0 0 0 0 -129.36664542257677 -138.39988148059274 0 -138.39988148059274 -118.30833006758257 0 0 0 0 48.28195699548678 -147.32362514220313 0 -147.32362514220313 -42.1692444077853 0 0 0 0 -138.39284322819185 -197.73603212226953 0 -197.73603212226953 3.1272645639874099 0 0 0 0 -44.533758689518436 -79.336398585724965 0 -79.336398585724965 7.8128709778065968 0 0 0 0 -37.095559351198972 -298.95968205059035 0 -298.95968205059035 -17.224554894961329 0 0 0 0 -164.03947769748629 -194.88017988396314 0 -194.88017988396314 117.13205129664493 0 0 0 0 -247.96500555401144 -156.40213209246576 0 -156.40213209246576 32.020472314372455 0 0 0 0 -672.09389821824561 -406.00083622218426 0 -406.00083622218426 9.7994503974914551 0 0 0 0 -257.26482397816289 -104.34713198200734 0 -104.34713198200734 -123.14845372395212 0 0 0 0 -398.75347128284739 -276.26462649527457 0 -276.26462649527457 -79.556628091005678 0 0 0 0 -273.81328526862762 -139.6539212680982 0 -139.6539212680982 -47.204081651689194 0 0 0 0 4.2449795376574855 -9.1803385668001525 0 -9.1803385668001525 3.9251634971870573 0 0 0 0 -212.40888463118972 -230.74305668114539 0 -230.74305668114539 -63.690381363807319 0 0 0 0 -94.674176475291461 -178.52384527723734 0 -178.52384527723734 -72.529758227130515 0 0 0 0 -109.17182617837534 -208.92118615437357 0 -208.92118615437357 -90.733493842271855 0 0 0 0 -201.29644653093055 -177.91749160092149 0 -177.91749160092149 -74.677062547249079 0 0 0 0 -82.052426740101509 -209.2130477295832 0 -209.2130477295832 -105.40270211416646 0 0 0 0 -117.14765357825672 -180.93994793505044 0 -180.93994793505044 -126.91305857348198 0 0 0 0 -112.3465217618359 -165.46410198768535 0 -165.46410198768535 -77.093325076035399 0 0 0 0 -144.41671495377341 -122.69370478446035 0 -122.69370478446035 -81.067331815174839 0 0 0 0 -171.66205835682194 -134.94712510144018 0 -134.94712510144018 -74.462513962709636 0 0 0 0 22.039861616000053 -124.45022942854848 0 -124.45022942854848 -25.942462561564753 0 0 0 0 72.43452475216327 -5.4249539067095611 0 -5.4249539067095611 62.904661702697922 0 0 0 0 7.6160491140399245 -89.39126839308301 0 -89.39126839308301 62.18644739253358 0 0 0 0 16.881017477797286 -146.29030810899712 0 -146.29030810899712 -52.237197134112648 0 0 0 0 5.1508451975896605 -101.45872996406979 0 -101.45872996406979 20.165704586983338 0 0 0 0 5.169378562924976 -171.40685932389897 0 -171.40685932389897 -74.937299740737217 0 0 0 0 -87.841105720101041 -192.03191148271071 0 -192.03191148271071 -46.1490503795103 0 0 0 0 -37.501190947925352 -203.95989487431871 0 -203.95989487431871 -84.918729767148761 0 0 0 0 -76.287831598594948 -187.82347644743186 0 -187.82347644743186 -88.225929052445281 0 0 0 0 -64.295291016605916 -225.86362007408388 0 -225.86362007408388 -134.852102556717 0 0 0 0 -62.16475098025694 -192.45905939473596 0 -192.45905939473596 -89.99938502009536 0 0 0 0 -55.872167608464224 -196.49120084568858 0 -196.49120084568858 -87.417136393498367 0 0 0 0 -34.974292535636323 -148.51375239512026 0 -148.51375239512026 -32.256724125225446 0 0 0 0 0.70230396951520513 -10.351872973627586 0 -10.351872973627586 29.509588529104121 0 0 0 0 52.873345890301607 -59.008491550574945 0 -59.008491550574945 -26.666079760005232 0 0 0 0 -45.85246562102293 -100.07182825139876 0 -100.07182825139876 -7.7270331116887974 0 0 0 0 -36.40674068752196 -120.71432907886629 0 -120.71432907886629 -42.677484660693153 0 0 0 0 -176.22447274262231 -176.2245122938948 0 -176.2245122938948 14.203946723602712 0 0 0 0 -133.09603513376715 13.178301830506825 0 13.178301830506825 153.47944133852434 0 0 0 0 -823.8603692114466 -438.83072626725152 0 -438.83072626725152 -213.70957924197864 0 0 0 0 -515.8961750463186 -636.0280116885333 0 -636.0280116885333 -643.97101309460413 0 0 0 0 -339.49170396956282 -351.60661360441588 0 -351.60661360441588 -152.31455848675978 0 0 0 0 -352.56760925901733 -2.0214794446092128 0 -2.0214794446092128 11.069106408889638 0 0 0 0 -2.2406996153276921 -2.8065858266870194 0 -2.8065858266870194 4.3569933616908401 0 0 0 0 -82.447437743361661 -301.23188265738645 0 -301.23188265738645 -429.47372000957694 0 0 0 0 -181.91579670628926 -241.55781277277856 0 -241.55781277277856 -271.69032812444493 0 0 0 0 -105.57280927213651 -175.1995435151839 0 -175.1995435151839 -374.86196782295883 0 0 0 0 -15.632541123927695 -144.26483872170775 0 -144.26483872170775 -178.03993797560543 0 0 0 0 -15.411785693559068 -175.74240781625303 0 -175.74240781625303 -352.90681278407646 0 0 0 0 -27.16499491542163 -195.11439848576993 0 -195.11439848576993 -225.90740745289804 0 0 0 0 -96.153184866837364 -277.63590052234122 0 -277.63590052234122 -206.00653675630019 0 0 0 0 -55.572098092467058 -188.130632137254 0 -188.130632137254 -201.37009145792763 0 0 0 0 -17.051611932679627 6.3548377742831264 0 6.3548377742831264 -2.5761297081740082 0 0 0 0 -30.83354835706632 6.0236488578466378 0 6.0236488578466378 -207.48239716114949 0 0 0 0 -4.7200955125517794 36.98097248547856 0 36.98097248547856 6.8498835117725321 0 0 0 0 183.77157685337443 190.18382493780518 0 190.18382493780518 -661.0033002236014 0 0 0 0 37.760784930971568 -497.10202124218631 0 -497.10202124218631 -1176.072911601761 0 0 0 0 515.52539325147154 -47.522196340891242 0 -47.522196340891242 -1332.308821254599 0 0 0 0 -148.6142562708028 -133.5515914412299 0 -133.5515914412299 -105.12126336634901 0 0 0 0 320.61651165960393 -370.49323129395998 0 -370.49323129395998 767.13832444342552 0 0 0 0 0.31262790446271183 -11.536421361378611 0 -11.536421361378611 8.1834332583026566 0 0 0 0 -3.9570374097756797 -5.3181557132811079 0 -5.3181557132811079 2.7794170430303566 0 0 0 0 820.78126993083424 -485.49642223847331 0 -485.49642223847331 -684.09630055591151 0 0 0 0 -61.918334219870303 -114.21834802106605 0 -114.21834802106605 -132.85124916559653 0 0 0 0 -107.23789628229497 -128.26990647577622 0 -128.26990647577622 -137.1129748032472 0 0 0 0 -49.84524767514813 -166.99073325594873 0 -166.99073325594873 -125.22555236152039 0 0 0 0 -87.413504394404299 -3.6712594143546085 0 -3.6712594143546085 35.650546459077304 0 0 0 0 -23.046494029365022 4.0068845127734534 0 4.0068845127734534 0.39485062919231595 0 0 0 0 69.020004938602142 -34.099590702015121 0 -34.099590702015121 -7.1304169959093997 0 0 0 0 8.116988811915494 -22.639524688087885 0 -22.639524688087885 5.1311415391002271 0 0 0 0 62.851525471907735 -29.566549236719766 0 -29.566549236719766 -10.315718339801606 0 0 0 0 -34.343277000269154 3.649230826652456 0 3.649230826652456 -4.1037584801379126 0 0 0 0 9.6848303152561357 -21.439443641091504 0 -21.439443641091504 -4.3162522180252552 0 0 0 0 -169.64979917112396 -57.11026178179236 0 -57.11026178179236 40.877163256050153 0 0 0 0 6.4736078177161289 -47.430906051524062 0 -47.430906051524062 -5.0281847644364461 0 0 0 0 -49.663833316397358 17.912718422661783 0 17.912718422661783 105.64111277714983 0 0 0 0 51.77469845264568 -27.02882680611765 0 -27.02882680611765 105.72957507604224 0 0 0 0 -35.850730242014833 32.854577400524249 0 32.854577400524249 59.157668928481144 0 0 0 0 2.5794796158552344 -38.178294006547731 0 -38.178294006547731 23.629160263047197 0 0 0 0 -72.187940199799414 14.64507777299832 0 14.64507777299832 37.632339382251303 0 0 0 0 -20.152483724662488 -41.974427086182459 0 -41.974427086182459 196.70242434238753 0 0 0 0 137.21278274453289 -127.39272617557435 0 -127.39272617557435 119.97753034420202 0 0 0 0 25.243590519170539 -161.2223532289936 0 -161.2223532289936 191.78531145378656 0 0 0 0 6.6257443128470186 -132.09765830889773 0 -132.09765830889773 -23.952659511431193 0 0 0 0 6.4639756217120521 -105.24948690870451 0 -105.24948690870451 58.550153172909631 0 0 0 0 -16.407703326722185 -88.188120776285359 0 -88.188120776285359 11.388878886946259 0 0 0 0 107.33581284527463 -207.916926203603 0 -207.916926203603 47.273804223569414 0 0 0 0 97.814192327057754 -252.86744057984924 0 -252.86744057984924 106.19851761574409 0 0 0 0 84.212390279661122 -224.87247189164009 0 -224.87247189164009 54.674537066599441 0 0 0 0 4.8796356121565623 -40.179209740406804 0 -40.179209740406804 -13.102514488899033 0 0 0 0 -31.073308945625286 -34.477138293746066 0 -34.477138293746066 -2.3639491050162178 0 0 0 0 9.0637129563869401 -19.328444542523982 0 -19.328444542523982 -15.22142364393801 0 0 0 0 -96.923600610874928 -151.37901307770517 0 -151.37901307770517 56.332828078826424 0 0 0 0 -29.047689778120002 -35.911472027330092 0 -35.911472027330092 -15.203085255478072 0 0 0 0 -28.957674451724472 -22.401144265002245 0 -22.401144265002245 -25.358230026948149 0 0 0 0 -30.201261969311702 -35.167981732340877 0 -35.167981732340877 -12.741751207735433 0 0 0 0 -81.604114522913733 -37.046518634208951 0 -37.046518634208951 438.31999623591037 0 0 0 0 -88.722848439345398 -4.9582339747023525 0 -4.9582339747023525 319.92403442350405 0 0 0 0 -59.294667117217614 -160.21337276221675 0 -160.21337276221675 282.34589364567319 0 0 0 0 99.816265095407289 58.124020095104243 0 58.124020095104243 108.28770193389755 0 0 0 0 51.887577971079736 -333.11480430579604 0 -333.11480430579604 1059.4769909938987 0 0 0 0 17.369605523534119 -121.26412560393737 0 -121.26412560393737 357.83550062107361 0 0 0 0 -6.7061644177634108 -10.016455042382503 0 -10.016455042382503 1.1301121196115425 0 0 0 0 -19.976300435035228 242.51757816856798 0 242.51757816856798 599.04580314333089 0 0 0 0 8.9267255179867462 -18.979939564758933 0 -18.979939564758933 -26.306067892256337 0 0 0 0 -33.796576005566749 -29.352511611084992 0 -29.352511611084992 -31.80700662655363 0 0 0 0 -29.274486892540821 -15.124532491598224 0 -15.124532491598224 9.7303707033865834 0 0 0 0 184.40917411278861 -165.76136865511489 0 -165.76136865511489 -65.851347974317832 0 0 0 0 326.40945236629159 -248.05342973963002 0 -248.05342973963002 -18.162133428369998 0 0 0 0 73.579335969630847 -433.03028470046638 0 -433.03028470046638 49.456576828234574 0 0 0 0 231.97679777679514 -345.96308068585131 0 -345.96308068585131 76.084143621542808 0 0 0 0 253.48081680995483 -309.85050029577701 0 -309.85050029577701 -12.205726828002298 0 0 0 0 -99.371843863567847 -193.08112291280486 0 -193.08112291280486 326.24346977339837 0 0 0 0 319.36090869709278 -520.17409630120665 0 -520.17409630120665 535.1931593741765 0 0 0 0 1003.1519908952032 -222.70430501186183 0 -222.70430501186183 -117.03944316642492 0 0 0 0 420.33430794764718 169.33324239000649 0 169.33324239000649 686.81438087841661 0 0 0 0 205.23347325591385 -137.50012830771402 0 -137.50012830771402 253.78122174368036 0 0 0 0 179.27817921355745 53.926816897245772 0 53.926816897245772 278.95288694644898 0 0 0 0 173.9087268469666 -23.281903624726965 0 -23.281903624726965 162.12930957819708 0 0 0 0 175.10011575112003 9.5785148332388417 0 9.5785148332388417 72.818239717549659 0 0 0 0 -2.3897701140085701 -21.958020223399672 0 -21.958020223399672 216.53778383880035 0 0 0 0 42.21791523936281 -22.509360348163852 0 -22.509360348163852 19.086292318424739 0 0 0 0 53.913777906555879 5.8539974361813165 0 5.8539974361813165 85.562475330842062 0 0 0 0 211.86900517865615 -6.2472336488179963 0 -6.2472336488179963 -40.722858884702191 0 0 0 0 154.67272238087753 -142.29490861061868 0 -142.29490861061868 -38.90149203901791 0 0 0 0 464.23922404783298 -64.071073804114917 0 -64.071073804114917 -22.334190445383229 0 0 0 0 83.287135537713766 -155.83726138122483 0 -155.83726138122483 -11.29865904997223 0 0 0 0 113.59333290586437 -284.73670226791558 0 -284.73670226791558 -89.772742725411831 0 0 0 0 -36.02798934274324 -187.75713664111845 0 -187.75713664111845 -109.3886054030786 0 0 0 0 -93.194274020308512 -227.92089302311842 0 -227.92089302311842 -96.99374365724907 0 0 0 0 -174.66120751718336 -222.44199090882489 0 -222.44199090882489 111.44616520171985 0 0 0 0 28.096465468512179 -292.60519872180112 0 -292.60519872180112 58.355787481017614 0 0 0 0 -30.687943272023404 -221.18290704174251 0 -221.18290704174251 196.29222532306721 0 0 0 0 -99.06134865054446 -224.29106677589812 0 -224.29106677589812 108.12600317364922 0 0 0 0 -110.32054524056002 -193.9034458906317 0 -193.9034458906317 189.1355551097613 0 0 0 0 -136.51346374481 -162.75733457851948 0 -162.75733457851948 321.75872443045591 0 0 0 0 287.33738092484055 -291.461955966819 0 -291.461955966819 78.719992995273515 0 0 0 0 236.14479139079231 -172.52454214334625 0 -172.52454214334625 167.59870286751357 0 0 0 0 -36.303302961183363 -107.22551966913807 0 -107.22551966913807 387.37324555548912 0 0 0 0 870.52488093211468 -349.83135842695992 0 -349.83135842695992 216.622975465325 0 0 0 0 -15.128396815494852 -279.78074298702381 0 -279.78074298702381 414.43013951375178 0 0 0 0 38.268500220801798 -146.02764728124384 0 -146.02764728124384 88.812351573425076 0 0 0 0 110.94273240879011 -88.489471988128116 0 -88.489471988128116 45.003452619698692 0 0 0 0 44.680113548067311 -108.10333852730037 0 -108.10333852730037 97.9668575190517 0 0 0 0 10.183899650899548 -109.87371289119619 0 -109.87371289119619 102.70698773713684 0 0 0 0 39.198905071036279 -89.768956578886446 0 -89.768956578886446 103.85380494125366 0 0 0 0 -29.820819416248924 -168.5805468409917 0 -168.5805468409917 38.551169261738778 0 0 0 0 -90.662801832169862 -100.58215512394872 0 -100.58215512394872 103.79171220830767 0 0 0 0 14.08927072158707 -184.62686714979466 0 -184.62686714979466 -49.018653919552889 0 0 0 0 53.779829722355316 -247.37048092577777 0 -247.37048092577777 18.503385720377992 0 0 0 0 5.7278599962573935 -127.71054077316921 0 -127.71054077316921 82.475100534514581 0 0 0 0 18.922715332921143 -94.258185265819975 0 -94.258185265819975 -12.601042055666085 0 0 0 0 -34.881493337550637 9.2790875772479922 0 9.2790875772479922 84.628881933257617 0 0 0 0 -77.675570156599861 -131.03855444973692 0 -131.03855444973692 -19.520915764905794 0 0 0 0 -23.191453424211886 -89.74249236286505 0 -89.74249236286505 32.064979561481778 0 0 0 0 -164.66298831624226 -98.86545320432333 0 -98.86545320432333 131.7596801043137 0 0 0 0 319.73839694264461 -179.13420559568112 0 -179.13420559568112 3.0864224601327805 0 0 0 0 -0.359278782648631 -1.3240021684075032 0 -1.3240021684075032 0.013149784104395934 0 0 0 0 -389.00910807225227 -93.423241498780953 0 -93.423241498780953 90.336276143277246 0 0 0 0 -169.13659107496096 -125.58710015603992 0 -125.58710015603992 -0.28571121235017927 0 0 0 0 -107.84530751939747 -94.848434602293764 0 -94.848434602293764 -43.533699652439736 0 0 0 0 4.7706605911489692 -11.337186642263145 0 -11.337186642263145 0.99520988646183639 0 0 0 0 -61.446731643320163 -188.86532629989961 0 -188.86532629989961 -217.31406217097083 0 0 0 0 -112.6879794550423 -289.46830813696124 0 -289.46830813696124 10.183251239967831 0 0 0 0 -36.509240243980912 -225.42401477207068 0 -225.42401477207068 134.40244831281052 0 0 0 0 105.64759650746328 -125.00428791552577 0 -125.00428791552577 200.04240262335406 0 0 0 0 -3.1107468004046268 -1.2983137596953949 0 -1.2983137596953949 9.1708189693367395 0 0 0 0 -51.198198983809561 -0.88061869069042586 0 -0.88061869069042586 101.8471090068233 0 0 0 0 -2.3380556278828228 -25.238322062843384 0 -25.238322062843384 72.344982644729271 0 0 0 0 17.73791187398092 -65.441217808049259 0 -65.441217808049259 81.628374868501851 0 0 0 0 17.541965548556618 -60.548695980089178 0 -60.548695980089178 89.178891267645668 0 0 0 0 46.991601860417177 -49.424823191545784 0 -49.424823191545784 20.649687137403816 0 0 0 0 65.769917182155496 -74.447218028120488 0 -74.447218028120488 50.855229209208119 0 0 0 0 36.964650503784839 -41.889360808182957 0 -41.889360808182957 9.63395193772668 0 0 0 0 22.538864826811732 -94.926914190907155 0 -94.926914190907155 156.1568302593405 0 0 0 0 58.765890068746558 -132.58447653627627 0 -132.58447653627627 139.80397019407974 0 0 0 0 12.293338675563064 -77.092976371844998 0 -77.092976371844998 126.99800174862958 0 0 0 0 37.855040755479422 -69.846720742338221 0 -69.846720742338221 79.621672490626224 0 0 0 0 81.261394424247555 -55.861842163382789 0 -55.861842163382789 15.185913725239516 0 0 0 0 7.5986739359723288 -71.26744127094571 0 -71.26744127094571 79.608089534168357 0 0 0 0 -51.283052858052542 -34.501101276659028 0 -34.501101276659028 156.87539995769475 0 0 0 0 68.411694339254609 -127.50751129508535 0 -127.50751129508535 129.64472624763584 0 0 0 0 22.35177266469509 -59.013302940313224 0 -59.013302940313224 75.244112622749526 0 0 0 0 -33.539745509886416 -38.869949537689536 0 -38.869949537689536 95.728974678215309 0 0 0 0 -59.836760539155875 -91.204778323532082 0 -91.204778323532082 -51.619556669012127 0 0 0 0 -4.3317094388085087 -1.3215887005726223 0 -1.3215887005726223 44.90338003589023 0 0 0 0 -20.029672518532699 -13.290285983050218 0 -13.290285983050218 6.352642207377194 0 0 0 0 -6.970016064331503 -20.633777936609476 0 -20.633777936609476 70.126926063088831 0 0 0 0 118.92755020380719 -180.70947300759849 0 -180.70947300759849 291.2627400069432 0 0 0 0 276.2796423167074 -294.86989847826226 0 -294.86989847826226 143.95827428074335 0 0 0 0 10.494048282791482 -29.887423063973984 0 -29.887423063973984 61.652319828439431 0 0 0 0 -6.248215787108462 -19.034179700235569 0 -19.034179700235569 55.79513299985301 0 0 0 0 2.5804588287132404 -2.7283856884024722 0 -2.7283856884024722 14.761370371815271 0 0 0 0 215.6048887004988 -77.472529427688187 0 -77.472529427688187 54.026786146640006 0 0 0 0 327.38537228373571 -249.60181175121215 0 -249.60181175121215 203.36901859905629 0 0 0 0 298.29521440130338 -299.17028195579223 0 -299.17028195579223 298.85037754084533 0 0 0 0 107.10921973437871 -172.60927912984152 0 -172.60927912984152 222.05317508314965 0 0 0 0 352.51663479264971 -227.28056387304969 0 -227.28056387304969 154.69399913326015 0 0 0 0 281.68446694051636 -273.71765700344804 0 -273.71765700344804 266.21469236741541 0 0 0 0 -6.9673548052523984 -116.10301872813943 0 -116.10301872813943 417.59244071489775 0 0 0 0 283.07203211986871 -277.67038413682167 0 -277.67038413682167 186.91560681285409 0 0 0 0 1274.1759295937809 -696.77422594320342 0 -696.77422594320342 285.66992255006153 0 0 0 0 -38.247535130014967 123.43195133173003 0 123.43195133173003 136.94069799320278 0 0 0 0 -397.97510958881412 -653.75838433331228 0 -653.75838433331228 1141.644636201454 0 0 0 0 439.0613676732155 622.98654706865091 0 622.98654706865091 -152.61766400935448 0 0 0 0 76.469315638172702 -26.095213858628995 0 -26.095213858628995 -24.480526734587329 0 0 0 0 -2.6596021499849485 -124.62655544932932 0 -124.62655544932932 -34.181986911840795 0 0 0 0 263.61269921041821 -403.1426138021252 0 -403.1426138021252 -123.51104530072553 0 0 0 0 -36.904634360989803 -48.024264127595416 0 -48.024264127595416 -204.99985728912361 0 0 0 0 -173.45670069958214 -26.937131538787071 0 -26.937131538787071 50.922421224364371 0 0 0 0 0.69944851597072066 0.27646836485294557 0 0.27646836485294557 15.218646420598304 0 0 0 0 -391.51219329939886 -17.363601497334457 0 -17.363601497334457 450.18564980511655 0 0 0 0 -422.97448575165254 -255.9832407135309 0 -255.9832407135309 912.9504649546725 0 0 0 0 1007.3715352011423 274.0457653678568 0 274.0457653678568 -1222.7529184743908 0 0 0 0 -223.40456231715143 -1378.97495811517 0 -1378.97495811517 699.70391429647498 0 0 0 0 22.914248027778285 -565.61437281120902 0 -565.61437281120902 213.40268328474485 0 0 0 0 -126.72553518624591 -436.67467174308786 0 -436.67467174308786 155.69934071225725 0 0 0 0 -213.35174803783593 -326.41799999610885 0 -326.41799999610885 361.20155214643455 0 0 0 0 72.259614943694032 -680.34409085838706 0 -680.34409085838706 385.53212389468717 0 0 0 0 -5.4799036954063922 -567.70154718270896 0 -567.70154718270896 223.99257226103509 0 0 0 0 210.19287218256795 -423.5748332736257 0 -423.5748332736257 110.08786992625573 0 0 0 0 52.674042411477785 -147.06466278350763 0 -147.06466278350763 -328.9175331244478 0 0 0 0 676.58237935011857 -582.99016178624515 0 -582.99016178624515 -215.2646459212483 0 0 0 0 598.38982395179482 -984.79505694797263 0 -984.79505694797263 448.03966699055309 0 0 0 0 112.76647694297571 -21.902671981069943 0 -21.902671981069943 -579.44329251730596 0 0 0 0 -902.91839094325951 540.32787971972266 0 540.32787971972266 -340.4054759291339 0 0 0 0 -18.825022910594271 -230.43753761384141 0 -230.43753761384141 -417.55130593979266 0 0 0 0 257.93031459116537 24.47493629598921 0 24.47493629598921 -860.32104828508454 0 0 0 0 -135.47975964320358 -45.104345724503219 0 -45.104345724503219 181.52364778903575 0 0 0 0 -867.65197868665564 -278.48714254883816 0 -278.48714254883816 -309.81385521454467 0 0 0 0 -37.311809388509573 -28.901648328052033 0 -28.901648328052033 -611.75569901676681 0 0 0 0 -176.36303618707643 -69.721404756231095 0 -69.721404756231095 -33.474500124997576 0 0 0 0 -140.16571154324629 -37.602442135108504 0 -37.602442135108504 -340.36149826483233 0 0 0 0 -1128.259412163965 370.91675314196618 0 370.91675314196618 -165.84826087938563 0 0 0 0 -798.97421912143182 -82.44755946595069 0 -82.44755946595069 134.36965585914731 0 0 0 0 -541.81301471516645 -224.60100386070758 0 -224.60100386070758 34.668707250297302 0 0 0 0 -572.10990939625117 129.2070215722124 0 129.2070215722124 -313.6318988904377 0 0 0 0 -68.841456745092728 -297.63662384919917 0 -297.63662384919917 109.09170766171155 0 0 0 0 -236.73308606962746 -58.743057672414579 0 -58.743057672414579 94.84977257069113 0 0 0 0 -50.806870935168263 -170.93951161943187 0 -170.93951161943187 364.4764224790124 0 0 0 0 -102.9848408762773 -275.36957304947282 0 -275.36957304947282 181.35438621206413 0 0 0 0 -57.09548692007229 -54.816147339475719 0 -54.816147339475719 344.18579573898751 0 0 0 0 55.513429527381959 -431.61158727742077 0 -431.61158727742077 496.02517795055064 0 0 0 0 -437.69282656761698 87.091153577955993 0 87.091153577955993 201.8927769847578 0 0 0 0 -508.20275786157436 -44.222549028552748 0 -44.222549028552748 335.2195487881545 0 0 0 0 -369.06943771767692 -150.9468890815042 0 -150.9468890815042 360.94016083724182 0 0 0 0 -336.22794184881786 -5.4807416952498897 0 -5.4807416952498897 212.61694508986375 0 0 0 0 -1075.6974209866494 142.19466275643208 0 142.19466275643208 305.10201086090819 0 0 0 0 -756.5981237164815 60.971575121548085 0 60.971575121548085 39.496596509936353 0 0 0 0 -751.87021979561268 103.55785444032972 0 103.55785444032972 366.30510202924052 0 0 0 0 -0.11953115696329908 2.0535296231128655 0 2.0535296231128655 2.1123831617226472 0 0 0 0 351.6504756311042 -196.52475626412343 0 -196.52475626412343 80.194136168032855 0 0 0 0 117.57293993086205 -72.330407130317326 0 -72.330407130317326 34.904323842489248 0 0 0 0 -5.9652734354265391 -3.9833736732093357 0 -3.9833736732093357 -4.506396176154432 0 0 0 0 -224.32700284151724 234.911845552866 0 234.911845552866 -127.85265845305003 0 0 0 0 10.959348268709618 -175.97188561258008 0 -175.97188561258008 255.48838174511911 0 0 0 0 -816.8164509185342 43.141553242578539 0 43.141553242578539 342.9827554329604 0 0 0 0 349.8254428483524 -146.28267072045219 0 -146.28267072045219 126.94401740976537 0 0 0 0 180.91152039009467 -100.11313332769441 0 -100.11313332769441 -349.74091477532784 0 0 0 0 1.5826127010914206 -179.55978170225626 0 -179.55978170225626 125.54115680381074 0 0 0 0 274.08274018711018 -134.64842499917359 0 -134.64842499917359 -248.83716254532919 0 0 0 0 182.51398634717043 -221.18694058055189 0 -221.18694058055189 392.92881397904421 0 0 0 0 277.58110891546676 -404.48893793788011 0 -404.48893793788011 513.93504673254938 0 0 0 0 209.20286652060167 -177.40939485009403 0 -177.40939485009403 15.454115147913399 0 0 0 0 347.83283347117685 -148.81726144829372 0 -148.81726144829372 17.171918058427764 0 0 0 0 163.77445704778074 34.843105089034907 0 34.843105089034907 -146.83360667141096 0 0 0 0 211.3549655787574 9.1758557910798118 0 9.1758557910798118 -316.7738914610336 0 0 0 0 -26.571132341985503 78.623527163645122 0 78.623527163645122 -276.69297302793711 0 0 0 0 86.77200208393333 120.79342981642367 0 120.79342981642367 -311.55892697102536 0 0 0 0 133.71381887392636 -130.66987393664749 0 -130.66987393664749 -338.75569293874901 0 0 0 0 145.40830301492315 -7.7462945870133808 0 -7.7462945870133808 -31.690411514508014 0 0 0 0 238.32646254728024 -215.79659558278945 0 -215.79659558278945 -50.989272191753571 0 0 0 0 81.54168734439736 -112.31455340268803 0 -112.31455340268803 -107.10977583414206 0 0 0 0 31.965780729322432 -138.50761549341587 0 -138.50761549341587 178.68822372703289 0 0 0 0 147.99491520257652 -280.60483625787674 0 -280.60483625787674 427.35554599152965 0 0 0 0 222.45123695632356 -245.23438373617682 0 -245.23438373617682 128.42229438180038 0 0 0 0 5.8011704959499184 -177.60575409899684 0 -177.60575409899684 274.74737760749849 0 0 0 0 224.82026866196247 -373.35170262442625 0 -373.35170262442625 294.09102500616018 0 0 0 0 327.88812352241075 -424.17159370981972 0 -424.17159370981972 540.05101638528868 0 0 0 0 478.53754953965836 -571.53681350147235 0 -571.53681350147235 589.58269220135844 0 0 0 0 128.79427830058921 -405.78313548496953 0 -405.78313548496953 589.54275966482237 0 0 0 0 336.08448730434611 -390.927289287436 0 -390.927289287436 377.59790846934629 0 0 0 0 374.10517690108099 -521.06329055338574 0 -521.06329055338574 622.53235770131869 0 0 0 0 274.30016859760508 -406.16080797641916 0 -406.16080797641916 679.22572474172739 0 0 0 0 339.57261403256416 -643.59058732113408 0 -643.59058732113408 858.01139634206629 0 0 0 0 302.48353451791627 -591.11830846435623 0 -591.11830846435623 778.8167880079418 0 0 0 0 388.84440002503106 -638.83860458777053 0 -638.83860458777053 719.81474384750618 0 0 0 0 428.4208253397519 -674.53355954068684 0 -674.53355954068684 844.48185102154821 0 0 0 0 418.06485064378649 -643.27604167704703 0 -643.27604167704703 1020.9127606191905 0 0 0 0 502.51070831291145 -492.46857527462271 0 -492.46857527462271 731.41207537653099 0 0 0 0 333.14096003067971 -498.72874812499504 0 -498.72874812499504 936.98636814195197 0 0 0 0 370.23811502580793 -403.26959614873704 0 -403.26959614873704 756.55824222524825 0 0 0 0 307.39027413228177 -240.430826154432 0 -240.430826154432 479.78303186596531 0 0 0 0 314.58280925810004 -418.31113050984925 0 -418.31113050984925 554.39570690026449 0 0 0 0 407.2861741247616 -408.00488084678 0 -408.00488084678 467.74959908344317 0 0 0 0 357.25053607871814 -320.50666542912586 0 -320.50666542912586 251.31726159149548 0 0 0 0 182.61882293099552 -156.15080016987667 0 -156.15080016987667 266.42577385919867 0 0 0 0 459.12981042798492 -417.76154171524831 0 -417.76154171524831 412.90108069280859 0 0 0 0 335.53351991379168 -424.46428109030603 0 -424.46428109030603 491.49811537665664 0 0 0 0 311.68445716403221 -472.40826149920758 0 -472.40826149920758 682.27423307934077 0 0 0 0 502.35664398531662 -593.43460161884286 0 -593.43460161884286 695.59484640335268 0 0 0 0 550.80128379732196 -462.07684396750847 0 -462.07684396750847 554.30941002844577 0 0 0 0 414.3607783848347 -514.38037903611621 0 -514.38037903611621 758.6923385651462 0 0 0 0 758.5521022435496 -530.45753625176076 0 -530.45753625176076 759.37193393117923 0 0 0 0 486.63926923078543 -415.56683706891272 0 -415.56683706891272 1190.8467988609045 0 0 0 0 756.11084010696504 -719.5931096925051 0 -719.5931096925051 811.1007787505514 0 0 0 0 633.81308182241628 -845.99325220532046 0 -845.99325220532046 1209.3958507804782 0 0 0 0 0.30447953872574374 -3.8174772791316371 0 -3.8174772791316371 -1.0918773801568165 0 0 0 0 1018.7164435660379 -879.20050366365467 0 -879.20050366365467 898.72789686183387 0 0 0 0 -2.706160573176021 18.475895451087126 0 18.475895451087126 927.26730919304828 0 0 0 0 -94.078761267679511 13.177813817444985 0 13.177813817444985 58.928116980805498 0 0 0 0 -0.58704564340419552 -1.9459118518966143 0 -1.9459118518966143 19.485793963994681 0 0 0 0 323.17562299404199 -578.4371681495395 0 -578.4371681495395 860.62307966125081 0 0 0 0 466.16705713671399 -711.59101227173232 0 -711.59101227173232 979.98108682069324 0 0 0 0 -190.61973894687253 134.40326449524218 0 134.40326449524218 28.302888306971454 0 0 0 0 303.95188710683033 -668.07696199883048 0 -668.07696199883048 866.88584591968538 0 0 0 0 -37.228023571253289 -31.810354907662258 0 -31.810354907662258 53.154113994226464 0 0 0 0 2.5185028852805544 0.26990335137661248 0 0.26990335137661248 4.0476843960596227 0 0 0 0 156.06862642868873 -474.90235674384166 0 -474.90235674384166 895.06840878466755 0 0 0 0 -47.779801921307808 -34.336511942326979 0 -34.336511942326979 -71.977787404561241 0 0 0 0 -64.676101438013575 -65.030450963512521 0 -65.030450963512521 -46.042738766111142 0 0 0 0 -38.770026492690647 -64.926502298323157 0 -64.926502298323157 -41.17265683835776 0 0 0 0 -119.36756144379615 -0.26106677217103424 0 -0.26106677217103424 188.79543534425466 0 0 0 0 -82.527559631385884 -109.2154618206323 0 -109.2154618206323 238.20104054761759 0 0 0 0 -21.784630547126653 -60.837337658454999 0 -60.837337658454999 74.287565797123534 0 0 0 0 -31.70793625459919 -55.066022140683344 0 -55.066022140683344 109.22892029393915 0 0 0 0 -13.936536461975265 -36.57464588982748 0 -36.57464588982748 35.82852954063128 0 0 0 0 -8.7024985396100263 -18.897026576985198 0 -18.897026576985198 58.027952365814897 0 0 0 0 -0.67358742742344191 -8.380299526881636 0 -8.380299526881636 10.173082471955595 0 0 0 0 -27.601020210960996 -1.8023683103601797 0 -1.8023683103601797 0.033516755007440224 0 0 0 0 7.8001889730087157 -8.5999720923823908 0 -8.5999720923823908 -2.0310496913700007 0 0 0 0 -41.510783017947688 -96.535404920545261 0 -96.535404920545261 -96.325738674066088 0 0 0 0 20.463151324185674 -124.63750043965501 0 -124.63750043965501 -62.913771533341787 0 0 0 0 40.752467894286383 -88.60711606752011 0 -88.60711606752011 -117.50302227739758 0 0 0 0 -41.841214928679619 -22.660464378906909 0 -22.660464378906909 47.396672773546015 0 0 0 0 -41.553553820500383 -93.290296445182321 0 -93.290296445182321 -117.5731899995144 0 0 0 0 -1.9893992353557479 -20.734562951162651 0 -20.734562951162651 -16.955801939765109 0 0 0 0 10.871956038012286 -143.96886843880202 0 -143.96886843880202 93.102802011904714 0 0 0 0 477.58217254831106 -712.67221304509803 0 -712.67221304509803 816.32635866654891 0 0 0 0 431.47560337347386 -745.78908295386645 0 -745.78908295386645 795.45004008182514 0 0 0 0 20.783015513166902 246.10074889686439 0 246.10074889686439 300.90519986262734 0 0 0 0 2.6907450167395552 -1.2155107139672978 0 -1.2155107139672978 -4.1607285633990045 0 0 0 0 541.60076316729828 -667.3926386924104 0 -667.3926386924104 699.0254116027063 0 0 0 0 303.69391109871503 -594.85683917242568 0 -594.85683917242568 734.83620093048376 0 0 0 0 165.84252884578382 -527.98439541495463 0 -527.98439541495463 783.66840757063255 0 0 0 0 469.96119946915314 -389.81520583238944 0 -389.81520583238944 846.42717259961501 0 0 0 0 -7.5262143217270818 -18.021091507269951 0 -18.021091507269951 -17.791688126866568 0 0 0 0 -12.772196925324351 -229.96021014606106 0 -229.96021014606106 -200.78468926010828 0 0 0 0 -28.359789232370531 -87.013625617262733 0 -87.013625617262733 -107.01232463706401 0 0 0 0 -7.0112969857291318 -78.383794015171588 0 -78.383794015171588 -119.12065271499887 0 0 0 0 -6.4125551436882233 -89.3835316081786 0 -89.3835316081786 -151.87758992977615 0 0 0 0 24.728340838886652 -49.95181058999151 0 -49.95181058999151 -332.59816540394968 0 0 0 0 4.6221647993879742 -69.822833009140595 0 -69.822833009140595 -152.92660454118322 0 0 0 0 14.070174366981519 -78.316992504427617 0 -78.316992504427617 -234.47696304111014 0 0 0 0 68.570833796857187 -160.78126032017099 0 -160.78126032017099 -431.99903890246787 0 0 0 0 44.313389441762411 -323.84314060449833 0 -323.84314060449833 -304.41193330848 0 0 0 0 46.206372263779485 -168.69427094659659 0 -168.69427094659659 -272.53963371004647 0 0 0 0 -51.042697214994405 -218.73252456184127 0 -218.73252456184127 -190.51985433743539 0 0 0 0 19.392112241625 -171.90677629691891 0 -171.90677629691891 -178.21839588438525 0 0 0 0 -51.840799054843956 -150.63106340010199 0 -150.63106340010199 -171.11451365130415 0 0 0 0 4.4857646824020776 -104.14116099962484 0 -104.14116099962484 -162.69877483940945 0 0 0 0 6.0693604034654527 -93.519208772957882 0 -93.519208772957882 -133.08555953382893 0 0 0 0 -29.978862972609932 -92.4312503838255 0 -92.4312503838255 -106.89611622528173 0 0 0 0 -51.219567501131678 -111.78981893526397 0 -111.78981893526397 -85.916425392595556 0 0 0 0 -144.69381741566031 -158.33639563861652 0 -158.33639563861652 -108.30642050082497 0 0 0 0 -44.871407861464832 -196.32577498540923 0 -196.32577498540923 -117.27648433539798 0 0 0 0 -170.95335980870732 -189.93368999177983 0 -189.93368999177983 -113.71314449749116 0 0 0 0 12.863220680905819 -33.525667811739581 0 -33.525667811739581 -21.01314703468951 0 0 0 0 14.263808810527962 -22.376069359115249 0 -22.376069359115249 -25.533751822819411 0 0 0 0 -821.45354929244058 -576.36835604895532 0 -576.36835604895532 -119.29155281033309 0 0 0 0 -1431.2754394840304 -354.98162724073336 0 -354.98162724073336 401.43361001857465 0 0 0 0 -707.96206764116141 -306.33243910429883 0 -306.33243910429883 487.47760809181636 0 0 0 0 -497.93376492344396 -697.67725670506843 0 -697.67725670506843 451.36334391357377 0 0 0 0 -816.87195822702051 -460.4118526736529 0 -460.4118526736529 454.52471323519421 0 0 0 0 -719.55789777328027 -385.1008951753829 0 -385.1008951753829 394.00829991379487 0 0 0 0 -781.97159649428431 -271.28166952747415 0 -271.28166952747415 197.03033225152467 0 0 0 0 2.1335216257556597 -44.650660717008797 0 -44.650660717008797 91.678314240350062 0 0 0 0 52.329526587615014 -43.839841231085444 0 -43.839841231085444 9.0765464069829225 0 0 0 0 126.29450880612148 -17.080326075087214 0 -17.080326075087214 40.542543342026875 0 0 0 0 -429.16312138066132 -31.314482975438295 0 -31.314482975438295 65.483801552421937 0 0 0 0 -84.429857656758031 -83.774975404160614 0 -83.774975404160614 246.06773278056062 0 0 0 0 -27.170836054821237 3.2353315962971791 0 3.2353315962971791 26.142578132301431 0 0 0 0 175.09390501377311 -54.204685373754728 0 -54.204685373754728 60.360928906302433 0 0 0 0 -2.972908740341154 -18.056962839091824 0 -18.056962839091824 15.33602004416656 0 0 0 0 -1067.2711413584475 455.1106593883851 0 455.1106593883851 30.218925435881829 0 0 0 0 85.201148796113557 -70.430324550583464 0 -70.430324550583464 37.710986949625294 0 0 0 0 -994.33087229179 -373.77652413853502 0 -373.77652413853502 -68.951179591938853 0 0 0 0 12.491343203800852 -11.469160567684224 0 -11.469160567684224 6.1164458649637226 0 0 0 0 -1198.8980236743773 -122.60043387172118 0 -122.60043387172118 255.98197361442726 0 0 0 0 -779.84724255871697 128.1403656122493 0 128.1403656122493 -54.960076290997222 0 0 0 0 -737.97490835198823 -66.10531747246614 0 -66.10531747246614 414.17543059652962 0 0 0 0 -282.78829522686283 -93.984419247037295 0 -93.984419247037295 181.49273435016039 0 0 0 0 175.77925394479826 -325.44729354274386 0 -325.44729354274386 397.62901310486177 0 0 0 0 -289.58506690667673 -70.108349843139877 0 -70.108349843139877 549.91445283218491 0 0 0 0 339.32680437114323 -392.120111404216 0 -392.120111404216 472.99772418888097 0 0 0 0 32.005661030092597 -372.11175720797837 0 -372.11175720797837 735.44531333876512 0 0 0 0 677.29455570721257 -707.02002470663501 0 -707.02002470663501 570.27076536338063 0 0 0 0 330.54921249846302 -886.77757753426886 0 -886.77757753426886 1146.6217183738063 0 0 0 0 -109.68315523404453 -82.740052857356204 0 -82.740052857356204 857.6001900848205 0 0 0 0 542.79863700889837 -231.66597075825121 0 -231.66597075825121 449.26597456798208 0 0 0 0 -466.04807186275139 -454.57575539478421 0 -454.57575539478421 1162.3080846545508 0 0 0 0 -271.36656055335334 -400.96092090679304 0 -400.96092090679304 247.16441133884291 0 0 0 0 -407.38406591320381 -1032.2422033539551 0 -1032.2422033539551 1064.0972915123757 0 0 0 0 111.82405109460524 -81.860156447452027 0 -81.860156447452027 -1459.9152050918819 0 0 0 0 -3.9669407846021443 -8.0810369417454737 0 -8.0810369417454737 -7.4255964045266509 0 0 0 0 23.994158859590243 -11.473085059718869 0 -11.473085059718869 -158.9495974160418 0 0 0 0 33.518159227278375 62.749935196542538 0 62.749935196542538 -607.94097611704638 0 0 0 0 -270.50712769085658 -402.12147511650073 0 -402.12147511650073 -458.68118422746284 0 0 0 0 -15.063792747663683 -172.18151574206604 0 -172.18151574206604 -280.17684354239464 0 0 0 0 5.5694599286543678 -12.442794256781696 0 -12.442794256781696 20.255747510646529 0 0 0 0 -273.38348849413887 -387.18664510812232 0 -387.18664510812232 -360.37653884332667 0 0 0 0 -6.6090678541877423 -8.63189082774079 0 -8.63189082774079 76.661043018215423 0 0 0 0 49.432250503712567 -1573.8879953092037 0 -1573.8879953092037 -953.14457192993723 0 0 0 0 -1003.7833182874529 412.65966584034322 0 412.65966584034322 -1699.0198681120528 0 0 0 0 -603.62002491219755 -373.294695358436 0 -373.294695358436 -158.02698194824916 0 0 0 0 3.805088384326254 -21.864846197888028 0 -21.864846197888028 45.707137297863603 0 0 0 0 -19.144228940574976 -19.896296354176229 0 -19.896296354176229 68.241593069953524 0 0 0 0 -606.21062368688854 -543.06730652528086 0 -543.06730652528086 33.857786711538211 0 0 0 0 -576.56255703816714 -763.40553183465818 0 -763.40553183465818 533.65565542418699 0 0 0 0 -303.46069567886479 -808.20620462290935 0 -808.20620462290935 334.27545318576449 0 0 0 0 35.5412806354243 -45.901200885556932 0 -45.901200885556932 77.628981595446021 0 0 0 0 25.4553487708381 -53.370116606514785 0 -53.370116606514785 81.858746303085354 0 0 0 0 4.6979083808201461 -20.48890461245805 0 -20.48890461245805 59.996887754976086 0 0 0 0 -44.913627157083283 -8.6049324218652146 0 -8.6049324218652146 105.29055455624871 0 0 0 0 -40.970855896269143 -50.287776322750922 0 -50.287776322750922 56.01315160708873 0 0 0 0 1.1373844286373469 -57.990392546338398 0 -57.990392546338398 154.59085861650965 0 0 0 0 -4.3185985491190371 -22.573381146752499 0 -22.573381146752499 106.07865001114625 0 0 0 0 -8.2103811936002558 -4.0598048552911257 0 -4.0598048552911257 18.806890674873944 0 0 0 0 27.020052208846153 -80.732989181402985 0 -80.732989181402985 56.103115124352506 0 0 0 0 -53.870934234604647 -87.932948045328885 0 -87.932948045328885 145.41127198740651 0 0 0 0 -0.91205937679342242 37.413700154796288 0 37.413700154796288 221.878494904322 0 0 0 0 187.08475114270186 -340.22862424955383 0 -340.22862424955383 -302.06055932411437 0 0 0 0 -1.3426508970888733 -3.6069895755266685 0 -3.6069895755266685 10.385992701019745 0 0 0 0 -16.966966208656231 263.22997537665105 0 263.22997537665105 490.68216578841384 0 0 0 0 -117.66557158294381 -43.246789998887834 0 -43.246789998887834 196.56964318797873 0 0 0 0 -3.1794569423909707 -158.85803619910405 0 -158.85803619910405 94.528717328515086 0 0 0 0 48.9891899671602 -187.3971767345148 0 -187.3971767345148 -6.1312314561655512 0 0 0 0 33.651369915953509 -92.627229899804234 0 -92.627229899804234 26.828271286034116 0 0 0 0 540.32487071260766 -509.18306536040109 0 -509.18306536040109 -160.27162533532282 0 0 0 0 -47.082061749556942 -69.524110445537659 0 -69.524110445537659 -17.235096619866937 0 0 0 0 -20.439448100310983 -85.378443295996476 0 -85.378443295996476 -0.38660486398839566 0 0 0 0 -49.645681179583335 -121.57071339742652 0 -121.57071339742652 28.189909744497527 0 0 0 0 -50.617481560085579 -56.87665448892443 0 -56.87665448892443 -52.111832747814695 0 0 0 0 122.96387100632637 -346.30226800674285 0 -346.30226800674285 179.59257356512765 0 0 0 0 -38.28648879584216 -92.552956145445933 0 -92.552956145445933 3.9516943331618677 0 0 0 0 199.18486365377794 -204.80000064634669 0 -204.80000064634669 -149.90686235336665 0 0 0 0 -157.03072812078972 279.04464147992564 0 279.04464147992564 -384.83783907561974 0 0 0 0 133.7543829965216 -243.57154267670421 0 -243.57154267670421 -547.70951872345131 0 0 0 0 70.357472030075996 -68.200811714419956 0 -68.200811714419956 -97.604937943858204 0 0 0 0 -975.35172806227069 -327.98010084196892 0 -327.98010084196892 110.83154435122833 0 0 0 0 5.2165550332719146 -11.782151121736796 0 -11.782151121736796 -10.473521401983461 0 0 0 0 110.63244593443142 -64.279598384673363 0 -64.279598384673363 -111.07655353540758 0 0 0 0 88.727544615907391 -73.315615358712421 0 -73.315615358712421 -114.70897707844779 0 0 0 0 79.866053806115815 -61.104504898346022 0 -61.104504898346022 -93.604473033947215 0 0 0 0 -261.01756106931862 -241.98902526064433 0 -241.98902526064433 82.666740445268715 0 0 0 0 -57.478340950918209 -184.56573385252238 0 -184.56573385252238 -26.045143104746103 0 0 0 0 -27.416850104667674 -74.29631730189169 0 -74.29631730189169 -62.152377824162464 0 0 0 0 -131.1200664079106 -150.20502974745295 0 -150.20502974745295 -142.26007968957492 0 0 0 0 -138.01638388582978 -166.44253942920386 0 -166.44253942920386 -90.908314103719022 0 0 0 0 -105.12079043654376 -269.9854505653027 0 -269.9854505653027 77.400057444274353 0 0 0 0 -119.86457923288253 -180.67865511342643 0 -180.67865511342643 -79.871184206051112 0 0 0 0 -34.111821466883868 -66.442479035215555 0 -66.442479035215555 -69.145045900361623 0 0 0 0 -131.50585288280945 -206.44475063765867 0 -206.44475063765867 -8.7251796236669179 0 0 0 0 -7.4905538695747964 -289.50309663073676 0 -289.50309663073676 -101.36763502750546 0 0 0 0 110.42892077104898 -530.0151546147008 0 -530.0151546147008 83.226337752028485 0 0 0 0 -6.3028039718010405 -285.53233523479321 0 -285.53233523479321 -204.72676827549367 0 0 0 0 -292.47917104801309 160.01490664067751 0 160.01490664067751 407.1575606271781 0 0 0 0 -234.09571282737306 -304.72801002315464 0 -304.72801002315464 574.89320928440429 0 0 0 0 -174.31670687773294 -200.55244482140915 0 -200.55244482140915 41.334513222602254 0 0 0 0 -185.66299126168451 225.01862521965813 0 225.01862521965813 -78.560224239472518 0 0 0 0 -28.593613146087876 -78.380360835165234 0 -78.380360835165234 -40.527016386254324 0 0 0 0 -11.568464434807538 -111.35513576892777 0 -111.35513576892777 -36.864293976555928 0 0 0 0 -7.757929988350952 -111.2332191550995 0 -111.2332191550995 42.143729035673459 0 0 0 0 -22.890695453061255 -72.926995186270375 0 -72.926995186270375 -33.66691943094888 0 0 0 0 13.522290041000986 -75.680927184330073 0 -75.680927184330073 -9.7703957442923315 0 0 0 0 18.92280557412596 -148.63378017638934 0 -148.63378017638934 -21.325589492994823 0 0 0 0 -31.595366964073037 -187.88986666375547 0 -187.88986666375547 -153.43540700991662 0 0 0 0 -5.1532306737208273 -122.59991601757565 0 -122.59991601757565 -1.5055582622244401 0 0 0 0 -14.112997293572278 -95.061353830364069 0 -95.061353830364069 -46.251728233375246 0 0 0 0 -52.620014147876645 -75.413898305341718 0 -75.413898305341718 -100.65080872799444 0 0 0 0 12.173125371599554 -54.998630813399913 0 -54.998630813399913 -34.897270682752549 0 0 0 0 -5.7029739648060058 -92.219311378496059 0 -92.219311378496059 21.539594906600541 0 0 0 0 -103.55076643671782 -205.22615554128424 0 -205.22615554128424 -187.63559661270119 0 0 0 0 -122.01303161802934 -163.95492985083547 0 -163.95492985083547 -177.5872653000115 0 0 0 0 -102.19275478235795 -221.82421539867937 0 -221.82421539867937 -227.17594961698342 0 0 0 0 4.9355121496137144 -79.229768561986731 0 -79.229768561986731 40.179261221268121 0 0 0 0 -14.393310703776763 -10.545111986388321 0 -10.545111986388321 34.836941999471478 0 0 0 0 -138.64857637043497 -236.33995725503519 0 -236.33995725503519 -123.19484912119515 0 0 0 0 -139.47844376985449 -243.44478734508448 0 -243.44478734508448 -175.46863134310888 0 0 0 0 -195.77763659323318 -175.15425679731499 0 -175.15425679731499 -155.14956176408532 0 0 0 0 -244.44243416420068 -198.8067124921688 0 -198.8067124921688 8.1421815955361581 0 0 0 0 -185.88545465446077 -261.69257821143401 0 -261.69257821143401 -122.9648728590837 0 0 0 0 -19.54511560234846 -104.67627790987504 0 -104.67627790987504 -72.456361127928034 0 0 0 0 -207.25144127142266 -257.74288912581687 0 -257.74288912581687 -23.878982723355875 0 0 0 0 -440.43845700006932 -400.41475618277036 0 -400.41475618277036 -66.07580777714611 0 0 0 0 -162.90523513802327 -216.14189372912369 0 -216.14189372912369 -39.598931790169445 0 0 0 0 -115.58799505574279 -176.53523901130393 0 -176.53523901130393 -106.50904949654068 0 0 0 0 7.2302409992353205 -28.677845172541765 0 -28.677845172541765 75.82463279478543 0 0 0 0 -102.83362134261552 -116.82484957353154 0 -116.82484957353154 204.28883273310203 0 0 0 0 45.06070612754047 -94.048559389273578 0 -94.048559389273578 -115.53497832634457 0 0 0 0 -29.724139531881519 -79.537099498804309 0 -79.537099498804309 44.099610202232725 0 0 0 0 -28.358141481210623 -80.314557824811345 0 -80.314557824811345 1.8399440741923172 0 0 0 0 -29.190619362250516 -51.604906224384195 0 -51.604906224384195 -38.10215045221068 0 0 0 0 -33.916148414203491 -44.817760098256997 0 -44.817760098256997 -61.20039028190908 0 0 0 0 -38.769428160376265 -199.80630205055786 0 -199.80630205055786 -0.48668862332851859 0 0 0 0 16.352748738358059 -116.48998992006455 0 -116.48998992006455 27.478755723808717 0 0 0 0 -35.076606732334767 -71.633099074770143 0 -71.633099074770143 10.039543589202367 0 0 0 0 -6.7228104465793876 -120.44437571261824 0 -120.44437571261824 -70.828320545086171 0 0 0 0 -69.310830875801912 -116.36306182020053 0 -116.36306182020053 -68.597092505742694 0 0 0 0 -35.72191441107131 -55.119556212318884 0 -55.119556212318884 -53.822694520202845 0 0 0 0 74.454596254824992 -166.36541013427899 0 -166.36541013427899 -141.35864082394983 0 0 0 0 -10.483669101447276 -13.109956676431565 0 -13.109956676431565 -8.7968774247773638 0 0 0 0 30.275904908849043 -189.3193187713332 0 -189.3193187713332 127.63417646503149 0 0 0 0 -53.92498136566428 -71.432756795038586 0 -71.432756795038586 131.1936469697248 0 0 0 0 193.31699772409047 -224.92973596947559 0 -224.92973596947559 0.042387685432913713 0 0 0 0 -30.661372285074322 -242.12627619275008 0 -242.12627619275008 16.184373481413786 0 0 0 0 -54.850400864903349 -314.99931421293877 0 -314.99931421293877 6.1533519951753988 0 0 0 0 72.96194879779307 -248.6721792412568 0 -248.6721792412568 0.45898874723934568 0 0 0 0 -93.185815584371085 -229.18963963759961 0 -229.18963963759961 80.220414722309215 0 0 0 0 -78.386233164288569 -194.7454232214659 0 -194.7454232214659 73.238999438093742 0 0 0 0 -126.42601231673325 -287.83450085991353 0 -287.83450085991353 -0.36400330816104542 0 0 0 0 -343.28433821964427 -230.10683947188227 0 -230.10683947188227 -3.6462096228638075 0 0 0 0 -74.045661594675039 -409.54493119166727 0 -409.54493119166727 -189.55680155867594 0 0 0 0 -27.005276353578665 -262.29363627968269 0 -262.29363627968269 -59.639257155038649 0 0 0 0 -100.53759144435753 -226.00435159387416 0 -226.00435159387416 -69.644713610559847 0 0 0 0 -110.41635687770031 -130.25325274491843 0 -130.25325274491843 -321.610107054541 0 0 0 0 -191.29171052619131 -200.1229371226691 0 -200.1229371226691 175.72665937249258 0 0 0 0 -107.41343624342699 -166.11461260441138 0 -166.11461260441138 148.25732910716033 0 0 0 0 25.681332671185373 9.3289615361354663 0 9.3289615361354663 -71.66088527818647 0 0 0 0 17.083077476700353 -33.944031269650381 0 -33.944031269650381 -57.065690767888213 0 0 0 0 -13.475805448615574 -68.453639549705258 0 -68.453639549705258 -55.206877370917937 0 0 0 0 -8.6061453296497348 -69.10211356423315 0 -69.10211356423315 -34.117262928957643 0 0 0 0 -17.465369972322165 -57.760262829180149 0 -57.760262829180149 -29.068677126211696 0 0 0 0 -31.817744285224762 -72.258524692355422 0 -72.258524692355422 -50.916266913787695 0 0 0 0 -8.0968460282359729 -53.459619396940504 0 -53.459619396940504 -26.315506122602073 0 0 0 0 -8.2878153311030474 -69.76189345914463 0 -69.76189345914463 -49.606554345689801 0 0 0 0 -1.9884184079075169 -50.259069079608651 0 -50.259069079608651 -13.112188894355768 0 0 0 0 -29.262143462641689 -78.079708365279657 0 -78.079708365279657 -49.089076613741781 0 0 0 0 -22.333360230107537 -62.345700046435823 0 -62.345700046435823 -5.9614026937514382 0 0 0 0 -16.956967917719794 -68.047309520659383 0 -68.047309520659383 -76.148910411124234 0 0 0 0 -11.749878340157011 -70.614195784371987 0 -70.614195784371987 -49.147837510048703 0 0 0 0 -16.73303317281286 -64.643651145680252 0 -64.643651145680252 -49.700189175724006 0 0 0 0 -17.203794735868584 -64.832783125052458 0 -64.832783125052458 -26.522318274386258 0 0 0 0 -17.534981635995791 -81.918057303526439 0 -81.918057303526439 -76.654034879666142 0 0 0 0 -307.38535469726531 -528.86749349072807 0 -528.86749349072807 339.31770554512002 0 0 0 0 -8.5703216533377713 -63.849752270514287 0 -63.849752270514287 -50.020363254686629 0 0 0 0 -374.14425678435691 307.3885659850655 0 307.3885659850655 266.67971230428913 0 0 0 0 -22.284109678462137 -82.14744231475315 0 -82.14744231475315 -42.625544442648263 0 0 0 0 16.704614256508648 -104.51881144272085 0 -104.51881144272085 -137.71356237735208 0 0 0 0 -3.5119020345946375 -10.634138212463196 0 -10.634138212463196 -23.709110494184056 0 0 0 0 40.914845852232247 -192.50552875247971 0 -192.50552875247971 740.78365295566994 0 0 0 0 -57.632202036049421 -103.95250675636544 0 -103.95250675636544 17.573975401883217 0 0 0 0 -38.790437548068439 -92.824923385584043 0 -92.824923385584043 -5.0374507167362026 0 0 0 0 -51.099364918436095 -58.471320506539136 0 -58.471320506539136 -37.145340426803955 0 0 0 0 -42.897156933030516 -80.316598477736918 0 -80.316598477736918 -50.782106918677933 0 0 0 0 -209.09162310916872 -324.9401256271085 0 -324.9401256271085 -128.25253971423081 0 0 0 0 180.85304012057168 -49.305033457800164 0 -49.305033457800164 -307.43757573273615 0 0 0 0 -36.541442288493272 -94.335719593811518 0 -94.335719593811518 99.557713597932889 0 0 0 0 -36.826095622334122 -71.424677770871099 0 -71.424677770871099 -55.228653768088314 0 0 0 0 -187.4592360768147 -93.98456519642059 0 -93.98456519642059 -5.0969290691937204 0 0 0 0 -5.0679671415273333 -87.605117185310519 0 -87.605117185310519 -76.551769864425296 0 0 0 0 -96.919198915085872 -245.01494031211769 0 -245.01494031211769 -170.66269463758726 0 0 0 0 14.574422304939546 -35.82724447807702 0 -35.82724447807702 20.069175091482776 0 0 0 0 6.0245360673523294 -5.8885261875618369 0 -5.8885261875618369 -0.72816852479115823 0 0 0 0 32.161519889668853 -71.240219990762853 0 -71.240219990762853 -71.184767818107503 0 0 0 0 -17.981996886552224 -112.13517158953255 0 -112.13517158953255 -22.967657833680278 0 0 0 0 -2.5800523527432233 -121.23882036888972 0 -121.23882036888972 -29.904062128101941 0 0 0 0 -11.509702451890917 -60.10203173274931 0 -60.10203173274931 -33.051919572491897 0 0 0 0 -14.071029406753951 -124.39682608630756 0 -124.39682608630756 -13.090679247674416 0 0 0 0 14.215135300347839 -51.323276644527311 0 -51.323276644527311 22.93347209586932 0 0 0 0 -38.463699329986412 -198.59252447579638 0 -198.59252447579638 -139.60378570608009 0 0 0 0 -5.8529180562618421 -134.05765185628843 0 -134.05765185628843 -12.689174825248301 0 0 0 0 -98.597427273685753 -60.562151107144018 0 -60.562151107144018 21.947816265383153 0 0 0 0 -20.458843650001164 -40.266182012787226 0 -40.266182012787226 -9.4194843085052185 0 0 0 0 -67.213991303664443 8.259687225385278 0 8.259687225385278 -10.762264532560948 0 0 0 0 0.67675502224301454 -81.667179789976217 0 -81.667179789976217 30.083380618423689 0 0 0 0 -50.841936453004848 -48.334083924376273 0 -48.334083924376273 -1.3219378154633148 0 0 0 0 -13.621212666854262 -86.151241438550642 0 -86.151241438550642 0.79662537097465247 0 0 0 0 -40.295759538421407 -97.87330133652722 0 -97.87330133652722 11.009743102928041 0 0 0 0 3.3922662478582595 -8.3313590917827014 0 -8.3313590917827014 8.5335443811750906 0 0 0 0 459.76092105561111 188.49830602071597 0 188.49830602071597 117.26241392691736 0 0 0 0 -415.16978232588008 -244.54276520138956 0 -244.54276520138956 -119.40273059750325 0 0 0 0 173.14264866909434 -44.924766643895055 0 -44.924766643895055 -66.369710705883335 0 0 0 0 -6.5514610273589824 -2.5156199709430354 0 -2.5156199709430354 5.2508899223075503 0 0 0 0 -148.38390258586151 -37.667541826158413 0 -37.667541826158413 46.223928087652894 0 0 0 0 136.85712153630448 -209.21588726533082 0 -209.21588726533082 25.581909252825426 0 0 0 0 -202.83521524847129 -269.51591287692463 0 -269.51591287692463 191.87333315901924 0 0 0 0 483.27222587737197 298.85658296741894 0 298.85658296741894 -423.43524706734024 0 0 0 0 16.962669157273439 -4.707304635220936 0 -4.707304635220936 -10.350688052586776 0 0 0 0 -43.543405274038378 -73.668789416165964 0 -73.668789416165964 29.528975880661164 0 0 0 0 -106.81710401523014 -125.30552211090253 0 -125.30552211090253 -8.2399949051323347 0 0 0 0 -13.190593566878675 -26.419209029965927 0 -26.419209029965927 19.504194727133751 0 0 0 0 12.561484764431199 -23.011608676835053 0 -23.011608676835053 -19.175095093307277 0 0 0 0 -13.542020726876217 -70.717028878127167 0 -70.717028878127167 -53.785851572509273 0 0 0 0 -52.062280253667268 -69.433668951198342 0 -69.433668951198342 -45.59914398912224 0 0 0 0 -15.756631072375967 -76.343840527588327 0 -76.343840527588327 -8.6889874956978019 0 0 0 0 -43.509756943803112 -85.097671300201085 0 -85.097671300201085 12.863731548699434 0 0 0 0 -27.972134905212577 -53.404594197395198 0 -53.404594197395198 -13.785765024473903 0 0 0 0 -12.641636664217828 -60.150646373325444 0 -60.150646373325444 -1.2555778478635204 0 0 0 0 -14.962017556459614 -145.04681078765134 0 -145.04681078765134 -34.907237285513474 0 0 0 0 5.3429283963150453 -52.763338484772959 0 -52.763338484772959 46.086372529472044 0 0 0 0 17.167658599789775 -86.16479572388198 0 -86.16479572388198 -4.489432181668235 0 0 0 0 34.477278415495675 -105.03527713834774 0 -105.03527713834774 -7.3927649599791039 0 0 0 0 -7.3608346533765143 -82.549651897250442 0 -82.549651897250442 -19.048706880617829 0 0 0 0 -21.008522147601084 -51.251820977457669 0 -51.251820977457669 -25.306247437669924 0 0 0 0 -7.9259181263241771 -66.406346130563179 0 -66.406346130563179 38.344523875362938 0 0 0 0 -5.3875465877681563 -71.196973217098275 0 -71.196973217098275 9.9378009375141119 0 0 0 0 3.8432120733635742 -28.463849576982398 0 -28.463849576982398 -29.533827465737687 0 0 0 0 -12.376262863090005 -87.087619138287664 0 -87.087619138287664 -4.5043970878468826 0 0 0 0 -4.3158908085811163 -56.442680905498491 0 -56.442680905498491 -13.501328320562607 0 0 0 0 24.307305907818296 -65.709572471688247 0 -65.709572471688247 -72.324953051098078 0 0 0 0 -20.339077769569261 -55.798468067868981 0 -55.798468067868981 10.157324321176034 0 0 0 0 -19.791361895153386 -87.889725915105373 0 -87.889725915105373 27.904178165379562 0 0 0 0 -13.344744639653072 -72.578442367790558 0 -72.578442367790558 -16.836506252318941 0 0 0 0 10.685869855445837 -48.092970152206121 0 -48.092970152206121 1.2282679844814197 0 0 0 0 -10.81589320740386 -66.677656216132164 0 -66.677656216132164 16.01243942900328 0 0 0 0 -22.517249623176433 -55.023555159128357 0 -55.023555159128357 -19.440873566868859 0 0 0 0 -19.073650267553056 -49.14225501189884 0 -49.14225501189884 -10.486709715812864 0 0 0 0 -11.936387296782414 -69.979853757336969 0 -69.979853757336969 -42.412988737982232 0 0 0 0 -33.467027302609317 -61.036553315273643 0 -61.036553315273643 -15.811866179914595 0 0 0 0 -13.342038373421779 -71.483365966663314 0 -71.483365966663314 -52.582045676163958 0 0 0 0 -0.4286376886520884 -57.608083635946969 0 -57.608083635946969 23.905369130327017 0 0 0 0 -1.0028451770158426 -128.99361875500654 0 -128.99361875500654 -66.374398683397885 0 0 0 0 4.2240124843028752 -97.875703036625055 0 -97.875703036625055 -15.208315671174205 0 0 0 0 -2.8881857645374112 -131.09979771998587 0 -131.09979771998587 41.384733270577271 0 0 0 0 6.4203292416857458 -64.860394169603609 0 -64.860394169603609 66.375596116141011 0 0 0 0 -131.23310539616796 -237.70732873969246 0 -237.70732873969246 -39.052926118478354 0 0 0 0 160.13955183657527 -56.649884470436518 0 -56.649884470436518 -81.738716324252891 0 0 0 0 95.088579131677761 -224.0996693273546 0 -224.0996693273546 -291.07032126186095 0 0 0 0 -63.739072587508417 -283.30074898494604 0 -283.30074898494604 -143.91875046953646 0 0 0 0 21.046394903867622 -186.74591252966638 0 -186.74591252966638 -82.521153385330763 0 0 0 0 166.06162246355962 179.10819730224466 0 179.10819730224466 -601.73053075682583 0 0 0 0 -210.12776530523843 350.97327394010881 0 350.97327394010881 75.856316869882903 0 0 0 0 -6.5213090795360387 -15.112075225617817 0 -15.112075225617817 6.5144971367480835 0 0 0 0 -1251.2245993459619 -994.15356289557531 0 -994.15356289557531 462.98847835922061 0 0 0 0 -480.84806462696724 470.02530830612886 0 470.02530830612886 1209.486224225644 0 0 0 0 4.8063023454293177 -36.313979344145828 0 -36.313979344145828 10.983403539164888 0 0 0 0 -556.20282772609607 -577.71259304824162 0 -577.71259304824162 709.66532805057795 0 0 0 0 460.66750013998808 -764.59248949275025 0 -764.59248949275025 -191.39023557587825 0 0 0 0 442.27282276780443 -242.05447789356913 0 -242.05447789356913 63.031210945749081 0 0 0 0 134.81025907087496 177.24549798192163 0 177.24549798192163 398.90538308327041 0 0 0 0 -300.88397228256053 417.4719695745664 0 417.4719695745664 305.65753408170667 0 0 0 0 -51.909313564648983 62.144698658568814 0 62.144698658568814 -117.28905182449853 0 0 0 0 12.897063086433263 -148.91137648092263 0 -148.91137648092263 569.3660377772685 0 0 0 0 4.0760745021280194 -14.360554623461081 0 -14.360554623461081 -22.424242097333618 0 0 0 0 -6.0251514323094852 -145.74854751203748 0 -145.74854751203748 93.719380124268355 0 0 0 0 61.626259728854535 -90.167437252853176 0 -90.167437252853176 74.841017517230028 0 0 0 0 49.343403444056094 -224.54203794013392 0 -224.54203794013392 -67.046342723911266 0 0 0 0 24.522777439178753 -178.44822862078763 0 -178.44822862078763 -95.264688453116833 0 0 0 0 -181.66350069503744 -127.9261453979052 0 -127.9261453979052 -65.427107317344053 0 0 0 0 35.614861261732585 -28.214356666761887 0 -28.214356666761887 -327.32701590501529 0 0 0 0 81.532572852902376 -155.69731685973056 0 -155.69731685973056 -156.46109358162903 0 0 0 0 102.46991239230329 -92.514708892415456 0 -92.514708892415456 -18.991878466396884 0 0 0 0 4.0752853706497589 -18.646918018765639 0 -18.646918018765639 -1.0157388275162305 0 0 0 0 15.965098871775499 -70.922482948944335 0 -70.922482948944335 15.892934399435561 0 0 0 0 -18.512850303186497 -64.196225064351893 0 -64.196225064351893 42.867859931997373 0 0 0 0 -2.340728783305658 -62.702896465174646 0 -62.702896465174646 60.32764853706729 0 0 0 0 -184.83070812909864 -286.82076870066521 0 -286.82076870066521 -40.602276474372047 0 0 0 0 12.629910609220227 -56.600504680497693 0 -56.600504680497693 49.830477516746441 0 0 0 0 7.9113407670954086 -72.037985381176384 0 -72.037985381176384 15.062124343864781 0 0 0 0 64.493891011234155 -107.89137445419692 0 -107.89137445419692 40.610187357335235 0 0 0 0 -31.526217356324413 -36.835374656913196 0 -36.835374656913196 3.6568693747204293 0 0 0 0 8.2679823602333045 -117.08638049011279 0 -117.08638049011279 90.714672402325959 0 0 0 0 34.355472066462426 -150.53889860594063 0 -150.53889860594063 68.553939982040902 0 0 0 0 19.008090426779745 -70.432752831016842 0 -70.432752831016842 118.82255596630421 0 0 0 0 -3.4976544838858512 -49.578829476868577 0 -49.578829476868577 -31.739981480230597 0 0 0 0 33.9884715002554 -99.754454573310795 0 -99.754454573310795 26.129319659117755 0 0 0 0 -9.2394913815216455 -128.65509602054749 0 -128.65509602054749 58.385332547521102 0 0 0 0 -14.676028394577315 -61.732955695886631 0 -61.732955695886631 126.5018902728043 0 0 0 0 -8.5479069127650291 -79.170274639582203 0 -79.170274639582203 56.308046654768987 0 0 0 0 -6.4058883318299413 -41.275531554429918 0 -41.275531554429918 31.083470456269936 0 0 0 0 40.558774354921752 -77.688268653291743 0 -77.688268653291743 47.58560193653102 0 0 0 0 32.992622877090071 -54.047106203288422 0 -54.047106203288422 43.559560233552475 0 0 0 0 18.380403408827654 -36.590696942815725 0 -36.590696942815725 -35.033051364702416 0 0 0 0 73.917197538145956 -147.04737300487977 0 -147.04737300487977 112.55422349961009 0 0 0 0 -11.370759011446353 -105.89729103792342 0 -105.89729103792342 200.67314800896565 0 0 0 0 -35.434508214062106 -27.455275788718353 0 -27.455275788718353 3.6649312006575201 0 0 0 0 207.62259468072443 -243.10474680045081 0 -243.10474680045081 -2.7169714479096001 0 0 0 0 144.21821121968969 -60.722108445683261 0 -60.722108445683261 -54.583471180891138 0 0 0 0 62.392684961065697 -221.38298009270511 0 -221.38298009270511 284.09082456424949 0 0 0 0 8.4823404759533734 -8.3258921858092663 0 -8.3258921858092663 9.2176329789040494 0 0 0 0 82.974833843746183 -58.224691854476987 0 -58.224691854476987 69.986020860669669 0 0 0 0 92.396382325341165 -140.64770156137092 0 -140.64770156137092 146.75880950041756 0 0 0 0 159.22727406508585 -150.1724934449112 0 -150.1724934449112 66.359400500572519 0 0 0 0 143.21232380693982 -337.98715081250702 0 -337.98715081250702 200.3651503117726 0 0 0 0 153.43623604593995 -181.28959615367785 0 -181.28959615367785 102.34356294237659 0 0 0 0 -72.963132430678414 -24.051819112822898 0 -24.051819112822898 42.513833746120866 0 0 0 0 -90.758070741590927 -63.115827404282754 0 -63.115827404282754 338.07709837167931 0 0 0 0 120.53632639572061 -144.50739145650732 0 -144.50739145650732 105.19259711613631 0 0 0 0 119.68297867770525 -111.50590072615887 0 -111.50590072615887 68.632802777898632 0 0 0 0 110.10766118287459 -69.238980970530974 0 -69.238980970530974 12.492493003286654 0 0 0 0 110.77777804941036 -136.70072895465273 0 -136.70072895465273 21.86469453429163 0 0 0 0 107.44786836902858 -111.56738087879785 0 -111.56738087879785 54.054404633578088 0 0 0 0 108.0178103174012 -103.45942458983063 0 -103.45942458983063 61.83283765782835 0 0 0 0 97.628712833566169 -85.860041597639793 0 -85.860041597639793 58.009351430981042 0 0 0 0 94.614769221938332 -102.47711692453231 0 -102.47711692453231 62.236564439324866 0 0 0 0 116.1472376911438 -87.847085042918479 0 -87.847085042918479 57.772978611224971 0 0 0 0 21.631668143521665 -149.25049471237799 0 -149.25049471237799 167.00796246698883 0 0 0 0 156.98659443716406 -125.58087609162976 0 -125.58087609162976 43.685408314173401 0 0 0 0 122.13623745800669 -73.297964774050342 0 -73.297964774050342 14.264925487121218 0 0 0 0 -38.583580915942434 -49.93684867926931 0 -49.93684867926931 36.856669644151708 0 0 0 0 -8.6168529609522757 -72.85092362893127 0 -72.85092362893127 37.403236185266735 0 0 0 0 59.056179687718895 -130.84758875404896 0 -130.84758875404896 -7.6583758866217977 0 0 0 0 46.687638055384923 -121.60297323443046 0 -121.60297323443046 44.760468815726199 0 0 0 0 -67.07032843532761 -223.08206301826658 0 -223.08206301826658 39.134766955795612 0 0 0 0 40.395741057906037 -70.726404301228939 0 -70.726404301228939 87.145172386681594 0 0 0 0 127.11570243261349 -132.54068486406049 0 -132.54068486406049 86.599576230117236 0 0 0 0 155.10543727207369 -169.64536154128416 0 -169.64536154128416 -138.27616998741314 0 0 0 0 65.430060068090825 -109.95665000715962 0 -109.95665000715962 98.703268989491335 0 0 0 0 102.3261640132456 -103.8514620575458 0 -103.8514620575458 82.338820247559539 0 0 0 0 20.139992061695644 -30.832136209352711 0 -30.832136209352711 12.312312797097443 0 0 0 0 -243.09353743366228 -222.31883608368213 0 -222.31883608368213 55.074438715645556 0 0 0 0 58.283304144390627 -65.266081840253037 0 -65.266081840253037 106.22953988545487 0 0 0 0 38.420290662890693 -102.59195130580702 0 -102.59195130580702 132.84962230463134 0 0 0 0 69.505951203385848 -108.75345783568991 0 -108.75345783568991 63.874193521762209 0 0 0 0 34.977759976435664 -154.17892178208967 0 -154.17892178208967 48.659604654512805 0 0 0 0 56.873524770914912 -120.37674741105548 0 -120.37674741105548 73.506775698959245 0 0 0 0 91.164164650797318 -128.05128436734594 0 -128.05128436734594 -26.456003260576836 0 0 0 0 22.318986907558624 -107.55379451051977 0 -107.55379451051977 69.279093276854837 0 0 0 0 90.616895219423384 -79.682494689349582 0 -79.682494689349582 71.122686838813351 0 0 0 0 26.350359794880205 -291.51586362253448 0 -291.51586362253448 -239.88814352259269 0 0 0 0 78.973919812990061 -215.82380849192828 0 -215.82380849192828 -234.28469205454283 0 0 0 0 211.65638815864349 -126.21162196889745 0 -126.21162196889745 -154.26807252131493 0 0 0 0 47.480353359818764 -217.42461382070798 0 -217.42461382070798 -148.93079924333642 0 0 0 0 68.474326211035091 -64.987639788995935 0 -64.987639788995935 48.610570460852585 0 0 0 0 -96.303097319253993 -353.90149852546153 0 -353.90149852546153 -240.94681109373141 0 0 0 0 -153.0231101216159 -300.03989519241577 0 -300.03989519241577 -245.81570678129742 0 0 0 0 -110.63230039202972 -307.82037401020125 0 -307.82037401020125 -183.27655608656528 0 0 0 0 47.937037169493124 -207.71061167456492 0 -207.71061167456492 -178.70284859181129 0 0 0 0 -13.392360040606945 -327.06084285143868 0 -327.06084285143868 -285.01434261553368 0 0 0 0 -32.536966081450373 -116.85542283927575 0 -116.85542283927575 -67.757156605304885 0 0 0 0 6.4962176228582393 -45.558238752057633 0 -45.558238752057633 -61.630888790665495 0 0 0 0 42.457624967265019 -223.55565635858915 0 -223.55565635858915 -156.77187100132255 0 0 0 0 85.822124830636312 -204.67638765493041 0 -204.67638765493041 -185.04668084335378 0 0 0 0 84.26024266958666 -90.761794267090352 0 -90.761794267090352 -96.693270436304203 0 0 0 0 39.62739763612899 0.65494115068901237 0 0.65494115068901237 9.9944942775471191 0 0 0 0 4.9066300144313573 -50.508544814516938 0 -50.508544814516938 -46.255200157467925 0 0 0 0 21.490668349989392 -0.87116486374033997 0 -0.87116486374033997 48.837265904120045 0 0 0 0 -11.164594973124622 -130.5469530716457 0 -130.5469530716457 -38.726662720572904 0 0 0 0 279.79026655400958 -10.268802520409736 0 -10.268802520409736 -101.03621968839943 0 0 0 0 84.848920897922653 -111.44454553663309 0 -111.44454553663309 -119.16659543463845 0 0 0 0 112.29734183703931 -62.962591529767337 0 -62.962591529767337 -33.537556974489689 0 0 0 0 27.802590255842006 -353.6783187039369 0 -353.6783187039369 -266.85784225704123 0 0 0 0 135.60487438315249 -169.80241147550652 0 -169.80241147550652 -53.384195787471995 0 0 0 0 -314.54561734586605 -240.95804415869526 0 -240.95804415869526 77.787988667936048 0 0 0 0 -463.62421487534812 -516.99059194491224 0 -516.99059194491224 -486.78883059921475 0 0 0 0 -175.30980722658387 22.963015830993356 0 22.963015830993356 162.67454954649122 0 0 0 0 -610.38335692686996 -428.8558617298753 0 -428.8558617298753 130.91062846299246 0 0 0 0 286.60828044050504 -102.05702745233953 0 -102.05702745233953 -283.81216327898903 0 0 0 0 177.96913072949792 -138.83607440696665 0 -138.83607440696665 -79.328826691406903 0 0 0 0 798.15266012941993 243.53446142014241 0 243.53446142014241 79.62599771060377 0 0 0 0 27.46685582407008 -157.57091669638112 0 -157.57091669638112 949.08712253321573 0 0 0 0 -663.35409648251789 -655.30823708406979 0 -655.30823708406979 260.94456020522284 0 0 0 0 49.463646719207645 -506.52060377534553 0 -506.52060377534553 631.41568015958728 0 0 0 0 -223.30624332779371 -66.589409158725402 0 -66.589409158725402 -49.744106234764331 0 0 0 0 91.623571421916495 -276.09437748436312 0 -276.09437748436312 -182.48905461428558 0 0 0 0 6.0477377241082895 -3.8952474581491678 0 -3.8952474581491678 8.0173375774414275 0 0 0 0 344.81546398234059 425.66003884299164 0 425.66003884299164 395.30484149998347 0 0 0 0 -142.12493745617758 -1259.5404159879872 0 -1259.5404159879872 -553.39795269147726 0 0 0 0 -142.02829606333216 71.005973746065365 0 71.005973746065365 455.71323543670223 0 0 0 0 623.32256869552657 341.63182810534545 0 341.63182810534545 -295.66700458563173 0 0 0 0 252.90510343946198 -643.52278526406815 0 -643.52278526406815 -42.596377872201629 0 0 0 0 -1481.3127087034372 618.34995415461708 0 618.34995415461708 -220.08965936170534 0 0 0 0 271.67402590517395 -344.83493852507468 0 -344.83493852507468 -115.91647463790378 0 0 0 0 595.40972897010397 -169.37665526166711 0 -169.37665526166711 -768.16538759979994 0 0 0 0 191.39939879212034 -325.3701528378042 0 -325.3701528378042 -179.72504418900098 0 0 0 0 205.25901591099318 -224.76189628948396 0 -224.76189628948396 -324.94636893462251 0 0 0 0 4.1145048992211741 -279.13499699391355 0 -279.13499699391355 94.977002003123744 0 0 0 0 -47.262038017932355 -189.05796723810363 0 -189.05796723810363 -49.843999161013585 0 0 0 0 8.5351632776764745 -151.47607312648688 0 -151.47607312648688 -134.87879630449993 0 0 0 0 38.262495685543399 -7.1839780765336627 0 -7.1839780765336627 268.01450854868244 0 0 0 0 17.618805947713554 -253.12502589949383 0 -253.12502589949383 65.04800208719405 0 0 0 0 256.96254478576884 -132.49451607819537 0 -132.49451607819537 26.14212454655808 0 0 0 0 55.247696178543265 16.808770671177626 0 16.808770671177626 -53.134513727982267 0 0 0 0 -45.061320851062192 -24.011099306480901 0 -24.011099306480901 88.793322271527359 0 0 0 0 -8.2429910203209147 41.926940268400358 0 41.926940268400358 0.64541345629186253 0 0 0 0 -0.59273886549259203 -3.668355184281296 0 -3.668355184281296 -2.7349002167799625 0 0 0 0 0.0054345921089407057 -3.3143764925061987 0 -3.3143764925061987 -0.56805907320449478 0 0 0 0 -35.202148392752861 19.171248986976934 0 19.171248986976934 -16.806307498016395 0 0 0 0 46.081997200730257 -29.702448536821976 0 -29.702448536821976 6.0428142831473224 0 0 0 0 3.625412468982347 1.0638414136147141 0 1.0638414136147141 -3.2349187100087349 0 0 0 0 0.57139425109926378 -5.0592326014893843 0 -5.0592326014893843 -5.4892960826109629 0 0 0 0 8.1227866914996412 -0.13757511625590269 0 -0.13757511625590269 -56.718546373151185 0 0 0 0 -2.7628753733372093 -0.37661791700395497 0 -0.37661791700395497 2.2475968420077024 0 0 0 0 0.0019201741270168985 -3.8923664090264332 0 -3.8923664090264332 -2.6537020535033662 0 0 0 0 1.8175385306583962 1.6368469777478047 0 1.6368469777478047 -4.9089624352330432 0 0 0 0 4.3708338799187914 -6.9367209308820748 0 -6.9367209308820748 -8.8468729533287842 0 0 0 0 4.0878992441575974 -6.3050001994970444 0 -6.3050001994970444 -10.191805256974476 0 0 0 0 21.108650400565239 15.882277856393557 0 15.882277856393557 -5.5861189728238969 0 0 0 0 9.1993206553161144 -2.7792520117418462 0 -2.7792520117418462 -17.123930224701326 0 0 0 0 44.322502808092395 6.7043418399371149 0 6.7043418399371149 -33.314018291848697 0 0 0 0 24.365177681655041 -16.801540134470997 0 -16.801540134470997 -49.147635386028924 0 0 0 0 0.36929100673296489 -43.59022291661131 0 -43.59022291661131 -30.085618386988244 0 0 0 0 14.878947538221837 -92.07150760741024 0 -92.07150760741024 21.916914672845451 0 0 0 0 10.662215340445982 -65.357405640268553 0 -65.357405640268553 -25.938683635489724 0 0 0 0 -25.142095850082114 -43.404008801332566 0 -43.404008801332566 66.678795959936906 0 0 0 0 38.637270648767299 -19.569799880680421 0 -19.569799880680421 6.0602164949814323 0 0 0 0 2.3806864749786882 1.5780852048326324 0 1.5780852048326324 -1.296277817713225 0 0 0 0 42.80733520166541 -79.502475563584994 0 -79.502475563584994 59.372613716477645 0 0 0 0 -35.141274900786811 -79.425037140043059 0 -79.425037140043059 60.333632630492048 0 0 0 0 -7.9751634086715057 -22.952667942250628 0 -22.952667942250628 6.6924446370649093 0 0 0 0 -126.19497716448677 -13.837365514518751 0 -13.837365514518751 36.310940911489524 0 0 0 0 -3.8402580859219597 -28.743022240631035 0 -28.743022240631035 8.4508620022879768 0 0 0 0 5.671877361703082 -21.919362133593495 0 -21.919362133593495 -24.619592618150364 0 0 0 0 -14.196876928415179 -18.459045594858082 0 -18.459045594858082 -13.103884775759013 0 0 0 0 -6.3590403094640351 -41.658384213157149 0 -41.658384213157149 -0.95270994228121708 0 0 0 0 -8.2806885654508164 -15.85280641943973 0 -15.85280641943973 -14.210742424542648 0 0 0 0 14.265078610478668 -5.3667715964495528 0 -5.3667715964495528 -43.387486250349184 0 0 0 0 -22.21911842157715 -29.370849774164526 0 -29.370849774164526 13.22876624478522 0 0 0 0 -3.3855557064816679 -5.4425093454688351 0 -5.4425093454688351 5.4288608860714973 0 0 0 0 -1.0313508845955539 -1.6303861401198105 0 -1.6303861401198105 1.5141845909816993 0 0 0 0 176.11941997496615 -139.47461691645185 0 -139.47461691645185 33.657454164953378 0 0 0 0 83.744666241967934 18.850137452889612 0 18.850137452889612 -0.63803081093283254 0 0 0 0 -0.0014143894804874435 -3.3307123848517222 0 -3.3307123848517222 -0.59877318132203072 0 0 0 0 120.51965753320837 -47.042965872342393 0 -47.042965872342393 -90.708919572802188 0 0 0 0 -0.71594984791455119 -3.0821199453261556 0 -3.0821199453261556 -0.4974658065002302 0 0 0 0 -80.313841090297501 37.366618213970469 0 37.366618213970469 12.246831895045034 0 0 0 0 -1.0521001158944046 2.0608483708081877 0 2.0608483708081877 -0.64437690935752556 0 0 0 0 -0.081060178796178661 -195.74899978705434 0 -195.74899978705434 130.20882315551808 0 0 0 0 -0.017400649841874838 -27.106902954547877 0 -27.106902954547877 -16.200500702650515 0 0 0 0 21.523028492039884 -2.7054825079321745 0 -2.7054825079321745 -55.218658703053734 0 0 0 0 -24.313200753011188 -5.1659520010292681 0 -5.1659520010292681 -14.059513086242532 0 0 0 0 -3.1941160803636279 -11.371077198048624 0 -11.371077198048624 -21.884042366372135 0 0 0 0 -4.9668121272407006 -17.496246905453745 0 -17.496246905453745 -16.837907670359073 0 0 0 0 -20.524216381963925 -7.2693100059028666 0 -7.2693100059028666 -18.526725918899729 0 0 0 0 -2.9212756619963329 -19.49912569459832 0 -19.49912569459832 -28.929953506244146 0 0 0 0 8.6703172439956688 -17.225075676531105 0 -17.225075676531105 -5.3732018242790218 0 0 0 0 -2.4559391747866925 -6.4073594839658199 0 -6.4073594839658199 -16.66724023822999 0 0 0 0 1.9645378621734153 0.33045791921855283 0 0.33045791921855283 -9.0014164650125998 0 0 0 0 0.0018046295008389279 -5.6075793269715177 0 -5.6075793269715177 -15.496692632463919 0 0 0 0 0.1129048162692925 -2.514033117962299 0 -2.514033117962299 -7.3030048774508032 0 0 0 0 -2.0871750297514211 -4.3293664279574386 0 -4.3293664279574386 -8.3986908324753689 0 0 0 0 -9.7145476147816225 35.732830606053284 0 35.732830606053284 -202.23354583718606 0 0 0 0 106.67782776642707 8.6822025782529195 0 8.6822025782529195 -219.10445351024015 0 0 0 0 1.6986204689670217 0.56666432888704321 0 0.56666432888704321 -4.828628120623387 0 0 0 0 33.525761485390831 -50.160989234694824 0 -50.160989234694824 -166.63780170661306 0 0 0 0 -109.28898383108026 346.65719164901196 0 346.65719164901196 -624.82248374821165 0 0 0 0 0.0012886878830613568 -5.5172896850363031 0 -5.5172896850363031 -4.7163753240248525 0 0 0 0 344.30478458182188 -448.83198664227496 0 -448.83198664227496 -729.24446885309465 0 0 0 0 -1.7942645010047471 -2.650711768773391 0 -2.650711768773391 -2.1907535221621215 0 0 0 0 134.08773636665137 -146.98626674251364 0 -146.98626674251364 42.521500500474133 0 0 0 0 141.1066818752588 -172.01008686612457 0 -172.01008686612457 112.99136015467587 0 0 0 0 166.00437370311192 -269.0752735318593 0 -269.0752735318593 -144.06589023544598 0 0 0 0 1.6099333714208228 0.93632639949460383 0 0.93632639949460383 -0.97589149355274829 0 0 0 0 126.93073757080128 17.498526705858467 0 17.498526705858467 -37.049783619737354 0 0 0 0 210.15910777656973 -134.13733464965702 0 -134.13733464965702 -19.718520755351392 0 0 0 0 91.380668545993103 -71.997284062948211 0 -71.997284062948211 -11.007873466753608 0 0 0 0 66.955028564931126 -93.71223266890172 0 -93.71223266890172 -30.310414924091674 0 0 0 0 26.744147039396921 0.55801848169949153 0 0.55801848169949153 -16.646355706107215 0 0 0 0 -9.0818430983708822 -14.837158191144056 0 -14.837158191144056 -11.43427605617353 0 0 0 0 35.325202375388471 -45.858050488713161 0 -45.858050488713161 -19.352682735416124 0 0 0 0 20.712671501547447 -91.861648984241583 0 -91.861648984241583 42.999132617504529 0 0 0 0 139.45136036070471 -182.1753277708201 0 -182.1753277708201 35.977536105383024 0 0 0 0 81.45109267166481 -151.93852928223521 0 -151.93852928223521 25.65432741567065 0 0 0 0 65.119374770161812 -163.24440248500491 0 -163.24440248500491 17.828366308439172 0 0 0 0 93.567283628042787 -124.58454746686277 0 -124.58454746686277 3.577974818417033 0 0 0 0 95.166642986252555 -129.50441607261965 0 -129.50441607261965 35.287176669908661 0 0 0 0 25.639563173230272 -103.73583561302723 0 -103.73583561302723 -3.5537150896218463 0 0 0 0 78.218974225164857 -166.4994047079235 0 -166.4994047079235 63.23077921780208 0 0 0 0 111.03176746341342 -181.48484774993256 0 -181.48484774993256 69.207296841811001 0 0 0 0 -33.60917376992893 -41.857244999862473 0 -41.857244999862473 -54.669394596920029 0 0 0 0 -10.049197296647929 -19.49277227893441 0 -19.49277227893441 -0.45493025070645388 0 0 0 0 -62.966184816410532 -131.78810469286327 0 -131.78810469286327 -307.92927377176238 0 0 0 0 31.017416702408809 -100.32399048143179 0 -100.32399048143179 -26.252749872811592 0 0 0 0 -43.578431295302096 -54.184444454354868 0 -54.184444454354868 -36.117875537618438 0 0 0 0 -27.379930032111588 -90.62579562946587 0 -90.62579562946587 -20.569136183514388 0 0 0 0 -11.445439552602497 -39.847221076921159 0 -39.847221076921159 -19.222228806799023 0 0 0 0 45.031800959899556 -15.130910971002322 0 -15.130910971002322 -118.00289384518578 0 0 0 0 43.462215981344343 -106.34154364177539 0 -106.34154364177539 -64.407218622298842 0 0 0 0 4.3279124902626336 -2.957639825243831 0 -2.957639825243831 -2.3545364159272753 0 0 0 0 118.98358862096211 -223.69830824553765 0 -223.69830824553765 168.2401625638654 0 0 0 0 -8.0062178795988395 -34.029394939571006 0 -34.029394939571006 -36.557311778926575 0 0 0 0 303.33620266408252 -215.78486875881981 0 -215.78486875881981 85.153578831354025 0 0 0 0 -8.1510984714800081 -8.5152330432738381 0 -8.5152330432738381 29.412080431415188 0 0 0 0 260.65877716707473 -187.33832059886254 0 -187.33832059886254 101.83474812554505 0 0 0 0 243.58932230330538 -223.7397369903756 0 -223.7397369903756 104.78643539175118 0 0 0 0 1.0580779801359093 2.1188726924474111 0 2.1188726924474111 9.4025572131886435 0 0 0 0 1081.7155989461316 -469.1727190198485 0 -469.1727190198485 60.494618837110465 0 0 0 0 591.82458478400076 -159.93552725791051 0 -159.93552725791051 65.550771199050359 0 0 0 0 -99.145329506834969 -310.42189231066095 0 -310.42189231066095 -40.312353447890928 0 0 0 0 -241.50527218478965 -266.68327580848745 0 -266.68327580848745 112.64749703815505 0 0 0 0 64.977454068255611 -189.96937546305981 0 -189.96937546305981 32.557233398616518 0 0 0 0 153.76311825326411 -397.22124140721644 0 -397.22124140721644 239.19688640710569 0 0 0 0 2.2057585627480876 10.939274124922122 0 10.939274124922122 166.59074390616775 0 0 0 0 -121.5430994402559 -180.37619362020268 0 -180.37619362020268 155.35482477145888 0 0 0 0 63.713266216334887 -284.61248476341734 0 -284.61248476341734 149.1215422128646 0 0 0 0 -25.713043508279952 -109.15116936361187 0 -109.15116936361187 94.015809059108506 0 0 0 0 193.38664226363471 -178.99460392502306 0 -178.99460392502306 110.92394068288377 0 0 0 0 -16.915545477371779 -143.75177689867405 0 -143.75177689867405 142.36653431171544 0 0 0 0 23.899261322556413 -73.5643409592426 0 -73.5643409592426 14.252208450653143 0 0 0 0 -13.157286839254084 -62.139008437408506 0 -62.139008437408506 36.551464003063302 0 0 0 0 -47.235829309414839 -12.906144402897098 0 -12.906144402897098 -3.5091672213579841 0 0 0 0 -17.171426419168711 17.719492354420254 0 17.719492354420254 -77.290978005414217 0 0 0 0 -19.705353309826364 -22.834908015987139 0 -22.834908015987139 -8.2483888205550073 0 0 0 0 -240.03820894388832 -46.016941306432599 0 -46.016941306432599 120.25253747324678 0 0 0 0 4.5366754096139061 -23.717516185740763 0 -23.717516185740763 18.812875266676315 0 0 0 0 -25.963327725999989 -42.77375090262467 0 -42.77375090262467 0.33174953260731854 0 0 0 0 -24.267184710981383 -35.225224026422438 0 -35.225224026422438 25.531809612355573 0 0 0 0 -21.703685069966014 -78.771283134485202 0 -78.771283134485202 -29.306103750830516 0 0 0 0 28.802656534331618 -29.649028017243836 0 -29.649028017243836 -20.907519555840736 0 0 0 0 -43.171285418080515 -64.16920090504027 0 -64.16920090504027 14.592051057466961 0 0 0 0 -580.64998574632773 504.7985422284803 0 504.7985422284803 753.4822607707938 0 0 0 0 354.20769541783375 -465.5776564183243 0 -465.5776564183243 671.84502872744088 0 0 0 0 72.853632615762763 380.88435645858044 0 380.88435645858044 -230.10616845362983 0 0 0 0 -18.21210556458027 -54.534598396340925 0 -54.534598396340925 2.9364619763364317 0 0 0 0 -408.55536368384492 -143.79050267663524 0 -143.79050267663524 -255.74079676202382 0 0 0 0 -21.031669296002178 -44.647532157921148 0 -44.647532157921148 -31.702907709135836 0 0 0 0 66.638994170934893 -31.127105211166963 0 -31.127105211166963 -240.58422221525871 0 0 0 0 3.7397737727455933 -7.2144874067274714 0 -7.2144874067274714 -19.98999175638054 0 0 0 0 -49.602599630365148 -93.173656961782399 0 -93.173656961782399 -10.665169198740841 0 0 0 0 -147.19626779557439 -193.58082777308391 0 -193.58082777308391 266.99971958473907 0 0 0 0 -164.84175966998737 -114.48712809486415 0 -114.48712809486415 207.26122893430329 0 0 0 0 -4.4286570281283559 -17.575210078791628 0 -17.575210078791628 -12.178626656932735 0 0 0 0 596.21824757133436 -769.78176910032744 0 -769.78176910032744 -72.711784583025292 0 0 0 0 -291.1051388157357 -133.26273239988586 0 -133.26273239988586 598.77787781831285 0 0 0 0 -228.39336481879582 -100.16114761608969 0 -100.16114761608969 239.56092605422418 0 0 0 0 111.09759439976187 -61.418532855502235 0 -61.418532855502235 -385.56188792528019 0 0 0 0 -36.877421678428504 -60.731855543402276 0 -60.731855543402276 -29.994593212355706 0 0 0 0 -2.9773171252875272 -100.03677432126072 0 -100.03677432126072 -64.793561825442055 0 0 0 0 47.128855750648654 -73.483086614406602 0 -73.483086614406602 -98.802993271200421 0 0 0 0 78.301721361480304 -219.12955233848083 0 -219.12955233848083 21.046710340004665 0 0 0 0 1.591218769463012 -156.14554099401357 0 -156.14554099401357 122.8808383450596 0 0 0 0 -65.053887816035058 -87.295991754771535 0 -87.295991754771535 73.51833503223952 0 0 0 0 -127.0121088133892 -188.0419860942111 0 -188.0419860942111 650.46178550972036 0 0 0 0 271.2927196699311 -198.49725157626381 0 -198.49725157626381 -32.76287304924881 0 0 0 0 308.41815095805941 -186.9506025630667 0 -186.9506025630667 -209.89238205940001 0 0 0 0 -40.819403069260147 -49.262457406293315 0 -49.262457406293315 -43.346420930354689 0 0 0 0 -189.7602983649922 -111.70710209581966 0 -111.70710209581966 238.561100248201 0 0 0 0 -39.861653479745371 -47.112015165570384 0 -47.112015165570384 -39.883002873501994 0 0 0 0 -259.00595614709891 -273.41103482605195 0 -273.41103482605195 -175.96578864030562 0 0 0 0 -494.13829998118308 77.122060423195535 0 77.122060423195535 30.447716177390248 0 0 0 0 34.970725232895347 -218.20261880205226 0 -218.20261880205226 34.6563208717007 0 0 0 0 73.902173381931789 -138.75951698426661 0 -138.75951698426661 -158.64056905820962 0 0 0 0 -49.901719195069745 -238.72045368480349 0 -238.72045368480349 243.38381156024661 0 0 0 0 -111.08333797688829 -26.017771470566004 0 -26.017771470566004 -8.6308553281037348 0 0 0 0 -62.569025372387841 -147.76318982955911 0 -147.76318982955911 219.73690053915016 0 0 0 0 -329.96798284480064 11.435845043339214 0 11.435845043339214 304.71785191138042 0 0 0 0 -40.52063305345132 -54.503516823005775 0 -54.503516823005775 -43.408401980732535 0 0 0 0 -96.484572102416678 -125.70326197146449 0 -125.70326197146449 47.808199117116601 0 0 0 0 -51.202768079363068 -63.421850381739461 0 -63.421850381739461 -31.364584790104345 0 0 0 0 42.804533052680199 -48.380048740561961 0 -48.380048740561961 -61.788708212239271 0 0 0 0 42.292489115889566 -55.082371920290825 0 -55.082371920290825 -134.60931553680894 0 0 0 0 -16.798395248198801 -49.773369485378616 0 -49.773369485378616 -41.466942331082357 0 0 0 0 0.83789253967540844 -59.478734910054271 0 -59.478734910054271 61.781995645652842 0 0 0 0 0.99437743244925514 -42.594148177493707 0 -42.594148177493707 -23.757208554455929 0 0 0 0 -2.454725890135137 -46.853110790350598 0 -46.853110790350598 -44.465192887103953 0 0 0 0 -11.635606756457491 -78.64834790778589 0 -78.64834790778589 11.213390800830894 0 0 0 0 80.762925661787449 -241.19350767516153 0 -241.19350767516153 140.76413183024124 0 0 0 0 1.0233505703581613 -132.37226170320992 0 -132.37226170320992 69.761769768469094 0 0 0 0 74.222307824908057 -61.648324094141572 0 -61.648324094141572 -64.842794312746264 0 0 0 0 189.788270511257 -576.29614531221523 0 -576.29614531221523 34.575579239673971 0 0 0 0 125.77342919504008 -673.02831839439204 0 -673.02831839439204 667.66153118428701 0 0 0 0 127.83399587879831 -182.13074466632497 0 -182.13074466632497 204.02607750813149 0 0 0 0 312.43041845594416 -379.38696823459304 0 -379.38696823459304 229.67456267860689 0 0 0 0 -33.155985710516688 -181.74665366354748 0 -181.74665366354748 233.46176483724184 0 0 0 0 78.659647635526198 -72.956978911664919 0 -72.956978911664919 -3.7778152294067695 0 0 0 0 111.86441944701801 -307.74726856919006 0 -307.74726856919006 239.24955760455123 0 0 0 0 -26.668634717731663 -56.45789649845397 0 -56.45789649845397 -45.379097348730198 0 0 0 0 97.967284330719849 -64.460770878116818 0 -64.460770878116818 135.7439106924121 0 0 0 0 63.026118053399841 28.248729590779476 0 28.248729590779476 -33.623044751722318 0 0 0 0 87.829537957179127 -20.466396765810146 0 -20.466396765810146 -327.17994912564609 0 0 0 0 -630.20370129359799 -213.17020120941152 0 -213.17020120941152 477.77413650629933 0 0 0 0 434.08284176245797 -130.3193560860791 0 -130.3193560860791 -508.94798986575825 0 0 0 0 -33.516554255964138 -60.752642429624757 0 -60.752642429624757 -47.579881244037658 0 0 0 0 70.657713537955715 -291.82121818641826 0 -291.82121818641826 225.06716845636765 0 0 0 0 167.47882509726333 -270.08454722401984 0 -270.08454722401984 26.794689433033454 0 0 0 0 -59.348507607042848 -289.52557647296999 0 -289.52557647296999 379.4941541477001 0 0 0 0 144.66879639415129 -360.92235208561397 0 -360.92235208561397 261.47555259362889 0 0 0 0 175.79374717768223 -87.697700381466348 0 -87.697700381466348 574.75885496199407 0 0 0 0 290.33286712047175 -503.70423043684559 0 -503.70423043684559 479.53390244781986 0 0 0 0 -124.29181349679857 -232.03807359209168 0 -232.03807359209168 744.24399122756768 0 0 0 0 -626.58605710782285 425.80916874448667 0 425.80916874448667 -423.19683413577877 0 0 0 0 3.8242413217089393 -7.1862988903776284 0 -7.1862988903776284 6.0925192020399521 0 0 0 0 508.25925254507456 -202.42190646941708 0 -202.42190646941708 -912.17303079261183 0 0 0 0 578.89734607768332 -730.68227254155408 0 -730.68227254155408 -362.54488873433365 0 0 0 0 -225.67067301015777 -302.7310866779244 0 -302.7310866779244 174.82362418001503 0 0 0 0 17.254193378503658 -15.445945763336653 0 -15.445945763336653 9.4901791041188304 0 0 0 0 -70.51772701349546 -459.36272488497343 0 -459.36272488497343 -196.85625210336184 0 0 0 0 -159.58753191841333 -61.333845473749989 0 -61.333845473749989 85.521664812244126 0 0 0 0 -125.09830033845356 -345.05087914160686 0 -345.05087914160686 445.18741178375785 0 0 0 0 -59.673056117677334 -482.23783687626474 0 -482.23783687626474 910.09143460211271 0 0 0 0 -95.664647697543842 -89.620618961673244 0 -89.620618961673244 252.51436584899602 0 0 0 0 598.36968772538967 -816.80230994623798 0 -816.80230994623798 867.44324293902173 0 0 0 0 -405.64751361561503 290.79732518753008 0 290.79732518753008 -80.976749890283827 0 0 0 0 3.5448679010661408 -0.38124772328508882 0 -0.38124772328508882 -1.9881031154992002 0 0 0 0 -322.95343126384978 -137.20056551031666 0 -137.20056551031666 354.82470242006821 0 0 0 0 -56.834685019799508 -306.27731543049981 0 -306.27731543049981 459.80696348112906 0 0 0 0 -146.18406316808978 -277.05977994751629 0 -277.05977994751629 386.92161765606943 0 0 0 0 97.567779671064272 -207.96291502958047 0 -207.96291502958047 226.01872829693457 0 0 0 0 -169.09952693615287 -62.754316906778058 0 -62.754316906778058 166.40169588233402 0 0 0 0 24.488949300612148 -82.729148727146821 0 -82.729148727146821 115.05520826547945 0 0 0 0 -57.743358029612864 -44.714233364285974 0 -44.714233364285974 -36.354840500000137 0 0 0 0 25.715444507499342 -67.011543438362423 0 -67.011543438362423 -45.428518315793553 0 0 0 0 -18.143465671630111 -79.748137004244654 0 -79.748137004244654 -45.720155749175319 0 0 0 0 15.566421971125237 -33.491071937541165 0 -33.491071937541165 -74.288251768942246 0 0 0 0 -38.275085284260115 -60.971660989789264 0 -60.971660989789264 -48.391976499337822 0 0 0 0 30.502205625671195 -91.632972179191711 0 -91.632972179191711 -53.130326243936452 0 0 0 0 -16.158194921845279 135.56494789254884 0 135.56494789254884 -240.26424009207403 0 0 0 0 -0.037492297823064291 -1.881870568897682 0 -1.881870568897682 -7.5294971915771534 0 0 0 0 120.1994621176309 -41.996844579537992 0 -41.996844579537992 -44.054468124222694 0 0 0 0 -1.594418314052291 -7.0815045776712111 0 -7.0815045776712111 -20.555867947379625 0 0 0 0 -75.285898618014471 85.323082062688627 0 85.323082062688627 -15.440996239869492 0 0 0 0 -54.583940525073558 -59.463760251695021 0 -59.463760251695021 -40.185464937402912 0 0 0 0 87.13714565000555 -67.960950448486983 0 -67.960950448486983 -50.6125700039197 0 0 0 0 32.278331818044535 -46.87775813074677 0 -46.87775813074677 15.40039469567273 0 0 0 0 25.310831868380774 -102.07946357859691 0 -102.07946357859691 -4.6167914248617308 0 0 0 0 -32.27983989513686 -47.831442947679676 0 -47.831442947679676 -47.189471450151629 0 0 0 0 -14.612355460529841 -22.295103314882795 0 -22.295103314882795 -18.046887157894666 0 0 0 0 -72.398302120993321 -79.892618547746679 0 -79.892618547746679 111.08784683119848 0 0 0 0 3.624085329242007 -129.62563858469559 0 -129.62563858469559 16.207976583645177 0 0 0 0 33.313924421294359 -156.15610307698671 0 -156.15610307698671 29.992939163005076 0 0 0 0 -1.2007649433776635 -36.54109391886437 0 -36.54109391886437 -48.310847784754287 0 0 0 0 54.532992646127241 -95.579521096366989 0 -95.579521096366989 -17.182055995952396 0 0 0 0 -35.229008614496507 -42.42566854333802 0 -42.42566854333802 -32.152399585083451 0 0 0 0 15.164672650957073 -97.564631462671969 0 -97.564631462671969 -19.132931536561955 0 0 0 0 -7.4493820325151319 -79.533590985085539 0 -79.533590985085539 -25.297019815427603 0 0 0 0 -9.2615796417667298 -72.450598652906592 0 -72.450598652906592 18.164837222942879 0 0 0 0 -48.431161028231145 -44.621055541043461 0 -44.621055541043461 -24.681825328832929 0 0 0 0 -10.919741031641024 -72.75689630978377 0 -72.75689630978377 -39.294165377463287 0 0 0 0 -17.924890281676198 -80.148724352131467 0 -80.148724352131467 -9.223521776501002 0 0 0 0 17.902646218150039 -85.766579188428295 0 -85.766579188428295 -25.782049972676759 0 0 0 0 182.63992680463707 -189.21495671010507 0 -189.21495671010507 61.245330843537886 0 0 0 0 52.718745117940244 -81.30362785238367 0 -81.30362785238367 -75.817165496705144 0 0 0 0 -16.990724759047765 -38.731646513577942 0 -38.731646513577942 -31.773446694961166 0 0 0 0 112.96046296996064 -170.45712018170298 0 -170.45712018170298 70.788462693947963 0 0 0 0 128.7481629216345 -142.58047105490004 0 -142.58047105490004 98.698291571119626 0 0 0 0 -2.8051618415610733 -47.457370466418837 0 -47.457370466418837 16.538962896263868 0 0 0 0 -234.10272603137855 -218.11847467445068 0 -218.11847467445068 11.741769087597049 0 0 0 0 -100.80424625525484 -111.23791716665346 0 -111.23791716665346 257.31164802501917 0 0 0 0 -16.869927631005197 1.6192731969172769 0 1.6192731969172769 3.7445925117862799 0 0 0 0 -50.124225173851769 -94.141134990009093 0 -94.141134990009093 45.645932355070215 0 0 0 0 -437.38846806471702 -162.51266860627538 0 -162.51266860627538 -3.2766425684501428 0 0 0 0 -7.3393823870137567 -93.277965545341203 0 -93.277965545341203 -23.024647938202179 0 0 0 0 7.788982778423815 -30.172042777620845 0 -30.172042777620845 -33.617959500711549 0 0 0 0 -12.136114427735492 -49.086913249482386 0 -49.086913249482386 -39.332753805636976 0 0 0 0 73.23290927731432 -124.2926124622436 0 -124.2926124622436 37.451327474420395 0 0 0 0 47.082721185252012 -152.96079538810022 0 -152.96079538810022 42.031117862066367 0 0 0 0 18.155178045250068 -127.67426207724952 0 -127.67426207724952 37.449965807893932 0 0 0 0 45.321507824148284 -147.15784267552999 0 -147.15784267552999 36.466273215951333 0 0 0 0 98.830501192458541 -165.44338530901769 0 -165.44338530901769 42.986817627919663 0 0 0 0 47.023076161560311 -316.02056235477357 0 -316.02056235477357 322.14421520261931 0 0 0 0 28.148393028798694 -84.380723147630903 0 -84.380723147630903 -71.973283674777448 0 0 0 0 118.65567616435874 -135.21494008915033 0 -135.21494008915033 -44.054493639319844 0 0 0 0 87.348165234754561 -141.48244152807911 0 -141.48244152807911 -320.66314124164637 0 0 0 0 127.41281427975628 -234.59702473408288 0 -234.59702473408288 -336.50536434839887 0 0 0 0 23.980920449641417 -284.20514453118813 0 -284.20514453118813 -155.11073301656143 0 0 0 0 95.650912694298313 -234.80540048459079 0 -234.80540048459079 -371.70210993579531 0 0 0 0 98.012547095815535 -231.67990152081256 0 -231.67990152081256 -532.57109716399282 0 0 0 0 47.16923178480647 -297.72329991678998 0 -297.72329991678998 -315.83039537883451 0 0 0 0 -82.164359287606203 -168.41705373678633 0 -168.41705373678633 -310.29469427565709 0 0 0 0 34.850623321574858 -311.6696171467463 0 -311.6696171467463 -217.03347923289402 0 0 0 0 26.691675681911875 -192.38346364862809 0 -192.38346364862809 -200.2990226377151 0 0 0 0 92.681298976080143 -383.54210794571554 0 -383.54210794571554 -38.762539694609586 0 0 0 0 14.677169986549416 -288.36055868879339 0 -288.36055868879339 217.53277012126637 0 0 0 0 186.48893485574808 -285.53539837666085 0 -285.53539837666085 -160.96072771001491 0 0 0 0 -12.949560498615028 -224.9068062820952 0 -224.9068062820952 -91.862710135745147 0 0 0 0 381.16369914465758 -421.42441402012992 0 -421.42441402012992 -340.12366419477621 0 0 0 0 -19.70035321242635 -34.381703138937723 0 -34.381703138937723 47.449955976023034 0 0 0 0 32.713308448146563 -363.62309235831344 0 -363.62309235831344 -187.09326444622275 0 0 0 0 -238.30568914709147 -432.74864785856334 0 -432.74864785856334 -195.83604546446441 0 0 0 0 -230.64926170269609 -298.88913684462023 0 -298.88913684462023 -71.443735930122784 0 0 0 0 -129.34860952487725 -311.08885835303045 0 -311.08885835303045 -200.55763072734408 0 0 0 0 -122.23429524124367 -282.42480419159983 0 -282.42480419159983 -166.85481262112444 0 0 0 0 -90.215159902203595 -279.44242561165447 0 -279.44242561165447 -231.24966335943645 0 0 0 0 -55.47719700547168 -310.40476409224357 0 -310.40476409224357 -204.07864498905474 0 0 0 0 27.519205308104574 -13.240425530657376 0 -13.240425530657376 50.111605247569969 0 0 0 0 43.854858370590108 -88.372001508633787 0 -88.372001508633787 54.776219688307719 0 0 0 0 94.170716680171608 -105.7270427182375 0 -105.7270427182375 -160.43291422263428 0 0 0 0 120.69478468323359 -258.3089788397192 0 -258.3089788397192 -529.25621072251579 0 0 0 0 7.2029608549783006 20.447858012819779 0 20.447858012819779 221.81010569319187 0 0 0 0 64.567647132592356 -206.77327150505062 0 -206.77327150505062 78.266603436073638 0 0 0 0 -1.876112685251428 -91.886360011799752 0 -91.886360011799752 177.2752771765081 0 0 0 0 299.01588080658985 -30.420484151138226 0 -30.420484151138226 189.69547772602527 0 0 0 0 -26.211322690855013 -335.33417335448758 0 -335.33417335448758 236.33614724993822 0 0 0 0 -92.8803042442687 -80.238941531652017 0 -80.238941531652017 436.29548147025343 0 0 0 0 2.9740288493678406 -0.31885014324646477 0 -0.31885014324646477 0.33257356412048011 0 0 0 0 45.509379763505422 36.82254851730977 0 36.82254851730977 75.459659582531458 0 0 0 0 17.15862463558733 -182.68017980537115 0 -182.68017980537115 609.51940720288258 0 0 0 0 -6.5855108783071046 -74.883321519642777 0 -74.883321519642777 296.57078158322838 0 0 0 0 17.438829130514932 -12.186074779034243 0 -12.186074779034243 -2.9783740622078767 0 0 0 0 -90.476293701605755 -10.545931298838696 0 -10.545931298838696 4.1685911213498912 0 0 0 0 -154.42517481227696 -171.90318602163461 0 -171.90318602163461 -54.962586714413192 0 0 0 0 212.41215852681853 -144.3739569469617 0 -144.3739569469617 -53.217293014080497 0 0 0 0 -26.56600869597969 -346.23898043318331 0 -346.23898043318331 -265.59771681457642 0 0 0 0 4.2033797452313593 -7.4709828753038892 0 -7.4709828753038892 8.4300831169530284 0 0 0 0 3.9773327898243096 -5.6297412767894457 0 -5.6297412767894457 4.6474413116782216 0 0 0 0 -69.996526599876233 63.745497503499791 0 63.745497503499791 -54.599293015286094 0 0 0 0 62.971485105648753 34.949459707997448 0 34.949459707997448 -5.2284611653449247 0 0 0 0 -11.793590508204943 26.100493729305526 0 26.100493729305526 63.334667118964717 0 0 0 0 4.5530955031508142 -6.4545080283836995 0 -6.4545080283836995 5.6367639150691389 0 0 0 0 4.3443222359755964 -0.57182771605313576 0 -0.57182771605313576 8.5192633219798921 0 0 0 0 7.9795591902547756 -2.1938968182443119 0 -2.1938968182443119 1.9150056522473449 0 0 0 0 2.7429005519879865 -0.29896539844968117 0 -0.29896539844968117 0.6847863663009548 0 0 0 0 100.75311872118618 -124.43702165916329 0 -124.43702165916329 171.98558021601275 0 0 0 0 -35.963146460730059 -0.8889986657522968 0 -0.8889986657522968 286.7728657645639 0 0 0 0 101.02926710859174 26.289187810107251 0 26.289187810107251 -110.29641027745674 0 0 0 0 -60.572609826704138 -91.055106832776801 0 -91.055106832776801 402.11483661262901 0 0 0 0 -59.449659174715634 -99.058438832857064 0 -99.058438832857064 296.88918396056397 0 0 0 0 45.8499538503238 -0.27378693287755596 0 -0.27378693287755596 18.021995261413394 0 0 0 0 1.8852770773752212 4.1318778752993808 0 4.1318778752993808 12.015871743257321 0 0 0 0 172.06663670671514 -201.9926409588561 0 -201.9926409588561 233.62226812448353 0 0 0 0 159.88028088655847 -102.25350774863909 0 -102.25350774863909 143.25010970447329 0 0 0 0 174.93988346811966 -291.84357527345855 0 -291.84357527345855 -621.38294309273624 0 0 0 0 -581.5656882508265 -477.71375579381493 0 -477.71375579381493 1464.2206206491974 0 0 0 0 -74.45939469847508 -170.1521962138213 0 -170.1521962138213 509.9343470374879 0 0 0 0 21.424388969279789 -155.95786214163036 0 -155.95786214163036 336.04325749273994 0 0 0 0 14.878741423726751 -236.14523205955629 0 -236.14523205955629 437.36604934776551 0 0 0 0 -134.60683074592089 -84.087462514944491 0 -84.087462514944491 427.01294966379646 0 0 0 0 283.51399990799837 1169.0255147670105 0 1169.0255147670105 -167.75454875947617 0 0 0 0 73.26395206261077 -153.96945953471004 0 -153.96945953471004 248.61234459196567 0 0 0 0 3.4609958052024012 -13.232609872386092 0 -13.232609872386092 60.804982468340313 0 0 0 0 -77.696595336485188 -175.96700542166946 0 -175.96700542166946 52.343258199198772 0 0 0 0 -30.477777132400661 -372.9600215699611 0 -372.9600215699611 -483.75270179078507 0 0 0 0 11.136793557771199 -2.2353884807143096 0 -2.2353884807143096 -36.890796083096575 0 0 0 0 20.421752972300339 -50.189234599521782 0 -50.189234599521782 36.204610271558529 0 0 0 0 46.077607576710079 -57.168100071535235 0 -57.168100071535235 20.705605908538828 0 0 0 0 16.861739336280152 -101.55693883831555 0 -101.55693883831555 -58.379451002212591 0 0 0 0 78.927744990462088 -202.18746573230601 0 -202.18746573230601 -481.42214466387668 0 0 0 0 -22.1390773680032 -178.7857923841002 0 -178.7857923841002 -355.18362234705091 0 0 0 0 82.880111460355693 -130.86307604606554 0 -130.86307604606554 -523.46893742051543 0 0 0 0 46.990754464168276 -217.81209284933902 0 -217.81209284933902 -359.0793194750222 0 0 0 0 108.12864566901408 -32.274192456950914 0 -32.274192456950914 -404.75276847118403 0 0 0 0 -0.70132732142519671 -86.183660270275141 0 -86.183660270275141 15.317222154505998 0 0 0 0 20.369387708971033 -45.585672576526882 0 -45.585672576526882 23.979767077280229 0 0 0 0 18.440759292778552 -32.703421226052868 0 -32.703421226052868 36.409342567094981 0 0 0 0 -1.7406237883551512 -45.042132964052144 0 -45.042132964052144 16.961881014998653 0 0 0 0 -165.43177712157194 -341.97868521028431 0 -341.97868521028431 88.908705924754031 0 0 0 0 -23.978196825366467 -80.501248376647709 0 -80.501248376647709 -54.418719390261685 0 0 0 0 21.322263060492617 -30.811655031634828 0 -30.811655031634828 30.929724957153269 0 0 0 0 2.2843928020031967 -39.480444934514765 0 -39.480444934514765 68.124600587143505 0 0 0 0 -4.5835673342517111 -84.866360763699049 0 -84.866360763699049 -35.292556536456686 0 0 0 0 15.426081164856441 6.2120568040554645 0 6.2120568040554645 148.75790230189159 0 0 0 0 56.648113002054743 40.304208536843362 0 40.304208536843362 -63.758640729720355 0 0 0 0 -22.839329897775315 -91.127588697934698 0 -91.127588697934698 -73.690240620373515 0 0 0 0 36.657101985852933 21.138987924859975 0 21.138987924859975 -202.95957810754771 0 0 0 0 -8.9979134073946625 0.91706473723752424 0 0.91706473723752424 -28.871231480603456 0 0 0 0 31.617355406851857 -78.619083788165881 0 -78.619083788165881 -188.02572185406461 0 0 0 0 3.8344113382627256 -110.75900924013695 0 -110.75900924013695 -22.362233066640329 0 0 0 0 -21.393021539188339 -38.818248587274866 0 -38.818248587274866 -13.851400725891835 0 0 0 0 -75.824794265758101 -21.429952539117949 0 -21.429952539117949 40.723944929544814 0 0 0 0 -47.926933844311861 60.573635563981952 0 60.573635563981952 -105.96744248819596 0 0 0 0 -40.728693856901373 -82.087663170648739 0 -82.087663170648739 100.63866388029419 0 0 0 0 -47.556218726313091 -42.753399520421226 0 -42.753399520421226 120.98164387592624 0 0 0 0 51.763282918545883 -49.391732125652197 0 -49.391732125652197 1.7765315232391004 0 0 0 0 83.201292665151414 -140.59463551446242 0 -140.59463551446242 1.2757189043695689 0 0 0 0 -31.657239957312413 -68.14633817027061 0 -68.14633817027061 51.148367730551399 0 0 0 0 36.532334365539157 -30.172750701803835 0 -30.172750701803835 13.692366207064381 0 0 0 0 18.690533336113731 26.207249311763007 0 26.207249311763007 69.319299171518651 0 0 0 0 13.27655614965596 -16.195710586894862 0 -16.195710586894862 9.689126485257006 0 0 0 0 64.135040971916169 -6.3025305693117843 0 -6.3025305693117843 -134.78678442676028 0 0 0 0 152.18719375648652 43.948224376188591 0 43.948224376188591 -107.71827357177972 0 0 0 0 -13.913025806337828 -30.524453475351038 0 -30.524453475351038 22.090210618378478 0 0 0 0 7.3404865708434954 -49.477462220696907 0 -49.477462220696907 32.073654831256135 0 0 0 0 -9.2803964519152942 -45.856430657340752 0 -45.856430657340752 20.879977600357961 0 0 0 0 14.76295272486459 -32.126820785864368 0 -32.126820785864368 14.270931601120395 0 0 0 0 15.642418889107262 -48.056130014775931 0 -48.056130014775931 41.936943981223948 0 0 0 0 -5.8325723197944228 -29.877687031699708 0 -29.877687031699708 26.27762582073828 0 0 0 0 68.001223928644322 -30.401214350524242 0 -30.401214350524242 13.282782466383651 0 0 0 0 7.8339748352009337 -67.041204099477909 0 -67.041204099477909 11.581417105539003 0 0 0 0 6.3205805961783881 -48.252211812766603 0 -48.252211812766603 38.365240825446207 0 0 0 0 22.763495423618792 -38.426056904843101 0 -38.426056904843101 41.256546782763394 0 0 0 0 -4.1938935651851352 -41.048622046699165 0 -41.048622046699165 34.250401593206334 0 0 0 0 17.820578647414209 -46.623255377104584 0 -46.623255377104584 42.481469059716289 0 0 0 0 8.4948228545981692 -62.1393092983526 0 -62.1393092983526 0.74871478414206649 0 0 0 0 8.7026106290103371 -35.315271043604263 0 -35.315271043604263 33.048801917592513 0 0 0 0 -4.0866414261614068 -6.7131006464882006 0 -6.7131006464882006 -1.6842061417209138 0 0 0 0 2.5446891762505111 -24.236138270263723 0 -24.236138270263723 15.523498865013892 0 0 0 0 -75.418533175616176 -29.632949432419991 0 -29.632949432419991 310.08681928665465 0 0 0 0 2.8394842110591867 -11.921147618659518 0 -11.921147618659518 8.9072718724920321 0 0 0 0 19.36327291316411 -129.67379454984621 0 -129.67379454984621 -235.47701516129018 0 0 0 0 74.876844094644184 -44.344894442252553 0 -44.344894442252553 -105.13728337128123 0 0 0 0 -841.49960456014378 -723.83780455542365 0 -723.83780455542365 -561.14835568376293 0 0 0 0 -1547.5992516137185 -542.33014322840654 0 -542.33014322840654 -102.75585529436648 0 0 0 0 4.3283977502815105 -17.134761182302782 0 -17.134761182302782 30.766204875762924 0 0 0 0 -77.187798016078887 109.85227060644502 0 109.85227060644502 -241.05795808597031 0 0 0 0 16.708105606774609 -46.889669217938788 0 -46.889669217938788 24.407072243203068 0 0 0 0 101.29849601030583 -116.08602517908366 0 -116.08602517908366 -797.61885463122235 0 0 0 0 2.7947011282849381 -4.5268277940033386 0 -4.5268277940033386 -21.106856443345009 0 0 0 0 -1142.2684767905266 17.65331332327878 0 17.65331332327878 524.69222447836364 0 0 0 0 161.72469187637034 502.12905700353622 0 502.12905700353622 506.25012456775585 0 0 0 0 -86.346037043549586 -235.4472992930896 0 -235.4472992930896 9.4768521505488934 0 0 0 0 -435.22886666502018 -784.17508754449682 0 -784.17508754449682 -752.64529887097524 0 0 0 0 -106.66730556440598 -280.41978053920684 0 -280.41978053920684 3.398389973306621 0 0 0 0 -48.348412389284931 -380.16791588270644 0 -380.16791588270644 -372.75250532024438 0 0 0 0 45.657559169369051 -291.46720786331571 0 -291.46720786331571 -89.268333510255616 0 0 0 0 31.980070497826091 -158.94172324456667 0 -158.94172324456667 -60.008401284336287 0 0 0 0 -127.4898360351508 -273.3901538547143 0 -273.3901538547143 131.57926250677701 0 0 0 0 70.798609744637361 -190.56886371043583 0 -190.56886371043583 165.67612895565981 0 0 0 0 -28.118364507761726 -265.50518410498444 0 -265.50518410498444 440.65561142124352 0 0 0 0 11.402142155997126 -90.585305933114867 0 -90.585305933114867 -76.566412861471377 0 0 0 0 45.795795870267284 -148.35708946506855 0 -148.35708946506855 -33.234389815777831 0 0 0 0 -120.02708616309974 -166.76405157867339 0 -166.76405157867339 357.47019198418639 0 0 0 0 -14.480475040400052 -21.010385822552053 0 -21.010385822552053 325.49555221531045 0 0 0 0 12.679498639930216 -54.742224948290811 0 -54.742224948290811 51.791751399191455 0 0 0 0 -388.02703537214256 -134.45630608693136 0 -134.45630608693136 298.47357081880182 0 0 0 0 -35.135456511201482 -69.888432418774755 0 -69.888432418774755 6.8405118450464215 0 0 0 0 -28.435696396409185 -59.929610578838037 0 -59.929610578838037 -23.643133120320272 0 0 0 0 -2.5339360930520343 -88.836501594490983 0 -88.836501594490983 -14.370558968090336 0 0 0 0 -56.210845632173005 -81.923088721854583 0 -81.923088721854583 3.8647066895591706 0 0 0 0 9.3549304745203585 -16.757525020126153 0 -16.757525020126153 42.836547731648267 0 0 0 0 -35.216840535627853 -41.214678386088053 0 -41.214678386088053 75.227259558902006 0 0 0 0 -58.062216556165367 -124.49956631427995 0 -124.49956631427995 26.141101260944197 0 0 0 0 5.431877080486629 -15.864201017526398 0 -15.864201017526398 30.178362124221195 0 0 0 0 16.333794782054611 53.154264719934872 0 53.154264719934872 74.681768265465507 0 0 0 0 -65.364957195110037 -72.076732797595469 0 -72.076732797595469 113.32936402023552 0 0 0 0 2.7177384361528709 -0.79518363180523011 0 -0.79518363180523011 -1.9853678921361677 0 0 0 0 -132.80682297615567 -86.525293187311036 0 -86.525293187311036 32.157667728693923 0 0 0 0 -147.23027737743905 -31.034601967099661 0 -31.034601967099661 16.163678057884681 0 0 0 0 -101.6025135666132 -77.064331856403442 0 -77.064331856403442 -31.550594600066688 0 0 0 0 -0.24546302607757298 -0.1775820239273429 0 -0.1775820239273429 3.4600844382294724 0 0 0 0 -55.593506983481348 -122.81960209749923 0 -122.81960209749923 -7.2818573659678805 0 0 0 0 -62.488720140099758 -142.74350290688744 0 -142.74350290688744 -47.095394298077736 0 0 0 0 -80.21610991947091 -109.13658141176165 0 -109.13658141176165 -7.8806248112450703 0 0 0 0 12.063267075602198 -171.93029751712311 0 -171.93029751712311 17.115080697569283 0 0 0 0 -92.608377020646003 -31.951316631924783 0 -31.951316631924783 1.8236273499351228 0 0 0 0 -261.0527186463587 -82.134128741941822 0 -82.134128741941822 42.242788559233304 0 0 0 0 -134.11377234276733 -169.57835468232588 0 -169.57835468232588 15.44009114610526 0 0 0 0 -186.84751779150974 118.04675374717226 0 118.04675374717226 27.279528583138017 0 0 0 0 -1.2056662115280972 -3.2958703017752953 0 -3.2958703017752953 0.5848965913472739 0 0 0 0 -463.22360706370091 43.585410271283763 0 43.585410271283763 166.62249913205596 0 0 0 0 14.714732234904659 -32.105453313473845 0 -32.105453313473845 19.642847316586995 0 0 0 0 -368.63745880362694 -78.579307282278023 0 -78.579307282278023 -115.74151187859025 0 0 0 0 -0.99253590753829712 -0.21770191822793095 0 -0.21770191822793095 1.2959369129726497 0 0 0 0 -322.92422745222575 5.2246864927510615 0 5.2246864927510615 -6.2309495037588931 0 0 0 0 -31.069055107378517 -70.653099568678954 0 -70.653099568678954 52.2526986726225 0 0 0 0 -129.73639838359668 -172.69596723377981 0 -172.69596723377981 141.96967962889903 0 0 0 0 -145.66225336116622 71.180809667446738 0 71.180809667446738 144.99359799502332 0 0 0 0 3.70822053882452 -5.8466852306482338 0 -5.8466852306482338 10.660309492384812 0 0 0 0 65.188898267471814 -246.88400894610095 0 -246.88400894610095 305.97755404283089 0 0 0 0 159.86516380304238 -122.55725780324428 0 -122.55725780324428 18.649763264047579 0 0 0 0 738.46260590361635 814.23664906524209 0 814.23664906524209 -384.52633479789438 0 0 0 0 68.772296066792478 -45.632537755863723 0 -45.632537755863723 -24.987287254436524 0 0 0 0 -417.96835176402237 -1026.5792438818244 0 -1026.5792438818244 -241.52449502401214 0 0 0 0 -1271.7785843241145 -840.66178143432262 0 -840.66178143432262 -42.223471793724457 0 0 0 0 855.35625883417379 -362.79157298359496 0 -362.79157298359496 -576.36561368780531 0 0 0 0 390.76410050233972 525.46002921064701 0 525.46002921064701 263.99155334593524 0 0 0 0 -374.12911727695609 -401.57670276206409 0 -401.57670276206409 -341.96364661589178 0 0 0 0 -34.650070860312553 -404.51441312815223 0 -404.51441312815223 -483.47570700958022 0 0 0 0 -232.66556657706678 -742.39414546264743 0 -742.39414546264743 -445.96086956253566 0 0 0 0 -904.34508877011831 -677.21213643880765 0 -677.21213643880765 -264.39307427368476 0 0 0 0 -736.51836300722789 -745.42162829422887 0 -745.42162829422887 -332.16519862944551 0 0 0 0 -568.69686198089039 -221.02343304788519 0 -221.02343304788519 28.391332519764546 0 0 0 0 -752.24700316629605 -645.00198965361051 0 -645.00198965361051 -344.44955687769834 0 0 0 0 -467.18501505038876 -292.8905779438719 0 -292.8905779438719 -678.31511112679436 0 0 0 0 -975.5429788006586 -642.98200643859309 0 -642.98200643859309 -221.54464392025693 0 0 0 0 -426.14963321384857 -425.89108703736565 0 -425.89108703736565 -328.61762731461931 0 0 0 0 -233.51111425329873 -461.33605293702567 0 -461.33605293702567 -443.63206437815097 0 0 0 0 -278.99805102321261 -440.12016271125322 0 -440.12016271125322 -333.24277533921122 0 0 0 0 -465.14524979066846 -511.29480845027729 0 -511.29480845027729 -199.53262838849332 0 0 0 0 -345.74685078326729 -420.42326430577668 0 -420.42326430577668 -203.66258648656731 0 0 0 0 -393.37012247508392 -483.99110209528953 0 -483.99110209528953 -286.51334885394317 0 0 0 0 -369.7007173972961 -9.7893994458572706 0 -9.7893994458572706 70.873754982385435 0 0 0 0 -168.48980660949019 -189.80879139429453 0 -189.80879139429453 -114.35375587818999 0 0 0 0 -448.59457174089039 -79.989707499815268 0 -79.989707499815268 87.060713411288816 0 0 0 0 13.621854602599853 -24.693735172797137 0 -24.693735172797137 19.426441648573956 0 0 0 0 -544.68525288655655 -389.34054574227775 0 -389.34054574227775 -202.23972151609632 0 0 0 0 -447.64121435522247 -423.84552044567863 0 -423.84552044567863 -190.07558930017694 0 0 0 0 -410.9981420271215 -173.05449528669124 0 -173.05449528669124 -54.618079598890631 0 0 0 0 490.91444924885582 -265.79670425238146 0 -265.79670425238146 27.206226015445282 0 0 0 0 -1.6280599734897976 -2.0832617250967758 0 -2.0832617250967758 3.5688822005125473 0 0 0 0 -409.28818859328749 -372.52105759624465 0 -372.52105759624465 -125.85472857665445 0 0 0 0 -273.01024046603561 -316.03838949894271 0 -316.03838949894271 -225.18196497651297 0 0 0 0 41.568398429379158 -99.631844262829873 0 -99.631844262829873 -324.65571314028057 0 0 0 0 -276.11160295132504 -328.36410048887683 0 -328.36410048887683 -247.4930343244705 0 0 0 0 -59.285705202870304 65.23080245942765 0 65.23080245942765 -61.9826064332442 0 0 0 0 -39.821238853670366 36.344278538284925 0 36.344278538284925 -19.265420048039232 0 0 0 0 -2.0356747923882352 -1.5318476369015173 0 -1.5318476369015173 9.4301524092833517 0 0 0 0 -123.23799514892744 -36.770710859365863 0 -36.770710859365863 -166.60216424141981 0 0 0 0 54.340985563918366 139.02159502169161 0 139.02159502169161 -172.5291896545325 0 0 0 0 -155.14836220935103 27.242365437272383 0 27.242365437272383 631.74084927379954 0 0 0 0 -31.572864644811489 -22.842497530578839 0 -22.842497530578839 42.180892022908665 0 0 0 0 -90.710037004995684 246.81053960047757 0 246.81053960047757 160.52051994879002 0 0 0 0 -215.7442002776952 79.242993997464509 0 79.242993997464509 26.923743186591309 0 0 0 0 -370.5735635375313 -79.91415911488366 0 -79.91415911488366 88.027131619186548 0 0 0 0 3.7049894379451871 -21.858990174485371 0 -21.858990174485371 98.471307116866228 0 0 0 0 -37.102937583043968 -0.97495578485904844 0 -0.97495578485904844 33.804956876832875 0 0 0 0 -1.6491668028898516 0.045817586581449632 0 0.045817586581449632 16.841616881771756 0 0 0 0 13.290719086106037 -14.180154623929411 0 -14.180154623929411 104.61825085878809 0 0 0 0 -15.988095726061147 51.656870974795311 0 51.656870974795311 145.42374519890291 0 0 0 0 19.040111275011441 36.351257996000641 0 36.351257996000641 76.932453017579974 0 0 0 0 -15.988095726002939 51.656870974707999 0 51.656870974707999 145.42374519894656 0 0 0 0 -15.988095726206666 51.656870974697085 0 51.656870974697085 145.42374519890291 0 0 0 0 20.806109249446308 -46.60606648754765 0 -46.60606648754765 119.21395555850177 0 0 0 0 -12.271878301718971 -40.32124332300009 0 -40.32124332300009 165.31128196007921 0 0 0 0 -9.852314136485802 -60.363919610514131 0 -60.363919610514131 234.97178313897894 0 0 0 0 24.745622186077526 -137.52404082916837 0 -137.52404082916837 232.344892044679 0 0 0 0 -25.35162434160884 -161.40508025568488 0 -161.40508025568488 223.32589867041679 0 0 0 0 195.61901101842523 -207.6126694648774 0 -207.6126694648774 148.44771108242276 0 0 0 0 46.141063886549091 -94.071121499313449 0 -94.071121499313449 76.057067286303209 0 0 0 0 43.130810999573441 -252.01803704240956 0 -252.01803704240956 145.67111675038541 0 0 0 0 28.715553362831997 -267.29241574905973 0 -267.29241574905973 165.59122753381598 0 0 0 0 45.286508047822281 -216.82773056125734 0 -216.82773056125734 254.01963234894174 0 0 0 0 17.296319415734615 -270.87056758708786 0 -270.87056758708786 166.16428472553662 0 0 0 0 0.016155068457010202 -330.98022985100033 0 -330.98022985100033 179.85683367207275 0 0 0 0 -2.2771385732048657 -284.74073922755815 0 -284.74073922755815 314.30197047215916 0 0 0 0 30.319757507284521 -219.11972952748329 0 -219.11972952748329 259.56580295090134 0 0 0 0 -31.05829977504618 -4.8643004465084232 0 -4.8643004465084232 884.73078437512959 0 0 0 0 0.18164781960222209 -310.64062891231299 0 -310.64062891231299 452.26997983694309 0 0 0 0 -25.308805433074667 -158.47669150554952 0 -158.47669150554952 401.77460825038725 0 0 0 0 -34.222625011971104 -86.733017506325268 0 -86.733017506325268 311.55816363343547 0 0 0 0 5.6696443162672949 -0.61365270238753311 0 -0.61365270238753311 0.064757761589007146 0 0 0 0 -12.041907032697054 24.42930303519006 0 24.42930303519006 333.14036047559784 0 0 0 0 2.3274701689952053 -33.415330476782401 0 -33.415330476782401 -64.983499261517863 0 0 0 0 -12.79785471834839 -66.714951738414584 0 -66.714951738414584 327.1928149699088 0 0 0 0 0.022652237064903602 -20.57624862499506 0 -20.57624862499506 -43.554009960333133 0 0 0 0 3.2554245468979843 0.90007996217918063 0 0.90007996217918063 -0.89542179954376877 0 0 0 0 -7.5136606633168412 -11.139643384267401 0 -11.139643384267401 -7.7187785284113488 0 0 0 0 5.1270555147202685 8.3634961001262127 0 8.3634961001262127 0.82133418620287557 0 0 0 0 -0.68608644280175213 -16.730103549383784 0 -16.730103549383784 25.368437473967788 0 0 0 0 -0.03289981674606679 -23.050806548961191 0 -23.050806548961191 45.028722343977279 0 0 0 0 9.4142069804947823 -1.4935720666617271 0 -1.4935720666617271 101.78715219443507 0 0 0 0 44.273496623791289 -20.649129252931743 0 -20.649129252931743 76.308762237007613 0 0 0 0 -9.9848822764470242 -14.917043138051667 0 -14.917043138051667 71.832911052488271 0 0 0 0 -1.8392188939033076 -22.655044869010453 0 -22.655044869010453 64.981126104030409 0 0 0 0 17.668133265891811 15.470059459759796 0 15.470059459759796 32.342594971672952 0 0 0 0 6.7615662386378972 7.0287769744845718 0 7.0287769744845718 76.954238346545026 0 0 0 0 -1.6342231326561887 -17.112165526530589 0 -17.112165526530589 5.7696708258336002 0 0 0 0 5.0601912742604327 1.7502327443899048 0 1.7502327443899048 -23.016136739403009 0 0 0 0 3.782476427819347 -2.1137277448542591 0 -2.1137277448542591 7.1450284139064024 0 0 0 0 4.0305426805934985 1.502340269957152 0 1.502340269957152 2.7790045349937671 0 0 0 0 25.607572333479766 -35.425945230221259 0 -35.425945230221259 36.110845502846132 0 0 0 0 -26.844554936335044 -76.791716986950178 0 -76.791716986950178 -33.140709056111518 0 0 0 0 3.7779636627594755 -3.2199960608616607 0 -3.2199960608616607 4.3744477319462192 0 0 0 0 3.2193499165425408 -3.8957173638953009 0 -3.8957173638953009 11.418242215665515 0 0 0 0 0.51295938849216327 -4.3163799940011813 0 -4.3163799940011813 11.426697974482522 0 0 0 0 3.1932653746116557 -7.3506984135046878 0 -7.3506984135046878 5.8954299051547423 0 0 0 0 1.8589738899609074 -4.708695426597842 0 -4.708695426597842 3.7244079903466627 0 0 0 0 1.9271194458960395 -5.4699786511430943 0 -5.4699786511430943 8.5417129097434099 0 0 0 0 1.3830279269378707 -4.8520777208000432 0 -4.8520777208000432 9.2360526852036955 0 0 0 0 -0.12311987375142053 -6.0550907578654005 0 -6.0550907578654005 11.019288771496576 0 0 0 0 -1.5037579411715711 -5.1694653912688011 0 -5.1694653912688011 12.140149993384028 0 0 0 0 -100.0501556157833 -27.08924423944336 0 -27.08924423944336 54.611696711850527 0 0 0 0 4.1290193271983071 -7.9169902698599088 0 -7.9169902698599088 15.248180845971859 0 0 0 0 75.55622517579468 -28.433538554549159 0 -28.433538554549159 -37.289890862904031 0 0 0 0 -18.612214143446181 -64.267696572354907 0 -64.267696572354907 70.916018052776053 0 0 0 0 51.192832385757356 -40.373870192970571 0 -40.373870192970571 -16.84106012621487 0 0 0 0 50.759920621523634 49.88567593292828 0 49.88567593292828 71.039209019232658 0 0 0 0 -213.44926277824561 -111.56577294872841 0 -111.56577294872841 2.9433665418328019 0 0 0 0 -3.6287775308587129 -1.3436178392220768 0 -1.3436178392220768 4.8153859903110288 0 0 0 0 12.888500718618161 -35.7780411532367 0 -35.7780411532367 262.38950919343915 0 0 0 0 18.85204623354366 -78.423588636564091 0 -78.423588636564091 235.78811026141193 0 0 0 0 1.4855525559585203 -0.7583600947371707 0 -0.7583600947371707 -2.7828191075254836 0 0 0 0 12.261131848979858 11.018303761396055 0 11.018303761396055 10.569437580214071 0 0 0 0 -2.5523578466653589 -0.92816182037715578 0 -0.92816182037715578 6.349037004958376 0 0 0 0 -19.513214426056948 23.943534970574547 0 23.943534970574547 45.881687843019336 0 0 0 0 -25.276916501527012 17.858929028418061 0 17.858929028418061 49.890160213071795 0 0 0 0 -4.3917300263308761 -7.5409484319430646 0 -7.5409484319430646 31.07707950506078 0 0 0 0 -2.4898143754513171 -7.0493673717877812 0 -7.0493673717877812 4.0386343432004708 0 0 0 0 -32.125484722913825 -36.903258332490168 0 -36.903258332490168 -7.9615234500161023 0 0 0 0 -7.4700215078337351 -12.788257280401012 0 -12.788257280401012 8.0268876338213886 0 0 0 0 -7.461866476096418 -15.089960186756866 0 -15.089960186756866 3.4477844749417272 0 0 0 0 5.1210327384760603 -7.5027575417861954 0 -7.5027575417861954 -11.106511808757205 0 0 0 0 5.2187717846973101 -8.0088761088372848 0 -8.0088761088372848 -9.6249403573692689 0 0 0 0 -2.370785051229177 -4.9892053840558219 0 -4.9892053840558219 -9.2945813058613567 0 0 0 0 9.1072873440716648 -6.3863111925857083 0 -6.3863111925857083 0.21699241460737539 0 0 0 0 0.042695950156485196 -20.835277354744903 0 -20.835277354744903 39.315884246258065 0 0 0 0 -4.6906826565418953 -3.8234317379178151 0 -3.8234317379178151 -1.8575024759943517 0 0 0 0 -11.293802239422803 -10.075819247658728 0 -10.075819247658728 25.415657425292011 0 0 0 0 -0.76934567783799679 -3.6550136508896571 0 -3.6550136508896571 0.7417128709821128 0 0 0 0 6.5150297190994024 -24.783523226869875 0 -24.783523226869875 39.179116016355692 0 0 0 0 -6.4944459723119508 -32.565057167914347 0 -32.565057167914347 49.562818547012284 0 0 0 0 -7.1829402565272176 -31.563595247703233 0 -31.563595247703233 57.384708819910884 0 0 0 0 -1.7078736168332398 -37.442774018003547 0 -37.442774018003547 61.745486254250864 0 0 0 0 8.4600102847907692 -21.062950456111139 0 -21.062950456111139 41.211568319820799 0 0 0 0 -6.7569339063455232 -5.2696911753514826 0 -5.2696911753514826 -3.0618676448458757 0 0 0 0 -1.6791689084493555 -39.940651199132844 0 -39.940651199132844 102.94238269299103 0 0 0 0 74.252353650517762 -77.204341296768689 0 -77.204341296768689 -4.4452731427300023 0 0 0 0 4.6947429351566825 -29.670630778975465 0 -29.670630778975465 49.193393534835195 0 0 0 0 2.5864072061303887 -1434.2247060762638 0 -1434.2247060762638 1842.6812350225046 0 0 0 0 79.558027968480019 -405.68751220728882 0 -405.68751220728882 935.75079689518316 0 0 0 0 610.92830016439257 -838.52456045207509 0 -838.52456045207509 160.5202164329603 0 0 0 0 41.11132360582269 -679.73512143496191 0 -679.73512143496191 1576.3502758163886 0 0 0 0 189.64799315188429 -642.93204454257284 0 -642.93204454257284 312.15178705656763 0 0 0 0 -0.64994723434938351 -796.69779880602619 0 -796.69779880602619 653.63015093104332 0 0 0 0 -41.315430049147835 226.76911647155157 0 226.76911647155157 2554.4277016080159 0 0 0 0 -105.77841677438118 -372.23799493446131 0 -372.23799493446131 -683.3509076537739 0 0 0 0 101.50912912821514 -271.04064214144455 0 -271.04064214144455 1339.7817748978177 0 0 0 0 138.37983723787329 -16.01540443846261 0 -16.01540443846261 1098.1711483989056 0 0 0 0 23.367402942391834 -28.302980486928227 0 -28.302980486928227 20.270673518578931 0 0 0 0 0.86422801474691369 -152.64526328032298 0 -152.64526328032298 -535.00215646050492 0 0 0 0 -151.91854175294247 448.40479967160627 0 448.40479967160627 4750.8032873590491 0 0 0 0 7.241424980922659 -8.4805321538504899 0 -8.4805321538504899 9.4567791865006257 0 0 0 0 -0.13389509840635583 -297.7157703183002 0 -297.7157703183002 -702.76858213902233 0 0 0 0 -120.23890152746026 -192.74397989535828 0 -192.74397989535828 -146.65374655679989 0 0 0 0 0.085310853275586851 -297.29970498604234 0 -297.29970498604234 -467.10010646930459 0 0 0 0 29.12167506354308 -292.05547916749674 0 -292.05547916749674 -153.95205973412158 0 0 0 0 -0.1268546777573647 -340.45136224720409 0 -340.45136224720409 -43.184716356849094 0 0 0 0 -41.164357715359074 -282.42039750005642 0 -282.42039750005642 -31.430165472120279 0 0 0 0 30.606511078025505 -328.35734712037311 0 -328.35734712037311 -2.9603082022877061 0 0 0 0 14.497390564265515 -253.08723357490362 0 -253.08723357490362 39.607922489805787 0 0 0 0 20.011810862633865 -466.23507243996937 0 -466.23507243996937 -57.32514663679467 0 0 0 0 138.41025254323176 -317.40795197710031 0 -317.40795197710031 -56.167549851583317 0 0 0 0 -19.095208518279833 -434.9804639196409 0 -434.9804639196409 -104.11040822651194 0 0 0 0 15.121609878944582 -535.57143841914876 0 -535.57143841914876 55.05330659365427 0 0 0 0 29.33174907763896 -178.61911564000911 0 -178.61911564000911 -574.83386504900045 0 0 0 0 -88.043982310024148 -73.704611253324401 0 -73.704611253324401 0.94128298706709757 0 0 0 0 43.078711385409008 -46.322963912501145 0 -46.322963912501145 30.079885546191633 0 0 0 0 273.70992234976438 -549.1755655862944 0 -549.1755655862944 -760.42918132417617 0 0 0 0 -198.68437116183713 -724.61334992102593 0 -724.61334992102593 -298.51565466685133 0 0 0 0 -253.73494454548018 -221.34808135686717 0 -221.34808135686717 860.75923502795922 0 0 0 0 -74.556683427770622 -790.92872726733276 0 -790.92872726733276 -669.4005931618085 0 0 0 0 3.9643262505678649 -4.8655452825447085 0 -4.8655452825447085 4.1652459151761576 0 0 0 0 -145.4414671073755 396.49833964723803 0 396.49833964723803 1073.3131617072595 0 0 0 0 169.24311930581462 -29.641119068392072 0 -29.641119068392072 184.77228118137282 0 0 0 0 -529.61788907446316 -523.47178645374515 0 -523.47178645374515 -162.9415580112618 0 0 0 0 47.784528172691353 -212.58987134621566 0 -212.58987134621566 -451.57861823941312 0 0 0 0 -32.450942812964968 -90.490826755422404 0 -90.490826755422404 37.05840377988352 0 0 0 0 -8.299929702393797 -2.1161898709319615 0 -2.1161898709319615 11.068485609669267 0 0 0 0 -9.394163001285051 55.506708005130349 0 55.506708005130349 339.07989158490818 0 0 0 0 -398.44375127140665 -623.8452227823509 0 -623.8452227823509 -395.42426966130733 0 0 0 0 10.56980534480283 -13.466873551610171 0 -13.466873551610171 12.593850240335399 0 0 0 0 -294.13628738609259 -466.5977267858616 0 -466.5977267858616 -367.65350606157881 0 0 0 0 -70.834692425996764 -71.917063214230438 0 -71.917063214230438 337.07682556538202 0 0 0 0 -103.29910902750635 -257.54992016679171 0 -257.54992016679171 95.360327893999056 0 0 0 0 72.649968090109553 -72.388462685020755 0 -72.388462685020755 42.258483445398483 0 0 0 0 -25.002906305104261 -229.09796097019716 0 -229.09796097019716 -79.720432000314759 0 0 0 0 -174.60358969525259 -8.1100531515512557 0 -8.1100531515512557 301.86837203977484 0 0 0 0 -15.390619960424374 52.644145390102494 0 52.644145390102494 148.42167524023898 0 0 0 0 61.110056095045877 -60.011971775261031 0 -60.011971775261031 37.750005712715037 0 0 0 0 -50.147234428557567 16.459124813976814 0 16.459124813976814 929.00545946526836 0 0 0 0 85.659496214619139 -222.89595644098881 0 -222.89595644098881 188.0878358623886 0 0 0 0 22.303977527826646 -106.83122895707493 0 -106.83122895707493 405.53009299300902 0 0 0 0 -26.531049290584633 -367.18632895863266 0 -367.18632895863266 604.04666699663358 0 0 0 0 -150.92136200515961 -472.07282809042226 0 -472.07282809042226 794.59255471441793 0 0 0 0 -595.25994356115552 -505.76452559059544 0 -505.76452559059544 810.76110317888379 0 0 0 0 -306.19139544839709 -433.94329190507233 0 -433.94329190507233 504.51004994573304 0 0 0 0 -94.267227960459422 -321.8124796325792 0 -321.8124796325792 675.6630923699413 0 0 0 0 -225.98958066241175 -190.37457505124621 0 -190.37457505124621 827.07106306344212 0 0 0 0 61.798952673503663 67.835376038721733 0 67.835376038721733 1006.5395350092585 0 0 0 0 -75.226898777822498 -159.348669785526 0 -159.348669785526 1294.2195642521219 0 0 0 0 -66.465554082387825 294.95893469625298 0 294.95893469625298 1670.8708602898005 0 0 0 0 -36.055467118709203 -46.584791466053503 0 -46.584791466053503 821.35129457405856 0 0 0 0 -415.12374154775171 -308.73890577362181 0 -308.73890577362181 920.70669189142063 0 0 0 0 -439.72259127692087 -444.73844579849538 0 -444.73844579849538 495.5576368762122 0 0 0 0 -101.41157659150485 -184.68408493961033 0 -184.68408493961033 1240.1740123991221 0 0 0 0 -172.29748550597287 -521.14742021475831 0 -521.14742021475831 513.84038087527369 0 0 0 0 -98.018886994119384 -665.31219589251123 0 -665.31219589251123 212.19351801548328 0 0 0 0 12.96622382147325 -489.81983080500504 0 -489.81983080500504 204.0543158895307 0 0 0 0 -197.75113065076584 -477.94188039930668 0 -477.94188039930668 -138.77688046960247 0 0 0 0 -491.31049622144928 -339.67178532591061 0 -339.67178532591061 282.43194554455113 0 0 0 0 -461.92580309230834 -253.00930480292664 0 -253.00930480292664 -190.66468580563378 0 0 0 0 842.86402756531061 -217.16734798846255 0 -217.16734798846255 183.0705067605013 0 0 0 0 -0.44259373591176754 -0.64541301101206727 0 -0.64541301101206727 -1.7657898911004963 0 0 0 0 184.60080730142363 1.1358978155840305 0 1.1358978155840305 132.58307347322989 0 0 0 0 -1568.5770673048319 -564.43434825697113 0 -564.43434825697113 531.23287507236091 0 0 0 0 -76.321619543581619 -706.77801874736178 0 -706.77801874736178 1157.3848556764715 0 0 0 0 -303.69525135640288 -439.55138637495111 0 -439.55138637495111 1553.0079773385223 0 0 0 0 490.18509715903201 -1645.7172687108541 0 -1645.7172687108541 2560.1865855734795 0 0 0 0 -134.10800508662942 -734.98479213764949 0 -734.98479213764949 712.37937407727259 0 0 0 0 74.223427578835981 -420.86583806862473 0 -420.86583806862473 762.60580131444385 0 0 0 0 -143.18149648973849 -182.63425150665353 0 -182.63425150665353 708.66881211590953 0 0 0 0 247.5839955478732 -186.19118500319018 0 -186.19118500319018 -492.21817250891036 0 0 0 0 -235.68684846753604 336.16883243571647 0 336.16883243571647 320.34449278436659 0 0 0 0 4045.4917543081319 -3178.4177338919253 0 -3178.4177338919253 -555.69132822900519 0 0 0 0 -347.16669978584468 -336.90123274326834 0 -336.90123274326834 1511.7858030562493 0 0 0 0 17.957419007814366 -26.172375386608181 0 -26.172375386608181 35.563648543413649 0 0 0 0 -472.57968149665976 124.53323392303719 0 124.53323392303719 849.6874296133974 0 0 0 0 3787.1022715096042 -976.52014921019145 0 -976.52014921019145 -2999.6152546490775 0 0 0 0 8.2094272742215679 -18.069105957702135 0 -18.069105957702135 31.003731627076888 0 0 0 0 -1545.0265457696514 -921.41194771711162 0 -921.41194771711162 1016.4929886954633 0 0 0 0 -222.72816861317551 -586.38617267757945 0 -586.38617267757945 551.9770967578188 0 0 0 0 -776.34181684225041 -1609.7621494390623 0 -1609.7621494390623 1632.6870598017704 0 0 0 0 -950.84529456823657 -157.54885043024115 0 -157.54885043024115 -305.80424678538111 0 0 0 0 -506.35521268870798 -424.38157087790023 0 -424.38157087790023 807.25659049642854 0 0 0 0 -508.31265373203496 -185.93743840231036 0 -185.93743840231036 108.62226205035404 0 0 0 0 -670.67798740620492 -662.30740530097682 0 -662.30740530097682 539.27516737592669 0 0 0 0 -174.35879243680392 -531.51332029437617 0 -531.51332029437617 407.07502584360191 0 0 0 0 -1180.8280947761814 -654.02738882620179 0 -654.02738882620179 -66.935095068321971 0 0 0 0 -451.2729537408668 83.268651769009011 0 83.268651769009011 -923.44952152736369 0 0 0 0 -356.57404465514992 -679.35982439455984 0 -679.35982439455984 -631.17866880397196 0 0 0 0 -154.1287991082736 -696.75874536847368 0 -696.75874536847368 -629.71591524709947 0 0 0 0 -486.799152435211 -463.44543732867169 0 -463.44543732867169 -256.45154248864856 0 0 0 0 -302.55388864367524 -434.6655319491565 0 -434.6655319491565 -678.69459038769128 0 0 0 0 -134.12461072012047 -460.93105535022551 0 -460.93105535022551 -675.14235436468152 0 0 0 0 425.53622122688103 3147.9340480025421 0 3147.9340480025421 7064.7875173941284 0 0 0 0 2978.7070857992803 -1634.6569183791071 0 -1634.6569183791071 475.04143593873596 0 0 0 0 11.133263966040005 -30.897371685036475 0 -30.897371685036475 72.254193602295629 0 0 0 0 -981.50815445178159 -657.32158923038878 0 -657.32158923038878 2055.2472419901751 0 0 0 0 1140.5856905126566 -989.08107128361735 0 -989.08107128361735 298.71457215919509 0 0 0 0 1572.0916158162872 -843.20790603925707 0 -843.20790603925707 -294.54092673616833 0 0 0 0 1315.3763415103604 -79.177098576459684 0 -79.177098576459684 -1029.4239715162839 0 0 0 0 380.40037054923596 649.67740635598602 0 649.67740635598602 -1053.2112432393724 0 0 0 0 830.37862165708793 -55.637070098600816 0 -55.637070098600816 -395.59948034785339 0 0 0 0 1113.209918654793 -690.30490790427575 0 -690.30490790427575 -34.288373066199711 0 0 0 0 906.71860599874344 -154.96861299156444 0 -154.96861299156444 -849.8582999923965 0 0 0 0 -2066.0287245749787 -603.68848695991073 0 -603.68848695991073 130.70678842999041 0 0 0 0 637.62651423764328 -391.20457575598994 0 -391.20457575598994 -625.69920971927058 0 0 0 0 -1.5064796890704883 -2.1725327087584674 0 -2.1725327087584674 -8.5795192070984285 0 0 0 0 -178.39404323424969 268.46617679187329 0 268.46617679187329 38.626192854397232 0 0 0 0 -892.16068141482538 -133.50177239275945 0 -133.50177239275945 -201.76798840674746 0 0 0 0 -320.68834639132547 -286.06534958157863 0 -286.06534958157863 -226.25072550916229 0 0 0 0 3.8018443909339013 -17.636308199560347 0 -17.636308199560347 -20.833000689510982 0 0 0 0 -14.593410078370653 -290.94780147413258 0 -290.94780147413258 196.81084504723549 0 0 0 0 -433.59184198260482 -33.124345162046666 0 -33.124345162046666 125.98431010145578 0 0 0 0 3.0097689497041245 -31.089304153934343 0 -31.089304153934343 72.880323218126932 0 0 0 0 -452.4253650206083 128.26865854553762 0 128.26865854553762 32.525815012020757 0 0 0 0 -229.45594134437124 -361.29547275175719 0 -361.29547275175719 -164.75297908950597 0 0 0 0 -238.3114800711628 -312.85288440363365 0 -312.85288440363365 -63.788359423633665 0 0 0 0 205.16937868299738 478.03096089853443 0 478.03096089853443 334.57096105371602 0 0 0 0 -175.56378389016027 -462.82162832355243 0 -462.82162832355243 124.15091297993786 0 0 0 0 147.55780510656132 -415.71155989571707 0 -415.71155989571707 -45.073010418855119 0 0 0 0 317.24250740099524 287.14165545496508 0 287.14165545496508 -528.95511102169985 0 0 0 0 393.36747195653152 -61.129166448285105 0 -61.129166448285105 -209.32944229348504 0 0 0 0 572.2113735609164 -144.47995404305402 0 -144.47995404305402 -170.69913355630706 0 0 0 0 -304.95133423138759 551.75629350426607 0 551.75629350426607 -323.25158563029254 0 0 0 0 90.616160493489588 108.32100715456181 0 108.32100715456181 -85.598716145730577 0 0 0 0 -71.679232224123552 168.18425781324913 0 168.18425781324913 -66.160252007419331 0 0 0 0 -134.80733901806889 -59.3178257851323 0 -59.3178257851323 57.557281183078885 0 0 0 0 109.70113011510693 15.609385567440768 0 15.609385567440768 -15.165337596146856 0 0 0 0 139.15685802958615 43.736253220944491 0 43.736253220944491 -110.32514225254999 0 0 0 0 303.70783706915972 -111.31904701150052 0 -111.31904701150052 -35.674138176313136 0 0 0 0 504.37119493866339 -227.65066920407116 0 -227.65066920407116 -110.6840001855453 0 0 0 0 163.55478997291357 -407.28301850796561 0 -407.28301850796561 131.18089999283256 0 0 0 0 200.66569342839648 -312.93726524613157 0 -312.93726524613157 180.12181442772271 0 0 0 0 443.58521183813355 -595.92905330099711 0 -595.92905330099711 256.82318725073128 0 0 0 0 348.33682794257038 -333.61241530263578 0 -333.61241530263578 -103.9292771894543 0 0 0 0 871.98993675858947 -666.24867382616503 0 -666.24867382616503 78.333800787499058 0 0 0 0 102.19393400178524 -926.29676722660224 0 -926.29676722660224 1312.0646505541372 0 0 0 0 676.37840587110259 -237.47886431029474 0 -237.47886431029474 -394.83174265138223 0 0 0 0 481.26075921593292 -776.69386018514342 0 -776.69386018514342 265.80744925084582 0 0 0 0 395.28530237539962 -688.77310080134339 0 -688.77310080134339 232.30282733115018 0 0 0 0 1013.3071118094958 -1289.7934873519116 0 -1289.7934873519116 576.75318992159009 0 0 0 0 1043.4031242831261 -768.7445141733333 0 -768.7445141733333 -98.966164907862549 0 0 0 0 143.66165130573791 -859.25500149263826 0 -859.25500149263826 712.74878786595582 0 0 0 0 -23.663433282541519 -653.5023393786214 0 -653.5023393786214 739.6875463797769 0 0 0 0 -208.41011528720264 -610.19634352922185 0 -610.19634352922185 546.19249517956632 0 0 0 0 -24.03963684622795 -351.27744851303214 0 -351.27744851303214 353.65365880333411 0 0 0 0 154.36568073222588 -573.59806136815314 0 -573.59806136815314 529.54662192158867 0 0 0 0 96.802086573385168 -349.03618237210321 0 -349.03618237210321 315.66082631296013 0 0 0 0 136.64666842713632 -281.05327609325832 0 -281.05327609325832 175.6799952381989 0 0 0 0 102.23467191474629 -222.82149490440497 0 -222.82149490440497 132.96451370889554 0 0 0 0 23.080101149738766 -194.17986685533833 0 -194.17986685533833 167.50752740528515 0 0 0 0 63.474812516622478 -230.32695198681904 0 -230.32695198681904 260.51592903480923 0 0 0 0 166.61292289177072 -82.296784818870947 0 -82.296784818870947 -39.849131572387705 0 0 0 0 253.3847525586898 -178.73150144386454 0 -178.73150144386454 40.183567207830492 0 0 0 0 135.65883180353558 -102.32276193780126 0 -102.32276193780126 6.9401826855464606 0 0 0 0 96.799502167821629 -234.61066207136901 0 -234.61066207136901 133.74845164701401 0 0 0 0 79.355319692142075 -141.62039618259587 0 -141.62039618259587 63.65604014651035 0 0 0 0 60.486819873563945 -133.29459919764486 0 -133.29459919764486 76.677235084243875 0 0 0 0 191.59385052480502 -208.12529136007652 0 -208.12529136007652 88.801612407551147 0 0 0 0 108.12902511676657 -87.369040368343121 0 -87.369040368343121 17.682285726914415 0 0 0 0 82.618679907595833 -94.056134199275675 0 -94.056134199275675 46.543817772297189 0 0 0 0 6.1210198545886669 -119.56788930496259 0 -119.56788930496259 -29.898025987567962 0 0 0 0 54.167038951069117 -51.937000517369597 0 -51.937000517369597 -6.4613749426207505 0 0 0 0 27.486798056983389 -87.917222920543281 0 -87.917222920543281 18.894970401113824 0 0 0 0 76.454241674451623 -104.84500007025053 0 -104.84500007025053 -33.072532520774985 0 0 0 0 21.750102699676063 -90.686212143657031 0 -90.686212143657031 56.19710949860746 0 0 0 0 20.210337918048026 -108.97655245331407 0 -108.97655245331407 -25.126926977864059 0 0 0 0 74.166709919809364 -151.7590380088659 0 -151.7590380088659 194.84812686866553 0 0 0 0 75.747049807017902 -68.534151093277615 0 -68.534151093277615 -90.166458676365437 0 0 0 0 -50.761986761761364 -167.36103573080618 0 -167.36103573080618 145.09667243942022 0 0 0 0 33.232399787651957 -82.505755096732173 0 -82.505755096732173 -20.545753925456665 0 0 0 0 12.950477017275837 -34.074174780148184 0 -34.074174780148184 2.2161053726168234 0 0 0 0 -69.248369244829519 -185.5482776548015 0 -185.5482776548015 -66.334638255822938 0 0 0 0 -133.40288722107653 -143.5918076400194 0 -143.5918076400194 238.42192281383177 0 0 0 0 10.758894220352822 -45.124130099745344 0 -45.124130099745344 49.751737249298571 0 0 0 0 -31.640401748329168 -94.510189644839556 0 -94.510189644839556 101.18549286422058 0 0 0 0 0.92965846881082825 -44.160123544978944 0 -44.160123544978944 41.142317531357421 0 0 0 0 -5.2173959846550133 -36.105187306027801 0 -36.105187306027801 54.150388525835297 0 0 0 0 -8.8649779874308479 -57.380236588827074 0 -57.380236588827074 31.212085012171883 0 0 0 0 -14.281267014317564 -52.372648802906042 0 -52.372648802906042 84.142901045415783 0 0 0 0 12.623123643366853 -57.845871820522007 0 -57.845871820522007 66.727302829385735 0 0 0 0 -8.4608830011711689 -66.434850846584595 0 -66.434850846584595 94.665626475703903 0 0 0 0 -1.4414694176375633 -61.081537788682908 0 -61.081537788682908 97.681957871784107 0 0 0 0 -5.803958580341714 -55.30989132857394 0 -55.30989132857394 90.459692073898623 0 0 0 0 20.480826424667612 -68.321268739739025 0 -68.321268739739025 80.358534050857997 0 0 0 0 5.228249235164693 -35.143795945027932 0 -35.143795945027932 65.580544679411958 0 0 0 0 -54.137940898042871 64.366310628534848 0 64.366310628534848 210.6477013392232 0 0 0 0 -17.601266806712374 -64.026795227488037 0 -64.026795227488037 -18.71358996455092 0 0 0 0 -5.3218642988970828 -10.045482572255274 0 -10.045482572255274 9.4384611083436241 0 0 0 0 214.81074852030724 -255.11217852981645 0 -255.11217852981645 194.07635193631359 0 0 0 0 -27.507071312321187 2.1595750743244366 0 2.1595750743244366 15.717653222404522 0 0 0 0 41.415204143879237 -42.428799846253241 0 -42.428799846253241 94.092537808552152 0 0 0 0 229.44881718122633 -148.07681937128655 0 -148.07681937128655 287.91606070956914 0 0 0 0 387.71562532061944 -72.830137162323808 0 -72.830137162323808 89.833895803050837 0 0 0 0 627.19379750348162 -218.36522462108405 0 -218.36522462108405 148.84208847384434 0 0 0 0 213.16294734727126 -109.35532757191686 0 -109.35532757191686 97.683409724239027 0 0 0 0 142.29787621549622 -43.07204146762524 0 -43.07204146762524 -44.41203560231952 0 0 0 0 168.10911427353858 -5.9538740405405406 0 -5.9538740405405406 -3.5513003887317609 0 0 0 0 125.85076439734985 -207.92101699762043 0 -207.92101699762043 210.52248473461077 0 0 0 0 -45.165641773033713 -59.225652164976054 0 -59.225652164976054 126.17240527759714 0 0 0 0 -40.176120775025396 -14.781417647547556 0 -14.781417647547556 18.20331737268225 0 0 0 0 -21.348871891474118 -52.021892559481785 0 -52.021892559481785 85.774844623556419 0 0 0 0 -18.304921154427575 -64.280136857305479 0 -64.280136857305479 123.23291584273102 0 0 0 0 -5.6489112019480672 -50.975568387002568 0 -50.975568387002568 53.376224843246746 0 0 0 0 0.636969797382271 -16.865358493367893 0 -16.865358493367893 4.7449720195787677 0 0 0 0 -3.3552031926519703 -7.7013511841814761 0 -7.7013511841814761 85.337521795270732 0 0 0 0 -4.1191093491183892 -37.026284127299888 0 -37.026284127299888 28.241066512749057 0 0 0 0 22.408828998974059 -55.770049923667102 0 -55.770049923667102 -63.562518323393306 0 0 0 0 7.1672629063250497 -22.791529099384206 0 -22.791529099384206 41.476436220320466 0 0 0 0 73.812907601619372 -121.77105399046559 0 -121.77105399046559 -16.000239234941546 0 0 0 0 44.315219113472267 -94.614717239515812 0 -94.614717239515812 58.425554155692225 0 0 0 0 24.510013125972648 -38.16875274124196 0 -38.16875274124196 8.2175657810326328 0 0 0 0 629.95050965583505 -94.792037266262923 0 -94.792037266262923 -19.594476565544028 0 0 0 0 258.68514030959341 34.909837687213439 0 34.909837687213439 182.49674969748594 0 0 0 0 931.50530608044937 -757.26667235442437 0 -757.26667235442437 618.92327083737473 0 0 0 0 288.86263896289165 -223.73362785542849 0 -223.73362785542849 383.72703699144768 0 0 0 0 2.5236021477369661 -3.2922275126491627 0 -3.2922275126491627 5.6536492985206621 0 0 0 0 94.83897783557768 56.634877269039862 0 56.634877269039862 -158.19358314684359 0 0 0 0 934.76369138830341 -267.54223690583603 0 -267.54223690583603 53.444115106918616 0 0 0 0 661.36712984742189 -420.08722939141444 0 -420.08722939141444 74.606761748495046 0 0 0 0 53.902401758861743 -250.69592046347316 0 -250.69592046347316 104.10123416478746 0 0 0 0 -177.07457163306754 -130.50971243202366 0 -130.50971243202366 97.097041677043308 0 0 0 0 15.613822682658792 -27.780225455913751 0 -27.780225455913751 15.809436155876028 0 0 0 0 609.87979997068032 435.01073351064406 0 435.01073351064406 9.5881486775597295 0 0 0 0 3.0732316683356373 -4.386915667679375 0 -4.386915667679375 3.545268436560832 0 0 0 0 0.51299828049521068 -28.188320111790134 0 -28.188320111790134 -10.222277990906548 0 0 0 0 -94.553729659790406 58.664811978531361 0 58.664811978531361 11.114907982206205 0 0 0 0 1.3585334958661406 -47.576477602880914 0 -47.576477602880914 -21.694329960999312 0 0 0 0 40.010173786606174 -64.681451816664776 0 -64.681451816664776 -15.968053826218238 0 0 0 0 -16.694602714112989 -48.109922825289686 0 -48.109922825289686 -20.757840174279409 0 0 0 0 45.126746525726048 -36.51486276416108 0 -36.51486276416108 8.8253874301735777 0 0 0 0 28.860401456273394 -22.143381189598585 0 -22.143381189598585 -1.4267255232698517 0 0 0 0 31.002264858398121 -43.80906176296412 0 -43.80906176296412 21.334049614313699 0 0 0 0 17.893063910109049 -56.897029130908777 0 -56.897029130908777 9.1853532490204088 0 0 0 0 55.757758283638395 -53.40629229915794 0 -53.40629229915794 23.206056289003755 0 0 0 0 80.161429876389775 -44.02624743123215 0 -44.02624743123215 23.117124163603876 0 0 0 0 42.802265104226535 -41.858466690166097 0 -41.858466690166097 26.86072650476126 0 0 0 0 47.923714785196353 -43.839161819050787 0 -43.839161819050787 35.984953870927711 0 0 0 0 32.888083908357657 -43.084262543357909 0 -43.084262543357909 36.043024782673456 0 0 0 0 -30.739790754683781 -30.294371841082466 0 -30.294371841082466 53.278929255320691 0 0 0 0 47.752040488063358 19.300386155024171 0 19.300386155024171 -14.282981208099955 0 0 0 0 37.599652916323976 -35.833772285899613 0 -35.833772285899613 53.727489044860704 0 0 0 0 152.64412604020617 -66.626992196281208 0 -66.626992196281208 24.463490405352786 0 0 0 0 54.587812892714282 -38.839259735425003 0 -38.839259735425003 32.432867780473316 0 0 0 0 -2.325767578412183 -11.055611608336164 0 -11.055611608336164 13.730166907182308 0 0 0 0 646.49051546260034 -176.58333407815599 0 -176.58333407815599 -90.868635406775866 0 0 0 0 48.961135406731046 -60.963187660039694 0 -60.963187660039694 33.479146567406133 0 0 0 0 -26.989316736988258 -79.82362089225353 0 -79.82362089225353 -43.100057510078841 0 0 0 0 3.2305501450625371 -5.1222445003057615 0 -5.1222445003057615 2.8641222189800146 0 0 0 0 832.55150330081779 -78.888871791325073 0 -78.888871791325073 -162.90737959917169 0 0 0 0 -259.70337812154321 -230.94000344965025 0 -230.94000344965025 -17.254761095129652 0 0 0 0 0.6403780231925893 -25.581150354421396 0 -25.581150354421396 8.6951502542922299 0 0 0 0 656.03512606240747 14.570628372787269 0 14.570628372787269 -38.406572929437971 0 0 0 0 12.468107372813392 -68.704000800367794 0 -68.704000800367794 57.86979089785018 0 0 0 0 841.43697198889186 -283.16699178471754 0 -283.16699178471754 -219.55816402449273 0 0 0 0 -243.43478807708016 -285.32572562918358 0 -285.32572562918358 91.37471903450205 0 0 0 0 -238.1175492022594 -269.73231890011812 0 -269.73231890011812 -70.934037488594186 0 0 0 0 -218.50134011983755 -258.24870574695524 0 -258.24870574695524 -64.514094823331106 0 0 0 0 -240.79352067998843 -293.92946777606267 0 -293.92946777606267 -14.167299795750296 0 0 0 0 -241.21976275392808 -316.67463369469624 0 -316.67463369469624 -99.878958695480833 0 0 0 0 -213.80963090647128 -258.88075452894554 0 -258.88075452894554 -125.40784256841289 0 0 0 0 -214.08591055813304 -250.5010846164223 0 -250.5010846164223 -113.06458605220541 0 0 0 0 -197.38751450853306 -236.5014136100217 0 -236.5014136100217 -159.16777534905123 0 0 0 0 -251.37737128835579 -165.68398911472468 0 -165.68398911472468 -69.161216255684849 0 0 0 0 -186.37134318667813 -208.4435205507034 0 -208.4435205507034 -87.709600876856712 0 0 0 0 -282.90288195782341 -279.60321981325978 0 -279.60321981325978 -186.97759209939977 0 0 0 0 -274.34135149477515 -304.24517284432659 0 -304.24517284432659 -168.00124278412841 0 0 0 0 -251.87854745378718 -326.43664408350014 0 -326.43664408350014 -156.84821625727636 0 0 0 0 -281.15978570701554 -296.38523008050106 0 -296.38523008050106 -139.13822599586274 0 0 0 0 -294.9320279199892 -283.10068012733245 0 -283.10068012733245 -168.16153088169813 0 0 0 0 -216.24760884950456 -287.17308768037719 0 -287.17308768037719 -176.89594532549381 0 0 0 0 -314.74798480394384 -233.18037118826578 0 -233.18037118826578 -218.26836890405684 0 0 0 0 -297.25705661777465 -291.65309270468424 0 -291.65309270468424 -196.51715134731785 0 0 0 0 -180.8411425921513 -275.22033593482047 0 -275.22033593482047 -236.91568470835045 0 0 0 0 -6.2988644983852282 -157.39637470434536 0 -157.39637470434536 -269.84773993599447 0 0 0 0 79.907275123900035 -68.865578752185684 0 -68.865578752185684 -215.99457156429708 0 0 0 0 -19.597337138882722 -16.068311803261167 0 -16.068311803261167 -95.501397320927936 0 0 0 0 4.6767920422231555 -8.9835432712972079 0 -8.9835432712972079 11.198613014924831 0 0 0 0 -182.2318923840503 -108.01682935950521 0 -108.01682935950521 -22.757490203715861 0 0 0 0 -87.709888236247934 -170.05871687733452 0 -170.05871687733452 -153.59429368763631 0 0 0 0 -108.78550883365097 -5.9887052852282068 0 -5.9887052852282068 -53.246522053894296 0 0 0 0 502.25036983866994 -618.44048833812121 0 -618.44048833812121 69.048568780912319 0 0 0 0 7.6502582421744592 -27.907681046082871 0 -27.907681046082871 56.604691725318844 0 0 0 0 -176.69375955031137 453.9513986257225 0 453.9513986257225 193.99278586867149 0 0 0 0 748.37811003440584 494.38289566958883 0 494.38289566958883 -246.2330853411986 0 0 0 0 2.856596301382524 15.52388160971168 0 15.52388160971168 45.167935936595313 0 0 0 0 -51.029764793056529 -65.010297704917321 0 -65.010297704917321 -53.689557661651634 0 0 0 0 85.48621851381904 -36.886826768612082 0 -36.886826768612082 -149.96207948052324 0 0 0 0 -312.11060813059521 -222.79595606851217 0 -222.79595606851217 -23.942118195613148 0 0 0 0 -1.2167089323700537 -1.9879599187348163 0 -1.9879599187348163 -0.5602492835627686 0 0 0 0 -107.1489940007159 51.907328531058738 0 51.907328531058738 31.168098749922137 0 0 0 0 -32.741440768810207 15.710850393197688 0 15.710850393197688 25.875130311193061 0 0 0 0 0.82528046781187925 -4.3512644985177644 0 -4.3512644985177644 -0.87447366208522226 0 0 0 0 131.98661259634537 -37.251458561197069 0 -37.251458561197069 -75.08113007072825 0 0 0 0 -448.23754210689367 -16.020308397550252 0 -16.020308397550252 204.02391984389396 0 0 0 0 3.2417820469396332 -7.8967392650662021 0 -7.8967392650662021 13.891768762136394 0 0 0 0 24.548936210587271 73.21899504052999 0 73.21899504052999 14.597655607183697 0 0 0 0 2.6165905602974817 17.383403596875723 0 17.383403596875723 -85.09202203554014 0 0 0 0 214.57240653441113 -30.740709691366646 0 -30.740709691366646 119.19319710758282 0 0 0 0 298.53836918948218 74.223489140324091 0 74.223489140324091 -49.280795389669947 0 0 0 0 -207.47041546051514 -517.83159340235943 0 -517.83159340235943 -472.64276587161294 0 0 0 0 -291.65629263917799 -198.37893939310743 0 -198.37893939310743 -142.69093715502822 0 0 0 0 -29.847272748003888 -145.7912267011634 0 -145.7912267011634 -160.64226615398366 0 0 0 0 -16.741894699291151 -35.970347282192961 0 -35.970347282192961 -101.58510237630981 0 0 0 0 -206.66926064352447 -82.311123432897148 0 -82.311123432897148 -48.290346648922423 0 0 0 0 -161.4180179304949 -208.15440639730514 0 -208.15440639730514 -261.531062177688 0 0 0 0 -245.47078486248211 -309.21456611881513 0 -309.21456611881513 -251.02595191675937 0 0 0 0 -123.67169721329992 -130.52216715429222 0 -130.52216715429222 -156.1012319001311 0 0 0 0 -287.34989756712457 -211.24656312052684 0 -211.24656312052684 -67.12416505033616 0 0 0 0 -240.34185948408413 -255.38201078834027 0 -255.38201078834027 -282.36569488755777 0 0 0 0 -732.26506959251856 -661.53346203972251 0 -661.53346203972251 -288.22046748400317 0 0 0 0 -549.05409715473797 -244.7065828763225 0 -244.7065828763225 -225.25410540758458 0 0 0 0 -419.95522635897942 -340.61957701759093 0 -340.61957701759093 -222.02921927424904 0 0 0 0 -369.54089558342821 -296.42841128246801 0 -296.42841128246801 -352.82039795023593 0 0 0 0 112.93475094805399 -9.9214462540567183 0 -9.9214462540567183 -34.118545503908535 0 0 0 0 -442.26016056066146 -389.04429141896981 0 -389.04429141896981 -279.89922931975525 0 0 0 0 5.7503146216129863 -4.4932945362154797 0 -4.4932945362154797 -5.2418224309509469 0 0 0 0 -336.25104018220736 -294.69706638787466 0 -294.69706638787466 -300.70207178062265 0 0 0 0 -262.35869692021515 -272.35040562054201 0 -272.35040562054201 -305.07563188386848 0 0 0 0 -342.25975435636065 -351.22767949738773 0 -351.22767949738773 -243.4595421754675 0 0 0 0 -309.93685686278332 -252.64033103434485 0 -252.64033103434485 -164.77964086583916 0 0 0 0 -402.54252252340666 -272.80200199907995 0 -272.80200199907995 -191.27435999846784 0 0 0 0 -386.80896407944965 -250.04591360084305 0 -250.04591360084305 -164.72907335485797 0 0 0 0 118.16605631368293 -115.50599170553323 0 -115.50599170553323 -69.695802223664941 0 0 0 0 -35.931477121805074 80.571567700855667 0 80.571567700855667 -78.405022552599803 0 0 0 0 200.09355392842326 -169.4018041725879 0 -169.4018041725879 182.57816739400732 0 0 0 0 -43.399893709283788 93.143644683252205 0 93.143644683252205 173.35488257875841 0 0 0 0 214.71985409788113 -90.223521943320748 0 -90.223521943320748 -39.028845153283328 0 0 0 0 220.95600135207542 40.969316221562394 0 40.969316221562394 -18.942735325515969 0 0 0 0 -35.366729532179306 79.088951404766703 0 79.088951404766703 -21.930114063125075 0 0 0 0 81.033638630990026 -54.248532329420414 0 -54.248532329420414 -85.324646201988799 0 0 0 0 9.3271887040847048 -7.3342848051651117 0 -7.3342848051651117 -11.322570466029447 0 0 0 0 -15.997345856438187 98.334137195219228 0 98.334137195219228 -89.673317603999749 0 0 0 0 11.259188847383484 -22.418722400572733 0 -22.418722400572733 21.193214160375646 0 0 0 0 -199.55885483577731 -229.33090638856811 0 -229.33090638856811 -220.59852880470862 0 0 0 0 -30.425258889601537 -4.4206337717118913 0 -4.4206337717118913 -77.702826550041209 0 0 0 0 7.4733156052065794 -4.4988375354812717 0 -4.4988375354812717 -9.317783234140677 0 0 0 0 -138.33032986276339 -97.063272616773247 0 -97.063272616773247 120.65826984540035 0 0 0 0 -262.70107551547699 -309.41232216400385 0 -309.41232216400385 -181.96951289256481 0 0 0 0 -268.90870643603557 -304.80703509719751 0 -304.80703509719751 -182.04888258420397 0 0 0 0 11.837356305884896 -427.28201742374222 0 -427.28201742374222 -319.50125826305521 0 0 0 0 -195.65032839326886 -330.70452704215131 0 -330.70452704215131 -333.96846360221389 0 0 0 0 2.5179181989624908 -2.5060809136847979 0 -2.5060809136847979 -1.0403510248407883 0 0 0 0 -242.70613370984211 -312.23552870873391 0 -312.23552870873391 -371.41389216977404 0 0 0 0 -244.32343159540324 -372.50098885271291 0 -372.50098885271291 7.0032951641187537 0 0 0 0 -266.11232277844101 -407.52833131205989 0 -407.52833131205989 -44.121576425692183 0 0 0 0 -239.48901222807763 -309.04203396428056 0 -309.04203396428056 -137.25098488945514 0 0 0 0 -187.0174732253945 -382.60477650773828 0 -382.60477650773828 -183.4127113889117 0 0 0 0 -224.4592997435393 -410.75036232508864 0 -410.75036232508864 -135.41231051704381 0 0 0 0 -161.63794558506925 -406.24750387095264 0 -406.24750387095264 -167.12058119499125 0 0 0 0 -245.28050483352854 -527.96451773890294 0 -527.96451773890294 -216.48135924211238 0 0 0 0 -187.81846925034915 -436.16290223656688 0 -436.16290223656688 -127.68884107354097 0 0 0 0 -240.57989721967078 -450.90359865868277 0 -450.90359865868277 -103.41600045841187 0 0 0 0 -242.2049167730147 -485.51138976644143 0 -485.51138976644143 -55.126032773769111 0 0 0 0 -262.41066468079225 -571.38276681434945 0 -571.38276681434945 -240.15190171093855 0 0 0 0 -480.9922606650216 -527.45599281686009 0 -527.45599281686009 -127.79158005745558 0 0 0 0 -272.98322040730272 -620.44706776776002 0 -620.44706776776002 -233.05148477706825 0 0 0 0 105.58548135121237 -534.07916956474946 0 -534.07916956474946 -288.86769401212223 0 0 0 0 -155.44734962945222 -529.91672104559257 0 -529.91672104559257 -220.45878110350168 0 0 0 0 -134.72394052983145 -526.79029578284826 0 -526.79029578284826 -279.52770491631236 0 0 0 0 -211.70644703213475 -648.05884821030486 0 -648.05884821030486 -272.10721787897637 0 0 0 0 350.75585556331498 -400.67449117674551 0 -400.67449117674551 -312.39983199958078 0 0 0 0 266.72142065825028 -645.1905881317798 0 -645.1905881317798 -425.77622865338344 0 0 0 0 194.25801178060647 -363.3067520161203 0 -363.3067520161203 -264.78046847844962 0 0 0 0 -782.82945129665313 -826.69819478344289 0 -826.69819478344289 -87.293925527279498 0 0 0 0 242.24225162943185 24.40002798315254 0 24.40002798315254 -105.25159776637156 0 0 0 0 13.410773616255028 -20.937461560119118 0 -20.937461560119118 12.553191365674138 0 0 0 0 7.9148141653071207 -10.019654483791193 0 -10.019654483791193 3.2034221379104793 0 0 0 0 -186.79352209958597 -87.696186817833222 0 -87.696186817833222 114.56808932538843 0 0 0 0 -62.520100722162169 -420.78164409587043 0 -420.78164409587043 -269.06974327331409 0 0 0 0 6.0412303933117073 -469.71208040168858 0 -469.71208040168858 -238.31372894422384 0 0 0 0 81.665503641939722 -300.03668800313608 0 -300.03668800313608 -169.36845356365666 0 0 0 0 247.16817048710072 -71.600777965868474 0 -71.600777965868474 -95.668234460114036 0 0 0 0 349.2425326941011 -157.45002126821782 0 -157.45002126821782 -210.05434256894659 0 0 0 0 250.93171353876824 -330.9433158893371 0 -330.9433158893371 -269.58966677351418 0 0 0 0 302.04892618555459 -358.05389447980269 0 -358.05389447980269 -301.4679076684406 0 0 0 0 253.63448781735497 -373.91310646475176 0 -373.91310646475176 -290.3600185282412 0 0 0 0 596.52866695239209 -283.29712721038959 0 -283.29712721038959 -287.48986022830286 0 0 0 0 470.75166671624174 -290.16602850469644 0 -290.16602850469644 -111.84170627209824 0 0 0 0 1336.0782200217946 221.76854282192653 0 221.76854282192653 119.97591947368346 0 0 0 0 437.87108976154013 209.46930294332378 0 209.46930294332378 78.464541093911976 0 0 0 0 1121.6188613927225 641.39928890118608 0 641.39928890118608 167.37395837530494 0 0 0 0 657.22427139614592 127.64031677746971 0 127.64031677746971 434.5365997296758 0 0 0 0 1.4528685312502034 -1.0801283718435855 0 -1.0801283718435855 -0.35578085618095656 0 0 0 0 618.30785950823338 -484.9786108346525 0 -484.9786108346525 -32.001225724059623 0 0 0 0 919.66240685456432 -75.776760946901049 0 -75.776760946901049 -84.80958201635076 0 0 0 0 1579.2502681143269 -169.3217527407287 0 -169.3217527407287 -154.46609922719654 0 0 0 0 1560.3197159840493 432.91011039151635 0 432.91011039151635 64.83081761856738 0 0 0 0 0.23085908588963377 -1.9730641372749389 0 -1.9730641372749389 2.5946585839545264 0 0 0 0 652.3094545147178 -627.84623935140553 0 -627.84623935140553 381.73272613133304 0 0 0 0 -209.2534253259073 -319.39874458371196 0 -319.39874458371196 455.41695693746442 0 0 0 0 -86.572137530223699 29.585607240231184 0 29.585607240231184 321.14123059107806 0 0 0 0 -327.71757047824212 -483.30032416421454 0 -483.30032416421454 -456.56235620044754 0 0 0 0 -788.8106192566047 -1206.9115618743963 0 -1206.9115618743963 -571.68953827244695 0 0 0 0 322.12547730372171 -330.71718819077068 0 -330.71718819077068 -3.0178886335634161 0 0 0 0 -141.17062691260799 -819.39865893368551 0 -819.39865893368551 -78.077048688690411 0 0 0 0 658.12373152954387 229.02748861262808 0 229.02748861262808 236.73156431071402 0 0 0 0 497.89381216143374 -422.35672310439986 0 -422.35672310439986 705.90749419698841 0 0 0 0 324.9048792548856 7.425338078130153 0 7.425338078130153 -306.11564465885021 0 0 0 0 -378.17572464610566 -294.69340996203391 0 -294.69340996203391 231.54325818139478 0 0 0 0 223.06613959594688 -7.820049304922577 0 -7.820049304922577 53.556835832321667 0 0 0 0 215.82004605441762 104.08053048633155 0 104.08053048633155 288.24447421170771 0 0 0 0 556.78655179390626 -48.043780882260762 0 -48.043780882260762 120.32005977613153 0 0 0 0 315.13484226344735 -24.13323263116763 0 -24.13323263116763 125.78543738647568 0 0 0 0 265.41552270868851 -311.70936165019521 0 -311.70936165019521 550.3261661347351 0 0 0 0 -489.22589987606989 44.330793207347597 0 44.330793207347597 391.45189875230426 0 0 0 0 264.14607530961803 -214.19278582574043 0 -214.19278582574043 200.74180345988134 0 0 0 0 361.83881918950647 -209.18672668068029 0 -209.18672668068029 160.12558759484091 0 0 0 0 968.93102187754994 16.651602366895531 0 16.651602366895531 64.192432793963235 0 0 0 0 432.04553224872143 -149.91170564575441 0 -149.91170564575441 227.60541889735032 0 0 0 0 405.78250302487868 -219.42188505147351 0 -219.42188505147351 150.15685173991369 0 0 0 0 308.72893210640177 -204.57395336383706 0 -204.57395336383706 234.39825739391381 0 0 0 0 309.08770336103044 -205.24177897410118 0 -205.24177897410118 124.58168436058622 0 0 0 0 208.73143759011873 -125.43889443285298 0 -125.43889443285298 169.57641793651419 0 0 0 0 171.98981759151502 -200.38923240384611 0 -200.38923240384611 22.824581721535651 0 0 0 0 -51.667397982426337 -76.549235690690693 0 -76.549235690690693 154.96518055972956 0 0 0 0 29.129505906108534 -31.533022559509845 0 -31.533022559509845 33.183170235217403 0 0 0 0 57.608252465015539 33.369321052814485 0 33.369321052814485 -32.476878562069032 0 0 0 0 1.6786420758581926 -0.63693262111868876 0 -0.63693262111868876 -1.0790181366809293 0 0 0 0 23.440184399049031 -31.371838631192077 0 -31.371838631192077 33.406469011781155 0 0 0 0 27.495979800325586 -28.134312615417002 0 -28.134312615417002 31.238158063148148 0 0 0 0 144.72055368393194 32.677805168452323 0 32.677805168452323 47.620255284098675 0 0 0 0 13.076842643757118 -13.174969943829637 0 -13.174969943829637 9.5041931570704037 0 0 0 0 9.7388954629859654 -13.288883698653081 0 -13.288883698653081 19.859849622613183 0 0 0 0 0.42025843195608559 -2.5944796177513751 0 -2.5944796177513751 -1.3678124664858444 0 0 0 0 278.80616511379776 -316.25045948279876 0 -316.25045948279876 271.47138454989181 0 0 0 0 255.93958013002703 -318.73239249497419 0 -318.73239249497419 299.79125518887304 0 0 0 0 265.47472388006281 -244.1339454619665 0 -244.1339454619665 350.42063796671573 0 0 0 0 295.06292348522402 -398.7206838067832 0 -398.7206838067832 439.39391823159531 0 0 0 0 321.88154140439292 -447.60042357965722 0 -447.60042357965722 407.52018696375308 0 0 0 0 320.4592472690565 -364.13200020321528 0 -364.13200020321528 215.76621844491456 0 0 0 0 178.77264334585925 -193.55723787949682 0 -193.55723787949682 174.58524491234857 0 0 0 0 228.77677406753355 -312.17885823170946 0 -312.17885823170946 313.2101209260145 0 0 0 0 267.91358268987824 -241.10484313973575 0 -241.10484313973575 157.17135208786931 0 0 0 0 214.7304669888108 -186.8164560636651 0 -186.8164560636651 129.63367407096666 0 0 0 0 91.662352421524702 -105.31207291386818 0 -105.31207291386818 15.967346745586838 0 0 0 0 138.13866961684835 -201.54631666118803 0 -201.54631666118803 206.31344502166758 0 0 0 0 42.068946775085351 -82.166933253953175 0 -82.166933253953175 138.82773638314393 0 0 0 0 195.52404062372807 -177.04547060774348 0 -177.04547060774348 128.64859637225527 0 0 0 0 166.05538795042958 -211.18440567057405 0 -211.18440567057405 260.83179409499462 0 0 0 0 264.19789798902639 -272.31842828946537 0 -272.31842828946537 238.04939504500362 0 0 0 0 178.00242375082598 -166.6229942711434 0 -166.6229942711434 208.029571612773 0 0 0 0 249.78731023945147 -260.44519674512412 0 -260.44519674512412 217.13361793424701 0 0 0 0 288.06727711705025 -205.36530146617588 0 -205.36530146617588 289.61330012971302 0 0 0 0 364.89620344142895 -226.79500655185257 0 -226.79500655185257 218.01553341136605 0 0 0 0 364.89225333851158 -219.52703438394354 0 -219.52703438394354 259.5646513858519 0 0 0 0 368.08405076419876 -318.43150465679355 0 -318.43150465679355 419.00778777660889 0 0 0 0 323.95511220335902 -282.32470494460722 0 -282.32470494460722 299.37858761356983 0 0 0 0 343.81754715046554 -308.40825602273981 0 -308.40825602273981 446.85968242533272 0 0 0 0 177.85555191908497 -187.77040593817219 0 -187.77040593817219 391.52704360283678 0 0 0 0 289.32771184059675 -181.20342523198633 0 -181.20342523198633 355.58219657857262 0 0 0 0 245.38862635365513 -327.1082433130141 0 -327.1082433130141 514.03481860506872 0 0 0 0 462.27031184464067 -475.95404666068134 0 -475.95404666068134 578.00933635002002 0 0 0 0 589.09412130706187 -441.2670385629317 0 -441.2670385629317 544.92312507726456 0 0 0 0 381.1409778764064 -273.97743134295524 0 -273.97743134295524 496.18502948668902 0 0 0 0 536.77240704667929 -271.69536583853187 0 -271.69536583853187 703.01177259604447 0 0 0 0 365.8159945327352 -398.885979235798 0 -398.885979235798 609.24509450589539 0 0 0 0 605.3510609397199 -475.03509393896093 0 -475.03509393896093 562.24143672556966 0 0 0 0 307.62468700594036 -286.34350042916412 0 -286.34350042916412 475.32380927607301 0 0 0 0 366.30681352793181 -354.98074329174415 0 -354.98074329174415 449.96108564783935 0 0 0 0 297.96216380157421 -441.42765411883011 0 -441.42765411883011 700.94067489207373 0 0 0 0 304.12487787984719 -411.34354578793864 0 -411.34354578793864 405.24713981646346 0 0 0 0 300.21162992451718 -519.09955468055705 0 -519.09955468055705 610.77081595138588 0 0 0 0 277.34664092518506 -682.83271125696774 0 -682.83271125696774 877.04647934499371 0 0 0 0 278.67128215049161 -683.0610925300798 0 -683.0610925300798 501.16865886378218 0 0 0 0 395.56550517003052 -323.9880335216294 0 -323.9880335216294 1201.3281751971517 0 0 0 0 901.28247579541494 -299.19604501976573 0 -299.19604501976573 666.09273500775453 0 0 0 0 292.94234818831319 -512.28545902314363 0 -512.28545902314363 865.01519704880775 0 0 0 0 99.309483411772817 -860.05748967099498 0 -860.05748967099498 1463.777092346194 0 0 0 0 156.91233068101428 -668.47259005528758 0 -668.47259005528758 1022.4317507632077 0 0 0 0 123.46011951286346 -1030.4639594193213 0 -1030.4639594193213 670.68918969552033 0 0 0 0 248.59174968056323 -914.31566634400224 0 -914.31566634400224 721.07573261352081 0 0 0 0 347.82462851142191 -982.63324475904665 0 -982.63324475904665 546.89146208303282 0 0 0 0 699.50004101959348 -916.82373594335513 0 -916.82373594335513 288.48212489027355 0 0 0 0 457.61011865216278 -890.01731572913559 0 -890.01731572913559 563.13395203629625 0 0 0 0 441.76742150033533 -821.24173894790874 0 -821.24173894790874 264.73360533322557 0 0 0 0 373.63551320382976 -645.30431553399103 0 -645.30431553399103 437.51660985744093 0 0 0 0 423.65832741887425 -688.9988088078826 0 -688.9988088078826 426.60997855040478 0 0 0 0 284.55391721337219 -431.76276810829586 0 -431.76276810829586 495.98358391135116 0 0 0 0 401.92857293203997 -306.60896711310488 0 -306.60896711310488 115.86162014483125 0 0 0 0 324.01226749731723 -420.295807942799 0 -420.295807942799 309.151976905021 0 0 0 0 521.02062003983156 -537.7269908157723 0 -537.7269908157723 180.79990844015265 0 0 0 0 691.21413560772635 -352.15778843945736 0 -352.15778843945736 31.822302958084038 0 0 0 0 560.18697716312454 -555.52890587620641 0 -555.52890587620641 173.73054696430336 0 0 0 0 771.16492569769616 -665.48285107410629 0 -665.48285107410629 86.471527640118438 0 0 0 0 947.04428780948365 -735.75589128389402 0 -735.75589128389402 87.737830471116467 0 0 0 0 1062.6785380340298 -780.37033212061215 0 -780.37033212061215 30.351740412246727 0 0 0 0 652.51463879201037 -1019.80645961556 0 -1019.80645961556 207.69121598733182 0 0 0 0 1082.0412023066019 -1117.2619984989942 0 -1117.2619984989942 200.80020613711531 0 0 0 0 674.10742306071916 -1193.1050861307012 0 -1193.1050861307012 335.17708441407012 0 0 0 0 959.32353387733929 -869.95231590410003 0 -869.95231590410003 218.98518321513257 0 0 0 0 1964.4386916203875 -1119.5320901133528 0 -1119.5320901133528 122.96025702661427 0 0 0 0 1012.9945902258514 -1126.1350523331839 0 -1126.1350523331839 1017.1478657462867 0 0 0 0 2055.1315209668464 -244.16812012260925 0 -244.16812012260925 457.63517209784186 0 0 0 0 593.1095886653784 -978.00600532496901 0 -978.00600532496901 474.9326301978399 0 0 0 0 1043.2445421970951 -914.01281253198613 0 -914.01281253198613 0.51418116332206409 0 0 0 0 1256.9678087218381 -583.85246088529311 0 -583.85246088529311 313.36901169306657 0 0 0 0 -569.80728327622637 44.865752854522725 0 44.865752854522725 347.37638455699016 0 0 0 0 408.50262007606216 -466.79844523615611 0 -466.79844523615611 0.057197795133106411 0 0 0 0 28.363166250087659 -305.44230218674591 0 -305.44230218674591 361.23967204301152 0 0 0 0 1.1314614533393694 -1.7621271377984726 0 -1.7621271377984726 -4.0660487285248337 0 0 0 0 27.277522033255082 -635.50718488798884 0 -635.50718488798884 539.41570687919739 0 0 0 0 482.58767725562939 -370.13234222812753 0 -370.13234222812753 343.84395909601881 0 0 0 0 501.06015737501866 -540.32463887824542 0 -540.32463887824542 -706.51807972582174 0 0 0 0 -749.90093005585368 -989.16443484968477 0 -989.16443484968477 -266.50328420440201 0 0 0 0 -1271.5758287453209 -463.23090671184764 0 -463.23090671184764 440.29620791743218 0 0 0 0 0.017092591159183712 -1.9059793793557276 0 -1.9059793793557276 -3.3443967890488011 0 0 0 0 -101.51214823580813 -1616.0277650334974 0 -1616.0277650334974 -965.15085926870233 0 0 0 0 372.96091065989458 -1091.493728244568 0 -1091.493728244568 -392.96868394254125 0 0 0 0 497.91032945869665 -671.75070485151082 0 -671.75070485151082 -287.86358898894105 0 0 0 0 375.69733164858189 -1131.505815566823 0 -1131.505815566823 81.798754743445897 0 0 0 0 565.62391198616388 -1102.5682666017601 0 -1102.5682666017601 318.41627590719145 0 0 0 0 550.021957937759 -1176.320469720853 0 -1176.320469720853 -16.219358230358921 0 0 0 0 324.22772268506924 -1155.6572401036683 0 -1155.6572401036683 747.53158229045221 0 0 0 0 231.95389266990242 -1430.8732954592779 0 -1430.8732954592779 366.96358518053603 0 0 0 0 582.99181550752837 -1190.5452910461754 0 -1190.5452910461754 294.11473907719483 0 0 0 0 336.33704304973071 -1128.468914606754 0 -1128.468914606754 472.45826932961791 0 0 0 0 -316.75844614839662 -1116.211737631078 0 -1116.211737631078 393.9310732811573 0 0 0 0 -105.20250005967682 -1644.1446182832296 0 -1644.1446182832296 -41.212652732880088 0 0 0 0 225.98520067153368 -1285.9250433401153 0 -1285.9250433401153 345.99025807081489 0 0 0 0 78.181727326915279 -1281.8211770716043 0 -1281.8211770716043 437.7631906203751 0 0 0 0 -36.0276924570353 -1482.9343542332062 0 -1482.9343542332062 832.62158962908143 0 0 0 0 -684.76416921585042 -219.05990004041814 0 -219.05990004041814 148.30464183973527 0 0 0 0 444.49432589718344 -720.7956660471973 0 -720.7956660471973 -19.035666250281793 0 0 0 0 -554.66168373390678 -312.80796575459158 0 -312.80796575459158 196.59105350263417 0 0 0 0 -578.80053697494441 -1454.7414892439847 0 -1454.7414892439847 -37.499118309060577 0 0 0 0 -217.78167720329839 -123.1985095049331 0 -123.1985095049331 -74.415309292249731 0 0 0 0 -173.3471039454962 -2.1839120815275237 0 -2.1839120815275237 87.125237501779338 0 0 0 0 -735.73393650280195 -1339.0889540296484 0 -1339.0889540296484 -1758.451349712388 0 0 0 0 -16.708041754914433 -0.34253303488858933 0 -0.34253303488858933 -1.4438829409046505 0 0 0 0 -514.65401226244285 190.25788966452092 0 190.25788966452092 431.24976705397421 0 0 0 0 246.8039886116967 -6.9079961909956182 0 -6.9079961909956182 -69.843163532452309 0 0 0 0 -857.68326201671152 -925.12492212267534 0 -925.12492212267534 -369.20068807402276 0 0 0 0 -1190.1128275700612 -147.59488217439502 0 -147.59488217439502 262.37544700644503 0 0 0 0 -1888.7071545867948 -972.51593967532972 0 -972.51593967532972 -116.65527520650357 0 0 0 0 -1111.0196342444251 -216.31693783626542 0 -216.31693783626542 -1752.738302238562 0 0 0 0 -914.44670368685911 -1385.3359744305053 0 -1385.3359744305053 -1792.236763780762 0 0 0 0 -1062.3376591831602 -949.49695387885367 0 -949.49695387885367 -526.43939902161947 0 0 0 0 -1078.5672038404446 -604.20943243234069 0 -604.20943243234069 -9.4238199741084827 0 0 0 0 -2039.1907274281875 -1142.132597388063 0 -1142.132597388063 -481.52068704241537 0 0 0 0 -259.8857624419179 -548.69878696461819 0 -548.69878696461819 -993.60912460717373 0 0 0 0 -1099.3259312835526 -927.88436488242519 0 -927.88436488242519 -285.43952365810401 0 0 0 0 -677.22767812978418 -683.77469167832169 0 -683.77469167832169 -167.21735043967783 0 0 0 0 -845.80594129604287 -601.35406806621177 0 -601.35406806621177 -54.771350943774451 0 0 0 0 -960.89843922058935 -610.56497850172309 0 -610.56497850172309 0.48751746756897774 0 0 0 0 185.37973291001981 -171.98555428360123 0 -171.98555428360123 5.3328721772413701 0 0 0 0 -551.65571894194181 -146.44936327028699 0 -146.44936327028699 5.0727652491186745 0 0 0 0 1.5494569820235142 -1.5174463501627997 0 -1.5174463501627997 -3.2082450953527939 0 0 0 0 -635.3308622820623 -586.35115253891854 0 -586.35115253891854 -94.926438893860904 0 0 0 0 -422.04571907913487 -443.37112516969501 0 -443.37112516969501 -0.41926895005787335 0 0 0 0 -46.767601676747461 -4.4862859004050506 0 -4.4862859004050506 11.213911613611785 0 0 0 0 -314.85838744713965 -250.00309094813065 0 -250.00309094813065 -142.09350237746548 0 0 0 0 -207.63802467389905 -277.63433109746256 0 -277.63433109746256 -212.16630579979028 0 0 0 0 -1.5515995096507709 -53.742609267933972 0 -53.742609267933972 29.295311764445955 0 0 0 0 -105.24678535647035 89.120623037619225 0 89.120623037619225 139.14946122068795 0 0 0 0 -6.5114856936867795 -8.2472518573575044 0 -8.2472518573575044 -6.4738479390079817 0 0 0 0 7.5883455940802378 31.290800318347465 0 31.290800318347465 954.4063473099086 0 0 0 0 -103.39836136948179 630.68044100220322 0 630.68044100220322 877.04797788799624 0 0 0 0 -1133.6568014370423 159.53627898619015 0 159.53627898619015 956.53405856789323 0 0 0 0 -159.64678221211943 -147.92212154626031 0 -147.92212154626031 236.96467314853362 0 0 0 0 20.831501899984147 -48.611113140578929 0 -48.611113140578929 45.225883305059568 0 0 0 0 578.03517074732372 950.01899402206618 0 950.01899402206618 1017.7053258894884 0 0 0 0 -107.50886368757347 205.44704730817466 0 205.44704730817466 916.20241450747289 0 0 0 0 14.792413659505968 -23.26968053898311 0 -23.26968053898311 35.665734433310206 0 0 0 0 -95.582213694724487 285.43589737070943 0 285.43589737070943 403.1132202626759 0 0 0 0 -1190.9153123963188 120.39090002167359 0 120.39090002167359 936.89323396162217 0 0 0 0 -401.30013727121695 -18.416046614314837 0 -18.416046614314837 470.09427841156867 0 0 0 0 -1103.9308132697479 -165.61677599677932 0 -165.61677599677932 823.58375116233947 0 0 0 0 -1340.75956534133 -119.55056388177763 0 -119.55056388177763 166.22235209698556 0 0 0 0 -635.09770527164801 -463.6225252491131 0 -463.6225252491131 246.1432158077514 0 0 0 0 227.6147066870908 -397.23928162492666 0 -397.23928162492666 786.7078856696171 0 0 0 0 -614.05918259755708 83.240102977200877 0 83.240102977200877 569.24945060241589 0 0 0 0 -374.24943662119995 453.15650773385437 0 453.15650773385437 1218.8127211931132 0 0 0 0 299.70869025863067 333.57509793799545 0 333.57509793799545 943.59395614343248 0 0 0 0 818.55613296593947 -757.00219163495058 0 -757.00219163495058 2228.9015534860141 0 0 0 0 895.58772400953967 1332.1577447819618 0 1332.1577447819618 2330.6943013260898 0 0 0 0 4.5117851117839791 -7.4639147359428364 0 -7.4639147359428364 13.255680954391636 0 0 0 0 -175.27560310041008 -1388.2166038176692 0 -1388.2166038176692 1673.5570809340279 0 0 0 0 460.03177732722543 69.750745750170609 0 69.750745750170609 2378.1834594188404 0 0 0 0 1604.8987452436631 -269.20722585381736 0 -269.20722585381736 777.50728581342264 0 0 0 0 827.336638602108 -425.40505414670042 0 -425.40505414670042 754.97451995768279 0 0 0 0 1062.7931963851443 -747.9503658886897 0 -747.9503658886897 589.46964899492923 0 0 0 0 371.35667798472059 178.31389889279399 0 178.31389889279399 806.87293284344196 0 0 0 0 361.27168903363054 -87.386160134730744 0 -87.386160134730744 -26.654931426761323 0 0 0 0 1215.5394941485865 -1133.6814998979971 0 -1133.6814998979971 318.44910900542163 0 0 0 0 1642.0789313181922 -729.36934620754255 0 -729.36934620754255 -270.25388408983417 0 0 0 0 1218.9660722008593 -463.14459422185791 0 -463.14459422185791 353.23986329005857 0 0 0 0 759.36832739340025 -777.92893229595211 0 -777.92893229595211 290.84532602514992 0 0 0 0 798.21391704960115 -686.48078626532515 0 -686.48078626532515 505.24434144492261 0 0 0 0 450.72585059174889 -636.28328190210959 0 -636.28328190210959 595.22493549340288 0 0 0 0 391.51795026798209 -1106.7596514477991 0 -1106.7596514477991 1070.7618651072553 0 0 0 0 -105.1142496211105 -471.92974594730185 0 -471.92974594730185 559.00743080268148 0 0 0 0 467.70315084425965 -1229.2676237781707 0 -1229.2676237781707 326.95578302003469 0 0 0 0 2407.2258301457114 -2898.8944474545424 0 -2898.8944474545424 1421.4696418911044 0 0 0 0 3918.1705729906607 -585.69307034093799 0 -585.69307034093799 -748.65589640257531 0 0 0 0 -133.31060061772587 2245.8303517580789 0 2245.8303517580789 -88.703254406242195 0 0 0 0 -2959.2131552159408 162.52407646044594 0 162.52407646044594 976.84331337592448 0 0 0 0 218.86588722156011 169.70598766412877 0 169.70598766412877 -612.61941706152902 0 0 0 0 26.303667423710863 -50.98002938839921 0 -50.98002938839921 83.007389995454844 0 0 0 0 -211.80655732590822 -65.552811036745879 0 -65.552811036745879 29.245802607794758 0 0 0 0 -254.00381743711478 -527.08943718507362 0 -527.08943718507362 -187.76197295295788 0 0 0 0 -2765.0193782140486 -1710.039352979642 0 -1710.039352979642 69.278598219971173 0 0 0 0 -742.52551084694278 -691.02579052996589 0 -691.02579052996589 -1007.4000185136392 0 0 0 0 -966.4935141409369 -126.98987245355966 0 -126.98987245355966 161.31713125268288 0 0 0 0 140.08979711987195 -580.93317091991048 0 -580.93317091991048 51.612238920912205 0 0 0 0 152.30032504901465 -351.77420612746573 0 -351.77420612746573 -396.01912833255483 0 0 0 0 -169.62876053778746 -231.0848824461209 0 -231.0848824461209 -55.650950092123821 0 0 0 0 -182.50783982974826 -249.24103145127447 0 -249.24103145127447 -81.098040396595025 0 0 0 0 -128.84538742320728 -204.72759115618828 0 -204.72759115618828 -81.353088898176793 0 0 0 0 131.27839115005918 169.06588902963267 0 169.06588902963267 -24.027283972330224 0 0 0 0 -0.62310108809386122 -3.852281933249202 0 -3.852281933249202 -7.4303533694366877 0 0 0 0 538.98464561368746 -28.041668612398553 0 -28.041668612398553 -269.73968724667793 0 0 0 0 305.9182416863332 -256.55288713853224 0 -256.55288713853224 -172.78850961448916 0 0 0 0 -352.96334367686359 -551.28172438874753 0 -551.28172438874753 -117.3505890564702 0 0 0 0 -828.11697011139768 -315.13975279203441 0 -315.13975279203441 -40.923228967600153 0 0 0 0 -4.4865584388753632 -531.26387232974957 0 -531.26387232974957 -269.12562473252183 0 0 0 0 -352.88026106867312 -522.76654893142575 0 -522.76654893142575 -108.85783658006403 0 0 0 0 57.686804863536963 -761.66154755637399 0 -761.66154755637399 -86.77159611924435 0 0 0 0 -3.4130410698417109 -539.13138513693411 0 -539.13138513693411 -381.4520389768295 0 0 0 0 30.998760618909728 -625.41265276529884 0 -625.41265276529884 -183.47688605016447 0 0 0 0 104.40455102562555 -469.56435777428851 0 -469.56435777428851 -381.68838885574377 0 0 0 0 140.59725624098792 -466.01438478551063 0 -466.01438478551063 -624.11855061198003 0 0 0 0 -43.846476576582063 -458.85463039830938 0 -458.85463039830938 -291.76165902226785 0 0 0 0 -152.8337868739618 -401.2139587489437 0 -401.2139587489437 -287.40725981113792 0 0 0 0 41.238489245719393 -411.28505911677712 0 -411.28505911677712 -348.11189309305337 0 0 0 0 37.103449210291728 -240.89037399838708 0 -240.89037399838708 -164.94025526123005 0 0 0 0 26.119273737802359 -302.89982716827035 0 -302.89982716827035 -428.60528835467994 0 0 0 0 58.269636380078737 -117.82919874248546 0 -117.82919874248546 -168.13566044592881 0 0 0 0 71.354965719889151 -80.790665706923392 0 -80.790665706923392 -692.55518006463535 0 0 0 0 120.1775757886935 -315.50638232236088 0 -315.50638232236088 -525.08202964335942 0 0 0 0 678.1300275923204 -1024.696229165882 0 -1024.696229165882 855.13390282473119 0 0 0 0 11.502772838511987 -26.472312219696192 0 -26.472312219696192 -20.433720921721488 0 0 0 0 9.6312902657373343 -162.33227733107196 0 -162.33227733107196 -128.35851801434546 0 0 0 0 111.66844858232071 -1150.5583067814732 0 -1150.5583067814732 2134.894907071226 0 0 0 0 45.170462810092431 -41.706319911956598 0 -41.706319911956598 46.669501555152237 0 0 0 0 -11.523022511333693 -56.756838178695034 0 -56.756838178695034 94.530988298203738 0 0 0 0 37.049156317792949 -16.543812389594677 0 -16.543812389594677 125.46120460031307 0 0 0 0 -24.076625869958661 -96.455407386820298 0 -96.455407386820298 106.82387123154331 0 0 0 0 107.96274097460264 -29.552332747283799 0 -29.552332747283799 8.3348665252851788 0 0 0 0 3.9387869859929197 -134.42897413359606 0 -134.42897413359606 -92.168475328973727 0 0 0 0 -49.086555599962594 -204.63019239380083 0 -204.63019239380083 -101.50627080519826 0 0 0 0 -119.76438762557518 -102.11839765725017 0 -102.11839765725017 -10.246019376063487 0 0 0 0 -139.47832668462797 -236.96870419936931 0 -236.96870419936931 -153.09893342180294 0 0 0 0 -21.391165010107215 -185.09459250038708 0 -185.09459250038708 -144.73353144570137 0 0 0 0 6.0598706431774172 -14.477231985887443 0 -14.477231985887443 -13.307701586447251 0 0 0 0 -183.49255604483187 -169.89299886155277 0 -169.89299886155277 -61.805826498064562 0 0 0 0 13.680955329920067 -44.321268548146257 0 -44.321268548146257 91.011330283800874 0 0 0 0 -1431.3529498854368 -692.04505589311066 0 -692.04505589311066 254.32224031789519 0 0 0 0 51.666338086673932 -231.2441865780238 0 -231.2441865780238 -52.307952592954052 0 0 0 0 -3.2289530776033644 -73.173656202023267 0 -73.173656202023267 130.93814764021954 0 0 0 0 2.4026430356050614 -30.7039635685924 0 -30.7039635685924 74.576858671351943 0 0 0 0 -1019.3035146109396 -266.97041876396543 0 -266.97041876396543 -77.146932939169346 0 0 0 0 -803.96728283484845 104.31134807114722 0 104.31134807114722 312.57836893075728 0 0 0 0 -18.90609207263492 4.8004313876453608 0 4.8004313876453608 14.906496534531698 0 0 0 0 -292.98997964992304 -912.06852843600063 0 -912.06852843600063 2033.6770258075558 0 0 0 0 -1176.399452018205 555.79921091663641 0 555.79921091663641 -163.6488816330384 0 0 0 0 2.7449988562219403 -12.871822619460147 0 -12.871822619460147 9.3074752232260494 0 0 0 0 109.11183660337701 -999.3083814256679 0 -999.3083814256679 1931.5987069944094 0 0 0 0 114.21278290942428 -232.88759622319776 0 -232.88759622319776 1451.0485100420956 0 0 0 0 27.863716828514555 -28.776205727486513 0 -28.776205727486513 -17.520846229648299 0 0 0 0 76.296190170804039 74.388211127796239 0 74.388211127796239 330.02606555875536 0 0 0 0 621.68019029183051 -433.02527357149302 0 -433.02527357149302 278.31983485831006 0 0 0 0 -126.68148869130528 -260.36947695080744 0 -260.36947695080744 597.60771988479246 0 0 0 0 450.19415225537523 -565.15419502514123 0 -565.15419502514123 827.24901714046428 0 0 0 0 -153.3956390042149 -218.27598834429227 0 -218.27598834429227 851.94734271152856 0 0 0 0 -44.109564421451068 -39.339960187993711 0 -39.339960187993711 60.575268613607477 0 0 0 0 15.078392606393834 -53.4151436132111 0 -53.4151436132111 0.54711407832471792 0 0 0 0 -0.73659215351887042 -8.9195474715092189 0 -8.9195474715092189 7.5954323620571529 0 0 0 0 44.198408534590271 -47.667408149209223 0 -47.667408149209223 -74.320475921969773 0 0 0 0 -40.769711873974302 -128.23252436143957 0 -128.23252436143957 325.43916110356804 0 0 0 0 279.78201435206574 -427.4408276815011 0 -427.4408276815011 21.868934589481796 0 0 0 0 478.50416382361436 -614.00125531780941 0 -614.00125531780941 790.33751960395603 0 0 0 0 5.0788642980819532 -7.2763411553256674 0 -7.2763411553256674 -9.6434141219003564 0 0 0 0 1439.0327100793656 -1871.8123770941311 0 -1871.8123770941311 2337.4023250237806 0 0 0 0 1336.2220869307566 -1247.3492512275479 0 -1247.3492512275479 792.63838366761047 0 0 0 0 452.05404578412708 -410.91342995685409 0 -410.91342995685409 1.4448001007941509 0 0 0 0 2276.4721143547049 -1556.2008284128315 0 -1556.2008284128315 875.19135829598235 0 0 0 0 2298.9747911781596 -1665.0940149309245 0 -1665.0940149309245 572.33517408616899 0 0 0 0 2038.6778902660371 -1153.4053280548651 0 -1153.4053280548651 0.46886978204565821 0 0 0 0 2739.9518134137325 -1120.9479219697969 0 -1120.9479219697969 815.21173968913354 0 0 0 0 2325.6975643911428 -940.02413437701762 0 -940.02413437701762 305.12286973831942 0 0 0 0 1506.0403062429978 -1784.7415311332661 0 -1784.7415311332661 1410.6285527546061 0 0 0 0 2080.6777333335485 -1536.7000127276551 0 -1536.7000127276551 1508.0994997752132 0 0 0 0 1925.4964078152116 -1873.257206154758 0 -1873.257206154758 790.70081619893608 0 0 0 0 1631.4166012748392 -2013.0230112986101 0 -2013.0230112986101 1792.9936666257854 0 0 0 0 10.968265296033621 -36.725125476574249 0 -36.725125476574249 -41.259379656862336 0 0 0 0 -84.796633802630822 -756.12701217725407 0 -756.12701217725407 1164.9843353432734 0 0 0 0 661.52170804181515 -392.2888826090857 0 -392.2888826090857 1339.0516924853728 0 0 0 0 304.20452134379957 -25.113693428969782 0 -25.113693428969782 660.24153508730524 0 0 0 0 1968.069993172976 -2371.1485207126752 0 -2371.1485207126752 1756.8589532453698 0 0 0 0 10.855739452018241 -22.052862490447012 0 -22.052862490447012 -36.798563378437422 0 0 0 0 1528.6051029144946 -2324.6737104717122 0 -2324.6737104717122 2964.1712564292975 0 0 0 0 1805.4835175573389 -2140.7959818791242 0 -2140.7959818791242 2074.6915170601096 0 0 0 0 1089.3526438049375 -2377.8267561919456 0 -2377.8267561919456 2001.365780789587 0 0 0 0 1793.7382555277291 -2263.9435922763951 0 -2263.9435922763951 1311.6260015496373 0 0 0 0 1918.0536501779225 -1969.8450087371066 0 -1969.8450087371066 1246.3387329016987 0 0 0 0 1453.9363878919976 -2436.297944625534 0 -2436.297944625534 912.05962939923484 0 0 0 0 1705.129094719261 -2508.4848069109394 0 -2508.4848069109394 4.5836818766983924 0 0 0 0 2040.4113007875858 -2011.6991394653232 0 -2011.6991394653232 663.29070974264687 0 0 0 0 2211.0557286652765 -2010.7492168583085 0 -2010.7492168583085 -0.20837885600485606 0 0 0 0 1.6528280298335858 -3.5216209726131069 0 -3.5216209726131069 1.6492144494957728 0 0 0 0 7.7080980223480955 -3472.6280294320995 0 -3472.6280294320995 7.7967232669907389 0 0 0 0 968.60343463534082 -2866.1786258206266 0 -2866.1786258206266 252.69980218082856 0 0 0 0 1075.1317132331606 -2626.2376186834954 0 -2626.2376186834954 734.34053491125815 0 0 0 0 1464.7766532596916 -2358.2056825328991 0 -2358.2056825328991 822.09087305021239 0 0 0 0 711.29180101909151 -2594.2360998483709 0 -2594.2360998483709 1490.6442512734793 0 0 0 0 617.19594275904819 -2326.2369551473676 0 -2326.2369551473676 1765.2892657268385 0 0 0 0 1.0679835925548105 -2916.9268706604707 0 -2916.9268706604707 1199.250583334353 0 0 0 0 0.68810912790650036 -2493.2270031290027 0 -2493.2270031290027 2039.3728786340544 0 0 0 0 1143.1786898685386 -2370.6003279953293 0 -2370.6003279953293 1601.7408676671112 0 0 0 0 518.03261597431992 -1991.1688646232105 0 -1991.1688646232105 2522.3377170081221 0 0 0 0 804.365433785395 -2005.6442771344664 0 -2005.6442771344664 2519.7950880063891 0 0 0 0 -0.36843045836062904 -1842.1713451143096 0 -1842.1713451143096 2893.1816786769778 0 0 0 0 946.8858541524387 -1711.9032638470089 0 -1711.9032638470089 2723.4469436276195 0 0 0 0 2.5446571476495592 -1359.3454711989798 0 -1359.3454711989798 2596.1988174787439 0 0 0 0 1354.3931463593472 -2513.1358234711515 0 -2513.1358234711515 1282.0566010146349 0 0 0 0 -2.4493598647759995 -17.075919206772994 0 -17.075919206772994 -13.393996213539992 0 0 0 0 1181.777776565219 -2357.6314725732364 0 -2357.6314725732364 2980.5958395429334 0 0 0 0 843.85636194578547 -1877.6046147895959 0 -1877.6046147895959 2879.827063601042 0 0 0 0 26.942308114812477 -746.86027489502885 0 -746.86027489502885 2309.9143034218578 0 0 0 0 413.10172665529535 -1308.567402974797 0 -1308.567402974797 2470.7523348224604 0 0 0 0 4.5139303796339618 -18.377650110058994 0 -18.377650110058994 -21.354548223717757 0 0 0 0 3.9085899931954486 -21.354783250189115 0 -21.354783250189115 -14.621383066562288 0 0 0 0 484.70359132476733 -403.84816669754218 0 -403.84816669754218 1568.4470533014974 0 0 0 0 1214.9423792312446 -1093.4290732806403 0 -1093.4290732806403 1291.9443196606189 0 0 0 0 84.271997742180247 -106.85533369625045 0 -106.85533369625045 -813.3921818841045 0 0 0 0 -182.69911087532819 81.936805277375242 0 81.936805277375242 -1019.6546337723703 0 0 0 0 -42.407247044393444 -115.85771427466898 0 -115.85771427466898 -790.87069416616578 0 0 0 0 94.120587733516004 -198.29743936455634 0 -198.29743936455634 -946.72103118499945 0 0 0 0 342.676985953236 361.11669313934544 0 361.11669313934544 -2518.9181478606115 0 0 0 0 571.91543207548966 -1927.5796669797419 0 -1927.5796669797419 3785.2012498959084 0 0 0 0 0.92017141861526852 -8.5286273516340998 0 -8.5286273516340998 -4.9032809800396535 0 0 0 0 537.01028654965921 -637.61864982957195 0 -637.61864982957195 -1851.3665004339127 0 0 0 0 54.274245344153314 -297.22662055795263 0 -297.22662055795263 -1091.6784789025696 0 0 0 0 452.07267551161931 -637.10478039876034 0 -637.10478039876034 -925.07923400623986 0 0 0 0 124.30074848615914 -453.90712085041014 0 -453.90712085041014 -616.88575304362166 0 0 0 0 215.44264959817519 -482.90456684226956 0 -482.90456684226956 -782.60358388098393 0 0 0 0 167.70002433634363 -269.3028501370427 0 -269.3028501370427 -1308.9430785355798 0 0 0 0 263.94931415919564 -612.17980779549544 0 -612.17980779549544 -808.53606243292597 0 0 0 0 182.48144893347853 -659.06262531411085 0 -659.06262531411085 -832.4001812174829 0 0 0 0 137.17928599019069 -643.78478348183489 0 -643.78478348183489 -569.90379187988583 0 0 0 0 45.424238899140619 -701.38661408265034 0 -701.38661408265034 356.03737914111844 0 0 0 0 155.69524567431654 -666.29534467348276 0 -666.29534467348276 -248.15296119404957 0 0 0 0 102.64882339457108 -721.90668445660049 0 -721.90668445660049 -262.14617352963251 0 0 0 0 450.51278637729865 -624.14016137741487 0 -624.14016137741487 -727.05996883263288 0 0 0 0 136.79351861750183 -556.11939465486648 0 -556.11939465486648 -540.57016411997029 0 0 0 0 478.07208921806887 -964.59913110861089 0 -964.59913110861089 -327.17864518804708 0 0 0 0 371.3826248459809 -1057.4926331128227 0 -1057.4926331128227 99.918727382222642 0 0 0 0 288.72615148800833 -549.229633562667 0 -549.229633562667 -728.4201589084696 0 0 0 0 568.15666433720617 -1188.910904581342 0 -1188.910904581342 -1539.3809124608961 0 0 0 0 -1.0573998572144774 -1466.7016077141343 0 -1466.7016077141343 233.75900544901378 0 0 0 0 -2.206160592989761 -8.1628419394273521 0 -8.1628419394273521 -7.3501481684342025 0 0 0 0 558.60033803424449 40.774552482027502 0 40.774552482027502 -1791.4344230106217 0 0 0 0 859.36736334778834 -379.14168064341357 0 -379.14168064341357 -2000.3584513800743 0 0 0 0 616.14879932286567 496.47445075251017 0 496.47445075251017 1326.3070315442806 0 0 0 0 375.43007358205068 -528.82624981708432 0 -528.82624981708432 -1197.5079271262657 0 0 0 0 796.67207378943567 -454.32036122646969 0 -454.32036122646969 -1213.3780584035703 0 0 0 0 -117.74285068086192 -241.86050632583647 0 -241.86050632583647 -223.10819374833954 0 0 0 0 -225.18060189490825 -261.99667551600578 0 -261.99667551600578 -157.74149876125739 0 0 0 0 -211.93767164419796 -289.80606221554626 0 -289.80606221554626 -90.471295702154748 0 0 0 0 -168.70867554426695 -170.29341382530401 0 -170.29341382530401 -135.73512535671762 0 0 0 0 -87.200465692209946 -184.4609740200176 0 -184.4609740200176 -148.37055416045769 0 0 0 0 -92.304443719385745 -159.40314336180745 0 -159.40314336180745 -192.99840685020899 0 0 0 0 -66.975718725621846 -127.67564999550086 0 -127.67564999550086 -109.91190730850212 0 0 0 0 -60.616387888185272 -167.17128061630501 0 -167.17128061630501 -147.69597139598773 0 0 0 0 -108.85447669607083 -124.31277887655961 0 -124.31277887655961 -55.759950278035831 0 0 0 0 -96.66745913460727 -163.57970132428818 0 -163.57970132428818 -128.36545594570634 0 0 0 0 -148.13244167799894 -155.13842551613197 0 -155.13842551613197 -87.002640680671902 0 0 0 0 -131.93718464830272 -212.28426298234263 0 -212.28426298234263 -166.22700739487482 0 0 0 0 -100.00276000087513 -173.9519080891605 0 -173.9519080891605 -137.28266227131826 0 0 0 0 -196.47574852245452 -259.2832879379348 0 -259.2832879379348 -133.29922938702657 0 0 0 0 -113.06593612383222 -170.44917012636142 0 -170.44917012636142 -131.10113846952299 0 0 0 0 -182.6877369079657 -210.15204195665865 0 -210.15204195665865 -77.802067599826842 0 0 0 0 -97.361047487104315 -93.29003425598421 0 -93.29003425598421 30.226396116180695 0 0 0 0 -105.15957783630438 30.911599601000489 0 30.911599601000489 654.54118527703395 0 0 0 0 -1.4396395048661077 -1.6262542338719754 0 -1.6262542338719754 0.41740819817450614 0 0 0 0 -106.73179918953747 -259.57914006457941 0 -259.57914006457941 -363.73165718466043 0 0 0 0 -27.431162859562392 -114.0173546507358 0 -114.0173546507358 -100.42429169749448 0 0 0 0 -145.51233115603736 -63.913334536075126 0 -63.913334536075126 -27.425781195503077 0 0 0 0 -1.5519937750101853 -4.0650441198639271 0 -4.0650441198639271 1.2649108565380516 0 0 0 0 48.362240121780815 -157.76164281260571 0 -157.76164281260571 172.25351030926686 0 0 0 0 -137.08182683515952 -17.914115582738305 0 -17.914115582738305 618.90071306005575 0 0 0 0 -24.649540742768295 -178.79855044942815 0 -178.79855044942815 214.56825870694593 0 0 0 0 2.7967517122378176 -6.5245615966422292 0 -6.5245615966422292 -0.72630780960304619 0 0 0 0 -51.617112989999441 -113.48302524680912 0 -113.48302524680912 268.14696071417711 0 0 0 0 -4.6621149215734405 -3.8939442087105363 0 -3.8939442087105363 -0.785135774186557 0 0 0 0 30.817515822311407 -13.102470756857656 0 -13.102470756857656 -0.28168893049587496 0 0 0 0 17.112659906010776 13.490970102699066 0 13.490970102699066 -18.199004724403494 0 0 0 0 -0.33181134773296961 -6.4239143252302426 0 -6.4239143252302426 -5.3753310154663438 0 0 0 0 377.61187210072148 -159.89208816691826 0 -159.89208816691826 49.399253694486106 0 0 0 0 73.390594060988406 -60.491749247477856 0 -60.491749247477856 -210.71581604196399 0 0 0 0 257.10236262939725 -275.80492234744452 0 -275.80492234744452 271.68587851754273 0 0 0 0 230.00651989644939 -205.4552326209232 0 -205.4552326209232 325.39249987500807 0 0 0 0 0.79670578249811186 -2.3084634743011918 0 -2.3084634743011918 -1.9062476830096315 0 0 0 0 69.829040552515835 -66.974455291601771 0 -66.974455291601771 107.64065798721276 0 0 0 0 104.46725791295103 -176.47947591042612 0 -176.47947591042612 200.38676176621811 0 0 0 0 123.83324576625864 -151.34177364561765 0 -151.34177364561765 166.24950888461899 0 0 0 0 224.39779038915367 -311.69926832890633 0 -311.69926832890633 413.84106998622974 0 0 0 0 256.92076727061703 -181.20059883165231 0 -181.20059883165231 89.98927708719566 0 0 0 0 340.22314247978238 -114.87902864762145 0 -114.87902864762145 138.74157317192294 0 0 0 0 217.92112745929307 -112.67327730103716 0 -112.67327730103716 54.187604716600617 0 0 0 0 249.84982084811327 -132.88280573050724 0 -132.88280573050724 3.850258668186143 0 0 0 0 196.58509950824646 -176.98776895965057 0 -176.98776895965057 121.48634150373982 0 0 0 0 140.9527251388763 -95.871639207616681 0 -95.871639207616681 35.718748388011591 0 0 0 0 97.762097955503123 -113.47942431136471 0 -113.47942431136471 -32.479530486860313 0 0 0 0 213.53235219834278 -116.74405572107935 0 -116.74405572107935 -46.3461040717375 0 0 0 0 201.21287606419628 -106.7911027490336 0 -106.7911027490336 4.1213438731919041 0 0 0 0 188.15255866816824 -92.645194337797875 0 -92.645194337797875 -52.943496453211992 0 0 0 0 227.24733443999958 -103.09419672119111 0 -103.09419672119111 -57.436392348899972 0 0 0 0 74.110043908402986 -225.72873031598283 0 -225.72873031598283 -156.12188728079491 0 0 0 0 -1.7938339104736087 -1.437731118612561 0 -1.437731118612561 -1.2187565010604544 0 0 0 0 -193.3770863831794 -62.286986548790537 0 -62.286986548790537 17.859318617265671 0 0 0 0 75.716910293084766 -71.122981667103886 0 -71.122981667103886 116.1324802553645 0 0 0 0 139.03606067357543 -127.86860458653564 0 -127.86860458653564 -61.202198568324093 0 0 0 0 104.79494484588486 -195.27899722832808 0 -195.27899722832808 -67.43216519600719 0 0 0 0 -157.14990228896841 -350.75744278963975 0 -350.75744278963975 -77.293093505009892 0 0 0 0 -103.95395491799172 -318.89467953795247 0 -318.89467953795247 -137.84138650028035 0 0 0 0 -77.955199743649246 -337.14239939439722 0 -337.14239939439722 -126.04146951119765 0 0 0 0 -80.542874806205049 -135.67269218312157 0 -135.67269218312157 -20.633107595087495 0 0 0 0 -5.5795766643550451 -218.71138743775373 0 -218.71138743775373 -91.731367636704817 0 0 0 0 165.79773870755707 -184.17715316512476 0 -184.17715316512476 -568.66144267714117 0 0 0 0 -323.52762309419705 -115.43288175181078 0 -115.43288175181078 -116.18063240667107 0 0 0 0 52.365006623879708 -207.65266002053977 0 -207.65266002053977 -353.69478127823095 0 0 0 0 -294.86057832274503 -460.87891640247881 0 -460.87891640247881 -241.12482245318824 0 0 0 0 202.94263229834723 -123.41744046761596 0 -123.41744046761596 -5.8768124474445358 0 0 0 0 189.03182154903516 -101.98383598176588 0 -101.98383598176588 16.691422017065634 0 0 0 0 221.46768054523591 -97.281273091233743 0 -97.281273091233743 -68.578718005126575 0 0 0 0 50.176041158298176 -106.52735549923091 0 -106.52735549923091 44.745876021872391 0 0 0 0 216.28951774466896 -87.931736206963251 0 -87.931736206963251 -760.64760160452715 0 0 0 0 0.89264708800105552 -1.1239466106445661 0 -1.1239466106445661 -1.2197171388575612 0 0 0 0 139.07651040447081 -384.35060981244897 0 -384.35060981244897 387.20991304343625 0 0 0 0 256.21704375246009 -396.79651469118835 0 -396.79651469118835 -176.11718870681216 0 0 0 0 144.97718895722574 40.377013134057052 0 40.377013134057052 -262.58840136075742 0 0 0 0 136.24142553099364 -147.20884657592251 0 -147.20884657592251 -424.55749256175477 0 0 0 0 110.03525182724661 -365.39857718623534 0 -365.39857718623534 -290.44891957801883 0 0 0 0 43.503109746713562 -256.30851537644776 0 -256.30851537644776 -184.97062374395318 0 0 0 0 126.84835900143753 -219.54618941892113 0 -219.54618941892113 -226.64567230219836 0 0 0 0 161.74834119474781 -171.24825849260378 0 -171.24825849260378 -203.7280306378052 0 0 0 0 -85.75410763560285 -98.997002226824407 0 -98.997002226824407 296.89677852683235 0 0 0 0 117.65268250269492 -131.07702737218642 0 -131.07702737218642 212.92653367281309 0 0 0 0 149.44408076845639 -302.93627858407854 0 -302.93627858407854 200.32443558995146 0 0 0 0 40.446891601652972 -35.932760308283719 0 -35.932760308283719 -28.746023253209415 0 0 0 0 43.095295890521356 -256.47206588140762 0 -256.47206588140762 33.800843818404246 0 0 0 0 -70.075519238220409 -16.192338512399374 0 -16.192338512399374 51.880230257197695 0 0 0 0 200.30175781435173 -217.19591303683956 0 -217.19591303683956 111.0746857970953 0 0 0 0 -6.7500997808074317 -59.320894932527153 0 -59.320894932527153 40.115245788634638 0 0 0 0 -279.71103725889134 47.180334083372145 0 47.180334083372145 7.404990245035151 0 0 0 0 -3.6365810317050951 -2.2622029079971924 0 -2.2622029079971924 -1.5315670481093093 0 0 0 0 -321.67353803196045 -318.23698092387531 0 -318.23698092387531 -78.248045287968125 0 0 0 0 -41.867598425924371 -397.61094985596719 0 -397.61094985596719 -418.69199505127472 0 0 0 0 -72.698959450590337 -82.021431048386148 0 -82.021431048386148 105.84903188422322 0 0 0 0 0.051317557759237076 -10.476963336709673 0 -10.476963336709673 23.212133871394258 0 0 0 0 8.8079393374822921 -43.296691046538854 0 -43.296691046538854 -35.243090735409126 0 0 0 0 24.489620017397101 -268.51514614340704 0 -268.51514614340704 225.17068776449014 0 0 0 0 5.9426354324434953 -27.208625173069322 0 -27.208625173069322 78.674532997058122 0 0 0 0 -21.24075007914962 -44.548752015623904 0 -44.548752015623904 60.472434635863465 0 0 0 0 -12.507755249124102 5.4036328740580757 0 5.4036328740580757 6.3164695735322312 0 0 0 0 -0.58705882269350695 -68.246550488860521 0 -68.246550488860521 66.674379112213501 0 0 0 0 -2.1330757566739034 -0.69567562456971643 0 -0.69567562456971643 1.0482020634108835 0 0 0 0 1158.6283515971481 246.26539245917229 0 246.26539245917229 -837.93354253302095 0 0 0 0 -14.121400543750301 -19.32920259554399 0 -19.32920259554399 -11.003746248741919 0 0 0 0 -11.128631565006287 -3.3426996078496813 0 -3.3426996078496813 8.2746679122355999 0 0 0 0 -318.58855232979113 25.744801880180603 0 25.744801880180603 684.08689626194246 0 0 0 0 95.635726123990025 155.25622759759426 0 155.25622759759426 423.5836461087456 0 0 0 0 7.0023949605696743 -6.9067249114945071 0 -6.9067249114945071 6.2467151898235898 0 0 0 0 180.10075943329502 -48.114842284165206 0 -48.114842284165206 -81.337573009746848 0 0 0 0 127.41046496495619 -97.013424514429062 0 -97.013424514429062 -127.86691703103133 0 0 0 0 480.00554032658601 -376.49705150539376 0 -376.49705150539376 91.861819259822369 0 0 0 0 320.1625894546396 -119.30487000664289 0 -119.30487000664289 -95.127410674060229 0 0 0 0 53.227733281506517 -67.829199619183782 0 -67.829199619183782 -67.865828751666413 0 0 0 0 -10.403799697877687 -5.9780857007889381 0 -5.9780857007889381 -4.0438617073927787 0 0 0 0 -4.4142961306279176 -93.628568001266103 0 -93.628568001266103 92.688796831334002 0 0 0 0 -400.50849820624717 118.73322541959351 0 118.73322541959351 117.64881708406028 0 0 0 0 -1154.4830716560427 -456.17142614103795 0 -456.17142614103795 1432.6843100237311 0 0 0 0 429.53202441012718 -520.02149057172937 0 -520.02149057172937 110.41809224613826 0 0 0 0 175.5576747108571 -409.18620199519501 0 -409.18620199519501 119.24912964727446 0 0 0 0 -53.890398344468849 -271.23692386831681 0 -271.23692386831681 -134.84312850439892 0 0 0 0 -35.936420574771546 -176.81489321534173 0 -176.81489321534173 -103.06123688968364 0 0 0 0 -3.5778743411283358 -108.86479840264656 0 -108.86479840264656 -111.23696542230755 0 0 0 0 144.48205860377584 -75.121372068206256 0 -75.121372068206256 -103.56724459276302 0 0 0 0 18.113749637939691 -7.276750641365652 0 -7.276750641365652 -71.648043527442496 0 0 0 0 -18.45210558596591 -123.62659704590624 0 -123.62659704590624 -93.06859735265607 0 0 0 0 32.863219630645744 -194.32581436962937 0 -194.32581436962937 -121.6424229326949 0 0 0 0 -35.279353401732806 -139.64582320242334 0 -139.64582320242334 -107.95104891424126 0 0 0 0 -59.317299640003966 -132.480161094305 0 -132.480161094305 -109.33299184014322 0 0 0 0 -87.565472724485517 -214.68272042158242 0 -214.68272042158242 -124.60236147540854 0 0 0 0 -79.734652818259747 -266.85299592569936 0 -266.85299592569936 -103.2091323043569 0 0 0 0 -15.691509391466298 -62.78494533077901 0 -62.78494533077901 -58.905950753673096 0 0 0 0 -45.545703451520012 -69.110480079756599 0 -69.110480079756599 -44.974809627849027 0 0 0 0 -68.703660168465376 -138.42935654897701 0 -138.42935654897701 -92.271666668559192 0 0 0 0 -58.482631774841138 -109.31100137420799 0 -109.31100137420799 -52.629278363776393 0 0 0 0 -36.91892611273579 -95.955734075600049 0 -95.955734075600049 -72.625514711151482 0 0 0 0 20.854966959583372 -20.056944461585459 0 -20.056944461585459 13.752543614550945 0 0 0 0 -52.152460987424547 -101.97772778982107 0 -101.97772778982107 -13.780398885486647 0 0 0 0 -2.0574154999994789 -117.49906324832409 0 -117.49906324832409 -59.86635292081337 0 0 0 0 -60.623102319754253 -101.50394746904203 0 -101.50394746904203 -46.958163382012572 0 0 0 0 -55.278831648254709 -87.487486958314548 0 -87.487486958314548 -61.978805639890197 0 0 0 0 -76.190492829387949 -40.385653594552423 0 -40.385653594552423 -45.038438936899183 0 0 0 0 -116.44581151781676 -33.914944527117768 0 -33.914944527117768 -27.577167893206934 0 0 0 0 -9.1409900537685189 -55.841281113649529 0 -55.841281113649529 -41.503585048340028 0 0 0 0 4.305346886038933 -1.0859966828182479 0 -1.0859966828182479 -2.2756056331199943 0 0 0 0 59.432079524231085 -74.909060814476106 0 -74.909060814476106 -52.536080803954974 0 0 0 0 67.686630027951651 91.500772967972807 0 91.500772967972807 219.23519980552373 0 0 0 0 -13.534972982298996 -50.657025103220803 0 -50.657025103220803 -23.292331735661719 0 0 0 0 -75.496437298512319 -22.228148231894011 0 -22.228148231894011 43.256554115941981 0 0 0 0 -3.8158349641845248 -10.285483757047587 0 -10.285483757047587 3.6842470919901587 0 0 0 0 32.274083023105909 -16.550601456718411 0 -16.550601456718411 -6.790650253292597 0 0 0 0 -12.069154641008936 -47.285206780070439 0 -47.285206780070439 -42.973731537698768 0 0 0 0 6.0847890184086282 -27.756062698434107 0 -27.756062698434107 -7.2341902632906567 0 0 0 0 0.6184156204465836 -23.541652708943445 0 -23.541652708943445 9.8595269152781668 0 0 0 0 -12.257686257162277 -28.554978183653532 0 -28.554978183653532 15.252296820318676 0 0 0 0 18.531331331054389 -5.6588257738912944 0 -5.6588257738912944 44.152083495137049 0 0 0 0 62.780880310279827 66.107127646115259 0 66.107127646115259 109.38110088987742 0 0 0 0 -9.4359561362289242 -0.31346440673223697 0 -0.31346440673223697 201.02002880556392 0 0 0 0 26.038589014922763 -79.973659907802357 0 -79.973659907802357 273.1624382630398 0 0 0 0 11.989208280923776 45.861570654080424 0 45.861570654080424 281.30358846008312 0 0 0 0 45.00352688129351 -60.23098597873468 0 -60.23098597873468 220.54004675128817 0 0 0 0 23.894466115780233 -125.78951516868256 0 -125.78951516868256 159.34840862044075 0 0 0 0 -14.95567173678819 -53.945077493975077 0 -53.945077493975077 122.85945957229706 0 0 0 0 -11.909617195378814 -31.400305712711997 0 -31.400305712711997 217.81831990266801 0 0 0 0 73.165685144951567 -96.134132854320342 0 -96.134132854320342 195.50916619529016 0 0 0 0 -59.004199958686513 14.161459155671764 0 14.161459155671764 -63.248423855315195 0 0 0 0 9.850225939808297 81.746143009455409 0 81.746143009455409 228.19567273893699 0 0 0 0 151.6909470506107 -39.949191545783833 0 -39.949191545783833 206.47913380985847 0 0 0 0 -92.217459202725877 64.10322000864835 0 64.10322000864835 679.01400226354599 0 0 0 0 144.52488432586404 -165.70824007312831 0 -165.70824007312831 223.44912783271866 0 0 0 0 124.41277211192937 -76.083666029764572 0 -76.083666029764572 -10.563003565330291 0 0 0 0 68.901061148997542 -152.05599237805654 0 -152.05599237805654 118.18635967498994 0 0 0 0 40.077182736520626 -6.455796661117347 0 -6.455796661117347 -35.429740874344134 0 0 0 0 4.7731797071865003 -77.072316232821322 0 -77.072316232821322 78.729469426732976 0 0 0 0 46.222843990406545 -71.978515125942067 0 -71.978515125942067 23.165352081181481 0 0 0 0 5.4757597598345455 -129.12798307231424 0 -129.12798307231424 65.235303877067054 0 0 0 0 -7.0425969672141946 -87.347694575015339 0 -87.347694575015339 -24.075322689392124 0 0 0 0 -77.048991314187333 -103.16514974079109 0 -103.16514974079109 59.407264295994537 0 0 0 0 -30.207212348243047 -84.369621491874568 0 -84.369621491874568 49.905063399128267 0 0 0 0 -62.677019826813194 -63.602097216738912 0 -63.602097216738912 107.97579862570274 0 0 0 0 -38.140799112898094 -86.782295251563482 0 -86.782295251563482 140.34932955974364 0 0 0 0 -36.031262001168216 -47.069653407437727 0 -47.069653407437727 86.825216355791781 0 0 0 0 -6.5413198581245524 -0.24645566308390698 0 -0.24645566308390698 116.06835588376271 0 0 0 0 -40.629013065576146 -30.384338142430352 0 -30.384338142430352 164.32346488362236 0 0 0 0 -41.559934620359854 -64.489558225708606 0 -64.489558225708606 28.510803518496687 0 0 0 0 -58.751771272960468 -137.93378453173136 0 -137.93378453173136 8.0337963994243182 0 0 0 0 9.8037689629625078 -38.341738468476436 0 -38.341738468476436 57.656434555486442 0 0 0 0 76.767766677417967 -373.25514709649724 0 -373.25514709649724 -90.008137567165249 0 0 0 0 -9.7498701833423951 -48.253757619883828 0 -48.253757619883828 -11.168037584484182 0 0 0 0 -221.41066824700829 941.39994632410526 0 941.39994632410526 32.024259438773697 0 0 0 0 -95.627340912371437 54.241881897535222 0 54.241881897535222 113.14104984328151 0 0 0 0 366.90902769100285 -1361.7752406721729 0 -1361.7752406721729 339.38053084857529 0 0 0 0 -52.66580541957228 -49.898270608035091 0 -49.898270608035091 19.093425371785997 0 0 0 0 96.686682601211942 -119.3634757110849 0 -119.3634757110849 -26.549533422687091 0 0 0 0 -16.703112738730852 -103.81691037745622 0 -103.81691037745622 13.555260373905185 0 0 0 0 -25.747579167255026 -35.891544603464354 0 -35.891544603464354 -18.598657756083412 0 0 0 0 38.579473169200355 -69.036891953102895 0 -69.036891953102895 -47.910895038519811 0 0 0 0 31.05460789222343 -84.75939607827604 0 -84.75939607827604 -29.6213899551949 0 0 0 0 188.54856604878296 3.9570988016639603 0 3.9570988016639603 19.67841928516782 0 0 0 0 129.00041036261246 -83.78130214867997 0 -83.78130214867997 -43.133870608231518 0 0 0 0 35.692924516544736 1.392922133061802 0 1.392922133061802 19.666657469904749 0 0 0 0 -11.063352739900267 -42.279369487351559 0 -42.279369487351559 57.347584393972284 0 0 0 0 -47.778446877262468 -71.170950034873385 0 -71.170950034873385 58.117270530376118 0 0 0 0 -26.910094756360195 -54.13884901563506 0 -54.13884901563506 64.437363261147766 0 0 0 0 -4.6119174872456128 -41.457944021761818 0 -41.457944021761818 37.342474704723998 0 0 0 0 -75.8491994525466 -32.155587141958677 0 -32.155587141958677 162.83562960135168 0 0 0 0 -9.3960984419349813 -9.1065057128908506 0 -9.1065057128908506 7.1032411772572175 0 0 0 0 173.67290575345396 -338.81676388958294 0 -338.81676388958294 -95.780131216575683 0 0 0 0 166.11309246740711 -38.040758964591078 0 -38.040758964591078 -139.04020353488886 0 0 0 0 65.352334113672185 -47.513800324688063 0 -47.513800324688063 12.516178947554366 0 0 0 0 13.465180493329591 -12.820196666881188 0 -12.820196666881188 -19.926493228066533 0 0 0 0 -6.7114124077525048 -19.850222733339251 0 -19.850222733339251 -14.370749233086826 0 0 0 0 6.0071565380130778 -46.14676686583698 0 -46.14676686583698 -3.530439092504821 0 0 0 0 -4.9130939605248471 -17.444474084964781 0 -17.444474084964781 17.537618364583835 0 0 0 0 -14.260871481804301 -26.222781998714481 0 -26.222781998714481 12.037661583773627 0 0 0 0 -13.134757399311638 -40.033290711617155 0 -40.033290711617155 -11.812200632397435 0 0 0 0 -12.9052348510304 -2.4072170503495727 0 -2.4072170503495727 12.587995007066638 0 0 0 0 -52.488871276305872 -21.172625728911953 0 -21.172625728911953 17.700018531177193 0 0 0 0 5.6723618780670222 -24.132905059021141 0 -24.132905059021141 -10.092375587686547 0 0 0 0 16.40060184225613 -16.468493052319232 0 -16.468493052319232 1.4696396384729837 0 0 0 0 27.663743027131314 -16.963615286889606 0 -16.963615286889606 -11.581708789359709 0 0 0 0 -31.401471459314052 -51.234849461703561 0 -51.234849461703561 -16.620051358942874 0 0 0 0 -15.922020154504267 -14.712144117660131 0 -14.712144117660131 18.191219460412469 0 0 0 0 -30.612974729979214 -64.64608236562708 0 -64.64608236562708 4.731032269221032 0 0 0 0 -16.19280953471025 -17.451661181708914 0 -17.451661181708914 84.974467293475755 0 0 0 0 -26.441092499822844 -20.996649224020075 0 -20.996649224020075 1.7286101982463151 0 0 0 0 -9.7849179100908827 -21.132250887833209 0 -21.132250887833209 12.132231490820004 0 0 0 0 10.801559630124856 -20.843946065354032 0 -20.843946065354032 -14.783263944571701 0 0 0 0 10.067546034674706 12.754235620810505 0 12.754235620810505 119.62036689891829 0 0 0 0 -26.096312816668615 -20.03541235470766 0 -20.03541235470766 102.65393063053489 0 0 0 0 -33.278912179608596 -45.221771048454684 0 -45.221771048454684 52.019737138805795 0 0 0 0 437.16007598191209 126.08688655272272 0 126.08688655272272 -148.51436732570437 0 0 0 0 3.0075180279677483 -2.6067502404071519 0 -2.6067502404071519 -2.7471962718871623 0 0 0 0 269.60255906782368 -527.51962755914792 0 -527.51962755914792 -300.1580167607317 0 0 0 0 0.10784698744828347 -274.07564336375799 0 -274.07564336375799 -316.24369343119179 0 0 0 0 3.2058483634973527 -281.9690421274081 0 -281.9690421274081 -444.62677560061275 0 0 0 0 119.99723142929724 -203.30107336354558 0 -203.30107336354558 -386.85125131701352 0 0 0 0 -284.85534422363708 -85.504026073012938 0 -85.504026073012938 27.50900092656957 0 0 0 0 127.31970813710359 -76.460097024253628 0 -76.460097024253628 -95.436696720658801 0 0 0 0 -2.1568681040544924 -0.57453924489445285 0 -0.57453924489445285 -5.5622509082430724 0 0 0 0 154.23051470210339 -116.07653449441568 0 -116.07653449441568 -102.53690150323382 0 0 0 0 93.883846402728523 -71.950113649239938 0 -71.950113649239938 45.643229243607493 0 0 0 0 199.33602378328214 -144.54667802641779 0 -144.54667802641779 -191.28505680666422 0 0 0 0 122.41694677756209 -114.62729824339567 0 -114.62729824339567 -75.672494454163825 0 0 0 0 222.14305611449527 -193.15642187171761 0 -193.15642187171761 -93.433942539588315 0 0 0 0 205.84982101881178 -140.24306014618924 0 -140.24306014618924 -116.78707048303841 0 0 0 0 91.19085505037765 -144.82818636828961 0 -144.82818636828961 -61.661219558562152 0 0 0 0 208.2133585253614 -128.343445290011 0 -128.343445290011 -65.525335877100588 0 0 0 0 121.70616590830832 -96.384671926854935 0 -96.384671926854935 -47.230350115190959 0 0 0 0 221.57541299576405 -61.712131354681333 0 -61.712131354681333 -35.265876067787758 0 0 0 0 310.81583388535364 -101.76962402772915 0 -101.76962402772915 -17.285255807379144 0 0 0 0 155.29800471328963 -108.45832567314028 0 -108.45832567314028 -51.273791871994035 0 0 0 0 202.8957828656421 -167.85375139913231 0 -167.85375139913231 19.202362023934256 0 0 0 0 289.86284560276545 -192.4601117012935 0 -192.4601117012935 23.355731463610937 0 0 0 0 57.883422643848462 -142.61777383022127 0 -142.61777383022127 302.56675958835694 0 0 0 0 117.27096856445996 234.74101511325216 0 234.74101511325216 141.20521951664705 0 0 0 0 139.26218204345787 11.696872608972626 0 11.696872608972626 -247.3971132713632 0 0 0 0 59.14317038329267 -40.184699653750243 0 -40.184699653750243 12.513767707217298 0 0 0 0 38.742907184791875 -25.989880928525963 0 -25.989880928525963 27.197513010745752 0 0 0 0 1.9396527229182539 -16.430413173766283 0 -16.430413173766283 55.664741778826283 0 0 0 0 52.629064594380907 -43.01426872445154 0 -43.01426872445154 -26.723136278204038 0 0 0 0 11.22205610202003 -9.983027059433482 0 -9.983027059433482 -15.409771026152214 0 0 0 0 45.935889249150932 -39.895554237722536 0 -39.895554237722536 -8.4292964863270754 0 0 0 0 42.524791653042485 -25.292770340500283 0 -25.292770340500283 16.63118631351972 0 0 0 0 49.59027184957813 -23.337313810981868 0 -23.337313810981868 -14.026132417988265 0 0 0 0 5.3815879318558757 -5.7632663499348951 0 -5.7632663499348951 3.3308777542109738 0 0 0 0 137.36623742976371 -18.502267266791023 0 -18.502267266791023 -42.131079721089918 0 0 0 0 165.38388283106906 -57.442770720412227 0 -57.442770720412227 -56.273218945785629 0 0 0 0 110.22406818666786 8.1000535261700861 0 8.1000535261700861 38.591283744237444 0 0 0 0 -8.9588233684255982 -16.107398862194941 0 -16.107398862194941 19.20005587303001 0 0 0 0 75.95433938333008 -78.254023156267067 0 -78.254023156267067 29.059558432549238 0 0 0 0 75.290633061289554 -90.656721029296023 0 -90.656721029296023 10.476938671097741 0 0 0 0 57.193190681660781 -44.13844543597952 0 -44.13844543597952 16.786155566136586 0 0 0 0 83.734581326098123 -110.38440216442541 0 -110.38440216442541 161.6842484849476 0 0 0 0 0.46053324210677715 -3.2451199058362192 0 -3.2451199058362192 6.3331651266169473 0 0 0 0 201.77490992070449 80.99364786876319 0 80.99364786876319 52.568468815690721 0 0 0 0 36.80567522939964 -31.483969424531097 0 -31.483969424531097 42.84071619338647 0 0 0 0 45.611537637668675 -22.606187632438406 0 -22.606187632438406 5.6744427910740285 0 0 0 0 83.850370371394092 -37.550921255518915 0 -37.550921255518915 1.0098367440550646 0 0 0 0 104.93673260711512 -64.866948046626931 0 -64.866948046626931 19.502736436028499 0 0 0 0 243.90409256408748 -71.345595020560722 0 -71.345595020560722 -59.897289137952612 0 0 0 0 45.78825994856561 -59.918244822132692 0 -59.918244822132692 62.980732064810582 0 0 0 0 -0.22702941638707941 2.73048880484167 0 2.73048880484167 5.3964005696718118 0 0 0 0 -198.56785852816392 22.088188421432278 0 22.088188421432278 102.75630278460449 0 0 0 0 -14.935866733270814 -19.23320346485707 0 -19.23320346485707 -3.709147604444297 0 0 0 0 11.975056641528795 -6.9513865638657109 0 -6.9513865638657109 11.508164080666404 0 0 0 0 -85.365107338664529 -75.50938744132236 0 -75.50938744132236 78.194406099006301 0 0 0 0 89.235460322255676 -135.78530822879839 0 -135.78530822879839 -59.098508301864058 0 0 0 0 8.056454037225194 -45.068812654164503 0 -45.068812654164503 -29.820608691152302 0 0 0 0 325.26266949580895 -167.88562730513513 0 -167.88562730513513 17.72702717622451 0 0 0 0 -12.979744538773957 -47.399179413696402 0 -47.399179413696402 339.87576458727563 0 0 0 0 230.22274408407247 93.055807684431784 0 93.055807684431784 32.607782665378181 0 0 0 0 10.665945594912046 3.693143706623232 0 3.693143706623232 0.064548702430329286 0 0 0 0 139.82785798842087 -10.603734537347918 0 -10.603734537347918 -63.678436136106029 0 0 0 0 94.657420546063804 -107.04361988145683 0 -107.04361988145683 -8.5174358403746737 0 0 0 0 -71.214957415406388 -108.16936156015436 0 -108.16936156015436 60.004785298166098 0 0 0 0 -9.3984740349842468 -41.851383310604433 0 -41.851383310604433 -49.313245350524085 0 0 0 0 -213.92305957554345 7.4559764664736576 0 7.4559764664736576 79.734654970772681 0 0 0 0 0.6596297038060861 1.7468433632923421 0 1.7468433632923421 1.5855450191353953 0 0 0 0 399.43445284007248 -326.8798099578562 0 -326.8798099578562 -185.29269193072105 0 0 0 0 -154.08920354113798 -115.83333937911084 0 -115.83333937911084 217.03210562880849 0 0 0 0 -26.9872595608349 46.820337495102649 0 46.820337495102649 -52.92232135872473 0 0 0 0 7.6918206681457377 -9.3173895788913796 0 -9.3173895788913796 -53.903013855655445 0 0 0 0 -14.927092157806385 -20.130760705396796 0 -20.130760705396796 3.3073156095814511 0 0 0 0 93.444245984868758 -35.603181609480089 0 -35.603181609480089 -35.752490832659532 0 0 0 0 165.75397287322994 16.229691788947093 0 16.229691788947093 112.30388246716029 0 0 0 0 22.079882590593968 -0.44172865903703951 0 -0.44172865903703951 -10.542132489713481 0 0 0 0 36.86639029259095 -33.273757912189467 0 -33.273757912189467 63.569269759685994 0 0 0 0 58.153288727000472 -115.50158694779384 0 -115.50158694779384 54.563834499249424 0 0 0 0 36.118782841600478 -27.19711599128641 0 -27.19711599128641 31.3388507864438 0 0 0 0 13.330225921801855 -1.9771236365718607 0 -1.9771236365718607 -9.3757703005017561 0 0 0 0 57.450244725157972 53.728277622292808 0 53.728277622292808 -105.91972468657877 0 0 0 0 3.0204051557375351 8.0602762197959237 0 8.0602762197959237 20.216716211384664 0 0 0 0 137.73366576414264 -14.956508261995623 0 -14.956508261995623 -22.110400048804877 0 0 0 0 50.165307480826776 -40.731946061545244 0 -40.731946061545244 15.964144792011041 0 0 0 0 16.897229573218283 68.490095013650716 0 68.490095013650716 130.19181067279715 0 0 0 0 -123.39025259026312 -108.17764033706044 0 -108.17764033706044 -66.817959838313982 0 0 0 0 -76.392090676907173 -100.87097645665199 0 -100.87097645665199 -86.802122723420325 0 0 0 0 -93.612245984460969 -132.19077255727461 0 -132.19077255727461 -86.012215273510719 0 0 0 0 13.396262127339286 -4.6000938697066616 0 -4.6000938697066616 3.231486095796356 0 0 0 0 -80.609092290280387 -34.481732564723643 0 -34.481732564723643 43.928708351566456 0 0 0 0 35.114817479178981 -32.135386301427893 0 -32.135386301427893 2.6204631284531388 0 0 0 0 -95.687452037123876 -85.649451885910821 0 -85.649451885910821 -2.9714309174887603 0 0 0 0 -68.421240390118328 -45.423372635908891 0 -45.423372635908891 35.867616082774475 0 0 0 0 -26.570315047312761 -42.987616382713895 0 -42.987616382713895 22.186224563571159 0 0 0 0 10.018547968851635 -39.535630526777823 0 -39.535630526777823 13.937861799553502 0 0 0 0 -4.6334819350158796 -9.2552224278333597 0 -9.2552224278333597 30.483224136420176 0 0 0 0 30.267158390626719 -19.787139963409572 0 -19.787139963409572 10.635538983391598 0 0 0 0 -32.75137926460593 -14.089480256894603 0 -14.089480256894603 33.925746161141433 0 0 0 0 15.630407403339632 52.213738007631036 0 52.213738007631036 183.46686311802478 0 0 0 0 141.69984477292746 55.026130256868782 0 55.026130256868782 -8.631008299489622 0 0 0 0 0.827951544808883 -4.4787794048286571 0 -4.4787794048286571 1.9063140943936787 0 0 0 0 311.76261623674873 -99.249641996806531 0 -99.249641996806531 -58.375789105979493 0 0 0 0 -44.98668795460253 -39.240737600164721 0 -39.240737600164721 225.42428480052331 0 0 0 0 79.26604575831152 -208.18906351832993 0 -208.18906351832993 153.12019437150593 0 0 0 0 -27.265144461169257 -47.880237087003479 0 -47.880237087003479 -43.921441925849649 0 0 0 0 -128.05460937169846 -207.04801107515232 0 -207.04801107515232 7.4153939150673978 0 0 0 0 -27.753047280551982 -93.336784151397296 0 -93.336784151397296 52.906140604751272 0 0 0 0 -61.841330819219365 -62.545071520196871 0 -62.545071520196871 2.8908209083165275 0 0 0 0 -3.990601458142919 -203.3504802794705 0 -203.3504802794705 -84.558429701952264 0 0 0 0 106.47547022036088 -107.58164403216324 0 -107.58164403216324 -58.400874080805806 0 0 0 0 12.916213706197595 -66.790695780073293 0 -66.790695780073293 -42.278565494489158 0 0 0 0 83.929152434306161 -45.012844156874053 0 -45.012844156874053 -59.211768269378808 0 0 0 0 55.918246988371969 -48.565810230208108 0 -48.565810230208108 28.501978433216607 0 0 0 0 -20.186272687466044 -278.5787672552251 0 -278.5787672552251 70.157151055173017 0 0 0 0 -7.1133473331288428 27.954213277838335 0 27.954213277838335 105.39708536610124 0 0 0 0 0.70487286581329656 -1.2619214019520228 0 -1.2619214019520228 0.33775991810341566 0 0 0 0 -639.53940384831458 -163.4028504145972 0 -163.4028504145972 81.593592366611119 0 0 0 0 515.71626886473496 99.354327390166873 0 99.354327390166873 -69.066154504922451 0 0 0 0 1.1894982274786017 -4.4437223009239304 0 -4.4437223009239304 0.86259599671114984 0 0 0 0 71.327686478736723 -124.27698375622276 0 -124.27698375622276 -35.05251941413735 0 0 0 0 256.83956036657219 -80.304791305839899 0 -80.304791305839899 -134.39526293262315 0 0 0 0 284.27695913904427 42.608354657961172 0 42.608354657961172 -83.510043224145193 0 0 0 0 -356.00327941240448 -252.88324150795961 0 -252.88324150795961 -59.901505202200497 0 0 0 0 -194.53964568036281 -177.37741696380544 0 -177.37741696380544 -100.96680820223992 0 0 0 0 -120.69694397218427 -198.41275575970394 0 -198.41275575970394 -123.86300876873429 0 0 0 0 -275.17613178732972 -146.91642867961491 0 -146.91642867961491 -75.258487826817145 0 0 0 0 -194.30240379796305 -256.99273479252588 0 -256.99273479252588 -141.57014216610696 0 0 0 0 -141.67668007859265 -214.64372762735002 0 -214.64372762735002 -80.715633710118709 0 0 0 0 -72.445452949816172 -49.647584792910493 0 -49.647584792910493 -7.472956850520859 0 0 0 0 -319.4465362283895 -341.47778471185666 0 -341.47778471185666 144.01535055962449 0 0 0 0 0.6239012490758995 0.6792989058519936 0 0.6792989058519936 2.3895002185465728 0 0 0 0 -302.97213412375095 41.031134261582338 0 41.031134261582338 54.919405405977159 0 0 0 0 -34.721792787159757 -59.384255402736017 0 -59.384255402736017 23.40209010860417 0 0 0 0 -136.35745479357411 -98.02298675676866 0 -98.02298675676866 92.730057710941765 0 0 0 0 22.037500623122469 -15.506295255174336 0 -15.506295255174336 -102.84874178058817 0 0 0 0 217.26228050045029 -266.71757806341702 0 -266.71757806341702 95.778867925502709 0 0 0 0 -89.053864896871801 -182.10120856761569 0 -182.10120856761569 64.74926709473948 0 0 0 0 50.63996874371098 -61.434093466758625 0 -61.434093466758625 32.237706935896767 0 0 0 0 58.324226520126103 -171.56599053128593 0 -171.56599053128593 -0.98077220264167408 0 0 0 0 -35.46964356314129 -114.03950168736628 0 -114.03950168736628 43.025713592745888 0 0 0 0 -57.517775768628084 -49.684861259775801 0 -49.684861259775801 -15.121272075902453 0 0 0 0 -26.146686737693017 -92.949257716267311 0 -92.949257716267311 24.626959811808774 0 0 0 0 -20.236137328147379 -78.329480681670248 0 -78.329480681670248 42.861633974509459 0 0 0 0 -42.493308163779147 -106.85390286553229 0 -106.85390286553229 93.357584673576639 0 0 0 0 -65.830108088252018 -95.774634615692776 0 -95.774634615692776 45.809751546807092 0 0 0 0 -48.029315447522094 -85.831759707049059 0 -85.831759707049059 16.650803280354012 0 0 0 0 -68.902172407855687 -91.931922348259832 0 -91.931922348259832 30.030644096550532 0 0 0 0 -49.828153029384339 -85.262249774241354 0 -85.262249774241354 31.37915109685855 0 0 0 0 -89.821031627379853 -65.24654066140647 0 -65.24654066140647 21.143116428516805 0 0 0 0 -64.268748889990093 -65.859213110772544 0 -65.859213110772544 -49.844190949632321 0 0 0 0 -53.171340021392098 -30.327188948169351 0 -30.327188948169351 6.3921472434303723 0 0 0 0 7.4814378102164483 -42.477595466567436 0 -42.477595466567436 -50.369907291023992 0 0 0 0 -52.073783463674317 -39.377722487163737 0 -39.377722487163737 80.02895228115085 0 0 0 0 -2.627401867231427 -0.96953747656763767 0 -0.96953747656763767 3.7199322971111428 0 0 0 0 53.604542976951052 -53.648214566463139 0 -53.648214566463139 -47.936725987237878 0 0 0 0 34.806780499660817 -103.72131827489648 0 -103.72131827489648 -26.534581144689582 0 0 0 0 66.910708705385332 -168.9360309906333 0 -168.9360309906333 6.1423630483768648 0 0 0 0 -45.938257458838052 -117.75547113775974 0 -117.75547113775974 -12.271208596866927 0 0 0 0 -64.721551044404805 -78.112177871240419 0 -78.112177871240419 -4.88792121593724 0 0 0 0 -43.697920692779007 -49.397109457175247 0 -49.397109457175247 19.226036905776709 0 0 0 0 11.641297462054354 -40.987495450965071 0 -40.987495450965071 -50.054198103403905 0 0 0 0 -46.643360586334687 -25.360830124892004 0 -25.360830124892004 -14.41253477358029 0 0 0 0 -107.37329095678615 -42.503035892346816 0 -42.503035892346816 49.860473126005672 0 0 0 0 -60.938151315753089 -13.93969046282109 0 -13.93969046282109 -4.3863598914904287 0 0 0 0 89.189015302486951 -44.663722780183889 0 -44.663722780183889 93.624814783746842 0 0 0 0 -56.092244453026765 -32.5554375961039 0 -32.5554375961039 -21.029272402178265 0 0 0 0 -50.746409148265229 -112.92381001581089 0 -112.92381001581089 50.700639640555892 0 0 0 0 97.640020470138552 -46.076004606751667 0 -46.076004606751667 73.004315243364545 0 0 0 0 206.56803620145365 -182.66459020790353 0 -182.66459020790353 134.50265041973034 0 0 0 0 18.137370199154248 -85.20069326578232 0 -85.20069326578232 91.775913989786204 0 0 0 0 118.26132042298923 -77.399291134012856 0 -77.399291134012856 69.843512183564599 0 0 0 0 -56.324102476544795 -27.340371705424332 0 -27.340371705424332 79.521192013227846 0 0 0 0 -29.863457252035005 55.63044109747716 0 55.63044109747716 13.494141846284037 0 0 0 0 73.202341213418549 1.278410729530151 0 1.278410729530151 -4.7973419077461585 0 0 0 0 26.063792070272029 -13.985197411253466 0 -13.985197411253466 60.496334283743636 0 0 0 0 1.1428149795033846 -0.34727140025043468 0 -0.34727140025043468 -0.5300495309442681 0 0 0 0 46.795742736023385 55.287434897421917 0 55.287434897421917 -75.864184166071936 0 0 0 0 41.52524345862912 -30.743945390509907 0 -30.743945390509907 -39.766731556941522 0 0 0 0 23.743040369590744 -27.055570645272383 0 -27.055570645272383 29.199879578023683 0 0 0 0 -1.9359856148294057 -44.394324814333231 0 -44.394324814333231 30.728549466322875 0 0 0 0 87.361547928041546 -63.246643334510736 0 -63.246643334510736 44.432504460619384 0 0 0 0 31.566130518956925 -10.676789845769235 0 -10.676789845769235 53.641824034799356 0 0 0 0 -72.185082102194428 -60.279670437506866 0 -60.279670437506866 51.629547266253212 0 0 0 0 -44.299871929266374 -85.519872269738698 0 -85.519872269738698 6.451823379868074 0 0 0 0 -40.974595092302479 -60.478597793422523 0 -60.478597793422523 31.086913354374701 0 0 0 0 -13.396986497580656 -34.193975527465227 0 -34.193975527465227 37.243945383634127 0 0 0 0 -11.517775995627744 -56.04411987370986 0 -56.04411987370986 31.631677976474748 0 0 0 0 -14.238150772136322 -20.221495494637281 0 -20.221495494637281 -10.083073654465665 0 0 0 0 41.366240123943044 38.928099240129541 0 38.928099240129541 20.656782902311534 0 0 0 0 220.80646489938954 163.45190820662538 0 163.45190820662538 418.42666411888786 0 0 0 0 -32.490589621156687 -38.961488990433281 0 -38.961488990433281 33.985447590644981 0 0 0 0 -18.735425249126223 -26.971378371465676 0 -26.971378371465676 -10.017346788810329 0 0 0 0 -35.845523718562617 -48.369662150198565 0 -48.369662150198565 16.943175282038283 0 0 0 0 73.970308890275192 -3.6982611289131455 0 -3.6982611289131455 -36.94123297452461 0 0 0 0 -24.934384966589278 -66.908630475925747 0 -66.908630475925747 -37.968303435784037 0 0 0 0 -84.395199998667522 -138.85766190474533 0 -138.85766190474533 -6.1043984576244839 0 0 0 0 0.59899478016676966 -7.7337074239015351 0 -7.7337074239015351 -2.9258527796372391 0 0 0 0 -12.557285297960334 -42.819362995418487 0 -42.819362995418487 5.8304694791877409 0 0 0 0 40.851618919215312 -52.343267442447825 0 -52.343267442447825 8.5504740638675969 0 0 0 0 -12.83804674059499 -32.397877379204779 0 -32.397877379204779 27.951517805006858 0 0 0 0 11.738225518888839 -36.668070142749542 0 -36.668070142749542 9.5676090526021085 0 0 0 0 -17.639019247988472 -37.631507707250421 0 -37.631507707250421 -3.4526458392501809 0 0 0 0 -42.106366533145774 -55.063849808997475 0 -55.063849808997475 22.398590857847012 0 0 0 0 -37.127217006302089 -57.129985241343093 0 -57.129985241343093 10.165778604743537 0 0 0 0 -7.7687541285522457 -60.647420932709792 0 -60.647420932709792 21.391706414171495 0 0 0 0 -84.497853729932103 -74.935968589819822 0 -74.935968589819822 14.385779063741211 0 0 0 0 -70.770691456200439 -61.583873818090069 0 -61.583873818090069 -16.218710530061799 0 0 0 0 7.0030152346120431 -7.4280982558078996 0 -7.4280982558078996 5.488729859706666 0 0 0 0 -81.004621553540346 -67.374420061241835 0 -67.374420061241835 30.195476210923516 0 0 0 0 -116.6525680503255 -34.709206770756282 0 -34.709206770756282 -8.2050605445110705 0 0 0 0 -166.11007292554859 -77.167228203863488 0 -77.167228203863488 -25.603769853740232 0 0 0 0 206.75844378401234 124.08437286845583 0 124.08437286845583 -174.39261047126274 0 0 0 0 -1.2141839412810569 1.5307924425958355 0 1.5307924425958355 4.7571634657413142 0 0 0 0 20.426820881958676 -31.962853298656292 0 -31.962853298656292 38.374008101888137 0 0 0 0 24.769233545350289 -136.85331731975384 0 -136.85331731975384 -7.0343495784909464 0 0 0 0 -120.82537718060485 -114.07520025994745 0 -114.07520025994745 50.165783059113892 0 0 0 0 -137.81209817536546 -29.379451744422113 0 -29.379451744422113 90.50694533548085 0 0 0 0 -0.88622870296239853 -32.473342699602654 0 -32.473342699602654 47.437463690876029 0 0 0 0 10.973040671524359 -55.712835667873151 0 -55.712835667873151 63.206846155255334 0 0 0 0 131.46066235440776 -12.653614728807952 0 -12.653614728807952 3.981712415086804 0 0 0 0 134.0502096888813 -120.00653650605818 0 -120.00653650605818 80.188491556735244 0 0 0 0 21.068432264425638 -24.093036031725397 0 -24.093036031725397 26.820620912168238 0 0 0 0 105.06034463105607 -193.04204339942225 0 -193.04204339942225 6.4902740267025365 0 0 0 0 95.424995725152257 -173.69106697264942 0 -173.69106697264942 159.87405542241322 0 0 0 0 48.659252939149155 20.702350009094516 0 20.702350009094516 -78.684083946733153 0 0 0 0 227.68227372096953 -34.749689820073399 0 -34.749689820073399 -2.1080213023960823 0 0 0 0 364.40267197761568 -206.15067147786976 0 -206.15067147786976 66.388909414585214 0 0 0 0 458.406831375818 -159.70958559538121 0 -159.70958559538121 -51.158270309128056 0 0 0 0 318.1269647511217 -268.21053417991061 0 -268.21053417991061 124.48367832886288 0 0 0 0 341.23219846900611 -126.7952542250714 0 -126.7952542250714 22.644706427810888 0 0 0 0 143.07158586098558 -136.16707339870436 0 -136.16707339870436 111.4614923598856 0 0 0 0 2166.6422037313823 51.087131405307446 0 51.087131405307446 -77.977823648190679 0 0 0 0 8.0606597688141051 -9.1290913818010324 0 -9.1290913818010324 11.688420820918907 0 0 0 0 447.62219650427869 116.33631487163802 0 116.33631487163802 -56.62964632351941 0 0 0 0 1121.5404958657291 -301.58453301164263 0 -301.58453301164263 -77.700852563386434 0 0 0 0 50.963574941037223 -273.54069052518753 0 -273.54069052518753 -300.15390265666065 0 0 0 0 331.81387729230482 102.23220930685784 0 102.23220930685784 -242.77700488298433 0 0 0 0 326.40017447324499 -686.53759335347422 0 -686.53759335347422 637.84527378257189 0 0 0 0 -431.79313136124983 -239.1589571643708 0 -239.1589571643708 373.87192242722085 0 0 0 0 -120.54440556473855 -49.14757042745623 0 -49.14757042745623 132.1907755228749 0 0 0 0 -263.64721198374173 -138.15126326440804 0 -138.15126326440804 -69.527908299933188 0 0 0 0 63.893295061134268 172.72369680689008 0 172.72369680689008 -54.730888579193561 0 0 0 0 -64.466916064506222 210.12583909547902 0 210.12583909547902 -35.386492454825202 0 0 0 0 -248.40276898221055 -104.06283698008338 0 -104.06283698008338 -150.31323571017128 0 0 0 0 274.13638996316877 90.567928113625385 0 90.567928113625385 -112.82550288082712 0 0 0 0 -0.81486410639055151 1.6225167353678884 0 1.6225167353678884 1.6382582018708831 0 0 0 0 -19.899054885563601 -55.90101538423005 0 -55.90101538423005 188.75216663966421 0 0 0 0 340.57920177190317 117.72799464259151 0 117.72799464259151 -276.67553543411486 0 0 0 0 -91.347392893316282 -70.247431574542134 0 -70.247431574542134 -50.320763230352895 0 0 0 0 -263.51440812370311 -137.16057962320519 0 -137.16057962320519 -63.059009755786974 0 0 0 0 -253.80741029229102 -112.73728622528142 0 -112.73728622528142 -73.7024054803951 0 0 0 0 -55.089824469847372 -116.8084446027533 0 -116.8084446027533 -165.08293151657563 0 0 0 0 -1.0837211653872174 -3.1243288297744698 0 -3.1243288297744698 5.7267593927972484 0 0 0 0 -87.562963440819658 -92.745504823880765 0 -92.745504823880765 -80.032971595268464 0 0 0 0 -2.5608875450867856 -2.0874581976407569 0 -2.0874581976407569 2.8939336552524253 0 0 0 0 -31.160030187253142 -45.018100842789863 0 -45.018100842789863 67.982632994506275 0 0 0 0 -52.357406073435413 -25.685144666378619 0 -25.685144666378619 -91.629410570749315 0 0 0 0 23.712042656890844 -62.550024476804538 0 -62.550024476804538 60.086794524206198 0 0 0 0 13.797072450688574 -32.530569333226595 0 -32.530569333226595 -209.56166300718905 0 0 0 0 35.166409725932681 -122.87145057914313 0 -122.87145057914313 0.018235320298117585 0 0 0 0 186.12065002182499 -310.4468297593412 0 -310.4468297593412 225.41722864336771 0 0 0 0 335.29969239345519 -276.41446942268522 0 -276.41446942268522 0.76894693495705724 0 0 0 0 -109.30603719188366 -71.232005124329589 0 -71.232005124329589 296.60532101566059 0 0 0 0 -103.5779262718861 -16.737822391740337 0 -16.737822391740337 165.52644589915872 0 0 0 0 -53.771446769163958 -180.77905322150946 0 -180.77905322150946 376.88856593849778 0 0 0 0 -1.5872128939750496 -1.8961392166317808 0 -1.8961392166317808 4.5636017396198554 0 0 0 0 411.87175696984195 -196.8324703020553 0 -196.8324703020553 2.7892814860279032 0 0 0 0 771.67551555508544 -668.45595456023875 0 -668.45595456023875 357.21442969172858 0 0 0 0 1051.9387981417531 -736.05049013579992 0 -736.05049013579992 294.81743834416557 0 0 0 0 1883.5364102383755 -672.02434971538605 0 -672.02434971538605 -0.33290680588590243 0 0 0 0 1098.4907237302177 -818.71143917912377 0 -818.71143917912377 293.59851561466348 0 0 0 0 673.19203382020896 -1100.4553943271849 0 -1100.4553943271849 712.57179574682959 0 0 0 0 1842.233351695686 -1053.4939449883605 0 -1053.4939449883605 339.34051973503119 0 0 0 0 9.9332991212140769 -51.866518320362957 0 -51.866518320362957 -1.833334470409909 0 0 0 0 -1.3093958155671288 -1.6412007188341988 0 -1.6412007188341988 2.6629882329023928 0 0 0 0 -102.70423445447523 -3.8534888990106992 0 -3.8534888990106992 -153.8310399500624 0 0 0 0 -4.4618746357045893 -22.849669981696934 0 -22.849669981696934 50.894509520512656 0 0 0 0 -9.5107413176665432 -2.4830394722230267 0 -2.4830394722230267 -3.1402196232106689 0 0 0 0 7.6328522547410103 -3.1913699692522641 0 -3.1913699692522641 -27.446960430737818 0 0 0 0 -19.724990759463253 -26.026751270990644 0 -26.026751270990644 -14.760118997786776 0 0 0 0 -24.89724804144862 -24.169910409858858 0 -24.169910409858858 -9.1430476684472524 0 0 0 0 -3.743733934694319 -109.48833821808512 0 -109.48833821808512 -51.410527423518943 0 0 0 0 -20.466724425634311 -21.921173557639122 0 -21.921173557639122 -8.9023653920939978 0 0 0 0 -4.9028712770481633 -8.0815785038530521 0 -8.0815785038530521 -0.6136772434309421 0 0 0 0 2.3346912521810737 -71.814738029133878 0 -71.814738029133878 -131.71356798824854 0 0 0 0 -28.216483014613914 -66.09558798315993 0 -66.09558798315993 -1.2064493698890146 0 0 0 0 -2.3856670016197938 -2.0114727758651156 0 -2.0114727758651156 2.6427371887742197 0 0 0 0 -11.054116869825521 -68.410845112986863 0 -68.410845112986863 -40.51664297206662 0 0 0 0 -38.412853847738006 -32.939526876172749 0 -32.939526876172749 -47.958121957970434 0 0 0 0 -11.841802213253686 -27.684344348061131 0 -27.684344348061131 -71.69373209803598 0 0 0 0 -23.083717228000751 -39.473207086164621 0 -39.473207086164621 -84.012347042094916 0 0 0 0 -49.614346237918653 -44.651330357752158 0 -44.651330357752158 -60.155932582245441 0 0 0 0 -1.9733172892634343 -2.112593442088496 0 -2.112593442088496 4.8859318589198324 0 0 0 0 -89.440128165275382 -59.404580471338704 0 -59.404580471338704 -49.359443160919909 0 0 0 0 -49.494650385029672 -67.861487408925314 0 -67.861487408925314 -87.018379618049948 0 0 0 0 -15.192102831446391 -55.986314678375493 0 -55.986314678375493 -90.870065202620026 0 0 0 0 -2.4921177724944812 -2.4841706503053445 0 -2.4841706503053445 3.1322613086589968 0 0 0 0 -31.318886169130565 -42.785188082736568 0 -42.785188082736568 -84.601742602384547 0 0 0 0 41.802681843895698 -154.2742321594269 0 -154.2742321594269 -2.4325325564714149 0 0 0 0 35.220141372949001 -53.453109671288985 0 -53.453109671288985 2.8195262013468891 0 0 0 0 16.452718023378111 -4.4642589885479538 0 -4.4642589885479538 -105.40392867592891 0 0 0 0 20.97770223711268 -61.029846677774913 0 -61.029846677774913 23.778343375888653 0 0 0 0 26.390829276082513 -43.737446203478612 0 -43.737446203478612 -5.946775663018343 0 0 0 0 -61.086131731008209 14.103898838075111 0 14.103898838075111 10.713493847229984 0 0 0 0 -31.895528117478534 -58.747586171790317 0 -58.747586171790317 84.763013866577239 0 0 0 0 -14.367995329197583 -50.658740687111276 0 -50.658740687111276 52.418473809881107 0 0 0 0 -19.692378952601757 -32.693282957628981 0 -32.693282957628981 -0.3414057354821125 0 0 0 0 3.067026927950792 -44.337127105529362 0 -44.337127105529362 0.043979778642550378 0 0 0 0 7.7346076504436496 -35.526456542600499 0 -35.526456542600499 8.6578991336136824 0 0 0 0 -3.8499799674864335 -48.180374529998517 0 -48.180374529998517 2.9995387332892278 0 0 0 0 8.9373842380082351 -48.980116278034984 0 -48.980116278034984 13.254140882461797 0 0 0 0 -0.70595503467984599 -30.346422278235877 0 -30.346422278235877 8.6837054191710195 0 0 0 0 4.048594966474667 -0.92078361835086753 0 -0.92078361835086753 -4.1318217500887613 0 0 0 0 17.114157676520335 -40.162192244555627 0 -40.162192244555627 0.0068653354028356262 0 0 0 0 -20.590418026586121 -8.2109877755356138 0 -8.2109877755356138 7.3571448460570537 0 0 0 0 54.028036976211297 -20.45382409809099 0 -20.45382409809099 2.8827611966407858 0 0 0 0 -1.0153848409829505 2.9131698757907216 0 2.9131698757907216 -0.1120656473095778 0 0 0 0 -3.6187613488361734 -5.8725664989845825 0 -5.8725664989845825 -5.8872979456326959 0 0 0 0 2.3040363170512137 -14.680603530243388 0 -14.680603530243388 0.0010324170559540215 0 0 0 0 -1.5821835680292082 -1.6641714068655915 0 -1.6641714068655915 -3.2942754158788432 0 0 0 0 -1505.2137933210236 482.62074471881988 0 482.62074471881988 -95.845479559182422 0 0 0 0 -350.6760279435839 146.69116173344082 0 146.69116173344082 -12.443402349679673 0 0 0 0 -596.70010888464458 -102.01476013191859 0 -102.01476013191859 135.70809494624336 0 0 0 0 -1086.9153262181208 -75.337393968868128 0 -75.337393968868128 138.30948768838425 0 0 0 0 -426.12285975415671 -141.49395928534068 0 -141.49395928534068 8.4593832188984379 0 0 0 0 -419.39489093996235 -161.27326217992231 0 -161.27326217992231 -1.3526697382912971 0 0 0 0 -1.9452407224478732 -3.5107868148711248 0 -3.5107868148711248 -7.2813354972493585 0 0 0 0 -192.23487888815725 103.81310525385197 0 103.81310525385197 -44.591672367590945 0 0 0 0 -323.44706684674111 -29.109383957408681 0 -29.109383957408681 22.690026012714952 0 0 0 0 -568.0567024113825 -391.97787634280394 0 -391.97787634280394 -17.784932278154884 0 0 0 0 -911.87545006203072 -554.49515913076903 0 -554.49515913076903 -0.51666630015477266 0 0 0 0 -1568.932608131038 -301.45712675213326 0 -301.45712675213326 172.84332173485018 0 0 0 0 -818.34657765827978 -338.71507567314256 0 -338.71507567314256 121.90162300557131 0 0 0 0 -818.3513277471975 -320.75191314236145 0 -320.75191314236145 171.28865780811338 0 0 0 0 -744.96312424416101 -472.42207910813886 0 -472.42207910813886 80.761417189467466 0 0 0 0 -472.85795194026286 -374.73799895041157 0 -374.73799895041157 23.248059453311726 0 0 0 0 -645.62844651267915 -346.24089122343867 0 -346.24089122343867 -21.636164938419824 0 0 0 0 -622.73519951528942 -391.75343509356753 0 -391.75343509356753 52.260918586500338 0 0 0 0 -774.87609478814556 -335.5525746835192 0 -335.5525746835192 106.66674689280626 0 0 0 0 -694.26992350709406 -365.00065764436295 0 -365.00065764436295 80.045015973650152 0 0 0 0 -640.16077636043337 -223.04230359535723 0 -223.04230359535723 80.748238028296328 0 0 0 0 -839.11529733515817 -233.73106449083207 0 -233.73106449083207 98.233188285754295 0 0 0 0 -648.10661912099386 -310.79407247340714 0 -310.79407247340714 -24.53229317626392 0 0 0 0 -718.07201440172867 -314.92782319153775 0 -314.92782319153775 -14.98727827318362 0 0 0 0 -652.37137757897654 -342.16206210647942 0 -342.16206210647942 -184.25606703069934 0 0 0 0 -615.13434992072871 -458.26557483976649 0 -458.26557483976649 -426.58947744271427 0 0 0 0 -671.20772653245149 -382.04546450050839 0 -382.04546450050839 -133.75308331300039 0 0 0 0 -692.22978171561499 -356.84290247169702 0 -356.84290247169702 -11.917775320238434 0 0 0 0 -361.41111007640029 -372.41227070378227 0 -372.41227070378227 -96.256983904873778 0 0 0 0 -693.39131353324046 -403.84337077866076 0 -403.84337077866076 -160.19069559768832 0 0 0 0 -583.01963745073954 -417.3678220314323 0 -417.3678220314323 -180.19706348712498 0 0 0 0 -598.84498820462022 -327.40520758487582 0 -327.40520758487582 -68.291992972342996 0 0 0 0 -39.401929763781254 -40.56486468704361 0 -40.56486468704361 -57.961426854832098 0 0 0 0 -99.117013564013178 -9.0402504732119269 0 -9.0402504732119269 44.317378359963186 0 0 0 0 -87.342023488236009 20.574664098239737 0 20.574664098239737 34.973996311455267 0 0 0 0 -61.963342695322353 -16.725800333952066 0 -16.725800333952066 42.37004624446854 0 0 0 0 -54.331876337731956 15.801377707364736 0 15.801377707364736 33.055793162086047 0 0 0 0 -436.01464235786261 -167.93806779867737 0 -167.93806779867737 -3.7379109100729693 0 0 0 0 -461.59940770761386 -143.77804013342393 0 -143.77804013342393 9.6390833868063055 0 0 0 0 -611.89723671864704 -235.2269700201432 0 -235.2269700201432 -21.75281753265881 0 0 0 0 -410.94746290241892 -203.31669649021933 0 -203.31669649021933 -100.48717144447437 0 0 0 0 -568.75481209965255 -348.94264157170983 0 -348.94264157170983 -209.64665915895603 0 0 0 0 -398.26061675609526 -107.81480877894501 0 -107.81480877894501 -33.299774523271481 0 0 0 0 -113.55537122330861 12.433821405749768 0 12.433821405749768 91.131381642073393 0 0 0 0 -7.843157245805898 -1.0983987355030678 0 -1.0983987355030678 3.6183544499061782 0 0 0 0 -16.432270143263828 9.1649281165622511 0 9.1649281165622511 -1.0563241530548453 0 0 0 0 -108.94410130188044 -79.340830431610812 0 -79.340830431610812 -10.530723826785106 0 0 0 0 -646.82873741945514 -395.87276498961728 0 -395.87276498961728 -167.02967406413518 0 0 0 0 -90.600675511566806 -42.706137606641278 0 -42.706137606641278 -90.342761193634942 0 0 0 0 -35.583066635417254 10.228774518502178 0 10.228774518502178 8.289797879915568 0 0 0 0 -176.08592589994078 -64.203565857111244 0 -64.203565857111244 99.073185947432648 0 0 0 0 -13.729677627698372 -9.89465147170732 0 -9.89465147170732 1.2111401032653362 0 0 0 0 6.2324746070262336 3.8509281130754971 0 3.8509281130754971 -26.404117539481376 0 0 0 0 -5.4539726115392995 -4.6415124161367061 0 -4.6415124161367061 -11.762940906263339 0 0 0 0 -48.265099281859875 34.581531091389479 0 34.581531091389479 -13.926965775099234 0 0 0 0 0.27034825692412312 0.23275008371595618 0 0.23275008371595618 -3.4803556142851733 0 0 0 0 -17.040563250808191 -23.280588801848353 0 -23.280588801848353 -11.964343698738958 0 0 0 0 -18.02786109819499 -24.667430719338881 0 -24.667430719338881 -49.916981047426816 0 0 0 0 -6.5263470526023815 -3.766988503444054 0 -3.766988503444054 0.2504572609603315 0 0 0 0 -108.52450908482479 18.862033385776158 0 18.862033385776158 15.99987681901257 0 0 0 0 -39.286311817475273 -6.7388513600218971 0 -6.7388513600218971 1.7461579133047849 0 0 0 0 -58.651238233456638 -8.5073997375702675 0 -8.5073997375702675 26.683559535158565 0 0 0 0 -28.186226824319419 11.013464179988659 0 11.013464179988659 67.078722902107984 0 0 0 0 -3.6414748711614386 1.3849040199098539 0 1.3849040199098539 7.4951292831188994 0 0 0 0 1.9402563757512326 -10.515516022212978 0 -10.515516022212978 -41.691032925649779 0 0 0 0 1.1226579264148313 -75.536252458274248 0 -75.536252458274248 -8.2083125326316804 0 0 0 0 -3.5008372321615475 -1.2407384856632007 0 -1.2407384856632007 0.45895416750286699 0 0 0 0 -71.951765253938447 144.83184792466091 0 144.83184792466091 -95.209619705332443 0 0 0 0 -9.5850009428251113 4.7465841653228438 0 4.7465841653228438 0.50999172752801769 0 0 0 0 -794.19265636757882 -614.51290529459948 0 -614.51290529459948 -325.67335848489893 0 0 0 0 -583.23066054780702 -450.50027141879036 0 -450.50027141879036 -170.80311530338076 0 0 0 0 -574.53299843692184 -441.30994940851087 0 -441.30994940851087 -319.72615024786501 0 0 0 0 -825.89087766896955 -402.7929062848707 0 -402.7929062848707 -263.00463849052903 0 0 0 0 -787.72322753630215 -759.32417467470805 0 -759.32417467470805 -388.65004631737247 0 0 0 0 46.622003697887067 49.7710446453857 0 49.7710446453857 212.05325370687933 0 0 0 0 -3.8095189095967967 1.1672369567541807 0 1.1672369567541807 0.78255571227953169 0 0 0 0 -568.51184187256331 -421.41088723176654 0 -421.41088723176654 -480.44997149103438 0 0 0 0 -33.414624336903216 -62.619561250263359 0 -62.619561250263359 68.852323262763093 0 0 0 0 -105.01660017734321 73.254561030335026 0 73.254561030335026 73.285515103038051 0 0 0 0 -70.599624356727873 -17.162481751278392 0 -17.162481751278392 307.52971033044741 0 0 0 0 -14.16542615022081 -35.164081694085326 0 -35.164081694085326 150.35995704212837 0 0 0 0 -78.24294474319322 6.4601214446884114 0 6.4601214446884114 237.51311338569212 0 0 0 0 -15.082646390221043 -146.15797911720074 0 -146.15797911720074 362.18675349060504 0 0 0 0 -324.94406111514218 -102.34237160666089 0 -102.34237160666089 359.03247230606939 0 0 0 0 46.086967861635458 11.70707740837679 0 11.70707740837679 276.91931369993836 0 0 0 0 -138.57830291784558 -103.65547314375362 0 -103.65547314375362 269.86902524632751 0 0 0 0 -93.196317937836284 -150.87740135027707 0 -150.87740135027707 60.659726445304841 0 0 0 0 -147.39305136473649 -132.30488944045646 0 -132.30488944045646 336.73962776595727 0 0 0 0 87.524018369421356 -199.33645379930022 0 -199.33645379930022 257.67866955731006 0 0 0 0 -25.148886796018814 -18.657195116298681 0 -18.657195116298681 43.407235085418506 0 0 0 0 -55.01769262385551 -20.364479453142849 0 -20.364479453142849 288.30617466235708 0 0 0 0 114.64336293886436 -379.87090768610142 0 -379.87090768610142 -67.428366958571132 0 0 0 0 111.06463533734131 -343.94588058722729 0 -343.94588058722729 -222.04941732522275 0 0 0 0 215.45852111712702 -375.77553297714621 0 -375.77553297714621 -213.74032485015778 0 0 0 0 181.10379574119725 -346.04992954187037 0 -346.04992954187037 -244.10469654503686 0 0 0 0 224.50376439179763 -427.32621238868887 0 -427.32621238868887 -36.930317559745163 0 0 0 0 425.65956114308074 -157.07041030627079 0 -157.07041030627079 -134.23157088014705 0 0 0 0 160.64102510232533 -205.0861126935597 0 -205.0861126935597 -152.86919830687111 0 0 0 0 19.084875144244506 47.051541470347729 0 47.051541470347729 -500.8349515144655 0 0 0 0 98.296296460242957 -263.91289463583234 0 -263.91289463583234 -172.99998458713526 0 0 0 0 36.190089200654256 -188.69837715105677 0 -188.69837715105677 -23.138793186793919 0 0 0 0 79.214054730007319 -261.02673949208474 0 -261.02673949208474 -7.4059400512924185 0 0 0 0 20.798067297786474 -333.05769716993382 0 -333.05769716993382 -83.034546467926702 0 0 0 0 -90.480400770349661 -252.15783632174134 0 -252.15783632174134 191.85336800908954 0 0 0 0 -164.49422447054712 -290.67617819410225 0 -290.67617819410225 -56.321693021520332 0 0 0 0 -160.98002535251931 -391.66107711969198 0 -391.66107711969198 33.763331217516679 0 0 0 0 -74.00076905080914 -458.19789939569455 0 -458.19789939569455 -97.654928936899523 0 0 0 0 -178.54955160177906 -429.90611315933347 0 -429.90611315933347 -111.60215112006699 0 0 0 0 89.879250310189491 -379.86021513219748 0 -379.86021513219748 -240.58358602363296 0 0 0 0 -227.98073072235638 -316.93253031785571 0 -316.93253031785571 -329.91697145182843 0 0 0 0 -724.21761190328471 -426.80276116410823 0 -426.80276116410823 -64.087965961291047 0 0 0 0 -406.25194879846094 -293.81382763510192 0 -293.81382763510192 -201.33550848424784 0 0 0 0 -536.03419976591977 -516.35408198474761 0 -516.35408198474761 -273.44451279427449 0 0 0 0 -336.87650990240581 -397.45593889077645 0 -397.45593889077645 -115.0870437193953 0 0 0 0 112.82333297676928 -409.15205217160292 0 -409.15205217160292 -192.10013406549115 0 0 0 0 -1.4779765736620902 -286.69281951451558 0 -286.69281951451558 -260.97374578256131 0 0 0 0 369.09699341544456 -234.54130319401884 0 -234.54130319401884 -148.69516114561702 0 0 0 0 147.57897578870052 -297.3780947866544 0 -297.3780947866544 -98.224791091459338 0 0 0 0 94.741058736059131 -411.35545403044671 0 -411.35545403044671 -43.502583091089036 0 0 0 0 210.20971839454887 -404.90389688784489 0 -404.90389688784489 -144.97723884059815 0 0 0 0 413.99202419465746 -282.19319050843478 0 -282.19319050843478 -118.02617797932908 0 0 0 0 615.39227554125864 -213.82947959574813 0 -213.82947959574813 -87.839221028902102 0 0 0 0 435.19826632904642 -343.29845992140326 0 -343.29845992140326 58.025396988115972 0 0 0 0 393.7160307921647 -280.56899549723676 0 -280.56899549723676 -78.137997663885471 0 0 0 0 613.5179659697319 -169.21374277293944 0 -169.21374277293944 -157.80868877859029 0 0 0 0 686.74854926606986 -228.86869219159416 0 -228.86869219159416 -214.97945509151759 0 0 0 0 441.84588468058791 -235.30629087693524 0 -235.30629087693524 -143.274520404535 0 0 0 0 459.15687210807414 -275.42076914644349 0 -275.42076914644349 -237.13530641482794 0 0 0 0 184.44561128862279 -387.80410097181448 0 -387.80410097181448 -137.98461550078355 0 0 0 0 467.52598326398856 -345.55349228188425 0 -345.55349228188425 -158.21717784676366 0 0 0 0 475.73464332710682 -254.15506348471536 0 -254.15506348471536 -150.34046920591209 0 0 0 0 708.42985074456737 -327.10528334761693 0 -327.10528334761693 -185.85034198788344 0 0 0 0 -15.962007950067346 -258.80323898106144 0 -258.80323898106144 -127.46900585461117 0 0 0 0 -58.096301174170549 -364.94606682232552 0 -364.94606682232552 -157.0806141531757 0 0 0 0 15.557724414523932 -428.23439205020259 0 -428.23439205020259 -32.537792445233208 0 0 0 0 -19.852525282856732 -352.40704295002797 0 -352.40704295002797 -66.890687210798205 0 0 0 0 -364.57950402748065 -363.30749239743454 0 -363.30749239743454 -30.957104849527241 0 0 0 0 -422.77078799766105 -458.05293643316872 0 -458.05293643316872 54.048261859541526 0 0 0 0 -260.2632941387692 -360.51393421298417 0 -360.51393421298417 20.109710505923431 0 0 0 0 -27.762098249349492 -473.29619473519415 0 -473.29619473519415 -77.666834814997856 0 0 0 0 6.1578634679574407 -365.1769278190659 0 -365.1769278190659 102.49278446729295 0 0 0 0 -556.0160170527829 -452.46930401676127 0 -452.46930401676127 85.194984444009606 0 0 0 0 -276.02838048131161 -520.36868902787683 0 -520.36868902787683 0.14863912634513898 0 0 0 0 1063.0423694869171 -253.44688053290884 0 -253.44688053290884 -172.25686760572898 0 0 0 0 532.80378002629914 -508.22226036914617 0 -508.22226036914617 49.567141983337933 0 0 0 0 467.17159271099263 -381.51772091458406 0 -381.51772091458406 -67.143455163572071 0 0 0 0 461.22961711113703 -490.26983806415956 0 -490.26983806415956 0.22091292622644687 0 0 0 0 875.0603850258899 -245.91787400070461 0 -245.91787400070461 62.530235651960993 0 0 0 0 940.25116030658012 -378.34816745876014 0 -378.34816745876014 328.88583043297695 0 0 0 0 1931.5958834901846 -256.57059794466477 0 -256.57059794466477 -103.28534997344832 0 0 0 0 2128.828006848049 163.59504911005206 0 163.59504911005206 0.21276922061952064 0 0 0 0 970.44671673657479 -131.30601960636704 0 -131.30601960636704 -159.16341485882731 0 0 0 0 946.80625033278523 -71.7898503011711 0 -71.7898503011711 -80.812573684495874 0 0 0 0 1010.3330905823689 209.10868110404408 0 209.10868110404408 -109.61010404035915 0 0 0 0 308.46913446225517 313.69950695867738 0 313.69950695867738 204.32364492531633 0 0 0 0 -95.770049135497175 1.0740693006664515 0 1.0740693006664515 -0.11164765647117747 0 0 0 0 7.1695474902475329 -3.4017176903384154 0 -3.4017176903384154 2.4358014433834114 0 0 0 0 360.39634478719017 -258.21933534511481 0 -258.21933534511481 -85.213266223523533 0 0 0 0 1193.2226460383092 638.22583191741069 0 638.22583191741069 316.99306478301878 0 0 0 0 -98.950622624299285 -67.877253613864013 0 -67.877253613864013 -119.28166338651499 0 0 0 0 -363.56724226505321 -205.88726344016686 0 -205.88726344016686 -0.23366759296914097 0 0 0 0 -78.946996746348532 -195.03411709697866 0 -195.03411709697866 -277.79604914726224 0 0 0 0 8.966032467961135 -2.214070849081395 0 -2.214070849081395 -2.4798520788264113 0 0 0 0 93.970018438183615 -61.922678073722636 0 -61.922678073722636 -277.38074187733866 0 0 0 0 -31.747366793824767 33.465093199498369 0 33.465093199498369 -104.60642594286946 0 0 0 0 79.708610728698432 12.263415116132819 0 12.263415116132819 10.756295168270299 0 0 0 0 19.294195004617578 -9.2489382881340134 0 -9.2489382881340134 2.8551742483533644 0 0 0 0 110.28348643415467 -39.103135983557877 0 -39.103135983557877 94.959392704855418 0 0 0 0 59.353482072216266 4.9570177598798182 0 4.9570177598798182 17.922719681730086 0 0 0 0 445.37695181844435 76.582060490283766 0 76.582060490283766 -57.647363519819919 0 0 0 0 21.999201891671419 -12.487608599854866 0 -12.487608599854866 16.140552035125438 0 0 0 0 1.9455765185462099 2.4971240837091102 0 2.4971240837091102 0.22392077586442838 0 0 0 0 21.687766015386842 -12.209743487146625 0 -12.209743487146625 -10.052185782813467 0 0 0 0 27.563204234259452 -2.9822076211318631 0 -2.9822076211318631 -2.0528816255010156 0 0 0 0 22.704848461507936 -14.93837227828044 0 -14.93837227828044 -14.765515892904659 0 0 0 0 11.263818674647897 -5.8989925521819941 0 -5.8989925521819941 -3.3659276989477576 0 0 0 0 22.303472715643693 -12.432835263978632 0 -12.432835263978632 -14.051311343471752 0 0 0 0 28.810381341631683 17.436596831374118 0 17.436596831374118 -42.586047563600005 0 0 0 0 53.67123974375545 5.2132806099034497 0 5.2132806099034497 -76.653303263243288 0 0 0 0 13.340730188918208 10.552618195376482 0 10.552618195376482 4.388011753242381 0 0 0 0 22.784299820445995 33.373584129889423 0 33.373584129889423 -53.896392984766862 0 0 0 0 296.56755535036461 40.982464070053538 0 40.982464070053538 8.8063168413063977 0 0 0 0 358.17900260080273 -85.772519566264236 0 -85.772519566264236 -31.088787414013495 0 0 0 0 638.59274400831418 -201.07137331933336 0 -201.07137331933336 -154.46077335949303 0 0 0 0 726.59236066696872 -104.07256957939535 0 -104.07256957939535 -165.66647658119473 0 0 0 0 941.20054438745183 -91.525900417462253 0 -91.525900417462253 -209.24215014536458 0 0 0 0 665.6080431173707 -160.72278614980132 0 -160.72278614980132 -214.67075944438693 0 0 0 0 466.11391874583251 44.653410363163857 0 44.653410363163857 -122.12145888579107 0 0 0 0 693.72966551797799 -11.726039796036275 0 -11.726039796036275 -112.81098620613921 0 0 0 0 -467.14329478761647 -705.4260410776842 0 -705.4260410776842 -472.63853151700459 0 0 0 0 -515.58013379604381 -582.58226234056929 0 -582.58226234056929 -201.75419017014792 0 0 0 0 -493.38092065255114 -660.50638082037767 0 -660.50638082037767 -141.71691725678102 0 0 0 0 -561.45395079772061 -580.44992942834142 0 -580.44992942834142 -0.015039635982248001 0 0 0 0 -524.28186042972447 -557.74803757711561 0 -557.74803757711561 -167.33857922699826 0 0 0 0 -486.3564578125297 -520.35540825598582 0 -520.35540825598582 -166.91676349204499 0 0 0 0 -494.62317217473628 -631.92431370316626 0 -631.92431370316626 -331.75384592995397 0 0 0 0 -416.65651052039175 -513.65924473074847 0 -513.65924473074847 -442.52544765848143 0 0 0 0 -397.55471751444566 -574.41392893930606 0 -574.41392893930606 -429.62237524996453 0 0 0 0 -198.30080507129605 -418.09804788419569 0 -418.09804788419569 -454.16606408996449 0 0 0 0 -342.90265457916757 -445.43418158568238 0 -445.43418158568238 -224.92688566507422 0 0 0 0 -366.87881907638439 -506.8282060167403 0 -506.8282060167403 -367.67481235337618 0 0 0 0 -478.8628127489792 -463.90370432142299 0 -463.90370432142299 -0.23989880297449417 0 0 0 0 -327.38308343503377 -393.19088969792938 0 -393.19088969792938 -198.99812105424644 0 0 0 0 -350.0031989773106 -324.81665580717527 0 -324.81665580717527 -238.6691556070291 0 0 0 0 21.752557506627419 -10.799400313967567 0 -10.799400313967567 4.9949763472621669 0 0 0 0 -155.58589485015364 -279.56184846864198 0 -279.56184846864198 -270.54304972512182 0 0 0 0 -292.20092851481695 -217.21986816449498 0 -217.21986816449498 -126.56448237746372 0 0 0 0 21.503423222191486 -15.511465178162325 0 -15.511465178162325 -10.600392123234997 0 0 0 0 25.696734146442395 -21.315277947724098 0 -21.315277947724098 -27.621748335193843 0 0 0 0 33.813544382310745 -4.9181241869563337 0 -4.9181241869563337 -1.6656563146737824 0 0 0 0 60.333866818920797 -38.437064027137239 0 -38.437064027137239 -93.617859399884765 0 0 0 0 32.607279522257329 -15.776558428493871 0 -15.776558428493871 -5.4138281678344811 0 0 0 0 23.294086797050113 -26.00325292944035 0 -26.00325292944035 -28.356922146718716 0 0 0 0 -251.14513308387905 -460.42658938781096 0 -460.42658938781096 -484.00781601358904 0 0 0 0 26.375620079256716 -14.916319348530266 0 -14.916319348530266 1.0363155799417427 0 0 0 0 23.073421600539405 -19.829458713666099 0 -19.829458713666099 -19.347444898361573 0 0 0 0 -30.510831772247911 -213.64081874192925 0 -213.64081874192925 -644.53123347004293 0 0 0 0 -276.37459714430224 -419.39427243848331 0 -419.39427243848331 -549.21296368870389 0 0 0 0 -297.94865703156665 -567.96194234378345 0 -567.96194234378345 -882.77440474243485 0 0 0 0 -404.23745126538415 -656.18790467550571 0 -656.18790467550571 -556.51250051111856 0 0 0 0 -317.23720793317898 -508.54626516954158 0 -508.54626516954158 -821.19161579711363 0 0 0 0 -460.43877687679196 -626.27898604274378 0 -626.27898604274378 -884.68410711411707 0 0 0 0 6.8665005483144164 -5.7928667616665734 0 -5.7928667616665734 -4.482140252518434 0 0 0 0 -311.55326173950743 -617.51290127845277 0 -617.51290127845277 -934.20879508996586 0 0 0 0 19.977685610268964 -34.935029945845599 0 -34.935029945845599 -69.757071352527419 0 0 0 0 19.009168790157773 -8.4782620802421178 0 -8.4782620802421178 -20.902794193887985 0 0 0 0 2.6568346290558509 -20.489307910447735 0 -20.489307910447735 12.423859802286074 0 0 0 0 40.153539438884764 -119.20222931583339 0 -119.20222931583339 38.977603162275045 0 0 0 0 -52.251246875421202 -9.907411980741017 0 -9.907411980741017 -8.8555245696625207 0 0 0 0 -335.82935250927039 -694.32118403595814 0 -694.32118403595814 -1328.1552649795485 0 0 0 0 -367.66694014212771 -600.84559042810724 0 -600.84559042810724 -844.23206709924852 0 0 0 0 -342.61957582290052 -638.78601544054982 0 -638.78601544054982 -856.54738601035206 0 0 0 0 -399.34917226386096 -678.32998699991731 0 -678.32998699991731 -807.74104370264104 0 0 0 0 -495.44919305426447 -676.6737405131862 0 -676.6737405131862 -481.1909380639263 0 0 0 0 103.44607296736285 -43.697661320635234 0 -43.697661320635234 -72.165125145504135 0 0 0 0 -2.720526283847974 -17.887667302042075 0 -17.887667302042075 -2.1361379438345836 0 0 0 0 11.115801353604184 -64.439086851896718 0 -64.439086851896718 28.21734315744834 0 0 0 0 4.3116404551464527 -28.337491665937819 0 -28.337491665937819 6.2206719876614329 0 0 0 0 10.746879998108767 -16.244306345361707 0 -16.244306345361707 -8.9262305415544745 0 0 0 0 -6.2241593472423631 -11.573756251584257 0 -11.573756251584257 1.7635952891311604 0 0 0 0 18.53698757103848 -50.354801160996431 0 -50.354801160996431 -34.817866292287363 0 0 0 0 -155.48475496730543 -118.46754383873667 0 -118.46754383873667 162.57867387260194 0 0 0 0 62.228955772785412 -10.883336166349181 0 -10.883336166349181 -8.9221193349221721 0 0 0 0 173.42063316501299 -86.090481528364762 0 -86.090481528364762 -172.620858151844 0 0 0 0 6.5691852865481906 -58.689521136780968 0 -58.689521136780968 3.3207982399326283 0 0 0 0 19.859548644700098 -31.51657019854845 0 -31.51657019854845 -5.6903438632371603 0 0 0 0 28.602429222902629 -68.98764958204265 0 -68.98764958204265 7.9232230737979989 0 0 0 0 40.943881731415786 -75.716655654789065 0 -75.716655654789065 89.572909776630695 0 0 0 0 33.130060124400643 -43.327817953031627 0 -43.327817953031627 19.290040700490863 0 0 0 0 32.802906333946339 -76.549094105590484 0 -76.549094105590484 -64.599163321538072 0 0 0 0 33.716996360613393 -78.690170460053196 0 -78.690170460053196 7.9049465464777313 0 0 0 0 28.571810005621501 -49.649942381056462 0 -49.649942381056462 -45.942602616545628 0 0 0 0 90.67516619548519 -58.94280280226576 0 -58.94280280226576 -28.275762902630959 0 0 0 0 82.593442914658226 -42.85116614648723 0 -42.85116614648723 -56.183718148331536 0 0 0 0 26.854903456657325 -24.259627322353936 0 -24.259627322353936 -60.792196322785458 0 0 0 0 119.71806212400224 -83.059944399450615 0 -83.059944399450615 38.502221686998382 0 0 0 0 120.93224916972667 -69.579555678414181 0 -69.579555678414181 -29.738594433849357 0 0 0 0 52.128158496569256 -71.93055814780837 0 -71.93055814780837 86.488388670375571 0 0 0 0 20.400837878228003 -36.444391465583976 0 -36.444391465583976 -18.79143613416818 0 0 0 0 55.619305250662592 -96.072206477530926 0 -96.072206477530926 253.40753795058117 0 0 0 0 -1.3687497402790569 -1.0165134269492739 0 -1.0165134269492739 -1.1726305061258699 0 0 0 0 51.38715915164903 -56.232937886466971 0 -56.232937886466971 34.595504128878019 0 0 0 0 16.505870737109944 82.947320120278164 0 82.947320120278164 -319.07983699833858 0 0 0 0 -49.356407142392527 43.364260655507678 0 43.364260655507678 52.176078760996461 0 0 0 0 -26.459198205450775 21.810546474844159 0 21.810546474844159 -86.434507366648177 0 0 0 0 38.87059935611569 -4.6876968842043425 0 -4.6876968842043425 -75.05473697904381 0 0 0 0 35.934790224952849 -11.632605118000356 0 -11.632605118000356 -91.480236779221741 0 0 0 0 -3.511188166605848 -4.0787595450279923 0 -4.0787595450279923 -0.88220040779967235 0 0 0 0 8.6794777600489343 1.4550879087237263 0 1.4550879087237263 0.81894269815633436 0 0 0 0 18.550981974018214 -34.457632736142841 0 -34.457632736142841 14.70640709620784 0 0 0 0 85.458074358528393 -48.70347595680505 0 -48.70347595680505 -22.05869002485997 0 0 0 0 39.439551266395554 -15.03268473221479 0 -15.03268473221479 -7.803371940457339 0 0 0 0 -3.4254525633211532 -19.867814379071348 0 -19.867814379071348 -4.23594302335934 0 0 0 0 85.136652858330763 -47.840532201138558 0 -47.840532201138558 -65.986501853098162 0 0 0 0 51.171965473199634 -46.618029389770527 0 -46.618029389770527 -7.3074017432518303 0 0 0 0 86.41370871944946 -57.436216470472573 0 -57.436216470472573 4.1076121294754557 0 0 0 0 106.29148409274967 -29.095414011535468 0 -29.095414011535468 -40.521491936837265 0 0 0 0 34.94937888022617 -52.072215782352295 0 -52.072215782352295 1.0982882092785076 0 0 0 0 -106.1116820393745 -75.747326945966051 0 -75.747326945966051 72.017513214683277 0 0 0 0 29.841512454673648 -48.074214524240233 0 -48.074214524240233 -0.65255668896861607 0 0 0 0 -13.011592911243952 46.349667574293562 0 46.349667574293562 -168.16727665797225 0 0 0 0 -146.69156635422314 85.941287120789639 0 85.941287120789639 -74.967175404366571 0 0 0 0 614.0478089240396 -327.37467527428817 0 -327.37467527428817 206.67898821905692 0 0 0 0 843.45818198318284 -264.71055937729398 0 -264.71055937729398 -179.53231586699258 0 0 0 0 994.14281769463014 -593.54787024789402 0 -593.54787024789402 35.396905294830503 0 0 0 0 3.7657061909880252 2.3081935800485809 0 2.3081935800485809 -0.43084347573176274 0 0 0 0 654.55874243614664 -138.53974725298212 0 -138.53974725298212 -23.329989276418928 0 0 0 0 -58.331600293082829 148.93619747587945 0 148.93619747587945 -120.98540223427699 0 0 0 0 686.17438168839158 -213.58031950841541 0 -213.58031950841541 3.6494135787761479 0 0 0 0 8.6131381411504115 6.9124001287775769 0 6.9124001287775769 1.015722796039995 0 0 0 0 69.767835417048445 68.965703997717355 0 68.965703997717355 -119.36421819355746 0 0 0 0 -9.5270060753709913 36.236131534125889 0 36.236131534125889 -53.42833196065385 0 0 0 0 99.597487178247718 -0.75898821581722586 0 -0.75898821581722586 -79.921334861370269 0 0 0 0 91.121965024989095 -3.7583903823106084 0 -3.7583903823106084 -76.964379184806603 0 0 0 0 145.46285426225086 18.326001287648978 0 18.326001287648978 -55.710258363978937 0 0 0 0 183.2088010527641 -66.079643301098258 0 -66.079643301098258 -52.971450364035263 0 0 0 0 45.710467010360389 123.56389246591425 0 123.56389246591425 -127.54048854170833 0 0 0 0 120.67461379071756 -9.9498876875877613 0 -9.9498876875877613 -87.961892531926424 0 0 0 0 124.90656227946693 -49.293416129599791 0 -49.293416129599791 -101.75631803025317 0 0 0 0 129.24933998898496 -18.281945415867085 0 -18.281945415867085 31.906956930964952 0 0 0 0 278.15435308458473 -1.934158281685086 0 -1.934158281685086 -2.8603681095992215 0 0 0 0 3.2593785172450236 0.16000307076419062 0 0.16000307076419062 0.081641722668123862 0 0 0 0 108.63724708581231 -231.8791140153553 0 -231.8791140153553 365.04473890006921 0 0 0 0 240.25297631126887 -252.35928334286291 0 -252.35928334286291 233.31875966508233 0 0 0 0 387.48857456271071 -117.96223301823193 0 -117.96223301823193 -49.100598515899037 0 0 0 0 192.08652586902281 -133.07048215193208 0 -133.07048215193208 22.57380108259531 0 0 0 0 251.70777786850067 -132.04331535870733 0 -132.04331535870733 -11.502514962252462 0 0 0 0 74.559425005021694 22.812140265319613 0 22.812140265319613 -68.017979791125981 0 0 0 0 108.15512843075339 -38.364524244592758 0 -38.364524244592758 -50.843881703436637 0 0 0 0 315.46086396788132 -290.84724689573341 0 -290.84724689573341 -180.03311564333853 0 0 0 0 146.85101256273083 -227.28947399822209 0 -227.28947399822209 -77.293457699299324 0 0 0 0 156.78053773178544 -302.9449106187094 0 -302.9449106187094 146.86323526659544 0 0 0 0 175.62451736193361 -308.25112853446626 0 -308.25112853446626 13.952997356420383 0 0 0 0 156.10249889784427 -215.11509661913442 0 -215.11509661913442 -181.46863735737861 0 0 0 0 285.25536506776007 -258.60200332954992 0 -258.60200332954992 -293.46963863913697 0 0 0 0 75.820062637661977 13.147478730381408 0 13.147478730381408 -370.60557825278374 0 0 0 0 146.83656936757416 -151.28101368518401 0 -151.28101368518401 -101.63586186249449 0 0 0 0 42.161742486332059 93.625679453300108 0 93.625679453300108 -266.79910082690185 0 0 0 0 -155.06796460118761 345.00230961817556 0 345.00230961817556 -392.31646959387581 0 0 0 0 121.43282322835694 59.517314576456556 0 59.517314576456556 -337.39730780507853 0 0 0 0 483.38533658817732 -199.11401850420225 0 -199.11401850420225 -847.33954878235818 0 0 0 0 298.41568476659813 -530.68823528414941 0 -530.68823528414941 398.86441046424443 0 0 0 0 0.18454684678503064 -1.8760542116625061 0 -1.8760542116625061 -2.8670951503718243 0 0 0 0 236.73959052219288 246.89540473298621 0 246.89540473298621 -964.76202550739981 0 0 0 0 391.90707851039406 -458.77349899171531 0 -458.77349899171531 73.479917995719006 0 0 0 0 236.91290076599216 -269.49307731841691 0 -269.49307731841691 319.77713381549984 0 0 0 0 218.51287061864195 -195.91233648711932 0 -195.91233648711932 141.07412220013794 0 0 0 0 230.84137957624444 -153.07261689848383 0 -153.07261689848383 153.13443952793023 0 0 0 0 281.58840780638502 -297.44661337941216 0 -297.44661337941216 205.01421011565253 0 0 0 0 137.24611976991719 -188.1413306721588 0 -188.1413306721588 27.655170277663274 0 0 0 0 168.80266590691735 -243.74324454517773 0 -243.74324454517773 105.52550598621019 0 0 0 0 121.73158729583793 -195.52013085958606 0 -195.52013085958606 36.980454056301824 0 0 0 0 159.17274811552397 -108.90394418814685 0 -108.90394418814685 84.978197433025343 0 0 0 0 105.04707488134682 -94.462672788809869 0 -94.462672788809869 -5.4130722871050239 0 0 0 0 147.45892943222862 -140.25980430687923 0 -140.25980430687923 5.5982162212312687 0 0 0 0 84.962842553024529 -112.38166978856316 0 -112.38166978856316 41.251529785309685 0 0 0 0 198.67679287318515 -180.15222291587997 0 -180.15222291587997 130.33603447854694 0 0 0 0 250.48999357603134 -89.51945985716884 0 -89.51945985716884 32.248374324364704 0 0 0 0 190.58482992812969 -84.942160675345804 0 -84.942160675345804 -21.719410088616314 0 0 0 0 241.46127262614482 -117.53900245690602 0 -117.53900245690602 -22.739216002533794 0 0 0 0 161.12125163664223 -89.405717356974492 0 -89.405717356974492 40.712710760650225 0 0 0 0 159.98388459843954 -105.49919736084485 0 -105.49919736084485 -26.47657003182394 0 0 0 0 90.665878215426801 -72.787647562912753 0 -72.787647562912753 -84.535583860764746 0 0 0 0 98.339960258016617 -45.796301672089612 0 -45.796301672089612 -10.358473301108461 0 0 0 0 85.315511725468241 -31.817966339876875 0 -31.817966339876875 -35.380481777023306 0 0 0 0 81.320186747106618 -51.927366180196259 0 -51.927366180196259 -94.822013287557638 0 0 0 0 69.263270736184495 23.534899225196568 0 23.534899225196568 -123.47756535034569 0 0 0 0 61.705228499842633 -38.222221252064628 0 -38.222221252064628 -39.516561330485274 0 0 0 0 168.66028823986744 -104.54713724279281 0 -104.54713724279281 -29.468379398953402 0 0 0 0 2.1278219316707734 -0.63212712871666099 0 -0.63212712871666099 -0.81466931148116828 0 0 0 0 -31.524768120702902 -664.55699283932336 0 -664.55699283932336 349.07858226820827 0 0 0 0 30.425921220343298 80.084635987244837 0 80.084635987244837 -306.75372737983707 0 0 0 0 -9.2763665563152244 -12.172877428602078 0 -12.172877428602078 -68.053413616857142 0 0 0 0 14.697853482411119 -84.77537244578707 0 -84.77537244578707 -23.173043405506178 0 0 0 0 6.9500251650042628 -25.670562664410681 0 -25.670562664410681 -80.678242398207658 0 0 0 0 88.031122642685659 -162.63867369066065 0 -162.63867369066065 -42.397150542659801 0 0 0 0 78.263587855641163 -126.04578903876245 0 -126.04578903876245 -157.16372068414057 0 0 0 0 37.804445379430945 -57.600736417745793 0 -57.600736417745793 -75.826824962612591 0 0 0 0 14.892434061690437 -38.703809309867211 0 -38.703809309867211 -12.570109707550728 0 0 0 0 17.115465112702168 -77.964981153467306 0 -77.964981153467306 20.959056145278737 0 0 0 0 13.557047397519 -64.198804528630717 0 -64.198804528630717 -30.456832494412083 0 0 0 0 39.181230057173707 -69.254701554418716 0 -69.254701554418716 -33.73483386803855 0 0 0 0 35.73799150763034 -71.775309278418717 0 -71.775309278418717 -16.165749799809419 0 0 0 0 74.722712882367887 -72.053134391482672 0 -72.053134391482672 -27.183599972282536 0 0 0 0 71.266980615138891 -111.70706292214163 0 -111.70706292214163 2.6139154334669001 0 0 0 0 113.91383297406719 -156.82313074205013 0 -156.82313074205013 -88.670588374858198 0 0 0 0 173.97204503188561 -199.10455123941392 0 -199.10455123941392 -59.774358591501368 0 0 0 0 -34.780869233756675 -62.841317585691286 0 -62.841317585691286 -71.169660437764833 0 0 0 0 146.63279297579811 -54.172204125825374 0 -54.172204125825374 -307.3996525437251 0 0 0 0 35.390820983086542 -99.604703097549645 0 -99.604703097549645 -247.18750205953256 0 0 0 0 65.689231031675263 -65.616021987429122 0 -65.616021987429122 -170.37052135339036 0 0 0 0 2.8094215655405606 -57.698372966311581 0 -57.698372966311581 -60.597646483423887 0 0 0 0 32.419109482650128 -115.79326393923111 0 -115.79326393923111 93.360745802128804 0 0 0 0 53.46811570382124 -83.990428454169887 0 -83.990428454169887 -15.219653438296518 0 0 0 0 81.173370381505265 -69.47124932098086 0 -69.47124932098086 -85.730073083255775 0 0 0 0 92.721430505098397 -71.464452572843584 0 -71.464452572843584 -11.325770788509544 0 0 0 0 86.684843409183486 -116.12304554882576 0 -116.12304554882576 -50.445069882480311 0 0 0 0 57.91213296703063 -80.621610060821695 0 -80.621610060821695 4.066731932485709 0 0 0 0 31.875134333057716 -56.806512071442143 0 -56.806512071442143 6.3092374654963237 0 0 0 0 77.451203382238191 -76.22135245678146 0 -76.22135245678146 -6.7663017070444766 0 0 0 0 117.07192515041288 -104.74572782711039 0 -104.74572782711039 -13.523834602730858 0 0 0 0 30.532540248519922 -74.013149117632565 0 -74.013149117632565 48.934368420857936 0 0 0 0 -10.158673750036336 -28.194549548979069 0 -28.194549548979069 -12.399057709921038 0 0 0 0 93.996100395675057 -137.30509429536323 0 -137.30509429536323 48.890819596832443 0 0 0 0 44.02645129539178 -57.1257160502646 0 -57.1257160502646 32.86292846215656 0 0 0 0 8.7365872062600829 -65.73902723538049 0 -65.73902723538049 47.139990493415098 0 0 0 0 14.745111899864924 -43.621306744742469 0 -43.621306744742469 46.759248850634322 0 0 0 0 28.160176091742066 -77.03360093421179 0 -77.03360093421179 -33.264230731554562 0 0 0 0 20.5337577191126 -60.908511062219986 0 -60.908511062219986 26.272630109859165 0 0 0 0 40.181880628219773 -90.152159018471139 0 -90.152159018471139 -29.377797641180223 0 0 0 0 -1.1647257198728767 -121.29071382492839 0 -121.29071382492839 -20.147999775234439 0 0 0 0 0.4864560488049392 -95.695616306562442 0 -95.695616306562442 -20.7765478604706 0 0 0 0 -52.55350189426099 -122.78610150817258 0 -122.78610150817258 13.083208218042273 0 0 0 0 -11.257490025853258 -58.566907219283166 0 -58.566907219283166 43.155032399350603 0 0 0 0 5.5438228837748511 -64.677963295629525 0 -64.677963295629525 41.39062812118209 0 0 0 0 139.64152019063386 -200.60315341760725 0 -200.60315341760725 101.80005439498109 0 0 0 0 39.376934579718636 -128.12434931238749 0 -128.12434931238749 219.57944740302628 0 0 0 0 -13.913253459225448 -11.28632574789637 0 -11.28632574789637 -11.707771445426488 0 0 0 0 23.912584632006201 -60.782322866420145 0 -60.782322866420145 -37.287982750691299 0 0 0 0 24.296421066942685 -79.355900390841271 0 -79.355900390841271 -22.792022923313198 0 0 0 0 -2.8078000209359484 -4.9488130773136731 0 -4.9488130773136731 -4.9007420693394863 0 0 0 0 180.48851213032685 -241.06539016309398 0 -241.06539016309398 247.22826558987072 0 0 0 0 18.305979340558451 -36.188629540833062 0 -36.188629540833062 -87.636160149006173 0 0 0 0 94.137440491399957 11.603988516708341 0 11.603988516708341 -393.59464478080918 0 0 0 0 95.682404028967539 -103.13989708702138 0 -103.13989708702138 -206.50637219604687 0 0 0 0 39.109752693606097 -81.962136248417664 0 -81.962136248417664 -91.440280941940728 0 0 0 0 28.362336656498428 -98.140006428162451 0 -98.140006428162451 -39.364584508250118 0 0 0 0 75.937495670689259 -137.79441638640856 0 -137.79441638640856 -39.24434160607052 0 0 0 0 67.432752230435199 -120.5519103230472 0 -120.5519103230472 -74.168335490714526 0 0 0 0 41.121438644943282 -125.08905306470842 0 -125.08905306470842 17.106313825439429 0 0 0 0 18.39840669229207 -67.316348187690892 0 -67.316348187690892 -18.759560180573317 0 0 0 0 -37.23141274417776 -57.421622180670965 0 -57.421622180670965 11.641750785434851 0 0 0 0 22.426429662775206 -10.164997591010888 0 -10.164997591010888 -4.0176110147468194 0 0 0 0 40.735569595876768 -209.73846848920948 0 -209.73846848920948 87.832673254888505 0 0 0 0 -45.903545104328941 -76.764370384424183 0 -76.764370384424183 262.94388789548248 0 0 0 0 2.65714387521819 -8.4191085732984021 0 -8.4191085732984021 6.4441728866170251 0 0 0 0 29.965505927546474 -159.47897381156508 0 -159.47897381156508 -200.43926323537016 0 0 0 0 29.384289556176554 -120.64830263801559 0 -120.64830263801559 -132.49617662359378 0 0 0 0 -28.545285539795486 -178.62315960656269 0 -178.62315960656269 -80.705039618740557 0 0 0 0 -2.1713845730637331 -117.69352372545109 0 -117.69352372545109 -13.625629362999462 0 0 0 0 31.664702016603314 -105.27450117492117 0 -105.27450117492117 -71.457572786181117 0 0 0 0 29.187587595286686 -123.61685878218486 0 -123.61685878218486 -92.091680484300014 0 0 0 0 32.346060582918199 -109.08578838641552 0 -109.08578838641552 -60.249169981805608 0 0 0 0 31.541159350211956 -81.844129521239665 0 -81.844129521239665 -70.693398439882003 0 0 0 0 33.169393770073498 -93.006376884644851 0 -93.006376884644851 -37.936245266711921 0 0 0 0 15.391973607093178 -56.942736815850367 0 -56.942736815850367 -45.689918474497972 0 0 0 0 36.13389155781897 -75.774286650157592 0 -75.774286650157592 -67.053865534660872 0 0 0 0 19.259193928408422 -51.17675291132764 0 -51.17675291132764 -16.614566817763261 0 0 0 0 18.328239641122309 -44.370039964320313 0 -44.370039964320313 -66.374014641197846 0 0 0 0 41.566467572469264 -62.460885520325974 0 -62.460885520325974 -129.01139969082578 0 0 0 0 11.388720003186791 -16.142209714860655 0 -16.142209714860655 -103.60119467898039 0 0 0 0 -53.384153392564258 -15.12132644871599 0 -15.12132644871599 89.838030772167258 0 0 0 0 5.563264003740187 -15.452317053452134 0 -15.452317053452134 0.033737602178007364 0 0 0 0 50.609787235057411 -48.606511060337652 0 -48.606511060337652 -108.94011926651001 0 0 0 0 44.141359465193091 9.4690416440134868 0 9.4690416440134868 -172.14380248781526 0 0 0 0 58.615645949413192 -29.356798021770373 0 -29.356798021770373 -264.99150843167445 0 0 0 0 8.0684915149195149 36.50574927413254 0 36.50574927413254 -178.28564256173559 0 0 0 0 78.725552600437368 -123.35905568298767 0 -123.35905568298767 75.102121933083254 0 0 0 0 126.7341951877479 190.69941175373424 0 190.69941175373424 411.72739301837282 0 0 0 0 -2.0180689981303956 -87.32238910182852 0 -87.32238910182852 -38.306684336758508 0 0 0 0 137.46117601318656 -107.97074126220105 0 -107.97074126220105 108.2183359863775 0 0 0 0 -2.3577670115701039 -74.467178999249882 0 -74.467178999249882 24.255682607297786 0 0 0 0 -7.2523797867632709 -24.389572118045905 0 -24.389572118045905 2.3130080451671233 0 0 0 0 20.76500790072339 -53.601561356721504 0 -53.601561356721504 -48.145122049609199 0 0 0 0 37.486677262189914 -82.600765091192443 0 -82.600765091192443 -2.4518539558521297 0 0 0 0 23.533679658598807 -42.824117639196828 0 -42.824117639196828 6.4645813063697233 0 0 0 0 14.227736636486043 -53.047407481881237 0 -53.047407481881237 9.2979738189605996 0 0 0 0 -19.847223429103327 -28.913669525119531 0 -28.913669525119531 -10.717288416877125 0 0 0 0 94.361449786411868 -110.16106657522323 0 -110.16106657522323 62.846658664384449 0 0 0 0 56.345273202462522 -141.99045247395406 0 -141.99045247395406 88.017888585251058 0 0 0 0 -12.963819149078054 -43.208150584335684 0 -43.208150584335684 -10.418884543093242 0 0 0 0 -50.655753445885495 -37.201787306281268 0 -37.201787306281268 2.3081085654185358 0 0 0 0 -100.19618797313888 -618.14221098198323 0 -618.14221098198323 -218.08307879359927 0 0 0 0 -51.597622958171996 23.294584179609956 0 23.294584179609956 320.34648282388662 0 0 0 0 -198.41651358390664 -273.28451751091052 0 -273.28451751091052 -81.886391926731449 0 0 0 0 46.297254441182304 -25.814131626291783 0 -25.814131626291783 -42.148785960918758 0 0 0 0 28.521702542342609 -43.068673288777063 0 -43.068673288777063 -17.339886021502025 0 0 0 0 23.984273127572123 -59.414601958953426 0 -59.414601958953426 -28.05486386854318 0 0 0 0 2.2927990387072388 -24.56054792615943 0 -24.56054792615943 -41.315546955437867 0 0 0 0 16.714158958943298 -35.951853450317714 0 -35.951853450317714 10.342986864705537 0 0 0 0 35.715681209687318 -62.75116189372784 0 -62.75116189372784 -52.451895341546333 0 0 0 0 36.850264369997603 -49.210117936359893 0 -49.210117936359893 -41.838004573328362 0 0 0 0 50.405594703549468 -91.703274360916112 0 -91.703274360916112 19.043151509187737 0 0 0 0 38.511268462811131 -62.994149837519217 0 -62.994149837519217 -5.2185224526401726 0 0 0 0 48.643870921350754 -60.984450221520092 0 -60.984450221520092 -5.0066925259961863 0 0 0 0 10.716654438879399 -28.103945680815883 0 -28.103945680815883 -31.696076586956167 0 0 0 0 56.958684535278259 -25.292937568157782 0 -25.292937568157782 -8.8676150120082582 0 0 0 0 -72.149536797205656 -143.09693115678965 0 -143.09693115678965 -99.779661536616914 0 0 0 0 60.826842819541525 -39.402343448196916 0 -39.402343448196916 -155.75580504213576 0 0 0 0 44.661405239136002 -55.692268992374011 0 -55.692268992374011 -54.16831986681791 0 0 0 0 5.7056416396735585 -4.7713773119612597 0 -4.7713773119612597 -49.190103873368571 0 0 0 0 9.0024244501646535 11.456081584597996 0 11.456081584597996 10.082519393035909 0 0 0 0 -17.899815360862704 -30.813191874272889 0 -30.813191874272889 12.669360955857883 0 0 0 0 52.942812359011441 53.064671679778257 0 53.064671679778257 -88.713754744487233 0 0 0 0 0.26091582433264193 -77.638936055567683 0 -77.638936055567683 -65.891536062554223 0 0 0 0 -103.51740018367036 -96.435400516984373 0 -96.435400516984373 -39.270252508620615 0 0 0 0 248.450231080089 -288.98310556267097 0 -288.98310556267097 -317.32010367924522 0 0 0 0 7.7672466789117607 -107.63537072818872 0 -107.63537072818872 -281.95072398619413 0 0 0 0 103.45469350195344 -286.3071185701192 0 -286.3071185701192 45.263837192862411 0 0 0 0 -52.873856961600723 -486.51483807424665 0 -486.51483807424665 -206.79233735753223 0 0 0 0 119.67168929275431 -191.3765911905648 0 -191.3765911905648 62.489517515772604 0 0 0 0 -116.80375771344188 -366.54693558439612 0 -366.54693558439612 512.89597327528463 0 0 0 0 4.0363577853127275 -10.609891751697461 0 -10.609891751697461 8.8177647712381599 0 0 0 0 169.67971522032803 42.006925150410098 0 42.006925150410098 -701.62757734034676 0 0 0 0 121.11919210794258 -59.099540100854938 0 -59.099540100854938 -861.08948022327968 0 0 0 0 -3.625685292421208 -16.419937113345895 0 -16.419937113345895 7.1898716195154577 0 0 0 0 -1157.231605387391 71.172134336753516 0 71.172134336753516 33.385954865210806 0 0 0 0 -1246.0608683392384 52.067170588314184 0 52.067170588314184 3276.8565761694917 0 0 0 0 -99.237745383888978 -468.35385061739362 0 -468.35385061739362 -936.46843533998981 0 0 0 0 -1050.8250827222928 -309.17998727675877 0 -309.17998727675877 -135.48282900921186 0 0 0 0 -40.222891027982769 -287.75426702309051 0 -287.75426702309051 -451.08587653486757 0 0 0 0 23.331297272777082 -3.4955213454041996 0 -3.4955213454041996 1.0416970984837803 0 0 0 0 232.96352309283066 -377.35697793803411 0 -377.35697793803411 311.23023299103079 0 0 0 0 843.98981312134129 -869.80500363567262 0 -869.80500363567262 -183.45480794442119 0 0 0 0 480.26810209483483 -744.55045368621359 0 -744.55045368621359 -60.453708881730563 0 0 0 0 979.55315134562352 -302.77512726871646 0 -302.77512726871646 -2999.3942564806785 0 0 0 0 644.15264297728766 -331.98861245145781 0 -331.98861245145781 -458.29560194106307 0 0 0 0 -174.18188519189607 65.698707589443075 0 65.698707589443075 456.70661718486735 0 0 0 0 -73.670072790295308 -342.44597341756889 0 -342.44597341756889 349.94023694036878 0 0 0 0 112.59462733676901 -130.01113131741295 0 -130.01113131741295 -311.16800398330088 0 0 0 0 -208.9795106388392 -68.903219776504557 0 -68.903219776504557 56.402179121749214 0 0 0 0 -329.03488884259787 -210.292240498311 0 -210.292240498311 84.844956962580909 0 0 0 0 -135.05383731147049 -137.68145704237395 0 -137.68145704237395 -160.12444088391385 0 0 0 0 180.50550083458779 -129.70539341765198 0 -129.70539341765198 14.967837271513417 0 0 0 0 158.69979330364117 -116.00717919226372 0 -116.00717919226372 10.753522805593093 0 0 0 0 3.2874572658250969 -1.3104953236476149 0 -1.3104953236476149 -2.0056600263979192 0 0 0 0 4.6589070106411583 -0.83401954545954027 0 -0.83401954545954027 -2.0557582529450542 0 0 0 0 667.5751949573405 90.254420207424118 0 90.254420207424118 -62.21450566429121 0 0 0 0 357.31960444898641 -324.90765647673834 0 -324.90765647673834 261.88140149612445 0 0 0 0 333.31091121032614 -194.70677176346362 0 -194.70677176346362 -222.49185000133002 0 0 0 0 -61.265196089370875 179.22569788787951 0 179.22569788787951 297.35249228613975 0 0 0 0 -182.07832763892475 -337.06300635854132 0 -337.06300635854132 -32.364594834936725 0 0 0 0 11.050507734385974 -43.048959348452627 0 -43.048959348452627 -50.329718697503267 0 0 0 0 7.8080587743717231 -1.6988649368845756 0 -1.6988649368845756 1.5342770989454664 0 0 0 0 -21.047846602850768 -3.7801501194044249 0 -3.7801501194044249 750.8341637912381 0 0 0 0 220.95742596310811 97.814627360545273 0 97.814627360545273 -7.6631681085564196 0 0 0 0 658.0503367816309 -167.55370333432802 0 -167.55370333432802 -66.582975148611297 0 0 0 0 -108.9736260109712 -65.982018162387249 0 -65.982018162387249 -38.470113657589536 0 0 0 0 4.6436670495968428 14.112195851419528 0 14.112195851419528 -4.0482480670252698 0 0 0 0 228.54654683954141 -56.307280541055661 0 -56.307280541055661 -73.879234450141666 0 0 0 0 34.012273785294383 -51.456361960947106 0 -51.456361960947106 21.097331006756576 0 0 0 0 -93.298309664802218 -198.57819803363964 0 -198.57819803363964 -84.545757900428725 0 0 0 0 -0.44015388050774362 -2.261798873986109 0 -2.261798873986109 -15.567796082906568 0 0 0 0 -300.75541782665709 -143.20276719212438 0 -143.20276719212438 -1.7391945877752732 0 0 0 0 6.0621380980883259 -80.700911897503829 0 -80.700911897503829 -83.095345981884748 0 0 0 0 52.670216713006084 -134.98868937893167 0 -134.98868937893167 -53.428698007912317 0 0 0 0 -7.3850628928412334 -40.452929244151164 0 -40.452929244151164 -228.09960853926896 0 0 0 0 -8.2767967989420868 -129.26364428305897 0 -129.26364428305897 22.096611705041141 0 0 0 0 -29.812154917191947 -121.76214346889174 0 -121.76214346889174 -74.683568249238306 0 0 0 0 -94.593980358760746 -126.60854211617698 0 -126.60854211617698 -43.891216637726757 0 0 0 0 -37.273558988461446 -91.038588161307416 0 -91.038588161307416 -122.68578299212822 0 0 0 0 -4.8672795476457509 -4.3675829062926823 0 -4.3675829062926823 0.059517303639754715 0 0 0 0 -19.761921948389499 -107.92054561083933 0 -107.92054561083933 237.82465150736243 0 0 0 0 -2.0268525194573499 2.2109740413961276 0 2.2109740413961276 0.080781805945932206 0 0 0 0 164.03176805033581 -95.212465235279524 0 -95.212465235279524 -471.66871791115409 0 0 0 0 40.29652165636071 -32.214018396269239 0 -32.214018396269239 111.24883035730454 0 0 0 0 70.640698656949098 -97.261209133823286 0 -97.261209133823286 -4.5238442236295668 0 0 0 0 -30.351341208450322 -52.067170567210269 0 -52.067170567210269 43.69236302668287 0 0 0 0 40.329411261914174 -25.552220329943339 0 -25.552220329943339 -15.027046558185248 0 0 0 0 2.4578725146750475 -12.266148290242185 0 -12.266148290242185 -0.57276742249467816 0 0 0 0 12.359154430910877 -21.709076104638825 0 -21.709076104638825 12.444264583312645 0 0 0 0 33.493865655800619 -95.081464542920003 0 -95.081464542920003 -101.87335028715825 0 0 0 0 82.514141293150715 -16.289745552645286 0 -16.289745552645286 25.917752297536936 0 0 0 0 -23.381314643142105 -61.033073252830945 0 -61.033073252830945 -74.457962342137762 0 0 0 0 5.4261026504433376 -8.7007444490069474 0 -8.7007444490069474 -24.531263833363255 0 0 0 0 -48.32743775597919 -70.851251138035877 0 -70.851251138035877 -2.5760665663983673 0 0 0 0 19.489705649274043 -23.030856806823806 0 -23.030856806823806 3.3744319735394583 0 0 0 0 68.190987264984869 -104.10979024444532 0 -104.10979024444532 -67.997914376337576 0 0 0 0 -23.7497068110535 -29.499560964946596 0 -29.499560964946596 -2.1136641128634253 0 0 0 0 -53.675250913394848 -19.624838536656171 0 -19.624838536656171 119.4953436642536 0 0 0 0 -143.85406573583896 29.071235471776163 0 29.071235471776163 95.7812605625586 0 0 0 0 -5.5774273823408294 54.656177857730654 0 54.656177857730654 -30.736935532106145 0 0 0 0 -60.51170944696787 -120.84132056982708 0 -120.84132056982708 21.408271561391302 0 0 0 0 -96.419428808607336 -72.771650597002008 0 -72.771650597002008 41.296769743559707 0 0 0 0 -42.569329498091975 -97.756398767949577 0 -97.756398767949577 50.150605176298996 0 0 0 0 -31.794794945981067 -36.482136533129761 0 -36.482136533129761 3.0626995542446593 0 0 0 0 26.879649555572367 -52.933877848950345 0 -52.933877848950345 6.1300250829150968 0 0 0 0 -30.085809367432375 -58.328157419789932 0 -58.328157419789932 61.483174767612581 0 0 0 0 16.25764473298841 -45.799397496413803 0 -45.799397496413803 19.00159183483629 0 0 0 0 -15.443112306998955 -44.495178876415594 0 -44.495178876415594 -15.79669773860951 0 0 0 0 37.438608168984501 -328.587837389161 0 -328.587837389161 -265.46609217244259 0 0 0 0 365.93703267085948 -21.325457219325472 0 -21.325457219325472 -1.0632473053556168 0 0 0 0 -4.7843638498149801 3.9354625402689862 0 3.9354625402689862 0.53519506248965598 0 0 0 0 119.11744088810883 -263.10878170513752 0 -263.10878170513752 -259.17164137092186 0 0 0 0 -437.44460178921145 -39.91364417882869 0 -39.91364417882869 406.66890708291066 0 0 0 0 240.95455872027196 -30.63320712998393 0 -30.63320712998393 -329.92240925579245 0 0 0 0 -9.6956049843927303 -16.338008183260669 0 -16.338008183260669 7.6945869749332054 0 0 0 0 -117.24460436146182 -11.474085769426893 0 -11.474085769426893 12.463480023643569 0 0 0 0 -134.97362429767236 -88.500302425272821 0 -88.500302425272821 129.86005330327316 0 0 0 0 11.171494013444214 -48.263632438341347 0 -48.263632438341347 43.691117092451464 0 0 0 0 79.386585056658078 -218.34999741979846 0 -218.34999741979846 136.29306859580174 0 0 0 0 94.00980658113258 -109.53962095465249 0 -109.53962095465249 -50.921589479305112 0 0 0 0 -41.627208661513578 -81.531407790993399 0 -81.531407790993399 -4.5637907621421618 0 0 0 0 -165.52558946980935 -10.274233005053247 0 -10.274233005053247 255.22318715543952 0 0 0 0 -38.476564841638819 -51.305333420919631 0 -51.305333420919631 -43.402818399410876 0 0 0 0 -6.891307667665032 -18.710147095048086 0 -18.710147095048086 -8.7955310210632547 0 0 0 0 231.65297848114278 -270.37349191830435 0 -270.37349191830435 233.94610769231804 0 0 0 0 57.360107691434678 -1.1062749217089731 0 -1.1062749217089731 854.85538749577245 0 0 0 0 -16.547538805873046 -133.15180174309353 0 -133.15180174309353 20.954762081510125 0 0 0 0 837.22546180772224 196.97150766212144 0 196.97150766212144 272.2170307458473 0 0 0 0 -51.095712292350981 129.73757563721301 0 129.73757563721301 -292.49118583707605 0 0 0 0 40.672688003818621 49.00926601482206 0 49.00926601482206 -475.0213037179783 0 0 0 0 -54.838821996250772 125.07160806100001 0 125.07160806100001 -106.07804197593941 0 0 0 0 51.303909092925096 5.8807307180977659 0 5.8807307180977659 -308.82301782956347 0 0 0 0 -264.04790168476757 -486.50377915310673 0 -486.50377915310673 80.10806301527191 0 0 0 0 -41.194962527642929 74.172996377645177 0 74.172996377645177 36.450613438442815 0 0 0 0 -20.237770439077142 -51.785032271675981 0 -51.785032271675981 -48.775064297189431 0 0 0 0 -1.115386275037153 -4.0796732230717225 0 -4.0796732230717225 -6.8857053287008512 0 0 0 0 -787.78025296375563 -1298.527196263487 0 -1298.527196263487 -385.20664906583261 0 0 0 0 -14.226566672896297 84.385041664965684 0 84.385041664965684 -557.64377745223464 0 0 0 0 9.123223464015922 -46.688624182203881 0 -46.688624182203881 24.684227177561581 0 0 0 0 7.9931579414769658 -68.642241292798644 0 -68.642241292798644 -20.464427946892101 0 0 0 0 -14.706406273069042 -43.51001285755153 0 -43.51001285755153 -32.271267221757341 0 0 0 0 -15.854951037563296 -79.820300979110471 0 -79.820300979110471 -16.975189865859647 0 0 0 0 10.360390108166744 -48.936372935740266 0 -48.936372935740266 2.0813239472688565 0 0 0 0 314.78041527889764 134.3926422882214 0 134.3926422882214 28.355163030180847 0 0 0 0 -2485.4126865213493 -812.51783274680201 0 -812.51783274680201 802.34210027192603 0 0 0 0 -559.13548844328761 181.934159654018 0 181.934159654018 482.79650203359779 0 0 0 0 46.483933037598035 -198.36882496380713 0 -198.36882496380713 -814.79223380921758 0 0 0 0 57.384026380761497 243.72633816539019 0 243.72633816539019 181.02423307808931 0 0 0 0 -146.85989524308752 -168.70251183153596 0 -168.70251183153596 42.594130965822842 0 0 0 0 -37.004809132522496 -164.32594310247077 0 -164.32594310247077 8.9861080048722215 0 0 0 0 -70.271620178549711 -309.38663670768437 0 -309.38663670768437 -179.14576328062685 0 0 0 0 48.148881649707619 -223.84266931971069 0 -223.84266931971069 -456.39298041995244 0 0 0 0 25.62513485031468 -141.50193048141591 0 -141.50193048141591 -274.88181074231397 0 0 0 0 25.405488248271581 -19.737384372233123 0 -19.737384372233123 18.324478005831196 0 0 0 0 -51.248557818798872 -104.64952795673889 0 -104.64952795673889 -27.28967261964317 0 0 0 0 -23.018017745354882 -58.665328189988941 0 -58.665328189988941 -22.293582441168837 0 0 0 0 -17.587729496517568 -75.631560217821971 0 -75.631560217821971 15.381066366733648 0 0 0 0 -16.401012502399681 -95.746786833085935 0 -95.746786833085935 -47.050080116499885 0 0 0 0 16.7944081579505 -34.144646273132935 0 -34.144646273132935 9.7724357030261899 0 0 0 0 33.044095208737417 -37.773298258071009 0 -37.773298258071009 -65.198120873652897 0 0 0 0 -47.158913967041372 -158.8095507871767 0 -158.8095507871767 -54.540538597662817 0 0 0 0 -61.452133241702541 -120.21356910921168 0 -120.21356910921168 -101.64525613309524 0 0 0 0 -165.92257258170866 -162.49933932138083 0 -162.49933932138083 180.32658942090347 0 0 0 0 -76.297032610113092 -264.26697090012749 0 -264.26697090012749 114.17695098489639 0 0 0 0 -38.00145088486039 -55.076522852239236 0 -55.076522852239236 -51.612604613645829 0 0 0 0 71.455779567295394 -103.50017994415975 0 -103.50017994415975 -96.587018057018327 0 0 0 0 58.814193952151982 -92.871841123156628 0 -92.871841123156628 -99.073036653229792 0 0 0 0 4.9925609726915354 -32.663870560601936 0 -32.663870560601936 71.323553977301344 0 0 0 0 0.037733880350060645 -24.05612408064917 0 -24.05612408064917 87.620743730745744 0 0 0 0 -33.747762512425197 -69.274162665031326 0 -69.274162665031326 95.246926992549561 0 0 0 0 -5.2366038882937573 -56.400285816809628 0 -56.400285816809628 61.288285755232209 0 0 0 0 -10.557439698240159 -47.652585095427639 0 -47.652585095427639 90.900457386684138 0 0 0 0 -13.948774603100901 84.583072769411956 0 84.583072769411956 162.6739245512872 0 0 0 0 24.03054291375156 -32.696795384363213 0 -32.696795384363213 -20.076575044732039 0 0 0 0 -27.291563827428035 21.758779797237366 0 21.758779797237366 -19.823436427061097 0 0 0 0 16.565604024403001 -81.818826979644655 0 -81.818826979644655 -35.623097392584896 0 0 0 0 -2.262851376311545 -27.417377127683721 0 -27.417377127683721 21.343207880675436 0 0 0 0 -111.7781922451486 -168.67366581300666 0 -168.67366581300666 7.0633691787370481 0 0 0 0 -195.51328478012874 -51.833558555896161 0 -51.833558555896161 -50.120732741619577 0 0 0 0 -138.72763072724774 -119.76893228624249 0 -119.76893228624249 17.833036247990094 0 0 0 0 436.12830276032037 275.89786473393906 0 275.89786473393906 119.98104693728965 0 0 0 0 -66.273685003010542 -294.03595810552906 0 -294.03595810552906 16.311376406054478 0 0 0 0 24.218216014753079 -41.406878323652919 0 -41.406878323652919 22.1150738481291 0 0 0 0 -0.3167268639918035 -5.772242232800977 0 -5.772242232800977 3.2305730928572416 0 0 0 0 -7.078798120659485 -287.572638982645 0 -287.572638982645 12.67899828334339 0 0 0 0 28.577946622164745 -21.634183930844301 0 -21.634183930844301 50.53644648892805 0 0 0 0 6.0250436640235421 -299.59122181340535 0 -299.59122181340535 -65.506453778827563 0 0 0 0 33.459623994742287 -187.13533854356501 0 -187.13533854356501 249.70999774371739 0 0 0 0 24.641996989026666 -136.10131283468218 0 -136.10131283468218 462.77540151390713 0 0 0 0 10.276723412789579 -270.92867731343722 0 -270.92867731343722 -27.547233815304935 0 0 0 0 203.11758639031905 181.74636105302488 0 181.74636105302488 445.28361752419733 0 0 0 0 159.07371021356084 31.364434897375759 0 31.364434897375759 100.41254491376458 0 0 0 0 2.1689157592772972 38.738532958726864 0 38.738532958726864 192.63809159840457 0 0 0 0 -50.388400913594523 135.95141961908666 0 135.95141961908666 15.777693911310052 0 0 0 0 30.645706638559204 -161.42162063269279 0 -161.42162063269279 -151.34072263387498 0 0 0 0 22.314229542798785 -41.041032379755052 0 -41.041032379755052 33.004040737258038 0 0 0 0 -324.52829010487767 -105.96994820785767 0 -105.96994820785767 150.03618550789542 0 0 0 0 16.126574314750549 -49.862551577051477 0 -49.862551577051477 31.486284859152875 0 0 0 0 -172.88735956494929 -88.575230804097373 0 -88.575230804097373 -43.737292108184192 0 0 0 0 -235.22792705327447 120.82250079356163 0 120.82250079356163 184.50042162049795 0 0 0 0 47.360453621738998 -119.84644148783991 0 -119.84644148783991 27.905685815901961 0 0 0 0 185.14346913193003 82.597444758430356 0 82.597444758430356 49.821699018968502 0 0 0 0 347.64187184351613 97.970841678004945 0 97.970841678004945 36.11686839920003 0 0 0 0 259.70814961970609 -119.43232415057719 0 -119.43232415057719 -10.274287359934533 0 0 0 0 -170.0382716253298 -154.40193963481943 0 -154.40193963481943 131.25352703209501 0 0 0 0 -75.846024647733429 -129.19889069098281 0 -129.19889069098281 38.804309188446496 0 0 0 0 51.242306292995636 -271.48362252788502 0 -271.48362252788502 13.340316931396956 0 0 0 0 0.82690728111373346 1.9536113199943728 0 1.9536113199943728 23.546830728614452 0 0 0 0 -372.0599656743143 -6.5717220556471148 0 -6.5717220556471148 109.62548845718266 0 0 0 0 626.05454931767781 -117.34972496395858 0 -117.34972496395858 -150.6222280455404 0 0 0 0 469.25172540344465 -301.50055987040832 0 -301.50055987040832 -124.00554697425105 0 0 0 0 190.50302793899027 -408.16049037728226 0 -408.16049037728226 -12.470558494678698 0 0 0 0 -270.56599046046904 7.4102463460585568 0 7.4102463460585568 5.8069748562993482 0 0 0 0 -265.26549379021435 -51.414701347168375 0 -51.414701347168375 86.109315773122944 0 0 0 0 -302.42131916126527 -102.27606479590031 0 -102.27606479590031 126.12816850564559 0 0 0 0 -174.12037614882865 -67.298447923996719 0 -67.298447923996719 67.296068458163063 0 0 0 0 0.65178685402456082 2.6077139861052565 0 2.6077139861052565 11.330922167340532 0 0 0 0 -435.36412328602455 157.80300156611338 0 157.80300156611338 26.472001261539845 0 0 0 0 557.29273964768436 -62.066758789784217 0 -62.066758789784217 -117.53182750853011 0 0 0 0 250.81018575288545 119.72365109542443 0 119.72365109542443 298.3050261514436 0 0 0 0 -11.656443552810742 -143.73468140224577 0 -143.73468140224577 -76.666697303880937 0 0 0 0 -17.184521184804908 58.09102206602256 0 58.09102206602256 104.2161955449119 0 0 0 0 198.35744894360687 -81.392774984222342 0 -81.392774984222342 -318.03501980216242 0 0 0 0 -331.56511568323185 -173.52782931973343 0 -173.52782931973343 124.22915898507927 0 0 0 0 29.686480514644799 -19.872726751869521 0 -19.872726751869521 -6.2819836707600984 0 0 0 0 -302.30790840416739 117.14894280247972 0 117.14894280247972 -97.931372922917944 0 0 0 0 7.8466566219799461 -440.01558577797459 0 -440.01558577797459 534.55142658606928 0 0 0 0 -36.509057003005069 -42.463193099000321 0 -42.463193099000321 -49.868684850047941 0 0 0 0 -175.44824870833691 -69.63212659227429 0 -69.63212659227429 138.02835388835229 0 0 0 0 -44.988884371101449 -89.060170304997882 0 -89.060170304997882 37.394293151606689 0 0 0 0 -353.77929561825658 -18.15760696389043 0 -18.15760696389043 300.23164389755402 0 0 0 0 84.710082542544114 -30.209202980877308 0 -30.209202980877308 258.02774266703636 0 0 0 0 -24.575730290967584 -32.639918084596665 0 -32.639918084596665 -39.307090039455261 0 0 0 0 15.922567872315994 -10.520691554971563 0 -10.520691554971563 82.494340132969228 0 0 0 0 -36.943498997890856 -58.08348144331103 0 -58.08348144331103 77.595927412929996 0 0 0 0 -56.70802019679104 -55.0337866556074 0 -55.0337866556074 82.522540117315657 0 0 0 0 10.368155278927588 -272.38763634407223 0 -272.38763634407223 -93.353668947151164 0 0 0 0 35.915195481160481 -201.95871380918834 0 -201.95871380918834 -368.79513722390402 0 0 0 0 -53.537410385462863 147.97909136268936 0 147.97909136268936 -254.94404248950013 0 0 0 0 -501.6872421187436 -248.6183864523482 0 -248.6183864523482 2.0697684244732955 0 0 0 0 111.34880038163101 -352.35365195156191 0 -352.35365195156191 -408.49401087759179 0 0 0 0 -0.21088691200265419 -1.6612899961358636 0 -1.6612899961358636 -5.4034212383597264 0 0 0 0 -680.32890219651676 -257.70319477663304 0 -257.70319477663304 -52.200484829838388 0 0 0 0 243.99291678492079 39.055119927330452 0 39.055119927330452 -161.00409788561228 0 0 0 0 287.45360039091975 106.8811869752426 0 106.8811869752426 -65.37970131415932 0 0 0 0 5.7229834145200584 -97.95604394856673 0 -97.95604394856673 -68.939457404165296 0 0 0 0 600.74544335760584 41.914722991190501 0 41.914722991190501 -190.89141273454879 0 0 0 0 14.647286048919725 -27.464066167765878 0 -27.464066167765878 -12.301028281327604 0 0 0 0 374.46099683477951 298.45917179061507 0 298.45917179061507 267.67176682446734 0 0 0 0 283.01793684796212 97.906561682379106 0 97.906561682379106 -47.634922194985847 0 0 0 0 0.050422639872465425 -8.2238915619739998 0 -8.2238915619739998 -2.7440715711805126 0 0 0 0 -1.751510195871063 -7.4940639452072446 0 -7.4940639452072446 -1.3911046726981908 0 0 0 0 -213.29315272865642 -254.69418775945451 0 -254.69418775945451 -435.65046912914841 0 0 0 0 213.48696025403478 -129.30277234414098 0 -129.30277234414098 44.833235014357342 0 0 0 0 107.84282023002015 -137.22943780730566 0 -137.22943780730566 235.83559829391015 0 0 0 0 101.11432912713099 223.67680347251917 0 223.67680347251917 165.72751827434695 0 0 0 0 410.78991230283646 69.230340978960157 0 69.230340978960157 -22.729432800857467 0 0 0 0 293.82169925015478 54.36377069480659 0 54.36377069480659 -24.502219824329586 0 0 0 0 -509.64596542985964 -364.01189580826758 0 -364.01189580826758 -177.74564716106397 0 0 0 0 -1253.3544976302219 -1051.4121492561317 0 -1051.4121492561317 -746.23466383563937 0 0 0 0 0.85491411221396874 -1.9937812717986105 0 -1.9937812717986105 -0.73644357163658469 0 0 0 0 -169.33422237740888 -952.60185731357342 0 -952.60185731357342 -1187.7165795347828 0 0 0 0 -201.95456283650128 -1372.7933187778617 0 -1372.7933187778617 -1908.7119306483728 0 0 0 0 -1167.7375086032371 -796.66333583635424 0 -796.66333583635424 -346.45112113249343 0 0 0 0 490.70640604486834 54.72674296770856 0 54.72674296770856 -110.52065726429282 0 0 0 0 325.95773903802547 -75.322344875839917 0 -75.322344875839917 -87.109142195695313 0 0 0 0 117.8714026609814 -95.076673238221701 0 -95.076673238221701 -18.349957126716617 0 0 0 0 514.47053600414438 -1080.5217920358555 0 -1080.5217920358555 392.76607835566392 0 0 0 0 -333.1003771994001 -434.55267514994193 0 -434.55267514994193 527.4644358348487 0 0 0 0 114.89513318587706 -1202.7968040651758 0 -1202.7968040651758 -2073.8380006449879 0 0 0 0 -162.3840040452742 -560.59305932051939 0 -560.59305932051939 -411.88954774462036 0 0 0 0 -1632.302592200409 -517.19177863351069 0 -517.19177863351069 -412.17078069610091 0 0 0 0 1067.1812113144661 -536.56336589087005 0 -536.56336589087005 -2447.8599529229832 0 0 0 0 -6.4878490834174301 -12.126888359648845 0 -12.126888359648845 -19.542773747127399 0 0 0 0 1005.3374643891075 -217.17599636291561 0 -217.17599636291561 -983.1793862721097 0 0 0 0 1086.9017040325539 -292.07108424632816 0 -292.07108424632816 -947.52960745937889 0 0 0 0 247.84743379666179 -1381.56071686004 0 -1381.56071686004 -2182.2471938494709 0 0 0 0 1036.9205361021186 -895.67192670701934 0 -895.67192670701934 -2142.8027579721384 0 0 0 0 -9.3541452574188639 -13.348242892663663 0 -13.348242892663663 -15.562173967404021 0 0 0 0 -1202.1758076533006 -799.91224843381497 0 -799.91224843381497 -244.1097905182105 0 0 0 0 -73.704584356113628 115.04439987547084 0 115.04439987547084 239.83911361867649 0 0 0 0 207.76680150003813 -1267.4435848179492 0 -1267.4435848179492 961.76545233428874 0 0 0 0 -658.11670041194884 -393.39914218607009 0 -393.39914218607009 981.91579009597922 0 0 0 0 551.12702619787342 -2.8413009653895642 0 -2.8413009653895642 41.289457442908315 0 0 0 0 454.94873935251962 -609.02587618705002 0 -609.02587618705002 121.58614827147176 0 0 0 0 -349.12853517838812 -303.94495696539525 0 -303.94495696539525 88.224492937665673 0 0 0 0 335.49264763327665 -183.48709030554164 0 -183.48709030554164 -2408.2953709703834 0 0 0 0 120.58291055427253 -357.85129912734556 0 -357.85129912734556 -1173.5188122604159 0 0 0 0 179.89818526894669 144.95690692227072 0 144.95690692227072 -945.17866980406689 0 0 0 0 -1574.1429131598052 159.43179340436473 0 159.43179340436473 -773.25956058398879 0 0 0 0 163.38878127830685 -542.36315613334227 0 -542.36315613334227 -565.85672319144942 0 0 0 0 61.270160596337519 5.7908647002332145 0 5.7908647002332145 76.628006775135873 0 0 0 0 108.51415443175938 -97.939097401682375 0 -97.939097401682375 53.191715167515213 0 0 0 0 -65.659406882376061 -159.80937807361624 0 -159.80937807361624 29.86436345729453 0 0 0 0 26.590212665480067 -6.8374426934315125 0 -6.8374426934315125 24.939226878224872 0 0 0 0 197.79223294924304 3.5953454553309712 0 3.5953454553309712 94.062676999443283 0 0 0 0 269.93908254178314 -131.22594908983592 0 -131.22594908983592 64.720343614157173 0 0 0 0 1.0920616770156215 2.3308680072636676 0 2.3308680072636676 2.6574112926468274 0 0 0 0 414.26969576704505 -110.76415119184821 0 -110.76415119184821 -23.438903791393386 0 0 0 0 174.95198625867124 -117.57519078727637 0 -117.57519078727637 125.62490107690974 0 0 0 0 154.57161779109447 -175.85067759746744 0 -175.85067759746744 -19.906562160424073 0 0 0 0 -211.20464378774886 84.005538931582123 0 84.005538931582123 -278.88098495299346 0 0 0 0 -331.05487133040879 240.05758740611054 0 240.05758740611054 -477.99158913204155 0 0 0 0 -595.22792080881482 248.14560737129068 0 248.14560737129068 -195.79402250528801 0 0 0 0 -406.9665452444824 220.40393605157442 0 220.40393605157442 16.090321181472973 0 0 0 0 -433.87875346073997 90.138130719315086 0 90.138130719315086 -44.153290422167629 0 0 0 0 -337.88296310558508 -219.41603890548868 0 -219.41603890548868 244.3666565084859 0 0 0 0 -803.72723231516284 186.00725201213208 0 186.00725201213208 20.138728645382798 0 0 0 0 -612.46231066899054 -101.72280558911007 0 -101.72280558911007 -492.95405764455791 0 0 0 0 -1115.0649439655535 478.94885582730058 0 478.94885582730058 -1063.779314476109 0 0 0 0 -521.90236898982403 -745.37146221152216 0 -745.37146221152216 -2312.4086346620243 0 0 0 0 -1390.8017307402815 -1500.2324941379957 0 -1500.2324941379957 -1189.1801923300955 0 0 0 0 -0.81009485707946993 -0.51692778077131152 0 -0.51692778077131152 -3.1126497246684153 0 0 0 0 -182.20346909260479 -81.230639361776412 0 -81.230639361776412 50.59597359491454 0 0 0 0 -1060.7580499251926 -1268.9006654519471 0 -1268.9006654519471 -898.00352193214712 0 0 0 0 -879.0854340525766 -1115.2415128210851 0 -1115.2415128210851 -960.8844620277232 0 0 0 0 -1581.3902197038406 -1219.0908449815324 0 -1219.0908449815324 -680.9304999512824 0 0 0 0 -906.54815746144959 -969.75895594425674 0 -969.75895594425674 -944.23243774753064 0 0 0 0 -769.51746287607239 -1145.7550185916043 0 -1145.7550185916043 -719.18277625345218 0 0 0 0 -465.74902006225602 -712.91318518121261 0 -712.91318518121261 -729.96877192353713 0 0 0 0 -155.16764460364357 -612.68842636299087 0 -612.68842636299087 -1115.9389523116915 0 0 0 0 -882.11697836910389 -1085.7095031305798 0 -1085.7095031305798 -1040.6109557612799 0 0 0 0 -425.09323870718072 -651.34406840984593 0 -651.34406840984593 -349.36752089665606 0 0 0 0 -480.62316932867361 -463.0002133864491 0 -463.0002133864491 -694.42417905034381 0 0 0 0 -96.388644039214341 -803.9728698423969 0 -803.9728698423969 -754.98265320880455 0 0 0 0 55.213582902229973 -251.53674946284445 0 -251.53674946284445 210.08597315599036 0 0 0 0 -2.4629685572980833 -1.8214753988199561 0 -1.8214753988199561 -2.0364083876931431 0 0 0 0 173.61354717765062 -96.509122930976446 0 -96.509122930976446 -922.70972725976026 0 0 0 0 29.649523730042347 -318.98269079227975 0 -318.98269079227975 103.5027685900568 0 0 0 0 -464.9623764630669 -1256.221930497064 0 -1256.221930497064 -1966.3341355106822 0 0 0 0 -326.89135541683208 -228.8523783434066 0 -228.8523783434066 503.5244435913628 0 0 0 0 -99.649580670928117 -1112.4421283917472 0 -1112.4421283917472 -489.82402922934125 0 0 0 0 -260.27023991341412 372.14155689952895 0 372.14155689952895 343.51604018568469 0 0 0 0 -1.8947707894905221 -5.791380704472374 0 -5.791380704472374 3.8821936144475444 0 0 0 0 -789.71184951734904 -1266.7009550546427 0 -1266.7009550546427 -1273.4286127489177 0 0 0 0 -29.712265566420683 -133.82364121970022 0 -133.82364121970022 -115.72882359093637 0 0 0 0 195.78927294156892 -446.55849047242373 0 -446.55849047242373 -356.72354031866416 0 0 0 0 86.28315580789058 -287.91014075028943 0 -287.91014075028943 26.637004327072646 0 0 0 0 -90.452259761019377 -234.31857870728709 0 -234.31857870728709 103.40078906781855 0 0 0 0 211.80118178298108 415.43730328863603 0 415.43730328863603 -151.38933090204955 0 0 0 0 286.70069243788021 -185.06169895196217 0 -185.06169895196217 -496.02143958219676 0 0 0 0 0.32638217275895443 -2.5882417348520335 0 -2.5882417348520335 -3.3930648557918346 0 0 0 0 -171.87368676520418 -74.474067570146872 0 -74.474067570146872 112.96075631616532 0 0 0 0 -187.06783220034413 53.372241822915385 0 53.372241822915385 -84.8205378921175 0 0 0 0 -417.03189921502781 -725.15811586576456 0 -725.15811586576456 -855.77582419160808 0 0 0 0 -543.59778337050375 -689.76059351871663 0 -689.76059351871663 -494.31370218764641 0 0 0 0 -476.69125942241953 -694.45789306642837 0 -694.45789306642837 -858.97061071785538 0 0 0 0 0.0026194161228261237 -13.159209337325336 0 -13.159209337325336 10.193703549437146 0 0 0 0 -383.5127803447831 -833.54609247451299 0 -833.54609247451299 -1348.9214124712162 0 0 0 0 -593.29394365254848 -714.61926378821954 0 -714.61926378821954 -1278.3835009809118 0 0 0 0 -428.74393116419378 -718.52162974297244 0 -718.52162974297244 -1796.703084061679 0 0 0 0 -592.76169802484583 -648.89545483084078 0 -648.89545483084078 -1452.6848106354591 0 0 0 0 -523.71377210457285 -844.29782455394161 0 -844.29782455394161 -1368.9992348852829 0 0 0 0 -587.56064451115526 -643.55174709951098 0 -643.55174709951098 -944.02202235741424 0 0 0 0 -434.67753971205093 -782.14062400612602 0 -782.14062400612602 -1181.9299739798589 0 0 0 0 -621.07594991200313 -810.65618074551458 0 -810.65618074551458 -1185.5829921117402 0 0 0 0 -548.9781111109769 -683.70685850942391 0 -683.70685850942391 -994.74123262903595 0 0 0 0 -604.56257337673242 -662.98016165647152 0 -662.98016165647152 -1002.2044159434736 0 0 0 0 -603.28512361222238 -796.84118826026679 0 -796.84118826026679 -1151.9833883357933 0 0 0 0 -642.762822810746 -860.13738404172545 0 -860.13738404172545 -1139.5602412511071 0 0 0 0 -570.21265300377854 -938.02316929445078 0 -938.02316929445078 -1517.6261260266183 0 0 0 0 -574.5692018773625 -726.96971955978006 0 -726.96971955978006 -1201.332980897103 0 0 0 0 -576.67754810753468 -837.34630964514508 0 -837.34630964514508 -1275.484301101038 0 0 0 0 -663.96721110694489 -643.87913538791327 0 -643.87913538791327 -668.77113578631543 0 0 0 0 -617.68094027139887 -761.6825851896283 0 -761.6825851896283 -804.99466352953459 0 0 0 0 -623.86146248018122 -560.12750413379399 0 -560.12750413379399 -485.34507110220147 0 0 0 0 -414.54128146833682 -648.60209097263578 0 -648.60209097263578 -772.17736366155077 0 0 0 0 -578.12349400091625 -596.34660076558066 0 -596.34660076558066 -675.82292543314725 0 0 0 0 -511.61330040045141 -511.57501129200682 0 -511.57501129200682 -638.15060619151336 0 0 0 0 1.8044033331040197 -2.0802355308488814 0 -2.0802355308488814 -10.713810506443508 0 0 0 0 -648.50497271391578 -591.84318624576554 0 -591.84318624576554 -419.22334218453034 0 0 0 0 -600.43033116112201 -704.05736315994727 0 -704.05736315994727 -917.56070132550667 0 0 0 0 -725.28094244782915 -520.21447479309791 0 -520.21447479309791 -525.71082121242944 0 0 0 0 -692.23503485718538 -893.24728666614828 0 -893.24728666614828 -956.43446080532158 0 0 0 0 -696.1298938837499 -858.4088860477641 0 -858.4088860477641 -847.46418723231182 0 0 0 0 -1034.4437347926432 -836.52638008233043 0 -836.52638008233043 -538.31805442557379 0 0 0 0 -39.680170498120788 20.923444104617374 0 20.923444104617374 -53.046220531767176 0 0 0 0 -1.7508486616240901 -16.956776712360664 0 -16.956776712360664 0.10906888997906711 0 0 0 0 4.3724712356015516 -16.62342277141579 0 -16.62342277141579 -1.049516414248501 0 0 0 0 -2.5055837779254944 -17.742416738525208 0 -17.742416738525208 13.522001183533575 0 0 0 0 -56.634737139775098 4.575899197589024 0 4.575899197589024 105.47126191250572 0 0 0 0 -12.164811758568248 -34.4451942769374 0 -34.4451942769374 0.19972059823339805 0 0 0 0 24.976942644963856 -16.132068174876622 0 -16.132068174876622 -2.3594830734218704 0 0 0 0 120.17146322951157 -208.86230108929158 0 -208.86230108929158 224.44261162361363 0 0 0 0 -12.947619458413101 -26.833866226355894 0 -26.833866226355894 -3.0414889109342766 0 0 0 0 -1.7317518238484695 -5.8605553502866599 0 -5.8605553502866599 6.5422611392037311 0 0 0 0 -1.2646322823793099 -4.5336117650938661 0 -4.5336117650938661 -1.7085050434279647 0 0 0 0 -134.79960475693588 28.628295689908555 0 28.628295689908555 -14.074925000255462 0 0 0 0 -471.60681035995003 -516.35374297960152 0 -516.35374297960152 -164.52578335325234 0 0 0 0 -240.30092164931557 -516.49605388661439 0 -516.49605388661439 -481.36834229274245 0 0 0 0 -474.28674281621716 -602.87599503278034 0 -602.87599503278034 -248.29701584782742 0 0 0 0 -74.713968427848158 -679.26544690889568 0 -679.26544690889568 -245.55563420284307 0 0 0 0 -265.8278743503397 -281.5877983221435 0 -281.5877983221435 19.011043208476622 0 0 0 0 397.61170803007553 -343.72161668806802 0 -343.72161668806802 0.40683257929777028 0 0 0 0 -215.94629579936554 -681.04887434781267 0 -681.04887434781267 157.9463302869699 0 0 0 0 573.74361935717025 -250.37721009820234 0 -250.37721009820234 -103.19485402834835 0 0 0 0 -1.4046543981922923 0.13481421605273169 0 0.13481421605273169 4.3218086418384019 0 0 0 0 -451.73046098582563 -558.10522120359383 0 -558.10522120359383 131.83890970000357 0 0 0 0 -422.40363496718601 -569.07178436208778 0 -569.07178436208778 -158.54258709584246 0 0 0 0 -521.48295823687658 -699.62327313629794 0 -699.62327313629794 -149.06729391873887 0 0 0 0 -364.79024264953478 -701.8614787859442 0 -701.8614787859442 -493.67166956127039 0 0 0 0 47.733329463899281 -103.48927466018176 0 -103.48927466018176 -63.439457942105946 0 0 0 0 -18.199441454133193 -26.117835265125905 0 -26.117835265125905 17.868157548315139 0 0 0 0 -137.0634936397546 -36.79551867713235 0 -36.79551867713235 859.88117705093282 0 0 0 0 -38.623954521068057 -34.180176004701622 0 -34.180176004701622 -22.453101185910953 0 0 0 0 176.74691048300883 -579.00839704452665 0 -579.00839704452665 1048.471615266928 0 0 0 0 399.76075688571655 -735.35363924855119 0 -735.35363924855119 586.22575132380007 0 0 0 0 248.9318918002682 -487.17837464184413 0 -487.17837464184413 638.11835742265976 0 0 0 0 -28.93058405704889 -28.997251646333424 0 -28.997251646333424 -26.312697041821366 0 0 0 0 258.81320957793514 80.627009167299548 0 80.627009167299548 -22.490523256303277 0 0 0 0 223.17147503257729 -170.72993140278413 0 -170.72993140278413 45.346528016321827 0 0 0 0 -7.9832588035569643 59.697977821742825 0 59.697977821742825 -6.0672037420899869 0 0 0 0 -3.545053171368636 -1.9167374068383651 0 -1.9167374068383651 -28.893029486447631 0 0 0 0 121.08081710580154 -5.0050697364931693 0 -5.0050697364931693 -179.26593128377863 0 0 0 0 2.1035696239232493 -18.892217494689248 0 -18.892217494689248 -4.7773626692287507 0 0 0 0 6.9537348772585119 -15.718146604501186 0 -15.718146604501186 0.75780975952193774 0 0 0 0 1.6099485573286074 -16.349902595771709 0 -16.349902595771709 0.83508198036770409 0 0 0 0 -2.2035445130459266 -20.81144697147829 0 -20.81144697147829 0.97744946358670859 0 0 0 0 2.6560908028368431 -22.353839169663843 0 -22.353839169663843 -0.051530094453482889 0 0 0 0 -2.1825981581423548 -28.459052921039984 0 -28.459052921039984 0.0035940659727202728 0 0 0 0 1.1453887332063459 -25.674213404172406 0 -25.674213404172406 -7.3185557712422451 0 0 0 0 10.712616316701315 -21.418185439586523 0 -21.418185439586523 -7.458461399844964 0 0 0 0 14.010771124736294 -21.091300817691547 0 -21.091300817691547 -7.3706974840809618 0 0 0 0 -10.128295405833342 -34.979890440779855 0 -34.979890440779855 -6.6252345652719669 0 0 0 0 1.953136026422726 -32.804724112742406 0 -32.804724112742406 -21.061511612955655 0 0 0 0 -1.2869225346039457 -28.277731311824027 0 -28.277731311824027 -3.9870601500297198 0 0 0 0 10.926910250418587 -30.282876393059269 0 -30.282876393059269 -5.3575292353198165 0 0 0 0 -0.03422920944285579 -30.535658452328789 0 -30.535658452328789 0.0096996644933824427 0 0 0 0 -83.077785911379578 42.758405658099946 0 42.758405658099946 61.004571147466777 0 0 0 0 -1.4698844180504409 0.68639547987999805 0 0.68639547987999805 -1.480117434521901 0 0 0 0 -47.093907280342137 -179.45598391854401 0 -179.45598391854401 0.20563785551348701 0 0 0 0 -11.50139423692093 -5.493650730191959 0 -5.493650730191959 -3.6108541003693233 0 0 0 0 -557.31702720753674 -571.32139549832937 0 -571.32139549832937 -653.12647521027975 0 0 0 0 1.1158929051211999 -4.2724224739892804 0 -4.2724224739892804 1.950591331784074 0 0 0 0 -1158.9792545005812 -244.22065000570183 0 -244.22065000570183 598.67025395855308 0 0 0 0 -1132.9795598469495 -554.06160033498873 0 -554.06160033498873 -74.730907609075075 0 0 0 0 -18.266751428846305 -18.2678970982032 0 -18.2678970982032 -14.455229549382693 0 0 0 0 226.96983432823617 88.880480237887241 0 88.880480237887241 -167.7733571624467 0 0 0 0 -6.9727213098594802 -23.57421280262497 0 -23.57421280262497 -4.4930374570103595 0 0 0 0 -27.346910845647471 -18.349121244199665 0 -18.349121244199665 7.296504407350767 0 0 0 0 -9.772170633449349 -21.358377774488297 0 -21.358377774488297 -9.4602219835674077 0 0 0 0 4.0161103549762629 -39.730299642717 0 -39.730299642717 21.927331889048219 0 0 0 0 -18.958575081521587 -40.22398929510959 0 -40.22398929510959 -15.960510593526651 0 0 0 0 631.89324673431838 -1120.8597743538376 0 -1120.8597743538376 781.06338415128994 0 0 0 0 -0.78077283566784672 0.82585583672194929 0 0.82585583672194929 11.671984914618633 0 0 0 0 -54.511980949973804 31.11301158972492 0 31.11301158972492 37.564836617559195 0 0 0 0 -881.80309880767163 -978.30784509221849 0 -978.30784509221849 812.32400463120484 0 0 0 0 -9.0174616024960415 -308.368716890207 0 -308.368716890207 1324.2905404986595 0 0 0 0 -284.16694564954378 -70.333799123232893 0 -70.333799123232893 712.94661213709878 0 0 0 0 -596.44809862618422 -572.34887297810928 0 -572.34887297810928 -78.43804775972967 0 0 0 0 68.548285068216501 -327.09009889121808 0 -327.09009889121808 1306.7389112385645 0 0 0 0 214.36189385964462 -299.29897472734956 0 -299.29897472734956 9.1034345414518612 0 0 0 0 -1442.1138554159406 -1312.27789479903 0 -1312.27789479903 -290.19463773004827 0 0 0 0 -846.24006257428846 -749.33221517657512 0 -749.33221517657512 -696.76459281137795 0 0 0 0 -828.37815706754918 -822.62328612006968 0 -822.62328612006968 -474.93957612998202 0 0 0 0 -621.96696008807339 -524.12008736479766 0 -524.12008736479766 -79.753497799199977 0 0 0 0 -1040.6788374459866 -1157.2362942911714 0 -1157.2362942911714 254.32604134994472 0 0 0 0 -927.88434704774409 -1145.3128896890994 0 -1145.3128896890994 227.3381180712895 0 0 0 0 -1203.4424104819118 -1204.0268717674408 0 -1204.0268717674408 748.75228373269783 0 0 0 0 -1253.9447234804247 -1430.4293995947592 0 -1430.4293995947592 185.16081546062924 0 0 0 0 -1080.702529367587 -998.2721805895053 0 -998.2721805895053 -18.169627448660322 0 0 0 0 -1435.4576739815457 -1081.3408915079126 0 -1081.3408915079126 -123.50301332780509 0 0 0 0 -1167.6252987275875 -2028.5103092846257 0 -2028.5103092846257 257.20097868570883 0 0 0 0 -910.2763512969068 -1301.3003292796075 0 -1301.3003292796075 315.85184236866189 0 0 0 0 -2225.2771435057221 -1669.1145701312198 0 -1669.1145701312198 675.60400028381082 0 0 0 0 -1833.4689199542117 -782.82766702496883 0 -782.82766702496883 281.03329894163471 0 0 0 0 -2814.0536982666927 -2665.3695136989645 0 -2665.3695136989645 -0.39447381162608508 0 0 0 0 -5012.620289407816 403.31524280080339 0 403.31524280080339 547.78880445890536 0 0 0 0 -1012.3419730710593 -1565.5163363296742 0 -1565.5163363296742 248.94374718597339 0 0 0 0 -987.92399194914833 -1671.6227240387761 0 -1671.6227240387761 346.7062893784896 0 0 0 0 2204.6266989337382 -1095.4711962404872 0 -1095.4711962404872 -470.72697447122482 0 0 0 0 803.02961014359607 -2387.6623090686335 0 -2387.6623090686335 0.32095652897486426 0 0 0 0 -1.2024253574633832 -8.8905924097602735 0 -8.8905924097602735 9.4091674383668646 0 0 0 0 -1212.6492666507402 -895.15090839477489 0 -895.15090839477489 -0.36026722801034339 0 0 0 0 -1078.7390767552861 -780.66216950014496 0 -780.66216950014496 -344.07590666798933 0 0 0 0 -964.68368374511556 -803.56641766129542 0 -803.56641766129542 -658.74186218233081 0 0 0 0 -6.0017288743051154 -7.8533646020408412 0 -7.8533646020408412 -2.1634532709741165 0 0 0 0 -880.28727974876529 -600.25282089061511 0 -600.25282089061511 -629.88621539800806 0 0 0 0 -897.62805790493439 -1514.5954492402379 0 -1514.5954492402379 185.6288025841568 0 0 0 0 709.4719698192348 -1832.7283219797246 0 -1832.7283219797246 175.98516159321662 0 0 0 0 307.91895610907522 -19.059745004036813 0 -19.059745004036813 1042.3082333257771 0 0 0 0 -1380.1666290436006 -1296.9153292308984 0 -1296.9153292308984 0.084506517181580421 0 0 0 0 -1489.6242529284791 -1628.8158687375544 0 -1628.8158687375544 -485.21509140921989 0 0 0 0 -1324.9267610443858 -1215.919367335162 0 -1215.919367335162 -513.18610564401024 0 0 0 0 -828.70941803599999 -929.42351888721169 0 -929.42351888721169 -599.12823670294347 0 0 0 0 -907.72040671774812 -1190.6083217355681 0 -1190.6083217355681 -1397.8250061260915 0 0 0 0 -5.0026583542062895 -31.48488602395966 0 -31.48488602395966 21.99333164764343 0 0 0 0 -900.72713338767062 -2060.887050717778 0 -2060.887050717778 -2253.764739134589 0 0 0 0 -71.64758312564706 -217.40321628430607 0 -217.40321628430607 43.7847463207072 0 0 0 0 -73.757498286542727 34.478765935410763 0 34.478765935410763 82.148164544385509 0 0 0 0 -166.56680867444084 -116.11288477971902 0 -116.11288477971902 680.33813421633386 0 0 0 0 42.16201586790703 -459.72323854420756 0 -459.72323854420756 133.40064404060831 0 0 0 0 147.13567815595889 -473.17162490105693 0 -473.17162490105693 -217.54144939631806 0 0 0 0 -1702.9297789697011 -839.80520268253895 0 -839.80520268253895 -105.48107001798053 0 0 0 0 -1287.0198534379379 -1070.4916195822516 0 -1070.4916195822516 -171.64669270825834 0 0 0 0 -9.1356788853270814 -39.342564010626688 0 -39.342564010626688 24.494991309286178 0 0 0 0 2.2017780185657649 -14.123357713403038 0 -14.123357713403038 -44.35860737380915 0 0 0 0 73.308020214353746 -161.56471440970927 0 -161.56471440970927 63.300641603938857 0 0 0 0 -2.0098495645688566 -1.6587722193266075 0 -1.6587722193266075 -14.512115802780841 0 0 0 0 -43.825154182573897 -5.3680099939228967 0 -5.3680099939228967 -141.60876646100223 0 0 0 0 -1651.6542625211678 -734.09152738834655 0 -734.09152738834655 -340.60807992170157 0 0 0 0 -2947.6260424751672 -1012.6050921331771 0 -1012.6050921331771 -376.41970593238511 0 0 0 0 -1195.681005451268 -949.36168723662013 0 -949.36168723662013 -1320.9583272158052 0 0 0 0 -2204.0486240668979 -1127.8567046317912 0 -1127.8567046317912 -1225.2572231150261 0 0 0 0 -3891.794661387321 -1953.4319690344164 0 -1953.4319690344164 -764.30676279593899 0 0 0 0 -854.26534331875155 -690.06977518029453 0 -690.06977518029453 -1808.5668948078164 0 0 0 0 -2040.9109130374854 -641.70300723995024 0 -641.70300723995024 -2268.3023390155213 0 0 0 0 -2037.3904631007626 -1769.7972510990876 0 -1769.7972510990876 -2293.7091444402758 0 0 0 0 797.31071025761776 -179.00822933775635 0 -179.00822933775635 -1260.8496487768425 0 0 0 0 -862.89142870824435 -1730.701047314782 0 -1730.701047314782 -1991.1917791262167 0 0 0 0 -2066.5609930290593 -623.90324148786749 0 -623.90324148786749 -2087.4375109484099 0 0 0 0 -2128.9348784956455 -1781.5674904929256 0 -1781.5674904929256 -899.42319094706181 0 0 0 0 -518.39128209074261 -612.51579913625756 0 -612.51579913625756 -1347.2788789592432 0 0 0 0 -1801.0261886021326 -1120.8071392827042 0 -1120.8071392827042 -1452.352543167668 0 0 0 0 -76.84766901632247 -433.51960495991807 0 -433.51960495991807 -214.13576202798868 0 0 0 0 239.59522095163993 -917.63693226944451 0 -917.63693226944451 -840.97966964585794 0 0 0 0 97.098987187942839 -555.52369742277369 0 -555.52369742277369 -1165.8516095869563 0 0 0 0 -338.49771712000074 -789.78040892632271 0 -789.78040892632271 -884.65300794345239 0 0 0 0 -315.51134123023803 -702.9484905023528 0 -702.9484905023528 -1367.8195288560819 0 0 0 0 -351.84884903975762 -1364.6585915163814 0 -1364.6585915163814 -1663.9072215188062 0 0 0 0 -360.40060263719351 -1030.3563797555616 0 -1030.3563797555616 -1041.9384642774676 0 0 0 0 94.58065286904457 -952.23999289657513 0 -952.23999289657513 -1349.3176388242427 0 0 0 0 250.97584204038139 -924.01273098740785 0 -924.01273098740785 -1131.103545859507 0 0 0 0 43.97365911702218 -829.33371620967227 0 -829.33371620967227 -880.00500344194006 0 0 0 0 21.089795060259348 -951.78566720644085 0 -951.78566720644085 -1082.3945756747125 0 0 0 0 134.11581572803698 -880.90629731005538 0 -880.90629731005538 -1041.2869670777145 0 0 0 0 -798.17743521856755 -647.94678273683166 0 -647.94678273683166 -330.64749684152775 0 0 0 0 31.637402324056893 -962.83669254386768 0 -962.83669254386768 -1092.5502898163541 0 0 0 0 -426.14732694785926 -1113.8724193587987 0 -1113.8724193587987 -945.52822465103236 0 0 0 0 -221.11065885145217 -381.4155338160781 0 -381.4155338160781 -379.81661357565554 0 0 0 0 -269.54444951892947 -770.67447088157496 0 -770.67447088157496 -681.42724743348481 0 0 0 0 -65.563387870424776 -801.74428761642048 0 -801.74428761642048 -676.85681632955675 0 0 0 0 231.14636799027357 89.489147787575348 0 89.489147787575348 -731.98679243671359 0 0 0 0 -608.84733098479046 18.608898586382566 0 18.608898586382566 128.97800724748231 0 0 0 0 -1.1341859248427326 -2.1349647014118602 0 -2.1349647014118602 -8.53005447761916 0 0 0 0 -1769.2585101009754 -1129.0490631275061 0 -1129.0490631275061 -535.66151826719579 0 0 0 0 0.46393719985936954 -5.2877321973590199 0 -5.2877321973590199 -17.504533475008316 0 0 0 0 -696.05116143850319 -397.47213349998492 0 -397.47213349998492 121.00170934011464 0 0 0 0 -683.72175902115123 -431.77774303840124 0 -431.77774303840124 -289.263590027178 0 0 0 0 -601.87629825872136 -432.55135205748957 0 -432.55135205748957 -356.49907415472262 0 0 0 0 -631.64845844438241 -256.97865244260902 0 -256.97865244260902 -80.404822416909155 0 0 0 0 -621.97660908226317 -63.905460754871456 0 -63.905460754871456 -387.97289009275846 0 0 0 0 -631.74463792805011 -230.86227541471513 0 -230.86227541471513 -484.78087369806599 0 0 0 0 -606.44270322935154 16.882006589854427 0 16.882006589854427 -592.80923070682911 0 0 0 0 -634.85606114276743 -103.5683218788763 0 -103.5683218788763 -424.36743979618768 0 0 0 0 -318.22093173862959 -195.66855648628552 0 -195.66855648628552 -694.65458871019655 0 0 0 0 -297.59092711439007 -64.489223697426496 0 -64.489223697426496 -632.0281781234662 0 0 0 0 -471.72881937060447 -121.2706745548785 0 -121.2706745548785 -617.26985034468817 0 0 0 0 -476.4579951268388 -139.99021119375539 0 -139.99021119375539 -431.91293739288813 0 0 0 0 -321.13535229140689 -357.11489410776994 0 -357.11489410776994 -628.58217701796093 0 0 0 0 -531.18397738554631 -377.14427973801503 0 -377.14427973801503 -333.2018442027038 0 0 0 0 -495.97150861019327 -452.28200042623212 0 -452.28200042623212 -602.62591035242076 0 0 0 0 -297.57605954304745 -566.13911685648782 0 -566.13911685648782 -680.43678831213037 0 0 0 0 -267.0122362520633 -439.40691762962524 0 -439.40691762962524 -802.10752816320746 0 0 0 0 -245.34733905614848 -467.00286443888763 0 -467.00286443888763 -929.24372922578186 0 0 0 0 -217.52879571577068 -517.91448618828144 0 -517.91448618828144 -844.67790916424565 0 0 0 0 -297.43653740086302 -580.78785083985713 0 -580.78785083985713 -862.38645619224553 0 0 0 0 -328.67824124266554 -650.03854507662618 0 -650.03854507662618 -986.25897548551438 0 0 0 0 -77.608413109192043 -514.20326664493041 0 -514.20326664493041 -1245.8488900738448 0 0 0 0 -181.42765305822104 -196.16010320429632 0 -196.16010320429632 -827.84316447477613 0 0 0 0 40.021988645770762 -269.35723115024666 0 -269.35723115024666 -900.89627133704198 0 0 0 0 -173.0947049921524 -165.70171079524152 0 -165.70171079524152 -716.63627537933644 0 0 0 0 71.134088445527595 -50.363642821394023 0 -50.363642821394023 -777.97703976673802 0 0 0 0 -213.92034747487924 -57.477389309220598 0 -57.477389309220598 -512.84991950706171 0 0 0 0 255.1751425499242 -157.21944203861494 0 -157.21944203861494 -1069.930265238545 0 0 0 0 -10.676744996893831 -181.86436918347317 0 -181.86436918347317 -718.7368762857368 0 0 0 0 112.20766385801107 -155.92103927690187 0 -155.92103927690187 -11.919659646649961 0 0 0 0 319.12343537817651 34.651799579121871 0 34.651799579121871 -649.97585416190122 0 0 0 0 -54.942392416240182 -105.72953969270748 0 -105.72953969270748 -533.71921287408259 0 0 0 0 -63.653373710003507 -16.125744480115827 0 -16.125744480115827 99.769771804625634 0 0 0 0 -299.28485078238737 -7.2792767972423462 0 -7.2792767972423462 -74.085403919132659 0 0 0 0 -455.46258514007786 -276.7958100542819 0 -276.7958100542819 -539.174753082596 0 0 0 0 -498.40817745593085 -209.98617627449858 0 -209.98617627449858 -529.73209899011454 0 0 0 0 -648.27674679002666 -400.03525450782035 0 -400.03525450782035 -1217.6194259351032 0 0 0 0 -1212.251586806964 -946.82776397413545 0 -946.82776397413545 -795.26573540852405 0 0 0 0 -991.45330027901946 -418.87447483916185 0 -418.87447483916185 -993.94608164936653 0 0 0 0 -659.16462645742286 -455.23068246879848 0 -455.23068246879848 -893.21350111145875 0 0 0 0 -583.69817677960827 -13.280344701884587 0 -13.280344701884587 -706.26346278299752 0 0 0 0 -600.47152972627373 -288.0921383426612 0 -288.0921383426612 -1221.1953755449504 0 0 0 0 -561.09403529298697 142.44825168367856 0 142.44825168367856 -723.68259783560643 0 0 0 0 -413.60215451978729 -74.412997735518729 0 -74.412997735518729 -708.62760837791575 0 0 0 0 -415.0843865719944 -58.226483094054856 0 -58.226483094054856 -627.96582020653295 0 0 0 0 -214.23469148790437 26.809840314912137 0 26.809840314912137 -641.87330576390377 0 0 0 0 -1981.6159025368397 -3126.7491862006536 0 -3126.7491862006536 -480.17182329531352 0 0 0 0 -1911.2675397570147 -1951.0935921520766 0 -1951.0935921520766 -1382.862885677634 0 0 0 0 -1278.5396371817624 -1755.3812548532442 0 -1755.3812548532442 -1725.4735431371237 0 0 0 0 3.1655022959937753 -9.0728568325432661 0 -9.0728568325432661 0.042312575546816333 0 0 0 0 -2768.1421450435882 -2211.4788697175245 0 -2211.4788697175245 0.53879148898704443 0 0 0 0 -1.07399119243928 -1565.2716159045976 0 -1565.2716159045976 -2008.080815270223 0 0 0 0 -1123.7884453110346 -2872.5012920253048 0 -2872.5012920253048 -1481.0311614124075 0 0 0 0 -1728.105677101943 -1967.4970344518188 0 -1967.4970344518188 -1742.175446204441 0 0 0 0 8.5297566673725669 -14.644268352616336 0 -14.644268352616336 4.2947077026491911 0 0 0 0 -1236.2794980220788 -1473.961446023226 0 -1473.961446023226 -1495.8746599667629 0 0 0 0 2.3005445909737432 -8.4657128005335949 0 -8.4657128005335949 1.668387062400484 0 0 0 0 -6.67098686961981 -1582.3034275458631 0 -1582.3034275458631 -1503.908953805585 0 0 0 0 -1799.7787356804329 -2089.9982023869961 0 -2089.9982023869961 -795.94856983731916 0 0 0 0 -843.19932941644947 -2964.0889060386799 0 -2964.0889060386799 -2.9547740496491315 0 0 0 0 -776.13021712160844 -1944.5156749197704 0 -1944.5156749197704 -1728.6732938393106 0 0 0 0 -1518.2562435718937 -2303.5595249508297 0 -2303.5595249508297 -867.53555176460941 0 0 0 0 -1373.0427998218111 -1926.9721296475745 0 -1926.9721296475745 -1893.4367016511533 0 0 0 0 -1429.2780428485712 -1809.0559223875825 0 -1809.0559223875825 -1742.3126189641453 0 0 0 0 -1284.6603374185179 -1728.8527979315495 0 -1728.8527979315495 -1826.1038111913804 0 0 0 0 -2249.8155574692209 -1840.5137652241319 0 -1840.5137652241319 -1657.1927811444548 0 0 0 0 -2462.854350146692 -2626.8553036569356 0 -2626.8553036569356 -1961.3521384860596 0 0 0 0 18.29324097455941 -24.164002035185064 0 -24.164002035185064 9.5278573468796139 0 0 0 0 -2244.9831566672146 -2812.8831161040453 0 -2812.8831161040453 -763.89338600244082 0 0 0 0 -3078.1187884272367 -2416.2758746278159 0 -2416.2758746278159 -1027.455947309616 0 0 0 0 -2077.019241305461 -1998.5397958558897 0 -1998.5397958558897 -1406.538977714019 0 0 0 0 -1872.1590104986899 -2000.1456888309185 0 -2000.1456888309185 -2081.1784229151235 0 0 0 0 -1698.8957808132836 -1984.0182082221581 0 -1984.0182082221581 -1423.3357606883437 0 0 0 0 -2329.041224429413 -1942.5185205645466 0 -1942.5185205645466 -749.89461968380783 0 0 0 0 -1745.2368478958724 -2338.9764763798703 0 -2338.9764763798703 -560.53035208204528 0 0 0 0 -1322.6766528771477 -2361.5819248827829 0 -2361.5819248827829 -771.7673404168163 0 0 0 0 -1998.9723419993679 -2298.6671855112436 0 -2298.6671855112436 1.1608340859675081 0 0 0 0 -1914.6674788047276 -2701.9360263586514 0 -2701.9360263586514 -957.87493264037766 0 0 0 0 -1110.3252223038944 -1862.3315152086852 0 -1862.3315152086852 -1.6409116470458684 0 0 0 0 -1452.3860531602841 -1362.3603145560737 0 -1362.3603145560737 -726.39213916478911 0 0 0 0 -132.92320128755819 -2877.2116839398368 0 -2877.2116839398368 -920.2626281321036 0 0 0 0 -1327.7819249063177 -1001.195550413162 0 -1001.195550413162 -3068.3458687544335 0 0 0 0 6.8122869253225531 -10.722305941017879 0 -10.722305941017879 2.8193415532795711 0 0 0 0 158.70013326864864 -794.18157293580589 0 -794.18157293580589 -2767.1825987641932 0 0 0 0 -474.71101672929944 -133.94320606689871 0 -133.94320606689871 2519.9206778491935 0 0 0 0 -1769.9331325727617 -2583.9229857413484 0 -2583.9229857413484 -2295.1736621406744 0 0 0 0 -0.73891276248991744 -13.505383948630538 0 -13.505383948630538 6.4223520170781399 0 0 0 0 323.77616068552015 -3232.4767384808692 0 -3232.4767384808692 -4844.9974243751931 0 0 0 0 228.36339088099339 -184.68411298828505 0 -184.68411298828505 250.95616866969795 0 0 0 0 205.11722367563925 -1169.6459984496178 0 -1169.6459984496178 141.78874578497562 0 0 0 0 278.12086799763529 -728.58928340978491 0 -728.58928340978491 -822.07059100660263 0 0 0 0 382.63034475581662 -936.5531033084626 0 -936.5531033084626 -1010.9236631173117 0 0 0 0 -388.67001451832766 -1738.0866252120832 0 -1738.0866252120832 776.79416889903951 0 0 0 0 -18.533024708929588 -811.62117013797251 0 -811.62117013797251 -956.57574414371993 0 0 0 0 399.69049971851928 -888.86713347495606 0 -888.86713347495606 -1221.7377293217432 0 0 0 0 194.25779610736936 -933.74547293575597 0 -933.74547293575597 -834.34426979812042 0 0 0 0 205.81129423834136 -773.82192375052728 0 -773.82192375052728 -1106.3987277086126 0 0 0 0 177.58754042100918 -479.72138940401055 0 -479.72138940401055 -1079.059950237096 0 0 0 0 286.67939321565063 -550.67215075459899 0 -550.67215075459899 -1372.3750235476073 0 0 0 0 117.98792245685763 -673.50424249532807 0 -673.50424249532807 -1216.4050827013416 0 0 0 0 14.094185545913206 -879.64604265970411 0 -879.64604265970411 -1237.9073934114422 0 0 0 0 -340.5365299307814 -610.71310687597361 0 -610.71310687597361 -1315.3834878472044 0 0 0 0 -178.42086749325972 -1216.0778867779372 0 -1216.0778867779372 -1391.8629306504372 0 0 0 0 -1649.7470476511226 -1225.3162117161082 0 -1225.3162117161082 -1351.3916253482603 0 0 0 0 -706.37899799747174 -1518.2166778059955 0 -1518.2166778059955 -1554.6381735382747 0 0 0 0 -1375.3811584141972 -1677.9062154153219 0 -1677.9062154153219 -1834.3757013863651 0 0 0 0 -1285.7360154383641 -723.66155650066503 0 -723.66155650066503 -1114.9827852219023 0 0 0 0 -97.172563823263772 -1030.0719949212107 0 -1030.0719949212107 -1460.205180952049 0 0 0 0 -1401.5686685445398 -987.63146992635302 0 -987.63146992635302 -1687.5337012203854 0 0 0 0 -379.45840692633737 -1771.4250342910127 0 -1771.4250342910127 -1333.9504373800155 0 0 0 0 -2730.8937765715636 -2403.8903706967594 0 -2403.8903706967594 -1437.3336222702055 0 0 0 0 18.014537080674074 -24.490839009565491 0 -24.490839009565491 12.018519434904192 0 0 0 0 -1636.7864069690258 -1684.1284333510885 0 -1684.1284333510885 -1521.2867805426795 0 0 0 0 -1737.7047383153258 -2090.9806144428549 0 -2090.9806144428549 -1903.9598163071423 0 0 0 0 -991.86927758839374 -2211.0572973741746 0 -2211.0572973741746 -1713.7145937057649 0 0 0 0 -938.41932542553695 -2136.3494572104246 0 -2136.3494572104246 -1741.5974145927848 0 0 0 0 180.48748067065753 -1423.6844055940091 0 -1423.6844055940091 -1691.3631498489813 0 0 0 0 185.94006715867152 -2713.6444967861135 0 -2713.6444967861135 -1499.2966142889345 0 0 0 0 6.5487607632927904 -11.317995747419843 0 -11.317995747419843 4.8559043218964746 0 0 0 0 -2315.5298012571839 -2716.5335959436543 0 -2716.5335959436543 -1153.8119237518549 0 0 0 0 -272.73273073004384 -2857.2477369935186 0 -2857.2477369935186 -1432.1883847276913 0 0 0 0 -402.18418938115792 -2141.8234360651259 0 -2141.8234360651259 -2541.3482385851312 0 0 0 0 -65.817532904507971 -1905.5480192783775 0 -1905.5480192783775 -2572.7668169056851 0 0 0 0 -415.62480358913308 -2959.7722913840989 0 -2959.7722913840989 -1181.8562593008173 0 0 0 0 -1025.8513068655884 -2370.9988078980314 0 -2370.9988078980314 -1035.9789709841689 0 0 0 0 -1.5579968267702498 -2106.3385792797053 0 -2106.3385792797053 -3068.9727785580471 0 0 0 0 -841.12036024961162 -1776.0383410391869 0 -1776.0383410391869 -2133.6545940440701 0 0 0 0 0.62478554181871004 -2543.7572792998799 0 -2543.7572792998799 -1742.5120640735586 0 0 0 0 -571.59880339389201 -2728.5371442847973 0 -2728.5371442847973 -1419.3973789889715 0 0 0 0 -674.74877249087149 -2675.1481678283599 0 -2675.1481678283599 -1213.9894792549185 0 0 0 0 -5.329706107659149 -3323.8944041021969 0 -3323.8944041021969 -1340.9500940264479 0 0 0 0 -778.13505491152318 -2836.1144121673206 0 -2836.1144121673206 -1443.5719688608442 0 0 0 0 917.54139611706341 -1169.3056520377722 0 -1169.3056520377722 -905.54783725769084 0 0 0 0 -1.540957900101688 -10.567680942461834 0 -10.567680942461834 -12.160532404271237 0 0 0 0 -31.670871500245994 -803.28894991480047 0 -803.28894991480047 1304.3215198437756 0 0 0 0 1.4469987717578192 -0.010012629575498977 0 -0.010012629575498977 -7.9148869611906569 0 0 0 0 -23.219231162947835 -73.459763147551712 0 -73.459763147551712 -68.941919792603585 0 0 0 0 8.9276402214946984 -9.0322803921246191 0 -9.0322803921246191 -19.354217384275969 0 0 0 0 -71.845119494304527 -45.309613929355692 0 -45.309613929355692 -13.6007304692248 0 0 0 0 -787.0699914899451 147.52108797186884 0 147.52108797186884 245.48570368326182 0 0 0 0 862.89516719534004 -112.3924004944347 0 -112.3924004944347 -665.91766472806194 0 0 0 0 27.633677368474309 -8.2325359844508057 0 -8.2325359844508057 -9.4578587705345853 0 0 0 0 372.55784093988041 544.55901149757483 0 544.55901149757483 -2065.6090838921082 0 0 0 0 -1.8613017702663228 -4.7821617696543655 0 -4.7821617696543655 -7.3535751405080987 0 0 0 0 -129.25275921235152 -2147.7335088147811 0 -2147.7335088147811 -3758.3499834284885 0 0 0 0 -494.72645144315902 -1919.1390308597984 0 -1919.1390308597984 -3852.5103741425919 0 0 0 0 2.2127065530386321 -1846.2045520846852 0 -1846.2045520846852 -4772.8634629047738 0 0 0 0 -477.83018299270771 -1190.810507620452 0 -1190.810507620452 -3885.9016658262044 0 0 0 0 -704.08477441834111 -595.09670305889085 0 -595.09670305889085 -5453.9651191476441 0 0 0 0 -2159.0053025766101 -2113.1421673170262 0 -2113.1421673170262 -2570.8145195918878 0 0 0 0 -0.7113879846866169 -4.3815206148493928 0 -4.3815206148493928 -29.31055009257102 0 0 0 0 -13.232810558751225 -2451.139150946743 0 -2451.139150946743 -6344.1564067441504 0 0 0 0 -509.87145163201887 -265.96783574634247 0 -265.96783574634247 -146.78680068365065 0 0 0 0 -2307.4692480173981 -3251.6636099285752 0 -3251.6636099285752 -2473.7058241033228 0 0 0 0 51.824511082118988 1689.053062121865 0 1689.053062121865 -3747.1304241280886 0 0 0 0 -127.47437401323987 -210.8297692193446 0 -210.8297692193446 -769.69637011100713 0 0 0 0 146.32780894050666 -2299.1277142678009 0 -2299.1277142678009 -5125.8794909317658 0 0 0 0 396.78432704906299 -1329.9211106329549 0 -1329.9211106329549 -2096.3071055041364 0 0 0 0 -83.445711389830194 351.00044612823876 0 351.00044612823876 -1361.6460434964974 0 0 0 0 354.65303586614027 -1069.3793044598933 0 -1069.3793044598933 -2446.4059965537999 0 0 0 0 271.12907439962873 -284.73489674329176 0 -284.73489674329176 -928.77428407237312 0 0 0 0 -261.00914866967651 -28.961237532945233 0 -28.961237532945233 -108.04922857435304 0 0 0 0 61.41628921182388 -12.744464957406308 0 -12.744464957406308 -19.390974525317084 0 0 0 0 278.42618551164924 39.689272670446371 0 39.689272670446371 -711.8997628013658 0 0 0 0 14.034306828360918 -13.779480153921355 0 -13.779480153921355 -72.139428055179394 0 0 0 0 480.79687013148214 84.393161181727919 0 84.393161181727919 -242.59153663641337 0 0 0 0 -6.1561091066386808 -55.357011088173664 0 -55.357011088173664 -84.339449949452529 0 0 0 0 211.83585912078706 -250.21309574346196 0 -250.21309574346196 -120.69990445383155 0 0 0 0 319.74999310050043 149.71681041009288 0 149.71681041009288 -58.842341047733498 0 0 0 0 278.70133573798375 240.72002217032968 0 240.72002217032968 -258.66177875337598 0 0 0 0 262.90604561876535 778.52563283787094 0 778.52563283787094 743.87743110218435 0 0 0 0 1206.9052869352454 -113.10997164707624 0 -113.10997164707624 -412.34519104930223 0 0 0 0 20.261727726833897 -0.40579541200636982 0 -0.40579541200636982 3.3318376226267148 0 0 0 0 73.848624918377027 -219.87534716771916 0 -219.87534716771916 97.918342262471924 0 0 0 0 821.08464388879656 -724.5118162393992 0 -724.5118162393992 -1096.4334155421529 0 0 0 0 421.0556460124717 -489.4191685373944 0 -489.4191685373944 -1226.2648857158929 0 0 0 0 343.92582054261584 -1070.0886302869185 0 -1070.0886302869185 -1855.7278063955018 0 0 0 0 186.65172196782623 -499.59984670865924 0 -499.59984670865924 -1068.1352162294934 0 0 0 0 1096.3205536600326 46.790308114548679 0 46.790308114548679 -1022.783692490586 0 0 0 0 253.26620660128265 -337.50158604567878 0 -337.50158604567878 -852.18075666480581 0 0 0 0 12.759639019641327 -354.7459505464285 0 -354.7459505464285 -542.99589920001745 0 0 0 0 -92.180542627880641 -524.83687589185865 0 -524.83687589185865 -758.07792834119755 0 0 0 0 -86.927272147193435 -277.48790156500763 0 -277.48790156500763 -561.68177069883131 0 0 0 0 -0.29349606427786057 -54.945126912398337 0 -54.945126912398337 -310.17570834131038 0 0 0 0 -196.95325044192577 -535.06837902257757 0 -535.06837902257757 -82.038132879257319 0 0 0 0 142.16013762849616 326.50502031880751 0 326.50502031880751 392.6258600223664 0 0 0 0 -389.91603783139726 -547.50389084011113 0 -547.50389084011113 647.9970390442104 0 0 0 0 -158.07296297694847 -871.62473919108743 0 -871.62473919108743 -380.21084864091972 0 0 0 0 -204.66336606970799 -702.83841955332355 0 -702.83841955332355 -454.34231092358823 0 0 0 0 -77.36441539271982 -900.73361495214158 0 -900.73361495214158 -939.90142531924357 0 0 0 0 132.37728044220421 -567.38046002268675 0 -567.38046002268675 -1011.368880415539 0 0 0 0 -723.58304587202292 -1559.6689336400523 0 -1559.6689336400523 -1213.0584645058261 0 0 0 0 -6.0989943223931817 -11.832195639562144 0 -11.832195639562144 -20.401150763365649 0 0 0 0 1168.9403514705773 37.724396744561091 0 37.724396744561091 -1295.0657942072357 0 0 0 0 542.63847934258229 -870.11827036904288 0 -870.11827036904288 -2057.4271622071174 0 0 0 0 423.84108488996389 -292.02413264853385 0 -292.02413264853385 -770.00108395982534 0 0 0 0 -64.228612958468148 -199.80650581435475 0 -199.80650581435475 -786.26504473083696 0 0 0 0 -459.52216581493121 -125.03485508906442 0 -125.03485508906442 400.26531253097346 0 0 0 0 367.77181455856044 427.5674577742393 0 427.5674577742393 20.360751429339871 0 0 0 0 1389.8401333678776 -806.74416126684082 0 -806.74416126684082 -974.10078429472924 0 0 0 0 -11.463447452051028 -29.106365793460242 0 -29.106365793460242 -52.692587487501669 0 0 0 0 -551.78502015911363 -303.19897947844947 0 -303.19897947844947 -13.912239674733428 0 0 0 0 -2721.5575540012651 -211.90158131959106 0 -211.90158131959106 96.457984715656494 0 0 0 0 -1122.5285382473812 0.46824640962586273 0 0.46824640962586273 25.350708455058339 0 0 0 0 -1318.0723404140372 -648.98721695888889 0 -648.98721695888889 280.02514008629078 0 0 0 0 -453.72146732235706 -833.68058708854369 0 -833.68058708854369 -430.02363706953474 0 0 0 0 -519.02949021149834 -673.06866201446246 0 -673.06866201446246 112.20709309090307 0 0 0 0 231.5228508181317 -1112.7678854865662 0 -1112.7678854865662 144.34603875907487 0 0 0 0 -520.98545897196163 -748.14106141379307 0 -748.14106141379307 38.656079574851901 0 0 0 0 923.8136394200119 -443.16769786685472 0 -443.16769786685472 -706.59510607169432 0 0 0 0 -333.23154735147182 -487.0456747025637 0 -487.0456747025637 470.92189046493149 0 0 0 0 503.03431825954613 428.56913376946613 0 428.56913376946613 -1419.2820419729105 0 0 0 0 38.970274330604298 -774.08982478083635 0 -774.08982478083635 -1700.5600635903975 0 0 0 0 477.94838918907044 -57.509161807298369 0 -57.509161807298369 -548.89000966193271 0 0 0 0 -1893.4481212970204 -1168.4425616720328 0 -1168.4425616720328 -501.66656095489452 0 0 0 0 -1235.1066179353074 30.742724330382771 0 30.742724330382771 -418.74564490692319 0 0 0 0 296.91800095161307 161.75659390383225 0 161.75659390383225 -261.84273172638905 0 0 0 0 403.73468434435199 181.850826499307 0 181.850826499307 -365.28344272797403 0 0 0 0 577.40787849400658 -293.2403398483475 0 -293.2403398483475 -325.19145618523908 0 0 0 0 469.14888861192958 -41.420322265525101 0 -41.420322265525101 -429.15574455879687 0 0 0 0 -17.343625716236765 -53.554191051638043 0 -53.554191051638043 -75.346689537067476 0 0 0 0 732.98697575627011 -271.68082289818267 0 -271.68082289818267 -410.55726296480316 0 0 0 0 658.7844151711106 -568.5534460524832 0 -568.5534460524832 210.90445605257992 0 0 0 0 -151.67987953553529 -159.51573370176629 0 -159.51573370176629 321.83195072003582 0 0 0 0 1091.1502403332925 -360.9756482892044 0 -360.9756482892044 -230.00449139770353 0 0 0 0 93.922116309775447 -133.67487411908223 0 -133.67487411908223 -42.600731358019402 0 0 0 0 4.7385950663379219 -5.8552938566133719 0 -5.8552938566133719 1.8064647350794303 0 0 0 0 -4.073835084244557 -51.765368370332936 0 -51.765368370332936 -58.399019149870071 0 0 0 0 96.844839016732294 -42.671291911632579 0 -42.671291911632579 -32.039845834326115 0 0 0 0 5.1471980513888411 -14.807964887295384 0 -14.807964887295384 107.49501712173242 0 0 0 0 49.289035491630784 -40.917303417780204 0 -40.917303417780204 110.587143932667 0 0 0 0 -10.944722789550241 -20.146833821006197 0 -20.146833821006197 -38.53952421906763 0 0 0 0 99.142224267030542 -127.42142810688529 0 -127.42142810688529 -0.034714855268248357 0 0 0 0 82.900850388687104 -94.358828139043908 0 -94.358828139043908 13.372470071233693 0 0 0 0 0.092005288250220474 -73.388636397012306 0 -73.388636397012306 28.423314628085791 0 0 0 0 -6.0525185073135219 -13.089267777304613 0 -13.089267777304613 -26.277344016168996 0 0 0 0 60.924581487488467 -62.178369730798295 0 -62.178369730798295 16.439027971464384 0 0 0 0 0.032267051356029697 -30.371587003624882 0 -30.371587003624882 2.9559231620805804 0 0 0 0 339.74059179254982 177.77904862828291 0 177.77904862828291 -744.85596107505989 0 0 0 0 -178.18803465430392 197.62284111335703 0 197.62284111335703 -135.8707559256145 0 0 0 0 -36.57803847946343 -559.89095336863465 0 -559.89095336863465 -287.62131643292378 0 0 0 0 -484.4728183480911 -396.67631181666366 0 -396.67631181666366 47.306070159625961 0 0 0 0 -167.80512081983034 -436.51286456732487 0 -436.51286456732487 -21.462250294163823 0 0 0 0 -2.0378772866614554 -3.6755100971492993 0 -3.6755100971492993 -6.1783854558155156 0 0 0 0 500.38112421012192 242.54266150025433 0 242.54266150025433 -526.49034069822119 0 0 0 0 -673.00001314602559 -47.081161012934899 0 -47.081161012934899 56.668774995720014 0 0 0 0 -121.53375124550803 -15.963956288841928 0 -15.963956288841928 -30.785572157386923 0 0 0 0 -2.7998732230463759 -4.6359490216918147 0 -4.6359490216918147 -9.5241966354380168 0 0 0 0 183.73091753174231 829.44321978914923 0 829.44321978914923 -380.90947377934936 0 0 0 0 -23.086968369878406 -5.2063269766269684 0 -5.2063269766269684 2.7298069638950437 0 0 0 0 -290.60521309726028 -580.06605840193515 0 -580.06605840193515 -863.78223005433028 0 0 0 0 -396.84414267016746 -606.58234654768694 0 -606.58234654768694 -1247.2854421097582 0 0 0 0 37.724230917650857 -22.739709739729733 0 -22.739709739729733 -89.305461375974119 0 0 0 0 20.803911740622425 -147.83405469688296 0 -147.83405469688296 4.7689124807875487 0 0 0 0 -32.721531454990327 -62.901585739473376 0 -62.901585739473376 179.62637385039125 0 0 0 0 -28.920811801326636 -52.021568093783571 0 -52.021568093783571 -10.60244916483316 0 0 0 0 -60.518270866172315 -49.519348933747096 0 -49.519348933747096 26.126414229365764 0 0 0 0 -32.851787155786155 -9.1189514530922509 0 -9.1189514530922509 3.228388355058641 0 0 0 0 -175.5421080706983 -466.98135472422655 0 -466.98135472422655 -808.16596071355161 0 0 0 0 -317.5398724526458 -317.50193878424034 0 -317.50193878424034 -264.0752817462635 0 0 0 0 -259.86533621309354 -302.93778002334875 0 -302.93778002334875 -359.01807275417377 0 0 0 0 -440.52903778690415 -621.66204899671175 0 -621.66204899671175 -698.89182486262871 0 0 0 0 -382.58081449317251 -552.91941681008757 0 -552.91941681008757 -596.12048324214993 0 0 0 0 -507.0053077797711 -724.42404078885011 0 -724.42404078885011 -792.85464614556986 0 0 0 0 -386.03463172860938 -550.24284580690437 0 -550.24284580690437 -545.79666993359933 0 0 0 0 -378.23147589775181 -512.84519205556717 0 -512.84519205556717 -865.88414562938851 0 0 0 0 -660.9934036605955 -654.07723311095469 0 -654.07723311095469 -345.80968025358743 0 0 0 0 -320.5012495749761 -333.03886490119476 0 -333.03886490119476 -254.8634319241537 0 0 0 0 -104.3580436020884 -500.99812582034428 0 -500.99812582034428 -257.85807892312005 0 0 0 0 -1714.7282347644796 -1037.5086187581874 0 -1037.5086187581874 -873.06901902415848 0 0 0 0 -0.38534501774691421 -2.2137209241907669 0 -2.2137209241907669 -8.7429457485375792 0 0 0 0 636.83642805452109 54.981689174383064 0 54.981689174383064 -589.42232441483793 0 0 0 0 -869.02000555378254 -989.19135773467497 0 -989.19135773467497 -884.02962354758347 0 0 0 0 -1283.1268901156291 -390.05775701384846 0 -390.05775701384846 91.844161506342061 0 0 0 0 -92.741289869154457 -500.26414113727071 0 -500.26414113727071 -361.71476530560176 0 0 0 0 -159.26098119059316 -360.8269242057504 0 -360.8269242057504 -453.32147792122851 0 0 0 0 -172.7547658658732 -144.11307451296307 0 -144.11307451296307 93.294224943965673 0 0 0 0 -85.838523414466181 -257.62954904382059 0 -257.62954904382059 -335.67743122789398 0 0 0 0 -114.49065583687116 -549.91242795370272 0 -549.91242795370272 -668.45781735473429 0 0 0 0 -93.460178450623062 -558.31011212414887 0 -558.31011212414887 -776.79710616063676 0 0 0 0 77.380470935662743 -133.756003838178 0 -133.756003838178 -422.89117053698283 0 0 0 0 33.879679316840338 -524.42147473153091 0 -524.42147473153091 -1144.8484760451538 0 0 0 0 -326.77392726846301 -980.26297858406906 0 -980.26297858406906 -1249.4677974952356 0 0 0 0 -414.97105612011364 -751.61341306444956 0 -751.61341306444956 -588.76836928028206 0 0 0 0 -219.5636789532582 -861.01388726784353 0 -861.01388726784353 -888.52742726333599 0 0 0 0 -2.3691917446412845 -578.1581000376973 0 -578.1581000376973 -863.36707250629843 0 0 0 0 -61.765999612121959 -791.88956027165841 0 -791.88956027165841 -637.86017266521867 0 0 0 0 -9.4462742269669207 -3.3304094122436254 0 -3.3304094122436254 0.44580261736891202 0 0 0 0 -1048.4432956188029 -1321.9172584939806 0 -1321.9172584939806 -1865.0343597597312 0 0 0 0 -1259.2164518225036 -828.2628200774343 0 -828.2628200774343 -1597.9639567687409 0 0 0 0 -844.15987465996295 -524.18514773028619 0 -524.18514773028619 -1385.209297429712 0 0 0 0 -930.434947357091 -814.20706251180673 0 -814.20706251180673 -881.07040026164032 0 0 0 0 -548.27370972622884 -963.67406969494186 0 -963.67406969494186 -908.77324929109091 0 0 0 0 -920.54892619124439 -794.75573399059795 0 -794.75573399059795 -411.19461675456841 0 0 0 0 -911.78985372060561 -979.96685514350247 0 -979.96685514350247 -981.29376728069474 0 0 0 0 -512.57426148321247 110.32762839971838 0 110.32762839971838 501.68526237492551 0 0 0 0 -1216.139242864956 -553.50465825378342 0 -553.50465825378342 -71.874139922176255 0 0 0 0 -295.91820098547032 -144.23017590688687 0 -144.23017590688687 -156.12514484181884 0 0 0 0 -539.6552180552826 -77.245523488367326 0 -77.245523488367326 -16.973609859938733 0 0 0 0 -486.93849521901575 -585.96145621855248 0 -585.96145621855248 -406.10218799270774 0 0 0 0 -806.47801496677857 -425.38200610188869 0 -425.38200610188869 -125.61908899492119 0 0 0 0 -394.92039778058825 -284.63181181887921 0 -284.63181181887921 -170.12236983254479 0 0 0 0 -388.6306257984761 -414.44071347712452 0 -414.44071347712452 -229.16107972264581 0 0 0 0 -317.56620875818771 -206.9867774725426 0 -206.9867774725426 -96.499960989021929 0 0 0 0 -157.14143640390103 -52.367369345985935 0 -52.367369345985935 -96.832908844167832 0 0 0 0 -351.41950265800733 -72.534895554984359 0 -72.534895554984359 -59.274595384966233 0 0 0 0 -100.05349652330915 -716.93525886154384 0 -716.93525886154384 -736.58904384027119 0 0 0 0 -286.50842803636624 -730.6005097771922 0 -730.6005097771922 -702.49350248893461 0 0 0 0 -546.55613167080446 -769.82325525373744 0 -769.82325525373744 -567.95734551406349 0 0 0 0 -243.57672808815551 -523.44178487273166 0 -523.44178487273166 -368.92399834268144 0 0 0 0 -251.98883329474484 -476.42453019734967 0 -476.42453019734967 -395.26075980681344 0 0 0 0 -266.77977302623185 -499.04765251943172 0 -499.04765251943172 -328.77303186236531 0 0 0 0 -62.519444498684607 -497.99321799328754 0 -497.99321799328754 -513.330289139667 0 0 0 0 -59.425526326798717 -501.37964309418749 0 -501.37964309418749 -566.7682690662914 0 0 0 0 -55.714646513624757 -265.31156721568732 0 -265.31156721568732 -411.92284722249315 0 0 0 0 -414.52044564732614 -519.47797989926084 0 -519.47797989926084 -180.55593530974875 0 0 0 0 -154.5746587512258 -440.08394434169895 0 -440.08394434169895 -166.85665051095566 0 0 0 0 -175.26156727883063 -364.50133023066155 0 -364.50133023066155 -198.51494093629299 0 0 0 0 -123.8031383905618 -378.03410634096508 0 -378.03410634096508 -288.79051415564027 0 0 0 0 142.40421966693975 -131.74063816767011 0 -131.74063816767011 -90.921741330377699 0 0 0 0 -11.271459061550843 -7.3806063571183174 0 -7.3806063571183174 -4.5366743839936703 0 0 0 0 67.351261498850363 -454.6733600937514 0 -454.6733600937514 -283.61237192495901 0 0 0 0 -238.36720291672282 -67.457477305173597 0 -67.457477305173597 -29.54270561694284 0 0 0 0 -145.81713046920777 -85.638777924774331 0 -85.638777924774331 -43.672011525923153 0 0 0 0 -205.87198061435265 -189.56814789552845 0 -189.56814789552845 -154.38263096916489 0 0 0 0 -164.22039742744528 -106.12419627532654 0 -106.12419627532654 -27.190701473591616 0 0 0 0 -81.096401927730767 -240.00547853110766 0 -240.00547853110766 -171.54435483128691 0 0 0 0 -119.73989835203975 -130.89128501805681 0 -130.89128501805681 -13.40089723483834 0 0 0 0 -17.091314605306252 -28.505293175388942 0 -28.505293175388942 77.092758537328336 0 0 0 0 -65.346946243793354 -19.833632312693226 0 -19.833632312693226 -0.97365862086007837 0 0 0 0 -112.18061737215612 -1.2946168665366713 0 -1.2946168665366713 72.823329739774636 0 0 0 0 -74.971824846434174 -30.145843149388384 0 -30.145843149388384 12.718159867785289 0 0 0 0 -62.530375793219719 9.3810308312095003 0 9.3810308312095003 10.520737571001519 0 0 0 0 -33.802873179040034 -21.368612945840141 0 -21.368612945840141 43.280969693427323 0 0 0 0 -22.317426122179313 -11.577201138072269 0 -11.577201138072269 -26.630590547283646 0 0 0 0 -39.571093790349551 -36.853320249450917 0 -36.853320249450917 -29.200341845738876 0 0 0 0 -160.11969460335968 -57.074082593841013 0 -57.074082593841013 -46.00043497184015 0 0 0 0 -106.43848350759072 2.4009095338933548 0 2.4009095338933548 -20.306510910755605 0 0 0 0 -91.061227393482113 9.9430201134964591 0 9.9430201134964591 -62.431703198788455 0 0 0 0 -45.2499490766495 -66.99353859799885 0 -66.99353859799885 -108.60707008447571 0 0 0 0 -39.951173320918315 -47.370618298547924 0 -47.370618298547924 -39.182263568058261 0 0 0 0 5.233427567378385 -57.431358429828833 0 -57.431358429828833 -55.691165419615572 0 0 0 0 9.8587695986207109 -56.728230844797508 0 -56.728230844797508 -65.11567633231607 0 0 0 0 -224.47450193413897 7.2037517958524404 0 7.2037517958524404 -39.942447208959493 0 0 0 0 17.802825856298853 -30.646938134499408 0 -30.646938134499408 -2.2065730089784665 0 0 0 0 -11.284619608646608 -82.721454008940782 0 -82.721454008940782 -0.50775948218324629 0 0 0 0 277.43543642029181 37.6416044292273 0 37.6416044292273 -22.463994630990783 0 0 0 0 15.783210441721167 -77.669665081487437 0 -77.669665081487437 -29.109834959672298 0 0 0 0 15.920771727658575 -34.43640898666672 0 -34.43640898666672 -12.250119567572256 0 0 0 0 177.73616724952444 -244.99391364790063 0 -244.99391364790063 -274.85640525521012 0 0 0 0 19.066361023119327 -35.264225156568159 0 -35.264225156568159 10.583200034619438 0 0 0 0 156.22492768778375 59.957477860652034 0 59.957477860652034 -258.4377917200618 0 0 0 0 34.64210945389641 -113.93287238581252 0 -113.93287238581252 119.16977598339145 0 0 0 0 45.451616582271527 -28.839459594921209 0 -28.839459594921209 -31.247584739023296 0 0 0 0 7.9929253485242953 -50.903384920031385 0 -50.903384920031385 20.034417255010339 0 0 0 0 -20.941749007048202 -7.3163607987880823 0 -7.3163607987880823 25.687767886573056 0 0 0 0 19.856126249892867 -40.22456593864348 0 -40.22456593864348 26.889221771415635 0 0 0 0 -144.73462458436188 -285.19319397465733 0 -285.19319397465733 36.672304941312177 0 0 0 0 -6.7700827148073586 -179.65608927226276 0 -179.65608927226276 113.17698578999261 0 0 0 0 -43.069182191567961 -142.61006179984543 0 -142.61006179984543 112.616683523549 0 0 0 0 18.826531910221092 -183.45425653561688 0 -183.45425653561688 -42.689125893928576 0 0 0 0 66.632089954331605 -95.412605662762871 0 -95.412605662762871 102.01564629765926 0 0 0 0 85.983117041681908 -275.68134964676392 0 -275.68134964676392 -111.98033978084277 0 0 0 0 160.10477273527795 -122.39255239199701 0 -122.39255239199701 -39.257212245022856 0 0 0 0 -195.23045019014535 -32.684973692747008 0 -32.684973692747008 24.332116574998508 0 0 0 0 21.258949808757954 -41.529660111534326 0 -41.529660111534326 43.502109333718693 0 0 0 0 -439.13504824345728 -244.47678205045304 0 -244.47678205045304 270.45016180512903 0 0 0 0 25.927171365245158 -348.58934705912543 0 -348.58934705912543 442.56185286393156 0 0 0 0 55.205057772349392 247.85004160616882 0 247.85004160616882 448.99916396265326 0 0 0 0 -110.67116068946416 -25.157796343288283 0 -25.157796343288283 54.975626946150442 0 0 0 0 -174.9548645889663 56.280863373100146 0 56.280863373100146 -14.490180459179101 0 0 0 0 -84.047419041540707 4.9881086684254115 0 4.9881086684254115 -135.00781280000956 0 0 0 0 67.053873237586231 122.50604533632577 0 122.50604533632577 -46.37607550985922 0 0 0 0 -1.6088956023277206 -114.62490657189574 0 -114.62490657189574 -67.937548098896514 0 0 0 0 68.934036848688265 -254.48857960307214 0 -254.48857960307214 87.631147610132757 0 0 0 0 -39.051491127351028 -51.419274374781338 0 -51.419274374781338 -19.461118921569806 0 0 0 0 -34.231989732546936 -138.67232282315308 0 -138.67232282315308 115.90252180179232 0 0 0 0 -239.61866134557204 -31.155525721682352 0 -31.155525721682352 45.884808343551413 0 0 0 0 9.2134355594550641 -53.904776490126025 0 -53.904776490126025 49.70864171106092 0 0 0 0 -31.888023207342485 -68.098508140974445 0 -68.098508140974445 -41.455574001360219 0 0 0 0 -18.154303257804713 -74.927179734128003 0 -74.927179734128003 28.279758970660623 0 0 0 0 -25.78568706587248 -133.43982509164925 0 -133.43982509164925 71.770058033464011 0 0 0 0 -26.01548496997566 -76.23393676141859 0 -76.23393676141859 93.226314182216811 0 0 0 0 -93.700284794462277 -54.036705129916299 0 -54.036705129916299 87.512606180695002 0 0 0 0 -53.178696399947512 -22.053883993652562 0 -22.053883993652562 49.091497877641814 0 0 0 0 -40.66824541193273 -66.454781119046856 0 -66.454781119046856 97.533963992871577 0 0 0 0 74.075253561823047 -169.38184041558998 0 -169.38184041558998 145.9712803286493 0 0 0 0 28.372582282150688 -263.37190101164924 0 -263.37190101164924 282.48741112978314 0 0 0 0 -45.568587377623771 -50.608588012819382 0 -50.608588012819382 140.50983374431962 0 0 0 0 34.104430113602575 -160.22736546298256 0 -160.22736546298256 160.80485987270367 0 0 0 0 -490.70020081826442 232.53790826335899 0 232.53790826335899 148.83158596525027 0 0 0 0 -121.19519634441531 -111.7505791775402 0 -111.7505791775402 239.90808497374928 0 0 0 0 -57.863146309704462 -128.72674842800006 0 -128.72674842800006 253.36245361009787 0 0 0 0 -29.057515854701563 -21.551507306910146 0 -21.551507306910146 -13.920379214196316 0 0 0 0 -104.9941987649363 -224.78314202564798 0 -224.78314202564798 320.31912721855042 0 0 0 0 -43.816523539324407 -142.92235020529552 0 -142.92235020529552 117.19676465549855 0 0 0 0 -130.81396691291229 -48.273688576990025 0 -48.273688576990025 78.725800207699649 0 0 0 0 -71.372449711947411 -121.14555977555938 0 -121.14555977555938 99.263543313762057 0 0 0 0 -47.992976975827901 -51.610738910301635 0 -51.610738910301635 -50.130196235274525 0 0 0 0 -26.869531740492675 -246.84105670550707 0 -246.84105670550707 381.98653452499275 0 0 0 0 -72.283726881782059 -148.73586831452849 0 -148.73586831452849 394.88552225592139 0 0 0 0 249.21400067160721 -225.35619119163312 0 -225.35619119163312 -155.1480763819709 0 0 0 0 -52.164280140785422 -52.724051509716062 0 -52.724051509716062 -48.930340942721429 0 0 0 0 -148.23654453070048 -660.79215735654361 0 -660.79215735654361 64.785072289290838 0 0 0 0 -184.60802458244143 -195.44633900167173 0 -195.44633900167173 103.59870236105053 0 0 0 0 -87.493652418736019 49.766079223001725 0 49.766079223001725 -132.74754172101893 0 0 0 0 -1228.4286257855711 -512.79132943827426 0 -512.79132943827426 193.27641489090456 0 0 0 0 -212.78967718390049 -14.082090378446992 0 -14.082090378446992 61.627859758533305 0 0 0 0 -282.24628844397375 -191.12460248898424 0 -191.12460248898424 145.70466240165115 0 0 0 0 -321.57193460898998 -413.85369794138023 0 -413.85369794138023 -197.392359311576 0 0 0 0 93.28728587833757 -410.879200485826 0 -410.879200485826 -345.68004546518205 0 0 0 0 -221.82188686591689 -172.95380484255293 0 -172.95380484255293 -362.62880796232093 0 0 0 0 -158.64284944655083 -550.44731929490808 0 -550.44731929490808 -111.05415924698173 0 0 0 0 2.2603657440195093 -493.17494811806682 0 -493.17494811806682 -461.31972175540432 0 0 0 0 -9.5892272168857744 -299.40707431886585 0 -299.40707431886585 -128.31484705347975 0 0 0 0 -52.229632485337788 -138.11711134428333 0 -138.11711134428333 186.08284143353558 0 0 0 0 139.95299793385493 -387.87100677155104 0 -387.87100677155104 156.01895425449766 0 0 0 0 -43.546508717534607 -30.461659440368443 0 -30.461659440368443 -24.447449238453942 0 0 0 0 120.04552129918011 -36.432103132574412 0 -36.432103132574412 55.357681835084804 0 0 0 0 -214.64702869685425 -130.1771977263852 0 -130.1771977263852 65.662671214537113 0 0 0 0 76.520972464131773 -220.14634237318387 0 -220.14634237318387 -161.08696618117392 0 0 0 0 45.101340222929139 -235.38348376059002 0 -235.38348376059002 -0.48475208982563345 0 0 0 0 -41.942639495045995 -62.140506258845775 0 -62.140506258845775 -37.434750145756624 0 0 0 0 57.69850918330485 47.367755625520658 0 47.367755625520658 -179.39041748653563 0 0 0 0 2.526710057954034 -12.123565026339847 0 -12.123565026339847 10.3566641496096 0 0 0 0 552.63901171792531 575.70232946309989 0 575.70232946309989 -160.68304356102635 0 0 0 0 -11.204476142938802 -156.15213689635493 0 -156.15213689635493 -111.49249303610122 0 0 0 0 169.3693556369617 -36.237890956439514 0 -36.237890956439514 -32.68404663039837 0 0 0 0 0.22499556039062441 -32.725386414274894 0 -32.725386414274894 -9.655629741193934 0 0 0 0 48.952879610244054 -71.945334052811631 0 -71.945334052811631 11.097537357454712 0 0 0 0 50.106146996316966 -84.75125843364367 0 -84.75125843364367 17.523381257020901 0 0 0 0 45.172921882520313 -88.479186390377436 0 -88.479186390377436 33.887521528836601 0 0 0 0 21.143998239812163 -52.098618438019315 0 -52.098618438019315 -18.072038932244741 0 0 0 0 -15.948033431623344 -24.970219029730131 0 -24.970219029730131 -10.991137402161328 0 0 0 0 50.713154518140527 -33.841484208380592 0 -33.841484208380592 -26.008544238281658 0 0 0 0 -3.9553900983300991 -63.627196149252995 0 -63.627196149252995 15.431177908249992 0 0 0 0 30.398865326213127 -74.954511555090903 0 -74.954511555090903 9.537746764937765 0 0 0 0 -48.201577732696023 -18.137097311036996 0 -18.137097311036996 59.275789633305976 0 0 0 0 114.08716283750255 -307.76940353797545 0 -307.76940353797545 -710.04883808291197 0 0 0 0 -4.6560307241111332 1.2913255835656372 0 1.2913255835656372 6.3005372378281779 0 0 0 0 9.2945407961597084 -42.602357895313617 0 -42.602357895313617 24.368603823117155 0 0 0 0 12.902980725393405 -24.012941608951621 0 -24.012941608951621 29.474365552281029 0 0 0 0 42.534572172968183 -40.909312030780711 0 -40.909312030780711 -4.4872003251512069 0 0 0 0 20.702903845991671 -30.255198118793786 0 -30.255198118793786 6.0355623474298481 0 0 0 0 8.7269582106403902 -6.6249923760967135 0 -6.6249923760967135 -10.11797066852543 0 0 0 0 -0.8334120166109642 -58.426264915558932 0 -58.426264915558932 8.1637997798388824 0 0 0 0 -8.8708983846299816 -36.578100940570948 0 -36.578100940570948 -0.43248445930839807 0 0 0 0 -176.16218866238341 -121.35940115538324 0 -121.35940115538324 15.408432541902584 0 0 0 0 -52.471932460444805 -4.1669225264322449 0 -4.1669225264322449 -11.695025526314566 0 0 0 0 -33.986088762620057 -56.639897322693287 0 -56.639897322693287 -12.018070638619974 0 0 0 0 7.4902699151754177 -9.3398205866464252 0 -9.3398205866464252 16.954962648258942 0 0 0 0 -17.058125021030719 -49.421086156237834 0 -49.421086156237834 -29.203698379369598 0 0 0 0 -43.559121566533577 -32.741811701582265 0 -32.741811701582265 -12.84778645730097 0 0 0 0 -45.997084943439404 -43.532191247652918 0 -43.532191247652918 -43.890684938662162 0 0 0 0 25.83071077700879 -81.334172556474869 0 -81.334172556474869 -4.4673399287385109 0 0 0 0 19.716811691207113 -54.445069928584417 0 -54.445069928584417 -11.759737696265802 0 0 0 0 -22.09177542407997 -51.439751570036606 0 -51.439751570036606 -2.1574501664526906 0 0 0 0 7.8177472454982677 -49.979897906659346 0 -49.979897906659346 5.8569559854073816 0 0 0 0 5.6285238161071902 -72.090752205789613 0 -72.090752205789613 -8.2920739839519229 0 0 0 0 8.6425463755745682 -53.378722092953609 0 -53.378722092953609 11.160337235446292 0 0 0 0 23.792443624901352 -86.421064991271123 0 -86.421064991271123 25.721377534551721 0 0 0 0 -14.313755963606496 -33.899143784808814 0 -33.899143784808814 -28.595834909763681 0 0 0 0 33.796915401242586 -86.775932613825717 0 -86.775932613825717 -47.393032431376923 0 0 0 0 37.239584160342929 -74.450061387316964 0 -74.450061387316964 -8.1966281019776943 0 0 0 0 24.942627615222591 -36.950069000697113 0 -36.950069000697113 -267.63447372777955 0 0 0 0 -43.131968279740249 -116.29695733049994 0 -116.29695733049994 -0.8760440410328556 0 0 0 0 -26.491141723264633 -47.882120847794475 0 -47.882120847794475 -27.280023573084378 0 0 0 0 -5.4237411523099013 -9.787797200748642 0 -9.787797200748642 -3.5514074672619813 0 0 0 0 27.266877032030607 -149.98228146288784 0 -149.98228146288784 26.650761144708667 0 0 0 0 -42.326936875382671 -99.854217222156876 0 -99.854217222156876 229.15685717296401 0 0 0 0 -141.47805602472363 -82.629879909633928 0 -82.629879909633928 243.60540556409978 0 0 0 0 -101.91307117114775 -175.56206812849996 0 -175.56206812849996 365.09487589373202 0 0 0 0 -288.45297572588606 -336.97191759580892 0 -336.97191759580892 -24.922359463889734 0 0 0 0 207.05888368207161 -252.26365782743051 0 -252.26365782743051 69.051458276910125 0 0 0 0 80.554186952664168 24.361448906829537 0 24.361448906829537 -488.1063426516921 0 0 0 0 -5.8209134578646626 -423.44791182164045 0 -423.44791182164045 -28.403093076005462 0 0 0 0 -449.1087237054453 74.404001270522713 0 74.404001270522713 322.03418328756106 0 0 0 0 179.62102734590735 -468.97181968925725 0 -468.97181968925725 -561.19382991892053 0 0 0 0 -138.66891322445372 -100.57906797389478 0 -100.57906797389478 104.92992055388459 0 0 0 0 139.59039890054555 21.750184703832929 0 21.750184703832929 -691.53949359438229 0 0 0 0 -5.9363866887757695 -1.7152937553792853 0 -1.7152937553792853 0.27170773572129292 0 0 0 0 10.105262182740262 -23.987298081119661 0 -23.987298081119661 101.6530401341297 0 0 0 0 -146.27221483593894 -141.73939525838068 0 -141.73939525838068 80.384205973910866 0 0 0 0 -34.406542736032861 -117.6221979525435 0 -117.6221979525435 85.562018236938457 0 0 0 0 42.067779281336698 -160.67638378056654 0 -160.67638378056654 19.140709230945504 0 0 0 0 -22.590565535239875 -193.41951212740241 0 -193.41951212740241 21.074396944055479 0 0 0 0 -41.984729166113539 -156.09746649198496 0 -156.09746649198496 32.744292872113874 0 0 0 0 -16.88826002605856 -112.19820417423034 0 -112.19820417423034 50.301871644849598 0 0 0 0 -33.457236455229577 -112.51400297063083 0 -112.51400297063083 79.572218507040816 0 0 0 0 -11.33059450998951 -59.813266124219368 0 -59.813266124219368 2.032861763428639 0 0 0 0 -8.2548676083097234 -93.322626430155651 0 -93.322626430155651 64.29855246238003 0 0 0 0 13.849286738002775 -111.74896640267525 0 -111.74896640267525 69.96143667724391 0 0 0 0 12.008998624996821 -101.396502527964 0 -101.396502527964 60.018096824642271 0 0 0 0 -2.6695764661112946 -12.548160432461962 0 -12.548160432461962 34.760523551841061 0 0 0 0 43.976811478307354 -97.485346229002971 0 -97.485346229002971 52.648279819957679 0 0 0 0 29.352141086762501 -60.058077556434114 0 -60.058077556434114 27.382414732268273 0 0 0 0 55.582730751353665 -115.61045176248444 0 -115.61045176248444 64.406745673404657 0 0 0 0 46.670058042582241 -90.572114764830985 0 -90.572114764830985 70.379347856243839 0 0 0 0 116.68776634559254 -92.894669696572237 0 -92.894669696572237 7.1674416363239288 0 0 0 0 23.945814327744301 -85.437800168001559 0 -85.437800168001559 22.253429323318414 0 0 0 0 47.509888283537094 -77.888287327158821 0 -77.888287327158821 -0.9750615253855619 0 0 0 0 4.1670026069256778 -97.688741589731706 0 -97.688741589731706 40.389089386820075 0 0 0 0 13.272792047792976 -116.82929381301713 0 -116.82929381301713 17.415085355003583 0 0 0 0 31.108026033383794 -87.528168476637802 0 -87.528168476637802 19.330116018594708 0 0 0 0 32.105867688078433 -46.90358079791622 0 -46.90358079791622 -23.155661415183204 0 0 0 0 45.272987581747941 -67.413509222921391 0 -67.413509222921391 10.897231230934965 0 0 0 0 26.494671011296305 -81.469861120805945 0 -81.469861120805945 15.005995153587719 0 0 0 0 22.010709155259974 -59.591246745508215 0 -59.591246745508215 -2.5631207572296262 0 0 0 0 8.3611476216225356 -44.576916736906945 0 -44.576916736906945 -24.291348095773841 0 0 0 0 19.664956300912309 -64.230163743792218 0 -64.230163743792218 30.206074128902401 0 0 0 0 42.984249130284297 -94.526112262410606 0 -94.526112262410606 47.843626272981055 0 0 0 0 61.222902101015279 -101.59690960012358 0 -101.59690960012358 48.78564613830531 0 0 0 0 4.9464044218638605 -20.254828599013614 0 -20.254828599013614 -2.3584059590053101 0 0 0 0 323.0239478910662 -94.865318381871475 0 -94.865318381871475 -853.84673726486335 0 0 0 0 -168.54132552891679 -560.03623058710218 0 -560.03623058710218 -806.95179513523294 0 0 0 0 -456.73107721445558 -143.37830031712474 0 -143.37830031712474 -366.42722904765105 0 0 0 0 477.74445871554781 247.40441612907853 0 247.40441612907853 -169.23131755039503 0 0 0 0 156.09593075995508 -150.18421590682919 0 -150.18421590682919 -149.26270834634488 0 0 0 0 2.3757558141325035 -1.7817967035597349 0 -1.7817967035597349 -9.633810382242217 0 0 0 0 0.13271907391026616 -230.15991665685033 0 -230.15991665685033 -295.12514163741071 0 0 0 0 98.542673506570281 -82.421417352506978 0 -82.421417352506978 -117.7016093239472 0 0 0 0 87.660960066568805 -151.58003441238907 0 -151.58003441238907 -99.702824044623412 0 0 0 0 0.0023885493760559388 -130.03326701971596 0 -130.03326701971596 0.96589041047263891 0 0 0 0 164.98484350963554 -113.87044019623863 0 -113.87044019623863 -87.085398311151948 0 0 0 0 130.67300004958815 -85.933840220652201 0 -85.933840220652201 -17.788865758302563 0 0 0 0 267.64633919877815 -43.671242658005212 0 -43.671242658005212 -78.552169620869336 0 0 0 0 -14.477705493905404 -12.078606586626648 0 -12.078606586626648 -31.109948537320832 0 0 0 0 -16.869756170766777 -337.77842690207035 0 -337.77842690207035 -765.68667807319434 0 0 0 0 58.011967492588155 -68.008450517783785 0 -68.008450517783785 -45.991423694067635 0 0 0 0 -2.1100417630071036 -25.720824097233191 0 -25.720824097233191 -53.38245507602943 0 0 0 0 12.638823997199523 -65.104423156501468 0 -65.104423156501468 -28.188431556200356 0 0 0 0 -131.90948943578405 -420.13065989616371 0 -420.13065989616371 -229.43654153431999 0 0 0 0 -793.20232112491431 -643.72373929813966 0 -643.72373929813966 -267.3517455374531 0 0 0 0 -141.68658080956084 -426.91030421586765 0 -426.91030421586765 -227.91568309527088 0 0 0 0 -3.6704414882402858 -19.549650511623327 0 -19.549650511623327 6.4909583998506832 0 0 0 0 15.49616169017834 -4.61693305987896 0 -4.61693305987896 -0.77762802790033447 0 0 0 0 -507.84321579349489 -398.54544065959271 0 -398.54544065959271 -617.03701537966663 0 0 0 0 -226.19988970945269 -370.52657450622428 0 -370.52657450622428 -723.26047322366503 0 0 0 0 -345.42648730462679 -356.47539162261819 0 -356.47539162261819 -414.87376519337704 0 0 0 0 -479.80888424620207 -251.10173549004685 0 -251.10173549004685 -355.80452503183915 0 0 0 0 -900.75126521005586 -783.15511051691283 0 -783.15511051691283 -305.62475277687918 0 0 0 0 -200.18815171129245 -960.04845721783568 0 -960.04845721783568 -701.47339915976045 0 0 0 0 -50.841994421137926 -75.181312006362489 0 -75.181312006362489 -39.044700236899558 0 0 0 0 -1377.7034142715129 -1550.3654949607644 0 -1550.3654949607644 -1064.733378836223 0 0 0 0 -34.925329935431364 56.989811775642011 0 56.989811775642011 -626.87477796708026 0 0 0 0 -292.8543569015601 -612.24817778284341 0 -612.24817778284341 -1265.9251788032225 0 0 0 0 470.85812918648298 -399.07548396450511 0 -399.07548396450511 -385.3952117831941 0 0 0 0 -187.93046629693708 20.719529623962444 0 20.719529623962444 -511.0175505527759 0 0 0 0 -61.881876132160244 -72.434383755591512 0 -72.434383755591512 -39.132851094365293 0 0 0 0 -188.51985823855648 -21.902609604883764 0 -21.902609604883764 -160.61973047439824 0 0 0 0 -89.8883632368088 36.566474954823207 0 36.566474954823207 -276.61013013989123 0 0 0 0 -64.23461500438134 -20.283534264985065 0 -20.283534264985065 -194.57760658233019 0 0 0 0 -88.210614769319363 -84.374027360818218 0 -84.374027360818218 -28.431569746448076 0 0 0 0 -118.09166285062383 -232.32011268970382 0 -232.32011268970382 -108.99641351106402 0 0 0 0 -119.04112047292438 -188.17440491056368 0 -188.17440491056368 -337.84780425413919 0 0 0 0 -220.41005853669776 -249.17676636854958 0 -249.17676636854958 -433.79174101442914 0 0 0 0 -221.84228504351631 -271.12941296759527 0 -271.12941296759527 -166.99901263116772 0 0 0 0 -196.22946436236089 -515.69586116795108 0 -515.69586116795108 -281.28899190972879 0 0 0 0 -240.07923599318019 -557.16655485484807 0 -557.16655485484807 -305.72877630653966 0 0 0 0 -218.76218724464707 -643.16312712313083 0 -643.16312712313083 -347.22847632154298 0 0 0 0 50.482771028386196 -836.8244829513169 0 -836.8244829513169 -210.9575159354863 0 0 0 0 -348.71645192930009 -669.31648676484474 0 -669.31648676484474 -211.60383491041284 0 0 0 0 -668.19551712973225 -527.0221283015062 0 -527.0221283015062 -18.918804444489069 0 0 0 0 -222.65803169488208 -620.75349779862154 0 -620.75349779862154 -281.88819747295929 0 0 0 0 -292.83311126935223 -526.55408381879715 0 -526.55408381879715 -14.100644348553033 0 0 0 0 -169.04803678188182 -203.07306345629695 0 -203.07306345629695 -79.480471797272912 0 0 0 0 281.42269322468201 -226.31058951575687 0 -226.31058951575687 90.035432967350062 0 0 0 0 -347.92798098506307 -426.84046598434736 0 -426.84046598434736 481.93348430572951 0 0 0 0 -70.652404086009483 -110.69695380974008 0 -110.69695380974008 184.68704273056937 0 0 0 0 45.459485600527842 54.236426017036138 0 54.236426017036138 -442.18945762555086 0 0 0 0 -684.82030961957935 -437.10642413451751 0 -437.10642413451751 -124.9078551135317 0 0 0 0 -7.6840369096259735 0.99253593015893671 0 0.99253593015893671 4.9521919063092525 0 0 0 0 267.33506651404605 -510.52722967238515 0 -510.52722967238515 251.49628906179714 0 0 0 0 -20.774083395217957 -41.631969401765602 0 -41.631969401765602 -63.769577186244589 0 0 0 0 78.278800557309296 -52.280009216085091 0 -52.280009216085091 -130.25250614267134 0 0 0 0 -690.00523923897708 -303.34450242913954 0 -303.34450242913954 703.95042904115689 0 0 0 0 -0.60074942715914403 -2.6482880136238265 0 -2.6482880136238265 -11.716599488904023 0 0 0 0 204.546024439147 -385.03890736352332 0 -385.03890736352332 228.68466545948468 0 0 0 0 403.2910600212781 -293.53446550382796 0 -293.53446550382796 171.85900452379792 0 0 0 0 -15.348816799669294 39.900349786075822 0 39.900349786075822 109.90472725342806 0 0 0 0 186.72324929716706 -336.47741300758935 0 -336.47741300758935 208.13311516019894 0 0 0 0 -16.370287031362381 -15.723278253205223 0 -15.723278253205223 12.440684697114705 0 0 0 0 272.07414611205604 -137.99980226209664 0 -137.99980226209664 -92.398626826987311 0 0 0 0 12.184894871650613 31.030526334976457 0 31.030526334976457 -189.5569033277061 0 0 0 0 36.013384443718678 -88.325342872943565 0 -88.325342872943565 -115.17867344827391 0 0 0 0 30.619371131164371 53.328743809852313 0 53.328743809852313 -270.62825940802577 0 0 0 0 -288.01760879693029 -127.91258603505048 0 -127.91258603505048 -91.15285642619483 0 0 0 0 -127.39139353318023 -193.07580716117081 0 -193.07580716117081 -188.70471912980429 0 0 0 0 -6.3816247681243112 -85.684425048333651 0 -85.684425048333651 -337.16969801458981 0 0 0 0 -104.94515256369777 -63.673739562716946 0 -63.673739562716946 -71.354191919783261 0 0 0 0 -122.01257970275037 -81.953039593511676 0 -81.953039593511676 -16.931686260089919 0 0 0 0 -92.177068470075028 -34.076403045171901 0 -34.076403045171901 -4.4079725245874215 0 0 0 0 -9.6432620510961442 -10.109955860282582 0 -10.109955860282582 -8.7630560700649056 0 0 0 0 -112.41766725710477 -58.817230342196126 0 -58.817230342196126 -19.533208618155186 0 0 0 0 -84.404590760325107 -35.917298742008199 0 -35.917298742008199 -6.5453924718859113 0 0 0 0 -110.27248539119319 -51.326891360055015 0 -51.326891360055015 -41.562899483287765 0 0 0 0 -60.674982680531031 -64.552570144379899 0 -64.552570144379899 -27.02138074229174 0 0 0 0 94.889161941013299 -102.78460008150978 0 -102.78460008150978 -86.40137974695017 0 0 0 0 11.78765081745189 -8.7376797109688056 0 -8.7376797109688056 -4.2401081152131184 0 0 0 0 42.762056857052812 -48.476187785747243 0 -48.476187785747243 -23.342718720967241 0 0 0 0 -88.165481509538949 -27.359912669255209 0 -27.359912669255209 -165.91586042912968 0 0 0 0 -55.735778075068012 -67.928332749253514 0 -67.928332749253514 -36.816532480149064 0 0 0 0 217.35122955231782 -149.69408395153005 0 -149.69408395153005 -55.389872405477945 0 0 0 0 -92.5284246076626 -20.146385590345744 0 -20.146385590345744 -142.60020437105413 0 0 0 0 -108.96838211959039 -73.533945411004424 0 -73.533945411004424 -50.542957078447216 0 0 0 0 2.0066456573331379 -26.208440064212937 0 -26.208440064212937 -202.72525611059245 0 0 0 0 47.863846229884075 12.04735796339628 0 12.04735796339628 -54.331976411054711 0 0 0 0 -113.29810615562747 -196.61147064833585 0 -196.61147064833585 -108.63331894008297 0 0 0 0 10.803526409057667 -74.584131479536154 0 -74.584131479536154 -21.16342779057959 0 0 0 0 155.85923403144261 -3.2605760883861876 0 -3.2605760883861876 -203.11726805416038 0 0 0 0 69.937102308482281 -414.74795664157864 0 -414.74795664157864 903.84207869208558 0 0 0 0 1.7354511851725647 4.2920469667035306 0 4.2920469667035306 1.8591689787840107 0 0 0 0 -4.6260412040428491 -35.488912914190223 0 -35.488912914190223 332.00787862182597 0 0 0 0 -15.208402601194393 -263.34448024457561 0 -263.34448024457561 273.770897372131 0 0 0 0 228.99840083246818 -171.61525292627448 0 -171.61525292627448 21.958243807166582 0 0 0 0 -61.724611896905117 -144.29979249721146 0 -144.29979249721146 96.840788125668041 0 0 0 0 -0.11497927826712839 -140.71592194850291 0 -140.71592194850291 151.61692644178493 0 0 0 0 -114.89543492654047 -252.09424074513845 0 -252.09424074513845 113.70222604350602 0 0 0 0 -0.1543842949014157 -202.29994140961557 0 -202.29994140961557 -63.105254293335747 0 0 0 0 -147.28878707833064 -410.7167523615044 0 -410.7167523615044 -283.03738614293252 0 0 0 0 -171.49797099844727 -177.75699745538986 0 -177.75699745538986 -103.10476606762313 0 0 0 0 -73.28257693021078 -281.00299851147838 0 -281.00299851147838 -17.228561358831939 0 0 0 0 -46.810167021692905 -240.60594134264829 0 -240.60594134264829 -345.62716253598774 0 0 0 0 0.091607040800130102 -291.48660005592637 0 -291.48660005592637 -442.97185711433849 0 0 0 0 0.069143506705586333 -149.10737349880037 0 -149.10737349880037 -80.17666476171371 0 0 0 0 52.519788395511569 -178.87101760780479 0 -178.87101760780479 -155.3319763123859 0 0 0 0 75.912616682981024 -104.02669895520557 0 -104.02669895520557 -123.26570211773651 0 0 0 0 46.483150512904103 -114.31812137222778 0 -114.31812137222778 -72.661045873046533 0 0 0 0 51.762645838447497 -93.336178930539972 0 -93.336178930539972 -32.188349646476127 0 0 0 0 0.021850792631153623 -112.43173624809272 0 -112.43173624809272 34.421766929510341 0 0 0 0 -12.704149484823574 -57.329334754909723 0 -57.329334754909723 153.89202903527382 0 0 0 0 -42.687768929921731 -121.19046150437771 0 -121.19046150437771 157.85718296795312 0 0 0 0 47.291764927060285 -23.076621374833849 0 -23.076621374833849 6.186627001819943 0 0 0 0 36.15243552577158 -47.043482449052135 0 -47.043482449052135 65.687941391533968 0 0 0 0 98.585563644825015 1.9705591389720212 0 1.9705591389720212 -190.44345168813743 0 0 0 0 52.995232467568712 49.439437473296493 0 49.439437473296493 180.29164552216753 0 0 0 0 210.40551052422961 -138.32163631373987 0 -138.32163631373987 259.42643596830749 0 0 0 0 -35.500436617207015 -108.93330172072274 0 -108.93330172072274 518.49720670112583 0 0 0 0 167.28405912359449 -152.02999204823436 0 -152.02999204823436 148.51634336688585 0 0 0 0 -90.899633209599415 -24.741178755328292 0 -24.741178755328292 110.33720468235606 0 0 0 0 5.1094965925367433 -115.49929132343004 0 -115.49929132343004 -37.643959106553666 0 0 0 0 38.688778858115256 -85.196639600733533 0 -85.196639600733533 -590.50341633555581 0 0 0 0 29.692652861136594 -102.93483435710459 0 -102.93483435710459 -152.77930920323524 0 0 0 0 -8.2921896746411221 -229.25068828381063 0 -229.25068828381063 -174.10018770558872 0 0 0 0 73.65459986474616 -138.67657254623305 0 -138.67657254623305 -251.48550816261923 0 0 0 0 -67.818300979910418 -164.0928195661927 0 -164.0928195661927 -98.507301128386644 0 0 0 0 -69.345460413504043 -164.34898975908209 0 -164.34898975908209 -92.413307651931973 0 0 0 0 -352.64534166510566 -394.62269090272821 0 -394.62269090272821 -227.72906702509954 0 0 0 0 -6.0242474849611654 -1.202408305997011 0 -1.202408305997011 0.26520462540389289 0 0 0 0 -294.55395028550993 -59.650178260520988 0 -59.650178260520988 76.292288351364732 0 0 0 0 15.509306527979788 2.3627774322294499 0 2.3627774322294499 -17.13783462964966 0 0 0 0 10.857554741713102 -67.401574233993415 0 -67.401574233993415 14.944521401230304 0 0 0 0 -39.672707864105178 -49.974805811546503 0 -49.974805811546503 -145.36035160494794 0 0 0 0 -9.3118964230508823 -7.2365519378309244 0 -7.2365519378309244 -6.9161009044488289 0 0 0 0 16.435956910754612 14.735742859207676 0 14.735742859207676 -483.08785175020239 0 0 0 0 119.96763953700429 -66.92339653630188 0 -66.92339653630188 15.566141396880994 0 0 0 0 78.582928947551409 -271.44328120753926 0 -271.44328120753926 -526.54189228078531 0 0 0 0 -112.79217951762257 -77.937448652506646 0 -77.937448652506646 52.231193739888113 0 0 0 0 -319.35808335183538 -489.80328730519614 0 -489.80328730519614 -600.62919391766081 0 0 0 0 93.434872191792238 89.275586356905478 0 89.275586356905478 -881.88434752038302 0 0 0 0 -454.37990792340133 71.948617733729407 0 71.948617733729407 -102.27667826885954 0 0 0 0 -1.9328190986416303 -297.37324739732503 0 -297.37324739732503 25.522084081050707 0 0 0 0 -272.64407451072475 -117.18265633163355 0 -117.18265633163355 323.28800376992513 0 0 0 0 40.298204966064077 -290.10489285234871 0 -290.10489285234871 484.70916007658752 0 0 0 0 79.765285352514184 -278.68059092312478 0 -278.68059092312478 387.34515201107934 0 0 0 0 184.16772503746324 -355.89202161536014 0 -355.89202161536014 343.62084376209532 0 0 0 0 293.60727322215098 -322.19002005719994 0 -322.19002005719994 334.02277434616917 0 0 0 0 -18.282853508406504 -1.1980962030384035 0 -1.1980962030384035 23.155599065391769 0 0 0 0 -34.999163756583584 -272.82116082961329 0 -272.82116082961329 533.37936293772873 0 0 0 0 767.88096264080377 -603.85082311027509 0 -603.85082311027509 393.36317644524934 0 0 0 0 146.10036063380539 -372.12062070692991 0 -372.12062070692991 42.120791171990277 0 0 0 0 111.59668592640082 -239.70584073695136 0 -239.70584073695136 642.8908805287283 0 0 0 0 255.06750594009645 -663.788220804101 0 -663.788220804101 1082.9034577924394 0 0 0 0 136.79556932905689 409.27136290795534 0 409.27136290795534 170.22257824070766 0 0 0 0 -195.92377182538621 -272.98732935219596 0 -272.98732935219596 666.19252768377737 0 0 0 0 20.515037278935779 -922.87480704117843 0 -922.87480704117843 252.47370428289651 0 0 0 0 -154.16046165727312 -290.09949348885675 0 -290.09949348885675 338.20646802520059 0 0 0 0 -725.28615088801598 349.65257607114836 0 349.65257607114836 686.81684671610128 0 0 0 0 1.0260122233774496 1.9052879512105392 0 1.9052879512105392 4.1235525672891384 0 0 0 0 818.51631339310552 -936.99524627055507 0 -936.99524627055507 635.11266172759497 0 0 0 0 -153.44784992698987 -89.815538908849248 0 -89.815538908849248 8.8786546207320498 0 0 0 0 6.8203919987427071 -31.737021479282703 0 -31.737021479282703 -96.029006811313593 0 0 0 0 -67.387727652676404 3.0612264027286074 0 3.0612264027286074 306.22557750674605 0 0 0 0 -52.632335983435041 -8.850781626727894 0 -8.850781626727894 33.677735730339919 0 0 0 0 -16.802220485928416 -13.969349762300197 0 -13.969349762300197 -5.6183865037907452 0 0 0 0 -146.62203305924777 -209.03207434910291 0 -209.03207434910291 417.36812680780167 0 0 0 0 -48.26318780935253 -216.80024242056425 0 -216.80024242056425 265.17643046852754 0 0 0 0 119.63290121377213 -357.32583545816669 0 -357.32583545816669 114.84968780158124 0 0 0 0 -62.871952381829033 -291.89866241748496 0 -291.89866241748496 122.84736632806016 0 0 0 0 36.613468435796676 -228.28781632237133 0 -228.28781632237133 -75.670238826212881 0 0 0 0 148.24685647082515 -141.10997569869323 0 -141.10997569869323 -17.964994179728819 0 0 0 0 -202.23085991118569 -277.62712540403481 0 -277.62712540403481 -281.39197115705974 0 0 0 0 165.45274465999682 -186.93624031972831 0 -186.93624031972831 -254.19238513297478 0 0 0 0 130.47608548114658 -486.44621843085224 0 -486.44621843085224 -402.77052718601772 0 0 0 0 313.44269018778141 -373.95155887953297 0 -373.95155887953297 -375.41336557843533 0 0 0 0 233.23765642388389 -76.762437267209407 0 -76.762437267209407 -76.513222578727436 0 0 0 0 0.069963771279084597 -1.0991460880771626 0 -1.0991460880771626 -10.144366919064204 0 0 0 0 108.35476085165283 -77.401597920457789 0 -77.401597920457789 38.243886671428754 0 0 0 0 124.51162535616277 -99.854939783753025 0 -99.854939783753025 43.033866623438371 0 0 0 0 129.23091506419587 -149.21447343422915 0 -149.21447343422915 53.613169148964516 0 0 0 0 108.66916351466352 -140.31806576592408 0 -140.31806576592408 -8.9392675145281828 0 0 0 0 103.31902730462025 -117.40723823206281 0 -117.40723823206281 25.302919336980267 0 0 0 0 111.82246236235369 -111.20093782941512 0 -111.20093782941512 24.09559117860681 0 0 0 0 5.2589959726163897 -0.013262530909983639 0 -0.013262530909983639 -17.218115645516207 0 0 0 0 36.380631878739223 -119.02396738193056 0 -119.02396738193056 143.17186608611519 0 0 0 0 10.637573143234476 -21.841511873149102 0 -21.841511873149102 -18.126862188023551 0 0 0 0 34.984444843605161 -34.576821508733701 0 -34.576821508733701 29.998046890059413 0 0 0 0 10.348108809268822 -21.514322612575512 0 -21.514322612575512 -8.3937393464753711 0 0 0 0 11.284602092171554 -39.078891506566379 0 -39.078891506566379 3.5785542683638596 0 0 0 0 11.429471563920345 -21.458887478099683 0 -21.458887478099683 1.5764176306280007 0 0 0 0 7.5953201613847909 -16.841266993731608 0 -16.841266993731608 -13.881896876639807 0 0 0 0 1.782482211914612 -45.950388740359131 0 -45.950388740359131 6.7432826976569231 0 0 0 0 -17.784270589589141 -34.900019833150509 0 -34.900019833150509 5.4500518883594395 0 0 0 0 14.894972315266159 -55.077102912309471 0 -55.077102912309471 25.107931391637749 0 0 0 0 15.576008740754332 -40.42822192128699 0 -40.42822192128699 -2.993002356312445 0 0 0 0 -3.2684422161182738 -36.938635677330353 0 -36.938635677330353 33.324270125730891 0 0 0 0 2.4408925882235053 -29.823830334957847 0 -29.823830334957847 36.685067840933698 0 0 0 0 7.1677945177652873 0.041221466700108067 0 0.041221466700108067 49.096222852718029 0 0 0 0 -46.627982302714372 -42.393185314084349 0 -42.393185314084349 117.03626882784738 0 0 0 0 -1.4665400782014331 -0.43109470155526708 0 -0.43109470155526708 -0.0081679254271127544 0 0 0 0 10.615107874047681 -54.046932133115774 0 -54.046932133115774 61.189431182815042 0 0 0 0 -70.960637716474594 -20.397456856808844 0 -20.397456856808844 47.371236834229194 0 0 0 0 6.671973896707641 -19.603840838635506 0 -19.603840838635506 -4.7187090055726912 0 0 0 0 -0.021277374681574202 0.41846298940583893 0 0.41846298940583893 0.37814607800016908 0 0 0 0 121.3589488286816 -44.784052846735676 0 -44.784052846735676 5.5602891223677489 0 0 0 0 65.733004172085202 -10.86546424194421 0 -10.86546424194421 -14.563638087559866 0 0 0 0 39.973471783596324 -55.473613859455554 0 -55.473613859455554 77.42197726437962 0 0 0 0 -3.1318016170894794 -0.6962703183586072 0 -0.6962703183586072 0.096347140794629027 0 0 0 0 -15.303403865225846 -153.02130205409082 0 -153.02130205409082 197.93126296854427 0 0 0 0 30.117927336599678 -35.908842725875957 0 -35.908842725875957 75.302752716714167 0 0 0 0 111.8660586176411 -93.545616034840009 0 -93.545616034840009 -47.122578432740909 0 0 0 0 -41.608372057315137 -3.1459754164164906 0 -3.1459754164164906 360.06983653541147 0 0 0 0 -6.9141224684008193 -17.282304459487278 0 -17.282304459487278 14.745413073396094 0 0 0 0 -6.074894730176311 -12.186077878216793 0 -12.186077878216793 43.798413253516173 0 0 0 0 -7.893040110488073 -50.827023858327948 0 -50.827023858327948 -51.396330132429284 0 0 0 0 -89.151621973753208 -63.521331546030979 0 -63.521331546030979 -17.265591987475091 0 0 0 0 34.187051793276623 -31.898530743948101 0 -31.898530743948101 -19.762729932392403 0 0 0 0 6.3076603856036897 -5.1385166891720928 0 -5.1385166891720928 -1.3087110468434417 0 0 0 0 23.477369691197623 -15.168427388165384 0 -15.168427388165384 6.7798162623359808 0 0 0 0 -30.575182712083915 -27.066330473145172 0 -27.066330473145172 -9.2980670037177902 0 0 0 0 -5.5635567622084636 -50.413639681775749 0 -50.413639681775749 -8.4333522432102654 0 0 0 0 46.793541243299842 -33.933764592050693 0 -33.933764592050693 -26.803169914619502 0 0 0 0 -174.6420954731002 -55.985242241325977 0 -55.985242241325977 4.3346526017885481 0 0 0 0 -33.431288087042049 -30.492394689947105 0 -30.492394689947105 -10.159968547781318 0 0 0 0 -136.56275540193019 -166.87123479035813 0 -166.87123479035813 -69.547162109880446 0 0 0 0 -39.215908734273398 -110.31715891130443 0 -110.31715891130443 -49.34245466408629 0 0 0 0 26.451250515965512 -135.15093857166175 0 -135.15093857166175 -82.110603446475579 0 0 0 0 -67.006732337235007 -120.90496014827113 0 -120.90496014827113 -39.286102168885009 0 0 0 0 -40.457983864209382 -165.74504776590038 0 -165.74504776590038 -94.80251905824116 0 0 0 0 68.481869879018632 -192.57877840639594 0 -192.57877840639594 -115.05371085533989 0 0 0 0 15.274088366495562 -167.33220432810276 0 -167.33220432810276 -89.310321131690216 0 0 0 0 29.807478211099806 -180.89836256898116 0 -180.89836256898116 -115.11702576569041 0 0 0 0 116.89403232748737 -153.77361698084451 0 -153.77361698084451 -92.867963065948061 0 0 0 0 230.64535322185839 -262.14102601013201 0 -262.14102601013201 -54.471800770877962 0 0 0 0 70.893990897311596 -197.02304348214102 0 -197.02304348214102 -80.197663018856474 0 0 0 0 58.211596735956846 -142.05645975459083 0 -142.05645975459083 -77.813291723576185 0 0 0 0 45.687981853232486 -105.48694950983008 0 -105.48694950983008 -71.631495033223018 0 0 0 0 -31.799397316819523 -103.66163961563825 0 -103.66163961563825 -67.10531403735331 0 0 0 0 -3.9495170145237353 -97.246018899887531 0 -97.246018899887531 -64.210425534272872 0 0 0 0 -2.0037729586741193 0.46804711861842208 0 0.46804711861842208 1.6681781549314021 0 0 0 0 12.270762562267066 -6.0629764678503335 0 -6.0629764678503335 3.2753410691445071 0 0 0 0 -5.3792993697570637 -89.055575412005965 0 -89.055575412005965 -83.357081065008288 0 0 0 0 -77.861395950836595 -185.10999296756086 0 -185.10999296756086 471.55053866643118 0 0 0 0 61.09771477720642 -75.4625689605258 0 -75.4625689605258 -34.101745921586598 0 0 0 0 86.838616158784134 -170.59961334084028 0 -170.59961334084028 369.81897441065712 0 0 0 0 120.54379479328054 -101.06123881995876 0 -101.06123881995876 130.38077883715687 0 0 0 0 52.97772217617603 -296.19969765903761 0 -296.19969765903761 314.14726138774165 0 0 0 0 445.22862232764601 -134.32933304570452 0 -134.32933304570452 -236.39882521296011 0 0 0 0 89.310544883017428 -89.688478321755611 0 -89.688478321755611 860.4802775583421 0 0 0 0 526.45533707906725 -329.71991222518864 0 -329.71991222518864 178.68449821125023 0 0 0 0 741.59575632942142 34.510279851224368 0 34.510279851224368 223.27506367969545 0 0 0 0 581.29124730449985 -538.50211157831609 0 -538.50211157831609 738.86146883763467 0 0 0 0 41.247671612534759 84.386276088268687 0 84.386276088268687 473.72041594087023 0 0 0 0 119.15211878967239 -211.51566452062116 0 -211.51566452062116 194.22924587712896 0 0 0 0 379.88356436790491 -178.63426697735667 0 -178.63426697735667 66.368846037389631 0 0 0 0 265.36281210093875 -420.31343369945955 0 -420.31343369945955 251.29406624486728 0 0 0 0 1.8913220948359708 -0.59979203630614109 0 -0.59979203630614109 0.7824388056312781 0 0 0 0 117.41280731034931 -229.76946838223603 0 -229.76946838223603 1482.6791724857167 0 0 0 0 631.3661954617055 -102.65274742116537 0 -102.65274742116537 23.861709385420909 0 0 0 0 462.91150267818011 -568.99573492151103 0 -568.99573492151103 1266.7443858470233 0 0 0 0 239.75322559196502 108.48485973293282 0 108.48485973293282 -333.79957989033028 0 0 0 0 -0.052657677065781172 0.17896784184949865 0 0.17896784184949865 1.8242210679992099 0 0 0 0 24.905091581254965 51.35472108331669 0 51.35472108331669 -133.99029321218586 0 0 0 0 178.30748248938471 -89.665900738109485 0 -89.665900738109485 -124.91370837166323 0 0 0 0 486.05181315954542 -80.698858600399944 0 -80.698858600399944 -268.5844359396142 0 0 0 0 176.52199777562055 -96.145160819995908 0 -96.145160819995908 -120.72944850413478 0 0 0 0 89.953833842824679 -230.60663299514999 0 -230.60663299514999 46.140019502760879 0 0 0 0 94.890145323675824 -252.28974871598848 0 -252.28974871598848 -3.3543254689056994 0 0 0 0 -93.968698635449982 -225.81579378185143 0 -225.81579378185143 202.83224579342823 0 0 0 0 76.336883186857449 8.4703300791724132 0 8.4703300791724132 -162.24198922139976 0 0 0 0 -198.36380500800442 81.009689866283793 0 81.009689866283793 -54.127919390130728 0 0 0 0 -25.636084281490184 304.19111627241728 0 304.19111627241728 -772.34190468746067 0 0 0 0 -0.56789558425953146 -129.52916629391257 0 -129.52916629391257 -236.75217434759315 0 0 0 0 0.076294511934975162 -192.29036331443331 0 -192.29036331443331 -39.400842876515185 0 0 0 0 -135.36941863826723 -67.805349833834839 0 -67.805349833834839 -22.608604089179607 0 0 0 0 0.071993579789705109 -185.44255270922349 0 -185.44255270922349 -48.233051301882369 0 0 0 0 93.010147087763471 -233.77058177153413 0 -233.77058177153413 -65.813866292399325 0 0 0 0 37.233090003879624 -198.18476137970083 0 -198.18476137970083 -81.947875054906035 0 0 0 0 -6.5561952950956766 -219.9112918300043 0 -219.9112918300043 -6.0317594103280499 0 0 0 0 50.896957267719699 -167.42582100353093 0 -167.42582100353093 -86.867271925660134 0 0 0 0 34.770606132689863 -194.2869287488395 0 -194.2869287488395 -85.731515922743711 0 0 0 0 4.5342511739945621 -25.911891395055591 0 -25.911891395055591 31.621160714264533 0 0 0 0 -3.1024047875107499 -51.007562116699319 0 -51.007562116699319 0.84404310920467651 0 0 0 0 -23.891347672979464 -26.908552604873989 0 -26.908552604873989 52.933166887942207 0 0 0 0 -30.097067917391541 -53.414761668231222 0 -53.414761668231222 10.376318800017771 0 0 0 0 31.832751250417061 -34.473208893075906 0 -34.473208893075906 38.400749384521241 0 0 0 0 10.122180760285119 0.38131849070055068 0 0.38131849070055068 -29.063879014017516 0 0 0 0 -58.271616102065309 -63.794922993153364 0 -63.794922993153364 128.92783977449017 0 0 0 0 -1.2662859718184336 -41.893313040648309 0 -41.893313040648309 -145.42751023203709 0 0 0 0 -68.088767425433616 91.218929556291528 0 91.218929556291528 30.922041181104568 0 0 0 0 103.73541651842243 -183.79098182275038 0 -183.79098182275038 142.89534218652068 0 0 0 0 4.0213480790499148 0.78420383065002852 0 0.78420383065002852 -3.6291049130666151 0 0 0 0 -19.599662961420108 -71.690607441025861 0 -71.690607441025861 86.699246481023692 0 0 0 0 27.396589752068394 -45.489296150288624 0 -45.489296150288624 93.60285008233609 0 0 0 0 1.7988387810328277 -71.463747396866566 0 -71.463747396866566 50.957642947530303 0 0 0 0 15.594746262628178 -102.85239480952174 0 -102.85239480952174 112.2369251917753 0 0 0 0 -6.0940119393857799 -9.9427915112454173 0 -9.9427915112454173 22.278652661086735 0 0 0 0 -20.988346453681174 -73.16024498230513 0 -73.16024498230513 -27.697389903075909 0 0 0 0 -92.406966341244697 -36.870297804174314 0 -36.870297804174314 230.47523480732474 0 0 0 0 29.867553445310477 19.587133041681227 0 19.587133041681227 80.938917501145625 0 0 0 0 44.70304551375375 -57.46845648211638 0 -57.46845648211638 -148.58154710277449 0 0 0 0 -80.464725575286138 -7.9560470242977317 0 -7.9560470242977317 -32.408041943410353 0 0 0 0 -18.72240712933133 -53.074079624728896 0 -53.074079624728896 -18.952538789670378 0 0 0 0 9.1987304181238869 -75.423735956977907 0 -75.423735956977907 -12.089346220582229 0 0 0 0 1.1681838662141928 -65.905830484804497 0 -65.905830484804497 -5.8363656530999819 0 0 0 0 -9.455037240521051 -59.513632633224915 0 -59.513632633224915 13.252461195024807 0 0 0 0 0.10586657720116932 -46.046242161661269 0 -46.046242161661269 -7.6576522523907276 0 0 0 0 24.578587854620622 -43.235854544248085 0 -43.235854544248085 31.522558528603007 0 0 0 0 -1.1815586242591962 -70.611102952744034 0 -70.611102952744034 65.045866430420404 0 0 0 0 2.8804897462396184 -69.876967375056665 0 -69.876967375056665 5.0790384848805843 0 0 0 0 -4.0568525617127307 -79.122768187370184 0 -79.122768187370184 10.866025888975855 0 0 0 0 -1.0944249520471203 -81.868244858295839 0 -81.868244858295839 -8.9923703422173276 0 0 0 0 -11.890055980945533 -51.743608676002339 0 -51.743608676002339 3.4710384220507944 0 0 0 0 1.2447314605888096 -72.006784342821447 0 -72.006784342821447 4.723814541939646 0 0 0 0 -20.511059250309586 -42.218164708757492 0 -42.218164708757492 -7.3020633113797047 0 0 0 0 -31.812790996154945 -43.432302449974486 0 -43.432302449974486 10.160971429177152 0 0 0 0 -52.490433096230845 -64.718648163413491 0 -64.718648163413491 -8.8983377746676524 0 0 0 0 18.477695450568717 -45.600437998886633 0 -45.600437998886633 9.447940266374971 0 0 0 0 -37.593289567725151 -101.09847660179548 0 -101.09847660179548 118.15566520494031 0 0 0 0 -50.082621780905981 -36.900830342410607 0 -36.900830342410607 -9.1775503837829255 0 0 0 0 -40.007951229083119 -49.147290063584478 0 -49.147290063584478 18.264857971348192 0 0 0 0 -36.408079719276543 -34.668940185862269 0 -34.668940185862269 -9.4949105875064905 0 0 0 0 -26.721702693102998 -70.151197522068287 0 -70.151197522068287 41.600463516557284 0 0 0 0 -41.049428293545134 -144.36898625746727 0 -144.36898625746727 69.9238088243128 0 0 0 0 55.996323005529121 -173.71323229455083 0 -173.71323229455083 75.464578438653916 0 0 0 0 22.808542891521938 -133.80784338751437 0 -133.80784338751437 28.870432031973905 0 0 0 0 80.018236426956719 -135.12805093457064 0 -135.12805093457064 26.91313186924981 0 0 0 0 20.779203477410192 -91.659805755587513 0 -91.659805755587513 17.261419560152717 0 0 0 0 10.889142434141831 -101.53344856615331 0 -101.53344856615331 29.594948635787659 0 0 0 0 11.620499463078886 -96.764509585929773 0 -96.764509585929773 29.268242865473439 0 0 0 0 45.718164544174215 -112.14388429156315 0 -112.14388429156315 31.520769713308709 0 0 0 0 23.884331915724033 -91.647091453097346 0 -91.647091453097346 32.916358795857377 0 0 0 0 49.480315918364795 -120.20479250539938 0 -120.20479250539938 34.645205431598242 0 0 0 0 41.325712736550486 -115.8381899391743 0 -115.8381899391743 42.481487137818476 0 0 0 0 77.518175814504502 -109.95044047044939 0 -109.95044047044939 41.594284574541234 0 0 0 0 52.699253176630009 -124.22888397028146 0 -124.22888397028146 55.856460831924778 0 0 0 0 80.800660786946537 -124.12938499934171 0 -124.12938499934171 29.762629759508854 0 0 0 0 98.457196032941283 -121.19948169042527 0 -121.19948169042527 25.557321394946484 0 0 0 0 -48.356796565421973 -85.084489347234921 0 -85.084489347234921 14.748623912441872 0 0 0 0 18.375154667395549 -36.41346250105974 0 -36.41346250105974 20.465240069041535 0 0 0 0 -9.3250161811520229 -58.018462792100308 0 -58.018462792100308 12.857282125070924 0 0 0 0 38.537276242190273 -92.787724576191977 0 -92.787724576191977 5.020957575340617 0 0 0 0 -35.27478934271312 -113.3391303979289 0 -113.3391303979289 10.861963951356302 0 0 0 0 24.83140237659245 -55.189576625851032 0 -55.189576625851032 40.400176958918564 0 0 0 0 30.479547386400682 -42.089123028523602 0 -42.089123028523602 21.16360430892361 0 0 0 0 11.40986707427254 -36.346479675256248 0 -36.346479675256248 44.05733565561632 0 0 0 0 -113.96926026615256 -38.328896124938183 0 -38.328896124938183 33.576566634231767 0 0 0 0 16.953795585650369 -102.32536039590377 0 -102.32536039590377 32.87336350707119 0 0 0 0 26.809677368306438 -97.534299887782254 0 -97.534299887782254 37.414004926609778 0 0 0 0 33.297481110857916 -88.041937608611988 0 -88.041937608611988 36.705863406423305 0 0 0 0 72.32774946585414 -125.76734108341589 0 -125.76734108341589 42.580097722580831 0 0 0 0 34.445242997950118 -100.99179155755746 0 -100.99179155755746 36.78767640427759 0 0 0 0 182.99570599599974 -125.50467169471085 0 -125.50467169471085 22.043340129064745 0 0 0 0 32.128018778870086 -81.912285569829891 0 -81.912285569829891 65.800241843648024 0 0 0 0 56.918355046378565 -110.41737537055997 0 -110.41737537055997 103.98072289739422 0 0 0 0 68.091781763767358 -153.91335545021866 0 -153.91335545021866 124.48005445423769 0 0 0 0 -45.283571981384227 5.0486264082979062 0 5.0486264082979062 24.894975891563533 0 0 0 0 20.060035336711735 -110.06560800083821 0 -110.06560800083821 51.004365321646219 0 0 0 0 5.3767526099520069 -29.337090449138117 0 -29.337090449138117 -36.43365334459719 0 0 0 0 55.97469830828777 -123.3913899913332 0 -123.3913899913332 70.017342875634313 0 0 0 0 72.700165601592744 -104.61764572048742 0 -104.61764572048742 74.14131994013951 0 0 0 0 44.464798242857796 -124.03968027930932 0 -124.03968027930932 84.337802064153948 0 0 0 0 56.017569286050275 -123.76925149211638 0 -123.76925149211638 60.195257224660963 0 0 0 0 44.161123727848462 -114.84697215537199 0 -114.84697215537199 62.032960810938675 0 0 0 0 49.056091739577823 -147.72387928213539 0 -147.72387928213539 103.80095391666691 0 0 0 0 8.6188892583029428 -48.382636061430638 0 -48.382636061430638 -35.643989244436767 0 0 0 0 -3.8667797513480764 -47.501451219171486 0 -47.501451219171486 22.726239268899917 0 0 0 0 21.772601880620641 -71.230773010897337 0 -71.230773010897337 21.347102283225695 0 0 0 0 -25.563867600430967 -45.355723537903714 0 -45.355723537903714 66.200824510257917 0 0 0 0 -48.954214113357011 -110.11633771826291 0 -110.11633771826291 1.148412003266003 0 0 0 0 2.9850420292204944 -108.31165076260822 0 -108.31165076260822 -0.67939246978266965 0 0 0 0 18.162840035183763 -103.49808700294659 0 -103.49808700294659 -8.154575077617892 0 0 0 0 -11.833756992054987 -132.98685115497062 0 -132.98685115497062 -24.261286607676524 0 0 0 0 -15.354717078953399 -99.844061426745441 0 -99.844061426745441 -6.6197173925506831 0 0 0 0 -73.364761071672547 -86.756376212990858 0 -86.756376212990858 43.785362806617741 0 0 0 0 -56.523267250828212 -165.74199161159083 0 -165.74199161159083 -111.99978791519527 0 0 0 0 35.413073492485637 -72.867414661049111 0 -72.867414661049111 75.10477157580317 0 0 0 0 56.12654618216402 -121.88545140345366 0 -121.88545140345366 54.296239232045991 0 0 0 0 37.829957162858449 -29.105050879907186 0 -29.105050879907186 -5.8859749575671607 0 0 0 0 180.48873290915071 91.281230001460017 0 91.281230001460017 -51.427131876640487 0 0 0 0 87.333763035399897 -97.163499006792335 0 -97.163499006792335 117.2608303230777 0 0 0 0 45.462087120248036 -71.482882072038038 0 -71.482882072038038 -13.569293563160517 0 0 0 0 -89.583382521894237 -200.32039117709178 0 -200.32039117709178 113.92110990930996 0 0 0 0 97.158697004721034 -75.927603645530098 0 -75.927603645530098 -81.532900318879001 0 0 0 0 -63.643655012252566 -192.87773932720347 0 -192.87773932720347 -11.625182539457001 0 0 0 0 -33.224195428098028 -184.06151554085682 0 -184.06151554085682 -94.827289915928304 0 0 0 0 -46.244795958540635 -188.79631033440273 0 -188.79631033440273 -95.037163754609992 0 0 0 0 -16.988104169045982 -115.11393675576232 0 -115.11393675576232 -102.20568353728413 0 0 0 0 -60.963953202150151 -151.42637204608229 0 -151.42637204608229 25.614841473251545 0 0 0 0 -46.724902477122669 -138.85635100928585 0 -138.85635100928585 21.12406290439003 0 0 0 0 -58.219701212190557 -137.810214190034 0 -137.810214190034 36.355418160957925 0 0 0 0 -7.2348055846152874 -97.033418490487634 0 -97.033418490487634 26.739018729470445 0 0 0 0 8.7534486097283661 -92.6364548088427 0 -92.6364548088427 24.137330988654753 0 0 0 0 -57.778501986394986 -189.96938964063474 0 -189.96938964063474 4.1077509111510153 0 0 0 0 -20.783088842581492 -22.451862357555456 0 -22.451862357555456 -35.289252528906218 0 0 0 0 -8.4956518827480068 -125.31985700915907 0 -125.31985700915907 -104.80850632005968 0 0 0 0 22.50929731540964 -67.024469678481864 0 -67.024469678481864 -19.872796487055439 0 0 0 0 -29.311584382008732 -49.477623643121206 0 -49.477623643121206 -258.92300207919288 0 0 0 0 -143.37051444152166 -154.5293711186182 0 -154.5293711186182 -166.85788233775838 0 0 0 0 -58.230213361668575 -113.21308024636005 0 -113.21308024636005 -103.87149506721084 0 0 0 0 -69.286332336487249 -324.7437732832384 0 -324.7437732832384 -468.65696959982211 0 0 0 0 -1.0251243396625398 -2.0761640137702386 0 -2.0761640137702386 1.5825419587509479 0 0 0 0 -62.792470145497646 10.607438240377064 0 10.607438240377064 415.3555350307206 0 0 0 0 0.052742804138688371 -224.76330597418973 0 -224.76330597418973 91.417983885863805 0 0 0 0 -33.159117671762942 -60.416670332449939 0 -60.416670332449939 21.897559248668585 0 0 0 0 32.525271425465689 -152.86020115089764 0 -152.86020115089764 -49.132550337004432 0 0 0 0 13.514251313309472 -55.90215650637068 0 -55.90215650637068 30.676204470035312 0 0 0 0 17.791081004681359 -57.376703059044161 0 -57.376703059044161 31.824362735798402 0 0 0 0 -14.901859253166549 -84.372226209370638 0 -84.372226209370638 50.313122038388883 0 0 0 0 -36.901466861316294 -84.291351999181643 0 -84.291351999181643 112.55934967834946 0 0 0 0 -29.475938304894953 -61.663693402790841 0 -61.663693402790841 105.82051685240549 0 0 0 0 0.021254821744150831 -48.399731102788394 0 -48.399731102788394 93.560807274232502 0 0 0 0 -47.086746815049992 -88.489693563198671 0 -88.489693563198671 63.61698062339201 0 0 0 0 80.738929394661682 -268.81642668027598 0 -268.81642668027598 -81.468538799586895 0 0 0 0 10.815653117380862 -38.186486041459261 0 -38.186486041459261 24.378517820649904 0 0 0 0 5.5609991319288383 -60.917821216437687 0 -60.917821216437687 73.012411696153322 0 0 0 0 11.523479026145651 -50.643046689896664 0 -50.643046689896664 62.428790757296156 0 0 0 0 20.927162090274066 -60.224206857394918 0 -60.224206857394918 27.374879493946541 0 0 0 0 -1.8722574153071037 -21.115999124669543 0 -21.115999124669543 20.936001429975022 0 0 0 0 -76.00820437828952 -234.70784636900953 0 -234.70784636900953 -339.47170218287283 0 0 0 0 -5.1940668895407782 -4.9268970506082184 0 -4.9268970506082184 3.369280291818348 0 0 0 0 6.734639601490926 -28.25543980725655 0 -28.25543980725655 11.560265877336406 0 0 0 0 -1.4117212275107391 -4.3742703532442704 0 -4.3742703532442704 -18.823773318048737 0 0 0 0 21.484952678816626 -5.4532980261346893 0 -5.4532980261346893 -15.67104831677716 0 0 0 0 22.511321987884003 5.9332104543063906 0 5.9332104543063906 -3.573326946479483 0 0 0 0 22.303958868994414 -10.570006489269645 0 -10.570006489269645 -26.758767584986344 0 0 0 0 -19.037917779234704 -28.032366084339287 0 -28.032366084339287 128.37350458868991 0 0 0 0 -2.4487197549799191 -4.1105757097979847 0 -4.1105757097979847 3.3940757511182635 0 0 0 0 -16.997627038530482 -23.33908296781658 0 -23.33908296781658 37.609808685543157 0 0 0 0 -125.8631526629033 -118.97270664879261 0 -118.97270664879261 -232.16679216824309 0 0 0 0 -53.737907299779181 -246.56984862821241 0 -246.56984862821241 -451.40826932908681 0 0 0 0 -13.434395163625595 -158.97273927000674 0 -158.97273927000674 -220.22724928185789 0 0 0 0 -81.063900716028002 -98.362118008346897 0 -98.362118008346897 -14.766331051785073 0 0 0 0 -31.641989729549096 -96.674779206093433 0 -96.674779206093433 169.13405392374392 0 0 0 0 -27.868006038945168 -4.6923431271995923 0 -4.6923431271995923 59.166355243378234 0 0 0 0 -19.011333789712808 -105.62661765434058 0 -105.62661765434058 -50.274681920724561 0 0 0 0 8.4558505772947683 8.3952168098393827 0 8.3952168098393827 160.44907611275127 0 0 0 0 38.173614955136145 -136.95977197681 0 -136.95977197681 94.049962308958357 0 0 0 0 -1.8734711519500706 -34.855951040955915 0 -34.855951040955915 -87.08603455880052 0 0 0 0 -86.233622177853249 -156.82491004775227 0 -156.82491004775227 -144.95759600289966 0 0 0 0 -217.18679806470755 -291.08073282858186 0 -291.08073282858186 -360.82523479287784 0 0 0 0 -24.164189836767036 -72.64252539101426 0 -72.64252539101426 -370.85603073844493 0 0 0 0 -1.6866194198922244 -1.167756863200097 0 -1.167756863200097 -0.16670129966768599 0 0 0 0 -384.78823128661315 -245.04129791062292 0 -245.04129791062292 -149.95554209735383 0 0 0 0 -225.52624725734495 -10.052781845387926 0 -10.052781845387926 -212.49545613700775 0 0 0 0 8.2142998686758801 -73.672319722410521 0 -73.672319722410521 -195.43222855610452 0 0 0 0 -2.8405430762645381 -3.3114979281739778 0 -3.3114979281739778 -1.6043613877424727 0 0 0 0 -24.674768843135098 -8.3435490665469842 0 -8.3435490665469842 -262.32150019983692 0 0 0 0 15.705274641019059 53.11600358907026 0 53.11600358907026 -592.86874464673565 0 0 0 0 -85.673231268097879 -306.48506643257224 0 -306.48506643257224 -579.73569934751185 0 0 0 0 -204.9445522656024 -88.699918403183801 0 -88.699918403183801 -64.037651466816669 0 0 0 0 30.618481456003792 -121.69642792096761 0 -121.69642792096761 -295.53222623305646 0 0 0 0 53.957104031025665 -181.38399868929264 0 -181.38399868929264 -356.04233180489416 0 0 0 0 20.000704240232153 -152.12403155367451 0 -152.12403155367451 -16.493770708722877 0 0 0 0 -43.121624700475877 -271.01843075666943 0 -271.01843075666943 261.18078268857749 0 0 0 0 71.3397173201447 -71.579566006963034 0 -71.579566006963034 72.888044491289207 0 0 0 0 -175.0023594925442 -215.54823741101677 0 -215.54823741101677 8.7219865276199471 0 0 0 0 -77.637154223542893 17.492816149258942 0 17.492816149258942 -9.1893211372660062 0 0 0 0 -154.374261083889 -118.79202247142609 0 -118.79202247142609 473.05297453740093 0 0 0 0 2.5513794642274661 -72.459746255646621 0 -72.459746255646621 -20.073872256740728 0 0 0 0 -5.7319805832485144 -122.47666776481492 0 -122.47666776481492 43.724628351388674 0 0 0 0 18.189125714030354 -70.212580930123423 0 -70.212580930123423 -19.215795330183354 0 0 0 0 15.77605191370094 -87.5215337988393 0 -87.5215337988393 46.58728517578129 0 0 0 0 -0.11600996571360156 -130.49010113832264 0 -130.49010113832264 54.133580756918718 0 0 0 0 89.569580037976266 -184.20774471383083 0 -184.20774471383083 -5.3511436852641054 0 0 0 0 22.497207405467634 -106.85565832753491 0 -106.85565832753491 -84.059674764517695 0 0 0 0 -10.258807048810354 -72.326807489263956 0 -72.326807489263956 -19.040688003115598 0 0 0 0 -98.586154118325794 -62.580808197862353 0 -62.580808197862353 366.94775607167048 0 0 0 0 -194.65653323828883 -81.120815751912232 0 -81.120815751912232 76.9582463436127 0 0 0 0 -167.88735129585984 -65.446654738163488 0 -65.446654738163488 83.818172601881088 0 0 0 0 -21.486304001195499 -42.770084628752642 0 -42.770084628752642 63.628185665408409 0 0 0 0 -252.35224438376463 -139.79374297501272 0 -139.79374297501272 134.32572430950677 0 0 0 0 -77.217011227519833 -186.35022651259351 0 -186.35022651259351 103.44564172774335 0 0 0 0 -72.713066217998858 -162.61278614722687 0 -162.61278614722687 93.504845576666412 0 0 0 0 23.761935726681259 -267.31706049385321 0 -267.31706049385321 153.19934508857114 0 0 0 0 197.46289617597358 -195.64761081981305 0 -195.64761081981305 2.5529797477793181 0 0 0 0 73.370718469690473 -191.2334916922473 0 -191.2334916922473 46.908084211761889 0 0 0 0 45.255816205328301 -119.80391035064804 0 -119.80391035064804 -34.864852575512487 0 0 0 0 -37.366946012101835 -119.68693528747281 0 -119.68693528747281 5.288116562709547 0 0 0 0 21.158683343659504 -73.587397753233745 0 -73.587397753233745 -54.676816918152326 0 0 0 0 -55.645286328028305 -82.511446460057414 0 -82.511446460057414 67.739899433414394 0 0 0 0 -47.024512696254533 -90.982081042358914 0 -90.982081042358914 75.890569498611057 0 0 0 0 -22.887419882742577 -50.281791442147991 0 -50.281791442147991 10.509901554222221 0 0 0 0 -39.813249842192036 -35.834343298002182 0 -35.834343298002182 69.398522578822849 0 0 0 0 13.610072999479598 -68.109627033314609 0 -68.109627033314609 38.643987647610629 0 0 0 0 20.34688533546796 -89.334572398193814 0 -89.334572398193814 69.308734963138704 0 0 0 0 2.3425539209783892 -94.84684051316799 0 -94.84684051316799 53.106091295841907 0 0 0 0 32.295769525379001 -80.053433742319612 0 -80.053433742319612 60.215186564275427 0 0 0 0 10.239051518845372 -103.66495596829373 0 -103.66495596829373 92.520268856103939 0 0 0 0 18.123721769094118 -66.042474095509533 0 -66.042474095509533 85.70958679098112 0 0 0 0 42.116795055211696 -86.292899429328827 0 -86.292899429328827 100.51774136194217 0 0 0 0 101.39887886628276 -162.21441748646293 0 -162.21441748646293 16.945772415028387 0 0 0 0 105.96797569327464 -160.18275899155225 0 -160.18275899155225 17.433195751633434 0 0 0 0 38.005789656872309 -72.156813987178978 0 -72.156813987178978 -25.478183033710334 0 0 0 0 72.475027895838139 -132.24720163716506 0 -132.24720163716506 -9.9288342801246472 0 0 0 0 96.703028260963038 -174.26247904122579 0 -174.26247904122579 -13.401544307911536 0 0 0 0 81.826227933896007 -115.1241429037284 0 -115.1241429037284 -9.7484868238361742 0 0 0 0 81.764204065475496 -144.49635166386224 0 -144.49635166386224 -120.36519576044702 0 0 0 0 137.36418060885626 -118.47928210507871 0 -118.47928210507871 17.654125822537026 0 0 0 0 109.86702516444348 -164.54736776232971 0 -164.54736776232971 9.8034565179714264 0 0 0 0 109.74148744100239 -143.30627756834519 0 -143.30627756834519 11.032309908839125 0 0 0 0 148.01701976713957 -154.5159450289616 0 -154.5159450289616 137.17692398948753 0 0 0 0 -8.8809744175757288 -4.1069909171908279 0 -4.1069909171908279 13.731138393161515 0 0 0 0 -61.689395611370855 -57.668573948106413 0 -57.668573948106413 19.652158965003423 0 0 0 0 236.38247162093467 -165.04748522706564 0 -165.04748522706564 35.329263693970006 0 0 0 0 69.394399503689783 -78.385317845173091 0 -78.385317845173091 -6.6197043336067338 0 0 0 0 114.2462498411478 -160.07538092680358 0 -160.07538092680358 12.323845570975067 0 0 0 0 13.357043055863567 -53.454275194900191 0 -53.454275194900191 -68.550843924221709 0 0 0 0 -143.24797295873577 -132.66331335227733 0 -132.66331335227733 -65.118306891308748 0 0 0 0 -213.79136310158356 9.0615941084870428 0 9.0615941084870428 21.037711842116551 0 0 0 0 -210.13194102456328 35.35709420904459 0 35.35709420904459 -105.33206349035027 0 0 0 0 -253.46387801133096 -153.94602007017238 0 -153.94602007017238 65.978453074756544 0 0 0 0 7.2720976267313375 -26.882127663451666 0 -26.882127663451666 -4.9785628023063069 0 0 0 0 -375.91964680379897 65.24389346845237 0 65.24389346845237 14.147960669943132 0 0 0 0 -26.196883673421823 -39.717173330106675 0 -39.717173330106675 49.810933744594905 0 0 0 0 1071.8988400160451 -553.43621045647888 0 -553.43621045647888 206.91280549785006 0 0 0 0 -89.622643929367769 -35.739545694812932 0 -35.739545694812932 46.080736394795395 0 0 0 0 -151.68016263932805 -72.407273835287924 0 -72.407273835287924 127.54249387478922 0 0 0 0 -64.675854684435762 -31.462706755435647 0 -31.462706755435647 40.712370981775166 0 0 0 0 -18.694002472155262 -50.302234977882108 0 -50.302234977882108 13.382044621946989 0 0 0 0 -73.702224986525835 -61.198973436306005 0 -61.198973436306005 28.553416340668718 0 0 0 0 -69.297561494830006 -59.302613255921642 0 -59.302613255921642 24.235810657179172 0 0 0 0 -45.947408732346958 -53.184511175763873 0 -53.184511175763873 25.591202535740194 0 0 0 0 -87.49686992977513 -50.411497272741713 0 -50.411497272741713 44.511310916180861 0 0 0 0 -114.96084733257885 -71.622798956461594 0 -71.622798956461594 25.943068407604642 0 0 0 0 -106.79257248494832 -32.182982871195804 0 -32.182982871195804 27.388548627958016 0 0 0 0 -71.977172232021985 -44.922388550109076 0 -44.922388550109076 4.7871957350657794 0 0 0 0 -184.31934104900211 -92.772838873455242 0 -92.772838873455242 22.193516320213234 0 0 0 0 -133.218315045895 -24.938938715548375 0 -24.938938715548375 -1.7145991617542222 0 0 0 0 -373.82871427178179 -113.52842359537522 0 -113.52842359537522 0.49731680833428982 0 0 0 0 -268.60082707404945 -36.862700172448058 0 -36.862700172448058 21.355698225707783 0 0 0 0 528.11908138706349 -299.76985327380135 0 -299.76985327380135 -128.93908585430836 0 0 0 0 1.828971188780713 4.0389063137275656 0 4.0389063137275656 2.0963727141620687 0 0 0 0 276.15578023338458 20.524372021079216 0 20.524372021079216 108.59553706677343 0 0 0 0 80.935619855845289 -527.59219231984616 0 -527.59219231984616 -29.35371496814696 0 0 0 0 -155.94890957266034 -181.08555612856799 0 -181.08555612856799 -7.1346708309283713 0 0 0 0 248.60017450825762 -102.22049476406869 0 -102.22049476406869 -122.9351879466376 0 0 0 0 133.18724868237041 -94.682968792243628 0 -94.682968792243628 -121.58324654400803 0 0 0 0 50.729414848436136 -161.19465988678894 0 -161.19465988678894 -149.71612649385133 0 0 0 0 -870.35278800246306 -714.4281202917773 0 -714.4281202917773 2.3138350091467146 0 0 0 0 -3.986688709969286 0.89376077861767556 0 0.89376077861767556 35.237950908009246 0 0 0 0 707.82943628265639 86.074176354872179 0 86.074176354872179 -138.7320889117982 0 0 0 0 -165.19297754936997 -139.45062296614287 0 -139.45062296614287 -173.75000779946186 0 0 0 0 51.466625755347195 -4.0610905481507871 0 -4.0610905481507871 -94.140019778515693 0 0 0 0 23.811781047463228 1.3196725800910372 0 1.3196725800910372 -21.001549261887703 0 0 0 0 77.403573516920005 -48.78416555719491 0 -48.78416555719491 -20.017484632285232 0 0 0 0 155.9850452272367 -95.230443374388869 0 -95.230443374388869 7.8600296936519953 0 0 0 0 85.420109831437003 -27.071247702037908 0 -27.071247702037908 26.977336713791942 0 0 0 0 37.409112805704353 -33.692748793602732 0 -33.692748793602732 -82.51945766350218 0 0 0 0 95.993991973911761 -57.322849902934649 0 -57.322849902934649 -75.747479535311868 0 0 0 0 88.971209616029228 -25.409061246105921 0 -25.409061246105921 8.6001100832072552 0 0 0 0 -0.84422798594459891 -56.507718360906438 0 -56.507718360906438 -43.773479287194732 0 0 0 0 33.759772559656994 -14.643770931478684 0 -14.643770931478684 -29.941143703688795 0 0 0 0 30.615897946256155 -13.513194015672525 0 -13.513194015672525 -13.053640219914314 0 0 0 0 0.4281355405115761 -24.668473486331749 0 -24.668473486331749 -10.342383855957877 0 0 0 0 4.2775138245362427 -59.866011822545687 0 -59.866011822545687 26.841708819458717 0 0 0 0 55.607504800191236 -78.131147994241019 0 -78.131147994241019 -142.99135471636873 0 0 0 0 -40.07838596093643 -53.869038472908869 0 -53.869038472908869 63.265980344691343 0 0 0 0 -51.583527918694017 -90.790433734900944 0 -90.790433734900944 49.765451937611942 0 0 0 0 -15.534880312892938 -68.592061637347058 0 -68.592061637347058 48.869604739818897 0 0 0 0 0.87581435242856287 -17.670462415410441 0 -17.670462415410441 4.5858095431854196 0 0 0 0 324.90672680096759 504.03520631764877 0 504.03520631764877 168.45725631448499 0 0 0 0 56.6002308494717 -303.79795362671939 0 -303.79795362671939 163.28990608525783 0 0 0 0 -66.412500998550968 -57.165997976202561 0 -57.165997976202561 66.40959450956143 0 0 0 0 -28.460387865066878 -24.597825011173882 0 -24.597825011173882 27.230001750001975 0 0 0 0 -2.7852310368762119 -76.813206173927938 0 -76.813206173927938 20.859595375378831 0 0 0 0 -23.601997008447796 -52.181443241959791 0 -52.181443241959791 32.88520181638215 0 0 0 0 -16.151879987906341 -83.124877636242445 0 -83.124877636242445 30.481334832034918 0 0 0 0 3.0122504668397596 -45.478319661577189 0 -45.478319661577189 37.218115412202678 0 0 0 0 -36.323191102168494 -32.809204451835285 0 -32.809204451835285 21.032871026995053 0 0 0 0 -99.775867066549836 -40.215943480943679 0 -40.215943480943679 32.506566022948391 0 0 0 0 -69.056663878309337 -8.4448362425864616 0 -8.4448362425864616 36.324898129780195 0 0 0 0 -108.33996450052655 -35.671938301633418 0 -35.671938301633418 20.050281951046145 0 0 0 0 -55.913269240605004 -48.371600988883273 0 -48.371600988883273 -14.436797611029434 0 0 0 0 28.447592391243234 -99.284083897851815 0 -99.284083897851815 -61.184218187445367 0 0 0 0 127.02373760779483 -282.66950219273076 0 -282.66950219273076 381.38848893583418 0 0 0 0 7.0283171006092999 -14.811342524605195 0 -14.811342524605195 -6.2282493802014418 0 0 0 0 18.164518423945992 -290.03664873919297 0 -290.03664873919297 461.0503963855499 0 0 0 0 -81.004265990562331 -17.305968687403102 0 -17.305968687403102 -2.2015092113492702 0 0 0 0 -87.506650241601164 -8.1399887116422178 0 -8.1399887116422178 322.53999147893046 0 0 0 0 -92.538770810737333 -37.661547687695929 0 -37.661547687695929 4.7451248074667092 0 0 0 0 -19.239664219751447 -1.2251772442887443 0 -1.2251772442887443 7.1185248042159586 0 0 0 0 -98.925673983088927 -260.3738104555141 0 -260.3738104555141 188.52190474677809 0 0 0 0 46.718993434846197 52.65843768978084 0 52.65843768978084 -55.207435164342314 0 0 0 0 -146.38594603877573 -119.83187721325521 0 -119.83187721325521 339.84686138638881 0 0 0 0 -35.811868338601926 -23.166964360900238 0 -23.166964360900238 294.43426143987381 0 0 0 0 23.141702130476915 -169.66094910341417 0 -169.66094910341417 -62.632852186125092 0 0 0 0 -40.093476363515947 -58.369117758714083 0 -58.369117758714083 43.42518549658422 0 0 0 0 138.066079828488 -133.41497734230688 0 -133.41497734230688 -271.31160641481802 0 0 0 0 -27.316401881368677 -47.23393973782899 0 -47.23393973782899 28.751267824132238 0 0 0 0 -29.703067833874229 -75.87118198291347 0 -75.87118198291347 -3.1517317400691809 0 0 0 0 -42.342685379622708 -79.663012077054645 0 -79.663012077054645 0.054783449692877184 0 0 0 0 -34.317255720379762 -81.043410693140686 0 -81.043410693140686 -23.116145306762064 0 0 0 0 -47.886618520024058 -112.73790605739578 0 -112.73790605739578 -52.390486728166252 0 0 0 0 -111.304426563569 -147.75695273045193 0 -147.75695273045193 -30.613032131907232 0 0 0 0 -140.46797352996873 -165.32153503153404 0 -165.32153503153404 -78.725958843033368 0 0 0 0 -171.0150243030821 -121.36898883340336 0 -121.36898883340336 -59.065532100191376 0 0 0 0 -71.729766176147677 -95.843512086117698 0 -95.843512086117698 226.11180101686296 0 0 0 0 -52.217284586613516 -6.814283051882164 0 -6.814283051882164 19.091946342265956 0 0 0 0 -13.511316110672951 -57.459208036841382 0 -57.459208036841382 29.522611796872667 0 0 0 0 -18.811447869652753 -51.851563934808972 0 -51.851563934808972 31.133376933730041 0 0 0 0 11.638087507366436 -223.48384056886243 0 -223.48384056886243 -65.878007320527104 0 0 0 0 11.83652548842656 20.296748068105444 0 20.296748068105444 64.712872724168847 0 0 0 0 15.257121037822799 -80.091340132092228 0 -80.091340132092228 -11.09679993222062 0 0 0 0 45.393803516375556 -82.968281808372922 0 -82.968281808372922 -11.44494583587948 0 0 0 0 67.515808205147664 -92.070694269263299 0 -92.070694269263299 -18.58786559391956 0 0 0 0 34.793639257758514 -98.025822421890098 0 -98.025822421890098 -9.8527901010274945 0 0 0 0 76.129072994499438 -71.837500624804306 0 -71.837500624804306 -18.314867298231547 0 0 0 0 -86.124871036447075 -217.37523446427099 0 -217.37523446427099 98.665554944469477 0 0 0 0 11.186207697461214 -81.251920385881931 0 -81.251920385881931 -6.574013771585669 0 0 0 0 -6.0650462721886154 -70.90336153437508 0 -70.90336153437508 8.8839109910765188 0 0 0 0 -219.13147965381359 893.68213143409685 0 893.68213143409685 661.06922569754533 0 0 0 0 77.625195446680664 -201.16061532971071 0 -201.16061532971071 73.672892529571982 0 0 0 0 -60.859855752561998 -193.78681379551199 0 -193.78681379551199 109.0685753479529 0 0 0 0 -41.290908357110311 -253.93229038579375 0 -253.93229038579375 160.15042501642165 0 0 0 0 107.93620914552412 -94.10987113810279 0 -94.10987113810279 94.39953170219087 0 0 0 0 -38.15504877623971 -135.78303785392018 0 -135.78303785392018 111.89222704910208 0 0 0 0 -46.865955631514225 7.3267750781342329 0 7.3267750781342329 -42.062182601719542 0 0 0 0 -44.329688790951941 -51.106700751943222 0 -51.106700751943222 31.639857691608562 0 0 0 0 -74.094037275071969 -49.672439024358937 0 -49.672439024358937 -129.5060258851554 0 0 0 0 -24.325519893802266 -55.945532952872611 0 -55.945532952872611 64.764456336416515 0 0 0 0 207.55615979588765 -90.100464367835229 0 -90.100464367835229 -4.9270726901372655 0 0 0 0 46.234224167824884 -126.58674353598484 0 -126.58674353598484 3.779369370971589 0 0 0 0 -152.97149592261485 -19.126800351459678 0 -19.126800351459678 -27.033785790445108 0 0 0 0 137.39063298792826 -148.67635328989115 0 -148.67635328989115 52.294498632814793 0 0 0 0 1.9334028243863084 -78.186634134558176 0 -78.186634134558176 -9.2687342845760412 0 0 0 0 -54.036132048608124 -32.001858107698354 0 -32.001858107698354 -122.25089111573288 0 0 0 0 -34.706490877388205 -88.452645854979892 0 -88.452645854979892 30.41382874381452 0 0 0 0 45.342463076962304 -117.1831882966726 0 -117.1831882966726 20.938383494525624 0 0 0 0 -40.110936090943142 -37.861382256004617 0 -37.861382256004617 31.363719699504145 0 0 0 0 5.7149779538505374 -9.4244675672452054 0 -9.4244675672452054 5.1716539923570224 0 0 0 0 -69.200363673202446 -50.465715598683346 0 -50.465715598683346 27.674826060640044 0 0 0 0 -15.990482719849751 -34.976676605060675 0 -34.976676605060675 -16.295715184658548 0 0 0 0 -28.738476648139113 -45.089898188603911 0 -45.089898188603911 6.8007432117756252 0 0 0 0 -14.386813565570264 -55.509716794362248 0 -55.509716794362248 -5.6309239925976726 0 0 0 0 7.5673939074638383 -75.81887421557235 0 -75.81887421557235 12.664447944600397 0 0 0 0 -87.876348064834019 -42.583062734931673 0 -42.583062734931673 120.52728441253203 0 0 0 0 -70.359637543504505 -82.174094858208719 0 -82.174094858208719 184.949577315444 0 0 0 0 -44.906827580030949 -29.465788278738728 0 -29.465788278738728 124.16271819585609 0 0 0 0 -26.507405668572773 -13.012398331563247 0 -13.012398331563247 9.5710772491024123 0 0 0 0 -36.620556551125446 -31.408858992742125 0 -31.408858992742125 31.661198898211296 0 0 0 0 -31.111028450002252 -22.211733109389378 0 -22.211733109389378 14.937334309520875 0 0 0 0 -55.904333140286326 -53.874182964660577 0 -53.874182964660577 9.4143555504947471 0 0 0 0 -25.594163964216932 -143.43215033826004 0 -143.43215033826004 61.72933629025556 0 0 0 0 -63.170682596042752 -112.45054671991602 0 -112.45054671991602 67.395070371051588 0 0 0 0 -41.353285930734273 -70.867212033203941 0 -70.867212033203941 -34.232342651755971 0 0 0 0 24.42753969167461 -80.843289030112373 0 -80.843289030112373 -72.318950575417603 0 0 0 0 97.522250686526149 -329.66675340903026 0 -329.66675340903026 117.17812684142109 0 0 0 0 -24.69987339976101 -63.969122020791346 0 -63.969122020791346 21.181218421145182 0 0 0 0 -89.254786379784491 -22.321395459018959 0 -22.321395459018959 11.8655561243595 0 0 0 0 142.87417709714646 -141.6434851989743 0 -141.6434851989743 355.26722361665452 0 0 0 0 3.9980456566754716 -18.516017208305975 0 -18.516017208305975 2.5714351578982031 0 0 0 0 239.18438851601604 -85.052612234717117 0 -85.052612234717117 -75.286714500795256 0 0 0 0 -9.4091974061528845 -0.0041293399662230001 0 -0.0041293399662230001 136.99409903908133 0 0 0 0 -59.025619273856137 -97.759864862117411 0 -97.759864862117411 268.95178036557627 0 0 0 0 -46.306797950155669 -54.812899684587933 0 -54.812899684587933 99.72645694705443 0 0 0 0 -57.263706124721466 -95.711725930835669 0 -95.711725930835669 54.491347512937864 0 0 0 0 -31.555767414278307 -130.90279412328312 0 -130.90279412328312 64.72426962661234 0 0 0 0 13.168792091102659 -106.27758779347278 0 -106.27758779347278 -87.915951833632789 0 0 0 0 -34.890692493681854 -80.160100597202927 0 -80.160100597202927 -21.242057056862905 0 0 0 0 -96.071436362415625 -89.08545583819523 0 -89.08545583819523 -21.613696394864292 0 0 0 0 -40.039594137242247 -75.332963016509737 0 -75.332963016509737 -32.728099980193271 0 0 0 0 -70.028197082338011 -104.55034163974051 0 -104.55034163974051 -38.683161672701317 0 0 0 0 122.19793982343981 -240.87029218912619 0 -240.87029218912619 -403.25173776843019 0 0 0 0 -201.43700829202862 -282.78001528673303 0 -282.78001528673303 458.63911220215687 0 0 0 0 -290.94363793620141 -97.017271951505393 0 -97.017271951505393 111.97578853034656 0 0 0 0 294.76735091114824 -500.51208900473432 0 -500.51208900473432 -13.380467226048836 0 0 0 0 286.39083444464632 123.38846079950872 0 123.38846079950872 -84.455973059640201 0 0 0 0 -34.236062303365621 -60.88754184395323 0 -60.88754184395323 -8.209051779324124 0 0 0 0 -174.06504099468293 65.138849594500925 0 65.138849594500925 15.419260899555411 0 0 0 0 -61.202178994139103 -226.48432360587458 0 -226.48432360587458 14.605761940242928 0 0 0 0 296.39619224069975 -407.43439965133371 0 -407.43439965133371 88.556146415036892 0 0 0 0 531.92705917745843 137.87482993843878 0 137.87482993843878 -22.589368651297491 0 0 0 0 3.360531298093008 -2.3445489916449986 0 -2.3445489916449986 1.3603202627407853 0 0 0 0 -184.23267629642942 -269.02874741220694 0 -269.02874741220694 217.76109475615385 0 0 0 0 -134.64085373117268 -194.42359308613516 0 -194.42359308613516 -182.65271547806333 0 0 0 0 -229.88530377212737 -233.06232388021272 0 -233.06232388021272 134.03571587506394 0 0 0 0 -106.63639198959208 -279.9261024195921 0 -279.9261024195921 -216.31476268600682 0 0 0 0 -103.09964666666929 -177.20841311392985 0 -177.20841311392985 -354.51759186338131 0 0 0 0 -341.62013867491623 -252.44780833261484 0 -252.44780833261484 -80.50216628449806 0 0 0 0 -142.77259934078756 -214.6616553034637 0 -214.6616553034637 -79.076862391397924 0 0 0 0 -188.20161319217732 -211.30354460974786 0 -211.30354460974786 223.56155134586697 0 0 0 0 -127.62369343592582 -200.28202128544217 0 -200.28202128544217 169.37713417562895 0 0 0 0 -144.16440929083183 -266.11314615181072 0 -266.11314615181072 143.48858096818117 0 0 0 0 -61.211790079507139 -223.92846915478535 0 -223.92846915478535 162.8800181214765 0 0 0 0 -119.12616236081885 -180.1046246295823 0 -180.1046246295823 208.40396113171028 0 0 0 0 -68.913151104374265 -109.14359914059767 0 -109.14359914059767 9.220375193950666 0 0 0 0 -62.975195207429351 -111.13117029427474 0 -111.13117029427474 6.7139801759780084 0 0 0 0 -65.007550535941846 -109.86943236853404 0 -109.86943236853404 5.9407955304777715 0 0 0 0 -59.110033353616018 -106.00339049738614 0 -106.00339049738614 0.25891933963248448 0 0 0 0 -65.150357477592479 -108.52388873248947 0 -108.52388873248947 7.7693637274323919 0 0 0 0 -60.98705966725538 -100.30029633403865 0 -100.30029633403865 11.891878874261124 0 0 0 0 -34.890019475144072 -101.24156998129411 0 -101.24156998129411 -3.3632990550140676 0 0 0 0 -67.507722941241809 -104.34941129412618 0 -104.34941129412618 11.810567064477951 0 0 0 0 -7.8162395498366095 -76.645708779213237 0 -76.645708779213237 4.2324999540262525 0 0 0 0 -44.052255727787269 -86.194165061391686 0 -86.194165061391686 6.4391553103855586 0 0 0 0 -69.454164303795551 -94.00886582521639 0 -94.00886582521639 12.996657356186347 0 0 0 0 -46.928133332694415 -88.34192045778309 0 -88.34192045778309 14.294418039413358 0 0 0 0 -64.403605370403966 -107.62998549365739 0 -107.62998549365739 8.6573793278512312 0 0 0 0 -75.446286645412329 -116.70353522363675 0 -116.70353522363675 0.57776600599100902 0 0 0 0 -95.941367986997648 -91.12202667477834 0 -91.12202667477834 19.004294797087141 0 0 0 0 -87.837421118085331 -84.362363709240526 0 -84.362363709240526 21.514857675533108 0 0 0 0 -72.435063597618864 -107.52866667045724 0 -107.52866667045724 -4.0485716101443927 0 0 0 0 -51.709983025335532 -101.99012372990484 0 -101.99012372990484 -1.5515949255111536 0 0 0 0 -62.446808249362221 -115.40784193729621 0 -115.40784193729621 -16.851108569248996 0 0 0 0 -67.37899788161576 -113.35066837369227 0 -113.35066837369227 6.1797880238564176 0 0 0 0 -55.857700825084066 -96.071014451529379 0 -96.071014451529379 15.700330216739758 0 0 0 0 -56.311488735067542 -101.55721038492766 0 -101.55721038492766 8.5176828419462254 0 0 0 0 -47.991053426667349 -72.655321939046189 0 -72.655321939046189 28.640178897716055 0 0 0 0 -53.450105576794158 -82.908646515478267 0 -82.908646515478267 42.924887160046183 0 0 0 0 -41.658444706261434 -101.6005355926045 0 -101.6005355926045 -5.2095556347567253 0 0 0 0 -58.9028200685716 -113.43380922517281 0 -113.43380922517281 23.108174303058604 0 0 0 0 -62.914818744908075 -105.10949195311743 0 -105.10949195311743 16.03870300181643 0 0 0 0 -54.709297021348902 -106.61602603908113 0 -106.61602603908113 -8.4421475547260343 0 0 0 0 -60.954929638501198 -114.7607533681894 0 -114.7607533681894 6.6048656704242603 0 0 0 0 -51.23771069576469 -108.83109929673992 0 -108.83109929673992 -47.671925151129471 0 0 0 0 -64.93170474913677 -106.0201952869578 0 -106.0201952869578 -4.2204684578518936 0 0 0 0 -63.575017590570496 -111.23484385327902 0 -111.23484385327902 -9.0197089357152436 0 0 0 0 -61.920725494051112 -101.94795310705433 0 -101.94795310705433 -9.9922511721670162 0 0 0 0 -64.367109467231785 -114.48296787432264 0 -114.48296787432264 -20.592407010813986 0 0 0 0 -60.793272730508761 -98.116630976891429 0 -98.116630976891429 -31.372578648928538 0 0 0 0 -52.296596545118518 -104.71856676104653 0 -104.71856676104653 -27.667918270946757 0 0 0 0 -62.858233897370155 -107.56841445696068 0 -107.56841445696068 -6.7586140972180146 0 0 0 0 -79.880333979279385 -110.9773722633854 0 -110.9773722633854 -28.620341077823014 0 0 0 0 -59.644816172240098 -122.91335262336906 0 -122.91335262336906 -45.520300658704627 0 0 0 0 -19.003758607126656 -85.084634959774121 0 -85.084634959774121 30.923427768932015 0 0 0 0 -17.695476194312434 -50.663679627846399 0 -50.663679627846399 49.274734213743926 0 0 0 0 -54.506388386749677 -45.637671257779402 0 -45.637671257779402 5.13947428479878 0 0 0 0 11.787863652913074 -101.64795857670833 0 -101.64795857670833 33.786155317808152 0 0 0 0 -16.689667647423889 -14.342471254429466 0 -14.342471254429466 16.435915412296325 0 0 0 0 24.748291708372562 -101.31729190977785 0 -101.31729190977785 28.96698848376036 0 0 0 0 -26.68590513538841 -43.500023852176938 0 -43.500023852176938 24.714778361066426 0 0 0 0 3.8928903191293358 -17.789202525686825 0 -17.789202525686825 -1.4429699819122419 0 0 0 0 -54.565116256799229 -65.202701960675768 0 -65.202701960675768 -66.746461448616174 0 0 0 0 -146.29416397596651 42.468626412166486 0 42.468626412166486 84.104969479092688 0 0 0 0 -12.959095144747096 -50.753361890678484 0 -50.753361890678484 14.421519875936422 0 0 0 0 237.04157037865662 -29.828516915638829 0 -29.828516915638829 91.256536984753893 0 0 0 0 -17.770514040318716 -41.951936793383638 0 -41.951936793383638 61.738588395937029 0 0 0 0 -62.646377479199145 -104.41335760908532 0 -104.41335760908532 0.51117899100427167 0 0 0 0 -64.193425925985139 -100.73691281636616 0 -100.73691281636616 -8.1862020825155923 0 0 0 0 -63.470413329050643 -113.1641365044751 0 -113.1641365044751 0.91154018374800216 0 0 0 0 -1296.6830977734644 733.53216166664788 0 733.53216166664788 96.566719375958201 0 0 0 0 0.72052972673054683 -2.8868644130704411 0 -2.8868644130704411 7.3341442102795114 0 0 0 0 -57.139827747130767 -105.91409263151218 0 -105.91409263151218 -2.4940106566955365 0 0 0 0 111.38304331290419 -74.142215913874679 0 -74.142215913874679 -53.163355711025361 0 0 0 0 -16.594500247317782 -43.933405340858883 0 -43.933405340858883 4.2797078495336951 0 0 0 0 33.691788057243684 -65.020146078282778 0 -65.020146078282778 -48.962614869580648 0 0 0 0 72.04360638660728 -108.78692259945092 0 -108.78692259945092 -30.364342851789843 0 0 0 0 -31.323915387169109 -27.747952735113358 0 -27.747952735113358 -54.442316626729735 0 0 0 0 61.423425307628349 -37.254673089304561 0 -37.254673089304561 -69.945481239592482 0 0 0 0 70.195909683403443 -58.461224648632196 0 -58.461224648632196 -72.334516930916379 0 0 0 0 -18.490023553233186 -125.90517762703166 0 -125.90517762703166 57.773154176073149 0 0 0 0 -12.464510109884898 -8.1527334540676435 0 -8.1527334540676435 -0.50592845497901351 0 0 0 0 -30.305905630458582 -40.450284211668986 0 -40.450284211668986 1.4440470960659866 0 0 0 0 -66.099094566321583 -19.574561341734807 0 -19.574561341734807 75.176842390336788 0 0 0 0 -18.437489356118022 -101.98114762972546 0 -101.98114762972546 19.537380217573627 0 0 0 0 -38.50952807917929 -102.08019952526956 0 -102.08019952526956 86.711363985770731 0 0 0 0 -65.080424162656072 -87.415733285437454 0 -87.415733285437454 11.356140047184454 0 0 0 0 -42.885916137558524 -88.79083813629768 0 -88.79083813629768 51.943947374849813 0 0 0 0 5.2254015686630737 -59.243693050317233 0 -59.243693050317233 67.327125403215177 0 0 0 0 -35.997763565180726 -48.01914067341707 0 -48.01914067341707 11.648642308313413 0 0 0 0 -34.159073536036885 -43.00008560414426 0 -43.00008560414426 16.726644116442912 0 0 0 0 -24.391060760355252 -83.811222114140676 0 -83.811222114140676 -0.35554535517037777 0 0 0 0 -56.018619701007083 -30.331803119190226 0 -30.331803119190226 52.224413754411216 0 0 0 0 -48.475761800401408 -51.632652512309917 0 -51.632652512309917 46.789726694042741 0 0 0 0 -33.783358327209896 -25.170509603423369 0 -25.170509603423369 43.73524865268233 0 0 0 0 -52.54017675292485 -39.791235841366415 0 -39.791235841366415 27.795228722359752 0 0 0 0 -22.218875536039487 -54.075977908609602 0 -54.075977908609602 32.825076999737604 0 0 0 0 -58.425583102374731 -82.846107924578973 0 -82.846107924578973 42.374100713610915 0 0 0 0 -41.052092913879299 -22.831444601221754 0 -22.831444601221754 45.589100126817293 0 0 0 0 -14.97986164675978 -32.378121226030359 0 -32.378121226030359 49.688151203076302 0 0 0 0 -69.718376473499859 -57.568623572717115 0 -57.568623572717115 37.09928156711976 0 0 0 0 -32.360700193001321 -65.429510104644578 0 -65.429510104644578 13.967080310278106 0 0 0 0 -71.598232406151027 -68.673736419324769 0 -68.673736419324769 22.334646383009385 0 0 0 0 -0.5983562864958003 -87.410909265236114 0 -87.410909265236114 6.1585480299763731 0 0 0 0 -30.921085672429609 -63.564179929060586 0 -63.564179929060586 6.8092426957300631 0 0 0 0 -90.606837935371914 -99.029328586279007 0 -99.029328586279007 4.8599262805109902 0 0 0 0 -139.88997863987288 -67.294478173638709 0 -67.294478173638709 35.827706847288937 0 0 0 0 -31.044688996489185 -78.915626244812302 0 -78.915626244812302 -18.083128198517443 0 0 0 0 -58.537607290714334 -68.153700538674457 0 -68.153700538674457 8.1405806543698418 0 0 0 0 11.682510630723517 -37.75148701887079 0 -37.75148701887079 36.173441879084706 0 0 0 0 -11.986656035425767 -121.40340198751073 0 -121.40340198751073 -37.275517953486997 0 0 0 0 -18.274191226458388 -47.056243232743036 0 -47.056243232743036 -43.46782608701659 0 0 0 0 -18.294810182002038 -84.357730550182168 0 -84.357730550182168 -43.031292299187044 0 0 0 0 -25.056326421956328 -50.722443731116073 0 -50.722443731116073 -29.413365348269508 0 0 0 0 44.478759978299422 -61.344303696577754 0 -61.344303696577754 -38.926772066392004 0 0 0 0 90.084876093555806 -132.87267773506755 0 -132.87267773506755 24.890448299585842 0 0 0 0 99.126292365683184 -103.34397121693837 0 -103.34397121693837 -12.162423216344905 0 0 0 0 -454.98662305617472 -478.17539673343344 0 -478.17539673343344 -333.75833847821457 0 0 0 0 -92.578316176273802 -373.47600960812497 0 -373.47600960812497 -591.92717979720419 0 0 0 0 6.7143554352974775 -7.9901920165214229 0 -7.9901920165214229 7.4194575969096679 0 0 0 0 19.810197265891304 -5.3627663790492406 0 -5.3627663790492406 -9.5144781786420172 0 0 0 0 143.02563281721086 -0.98062248288800902 0 -0.98062248288800902 -40.142538095279633 0 0 0 0 66.008900946708309 -55.190063461014688 0 -55.190063461014688 -62.991506014089509 0 0 0 0 102.50282851906013 -66.592838518732435 0 -66.592838518732435 -118.32060857484203 0 0 0 0 131.71645724321206 -75.924343116603268 0 -75.924343116603268 -36.765739196765935 0 0 0 0 22.409222809082596 -27.780490903657242 0 -27.780490903657242 -58.177620031453905 0 0 0 0 65.997776127843863 -112.1582984017501 0 -112.1582984017501 -90.182776487840329 0 0 0 0 10.095619325621783 1.2889514354402678 0 1.2889514354402678 -22.7244028071553 0 0 0 0 4.5933745320990056 -74.308173867148071 0 -74.308173867148071 3.4336844896160983 0 0 0 0 2.4603832131497256 -66.11785307183527 0 -66.11785307183527 -3.3090351842511154 0 0 0 0 42.488865057616955 -51.389362689158425 0 -51.389362689158425 21.189309853817065 0 0 0 0 5.6805849071897683 -229.20832050139219 0 -229.20832050139219 112.61676186841555 0 0 0 0 -3.6703359483384475 -24.746508514892643 0 -24.746508514892643 -6.2310168932979426 0 0 0 0 110.37385552711567 -91.219021102971396 0 -91.219021102971396 -81.302453458562695 0 0 0 0 -63.476627080883191 -154.75215609586559 0 -154.75215609586559 239.2528016603178 0 0 0 0 17.684510343444344 -222.94093805946522 0 -222.94093805946522 -3.8712754263522129 0 0 0 0 -61.203082280131312 -60.383288143121533 0 -60.383288143121533 29.110935791634137 0 0 0 0 -32.994932207387137 -63.372507343828147 0 -63.372507343828147 21.098102189363999 0 0 0 0 26.187630115588824 -58.798980010942188 0 -58.798980010942188 45.539188701796782 0 0 0 0 -30.203658743881178 -63.897790321922919 0 -63.897790321922919 31.653403366006998 0 0 0 0 -61.3287273899914 -60.312655184207756 0 -60.312655184207756 62.838813458158484 0 0 0 0 -23.643749761170511 -100.89830836006149 0 -100.89830836006149 9.9080711452293144 0 0 0 0 -4.2429323257620126 -91.814394621682368 0 -91.814394621682368 -5.8649416939551884 0 0 0 0 3.5146455543251651 -56.126247356727404 0 -56.126247356727404 -2.4573202023057803 0 0 0 0 42.804452761707751 -73.170883131539085 0 -73.170883131539085 -6.0895807640736166 0 0 0 0 26.583783766124956 -43.372774262312639 0 -43.372774262312639 26.288035767039446 0 0 0 0 3.5480192784256332 -11.571818388257935 0 -11.571818388257935 5.5709575859454503 0 0 0 0 -60.419303874062933 -75.964525772006709 0 -75.964525772006709 29.644988467138319 0 0 0 0 11.936431208878957 -101.8755935331028 0 -101.8755935331028 -9.0895300498668803 0 0 0 0 177.96378339403964 -738.9337284022622 0 -738.9337284022622 39.401667275396903 0 0 0 0 -41.128796490538619 -38.360021924788413 0 -38.360021924788413 -10.011730710850287 0 0 0 0 -347.03136647964175 771.58196304524517 0 771.58196304524517 1002.4195209105383 0 0 0 0 57.895521243404801 10.50056493466036 0 10.50056493466036 21.162192412855802 0 0 0 0 -13.31155695724371 -34.612110145839615 0 -34.612110145839615 -8.6414386864417736 0 0 0 0 93.893739559822279 -189.58716282208479 0 -189.58716282208479 -13.987985230582126 0 0 0 0 173.55756932199074 -169.63950650095285 0 -169.63950650095285 11.750431383843534 0 0 0 0 138.84138164097567 -128.67674472301223 0 -128.67674472301223 51.954823423729977 0 0 0 0 206.79947185110086 -170.71807221599556 0 -170.71807221599556 37.443472322294838 0 0 0 0 164.06538971679538 -248.52452042587538 0 -248.52452042587538 212.46354230481666 0 0 0 0 248.50149807710477 -311.235657157893 0 -311.235657157893 286.34601960110012 0 0 0 0 282.91863406342964 -128.18908047014702 0 -128.18908047014702 -46.018031393734418 0 0 0 0 -0.97147988038960875 -10.312746952783691 0 -10.312746952783691 -6.0928365480248345 0 0 0 0 -736.33146167272571 -590.11012867017416 0 -590.11012867017416 106.48904177270015 0 0 0 0 684.19934954385462 -782.638799255903 0 -782.638799255903 -227.43739856364846 0 0 0 0 230.40800962990579 0.16590851350338198 0 0.16590851350338198 -37.834171615206287 0 0 0 0 434.0984607737762 341.08307693853658 0 341.08307693853658 447.70333996517002 0 0 0 0 64.898466938121601 -119.88769833400147 0 -119.88769833400147 286.47999596514273 0 0 0 0 64.694489581750531 -175.95841151398054 0 -175.95841151398054 712.39547641349782 0 0 0 0 55.41272264634307 -48.502489771022283 0 -48.502489771022283 180.20885341365647 0 0 0 0 57.392883113514472 -125.37650741905236 0 -125.37650741905236 289.42371681765326 0 0 0 0 83.368726279486509 -14.494870428290596 0 -14.494870428290596 59.510814928624313 0 0 0 0 97.296715681299247 59.269375526528165 0 59.269375526528165 326.18626972654238 0 0 0 0 55.74807474959016 -99.266743718304497 0 -99.266743718304497 139.62946847534477 0 0 0 0 53.592113457626056 -123.73144063291329 0 -123.73144063291329 157.58137105529386 0 0 0 0 114.09979532863983 -140.66469240358128 0 -140.66469240358128 20.815270580686047 0 0 0 0 114.87350531688207 -148.72869210960926 0 -148.72869210960926 100.48122688530566 0 0 0 0 37.74871099819029 -148.45867405743775 0 -148.45867405743775 -25.968499557752693 0 0 0 0 86.791081866089371 -73.643820860212145 0 -73.643820860212145 -33.706927121107583 0 0 0 0 100.24735967378683 -88.818222967791371 0 -88.818222967791371 -18.496170869198977 0 0 0 0 96.571655843692497 -17.10276279039681 0 -17.10276279039681 59.993232859480486 0 0 0 0 124.73091600562611 -71.288091569580502 0 -71.288091569580502 -85.823018507348024 0 0 0 0 41.221979797701351 -74.643241165700601 0 -74.643241165700601 -9.2732473010873946 0 0 0 0 80.35777828445589 -167.33371037484903 0 -167.33371037484903 -121.28753401535505 0 0 0 0 -300.70333235686485 -239.66848383980687 0 -239.66848383980687 -48.62199211778352 0 0 0 0 -43.540477402778379 -94.441741929505952 0 -94.441741929505952 -68.374061185488245 0 0 0 0 -4.8206559373975324 -148.52442525935476 0 -148.52442525935476 -53.269787214496318 0 0 0 0 -118.45180724054808 -170.20132705562719 0 -170.20132705562719 -31.930846627841674 0 0 0 0 -210.74500162375261 -42.664435657719878 0 -42.664435657719878 0.72730598271300551 0 0 0 0 -180.99037587461862 -60.810357946917065 0 -60.810357946917065 -1.9516930629324634 0 0 0 0 -174.89406631789461 -77.878223110630643 0 -77.878223110630643 -67.128490686453006 0 0 0 0 -985.47037332880609 37.856986676575616 0 37.856986676575616 169.99352608449408 0 0 0 0 422.55501920332063 -347.474049002416 0 -347.474049002416 244.08038626574125 0 0 0 0 -340.63934623414389 66.832362135421135 0 66.832362135421135 -136.72151664113699 0 0 0 0 -7.389628649927797 -11.230182802686329 0 -11.230182802686329 -6.6532716216996164 0 0 0 0 482.43613927921433 -403.2279053307393 0 -403.2279053307393 -15.355207336964668 0 0 0 0 533.02552672721686 -269.69348575786535 0 -269.69348575786535 8.7925355004117591 0 0 0 0 -51.452454623849917 -95.752407571450021 0 -95.752407571450021 30.490628177394569 0 0 0 0 -46.776167086890581 -50.248403412764688 0 -50.248403412764688 -20.425316479430649 0 0 0 0 322.71822462455384 70.027627190374915 0 70.027627190374915 351.64228063205155 0 0 0 0 27.381896591767145 -150.32607338275557 0 -150.32607338275557 512.49373164879216 0 0 0 0 783.83688735037776 -105.19126023109675 0 -105.19126023109675 44.365978260218981 0 0 0 0 -14.392351487772515 -22.540762317589895 0 -22.540762317589895 -33.982343660158193 0 0 0 0 -26.861967943379057 -13.681562756269088 0 -13.681562756269088 4.3044965482711746 0 0 0 0 709.19927671624828 -322.65116855985252 0 -322.65116855985252 -143.05765503857401 0 0 0 0 102.7216126020212 -294.48974857540452 0 -294.48974857540452 484.18408107614778 0 0 0 0 396.77290039238733 -280.27617135614673 0 -280.27617135614673 -28.513826830298058 0 0 0 0 169.03586855507456 -153.02747870561871 0 -153.02747870561871 -89.117663418313896 0 0 0 0 -4.7975033173401869 -44.682271187227798 0 -44.682271187227798 -60.391725381396043 0 0 0 0 -9.6847873453298234 -101.02027874877967 0 -101.02027874877967 -74.169808453778387 0 0 0 0 140.30904413554345 -191.23832193663839 0 -191.23832193663839 -116.56980292347725 0 0 0 0 -72.966819497039978 -64.683541789905576 0 -64.683541789905576 -0.0010086093680001795 0 0 0 0 -95.851980376630308 -95.329227222475311 0 -95.329227222475311 -40.40837901836494 0 0 0 0 -148.24572721062577 -32.785185374930734 0 -32.785185374930734 -11.972072951604787 0 0 0 0 -129.80649006861086 -113.32084678475621 0 -113.32084678475621 20.672343007696327 0 0 0 0 -84.611389447082729 -90.138966550322948 0 -90.138966550322948 13.345251973471022 0 0 0 0 -19.186551192159641 -157.57538253410894 0 -157.57538253410894 20.208370460633887 0 0 0 0 -4.9373733537508997 -95.334116663409077 0 -95.334116663409077 -11.497924914030591 0 0 0 0 -71.20645565306404 -140.03995757944722 0 -140.03995757944722 38.243122366955504 0 0 0 0 10.027747309804909 -136.54513042228064 0 -136.54513042228064 -43.185516027209815 0 0 0 0 37.640720641293228 -108.85291207853879 0 -108.85291207853879 27.094880784810812 0 0 0 0 38.630437434546366 -214.18337637938748 0 -214.18337637938748 104.78006887780793 0 0 0 0 82.77399018059441 -175.99510237988579 0 -175.99510237988579 55.114905354683287 0 0 0 0 91.424635900732483 -96.694226625784722 0 -96.694226625784722 7.0558122181973886 0 0 0 0 -10.899418131132734 -68.728543808381801 0 -68.728543808381801 44.512330024313997 0 0 0 0 6.4907622396194711 -80.070244082347926 0 -80.070244082347926 40.577316613140283 0 0 0 0 16.594880303613536 -60.612271729383792 0 -60.612271729383792 71.596722322694404 0 0 0 0 56.772643842533398 -72.725136400578776 0 -72.725136400578776 43.691263106993574 0 0 0 0 -31.84876852759659 -25.398436230195227 0 -25.398436230195227 41.482484794113873 0 0 0 0 -5.4367855567143124 -77.818496275333018 0 -77.818496275333018 61.330342421293608 0 0 0 0 -0.57775279242707001 -18.478674302844738 0 -18.478674302844738 -1.01169733424305 0 0 0 0 -8.4526531996452832 -86.183639551931265 0 -86.183639551931265 98.023317940052948 0 0 0 0 -7.4782997959782733 -101.20667215717913 0 -101.20667215717913 43.446266676699452 0 0 0 0 -45.859707003102812 -68.68018569502965 0 -68.68018569502965 16.438554891607055 0 0 0 0 -52.807357481418421 -86.412909040995146 0 -86.412909040995146 12.950558654002634 0 0 0 0 9.5023677291156439 -39.819745561707563 0 -39.819745561707563 39.696557015903295 0 0 0 0 -67.289777915494369 -112.85034091402576 0 -112.85034091402576 28.266255470996839 0 0 0 0 -28.101274526503403 -92.559059756764327 0 -92.559059756764327 27.722636384929501 0 0 0 0 -74.145033277677101 -45.651624619231299 0 -45.651624619231299 8.8103310794099627 0 0 0 0 -3.4313845998126453 -280.63292069867111 0 -280.63292069867111 422.82565364861512 0 0 0 0 -212.62703994479671 -395.48672565749439 0 -395.48672565749439 363.94704765468487 0 0 0 0 86.136973612028669 -213.51500744310761 0 -213.51500744310761 123.24865238106577 0 0 0 0 -38.746103534987014 -82.506793499094783 0 -82.506793499094783 44.586915282670816 0 0 0 0 376.03742921494631 -123.98521804381744 0 -123.98521804381744 -221.66493440361592 0 0 0 0 -11.546837100380799 -73.911034707620274 0 -73.911034707620274 31.969518172962125 0 0 0 0 -13.927040989186935 -69.740435663781682 0 -69.740435663781682 34.238417260596179 0 0 0 0 -60.18432240625642 -59.683783781086433 0 -59.683783781086433 8.8535121293382133 0 0 0 0 -248.5758677190679 -28.899891210690839 0 -28.899891210690839 58.067652078760148 0 0 0 0 -518.5146335947793 -264.29927756568941 0 -264.29927756568941 405.42615397325062 0 0 0 0 -53.247263550976641 -247.22538061574596 0 -247.22538061574596 -90.409737213340122 0 0 0 0 143.3695693916743 -269.9325648345839 0 -269.9325648345839 -261.36569116011378 0 0 0 0 49.688651533503688 -58.137545297714098 0 -58.137545297714098 16.092984009053552 0 0 0 0 21.784301028590562 -75.418718687084038 0 -75.418718687084038 53.774861496181984 0 0 0 0 -57.360749561453417 -115.16960410033346 0 -115.16960410033346 41.877228153054602 0 0 0 0 122.22449777084694 -121.46919823228836 0 -121.46919823228836 -2.6920970589562785 0 0 0 0 10.703859988094024 -15.964099016783507 0 -15.964099016783507 10.491146912684599 0 0 0 0 202.55871159084927 -258.59369499893364 0 -258.59369499893364 130.55197594146011 0 0 0 0 59.532611441212424 -94.697729088420871 0 -94.697729088420871 14.67863428059033 0 0 0 0 -34.065766720820619 -41.440939209603862 0 -41.440939209603862 8.1042758978018696 0 0 0 0 67.170566592772957 -64.622750679533056 0 -64.622750679533056 48.804830005603435 0 0 0 0 269.89280333671559 -101.47568822322501 0 -101.47568822322501 1.402914074526052 0 0 0 0 39.820257153970935 -51.013536080221925 0 -51.013536080221925 22.486206901974157 0 0 0 0 67.891505076067915 -137.47099522531789 0 -137.47099522531789 81.915002557594562 0 0 0 0 -2.4633755422246395 -82.522414071649109 0 -82.522414071649109 9.0699729281332111 0 0 0 0 -11.107744306071936 -70.10426741630954 0 -70.10426741630954 53.288466340018203 0 0 0 0 29.690709001006326 -57.599845804586948 0 -57.599845804586948 26.956267588371702 0 0 0 0 29.692012587775473 -58.144949592857095 0 -58.144949592857095 60.847946752139251 0 0 0 0 40.930334638407658 -26.214934372386779 0 -26.214934372386779 32.599272560262762 0 0 0 0 45.813772854300353 -41.38660919017876 0 -41.38660919017876 25.69676178795018 0 0 0 0 75.95160248191678 -19.317925153496617 0 -19.317925153496617 26.027350891803508 0 0 0 0 43.681143062145566 -4.7278501349501312 0 -4.7278501349501312 30.820451733758091 0 0 0 0 43.372514435250196 -92.525269033925724 0 -92.525269033925724 -210.44989241224357 0 0 0 0 -308.24629925192767 -57.993620483707673 0 -57.993620483707673 41.803542451045359 0 0 0 0 23.502144855568986 -17.803768257977936 0 -17.803768257977936 42.568711898464244 0 0 0 0 2.9800490975743443 -9.2546012869870289 0 -9.2546012869870289 -0.18784237933266468 0 0 0 0 -262.97918855500848 -176.77294255519701 0 -176.77294255519701 71.362240729969926 0 0 0 0 -81.922276696147492 -216.6884255189143 0 -216.6884255189143 3.3705980420636479 0 0 0 0 -147.19133211189182 -90.840179662505761 0 -90.840179662505761 -39.548709047187003 0 0 0 0 -2.8413910943597216 -2.6450365636819413 0 -2.6450365636819413 6.951557457863629 0 0 0 0 -35.976538622388034 -39.773274428822333 0 -39.773274428822333 161.10950144592789 0 0 0 0 -19.382515532885989 -21.552487457364702 0 -21.552487457364702 46.088185805730006 0 0 0 0 -6.2846162366440694 -39.210729411981447 0 -39.210729411981447 66.660396388382651 0 0 0 0 -73.09161485612276 -104.53233991765956 0 -104.53233991765956 64.845254379717517 0 0 0 0 -6.046552744075143 -57.320112133270413 0 -57.320112133270413 19.626950084144482 0 0 0 0 15.374806833731782 -59.064070327140143 0 -59.064070327140143 55.591080624937604 0 0 0 0 -7.4895842266341788 -53.554531507063075 0 -53.554531507063075 65.065229223159349 0 0 0 0 -2.2522320328088767 -48.169561411283439 0 -48.169561411283439 -0.70034136651912693 0 0 0 0 3.0578982352653838 -73.409766832428431 0 -73.409766832428431 19.841062148130732 0 0 0 0 18.613561989150668 -97.068177037553056 0 -97.068177037553056 -14.922724308700793 0 0 0 0 -24.387634075174546 -73.358608647753258 0 -73.358608647753258 33.386145755555503 0 0 0 0 -8.3630599837197224 -85.477263495886291 0 -85.477263495886291 2.2845939633552916 0 0 0 0 -50.898016362330338 -89.499467072949969 0 -89.499467072949969 15.859673128422079 0 0 0 0 -65.684701525246055 -89.694175746117253 0 -89.694175746117253 12.608093588375141 0 0 0 0 -76.193732478564016 -75.870110621232925 0 -75.870110621232925 -4.4541102374059847 0 0 0 0 -17.437651001188414 -52.975138872563818 0 -52.975138872563818 -2.6807496145468939 0 0 0 0 -122.74316896937671 -108.71937000866455 0 -108.71937000866455 35.953384491189354 0 0 0 0 -80.883626118407847 -83.168327434574167 0 -83.168327434574167 8.5679590177314822 0 0 0 0 18.710361819997587 -60.021271994087812 0 -60.021271994087812 23.975139487618748 0 0 0 0 -141.55679355698885 -105.15786948981076 0 -105.15786948981076 27.053088159547769 0 0 0 0 -75.505684455885785 -121.67670775919396 0 -121.67670775919396 -49.998983743309509 0 0 0 0 126.09006048263473 -145.45237070357507 0 -145.45237070357507 -5.6625643599109026 0 0 0 0 9.9287243280364876 -11.290584432229124 0 -11.290584432229124 -3.3368900713310836 0 0 0 0 85.8206207839321 63.105212783477327 0 63.105212783477327 69.821763722289688 0 0 0 0 -2.3816865433128029 -0.939218170309573 0 -0.939218170309573 -2.0725680608357493 0 0 0 0 321.95742180171146 -160.57642118955664 0 -160.57642118955664 -70.588430415053153 0 0 0 0 -631.52837454434484 76.56090081128059 0 76.56090081128059 203.37456987565383 0 0 0 0 -207.07313036244886 25.879609833777067 0 25.879609833777067 -114.63069814929622 0 0 0 0 31.736399733637363 -52.488535719103325 0 -52.488535719103325 17.162790068967468 0 0 0 0 -23.216838410749915 -149.54264449171387 0 -149.54264449171387 16.659618025006239 0 0 0 0 -47.945158172762603 -146.63676023031076 0 -146.63676023031076 55.113972412742442 0 0 0 0 39.237298374595412 -48.076057887577917 0 -48.076057887577917 -48.09249836053641 0 0 0 0 68.714023574117164 -182.67727813382953 0 -182.67727813382953 50.733573636156507 0 0 0 0 -487.59260218826239 -194.40426114194997 0 -194.40426114194997 293.95397392372251 0 0 0 0 -77.671770734275924 -92.637130864328356 0 -92.637130864328356 -95.08149211962882 0 0 0 0 -117.98811487336934 -174.33793416075787 0 -174.33793416075787 293.8697375087504 0 0 0 0 251.44110826574615 -77.718870256256196 0 -77.718870256256196 -100.66366296490378 0 0 0 0 130.40193263110996 210.62985181480326 0 210.62985181480326 346.56173884244345 0 0 0 0 0.90260549864891004 0.15143427561770295 0 0.15143427561770295 6.2784134447661017 0 0 0 0 -471.34630181264947 -105.64126838782249 0 -105.64126838782249 297.02737100601007 0 0 0 0 475.3790069365059 -117.89373190214246 0 -117.89373190214246 -71.021367555920733 0 0 0 0 -218.35099719716527 -116.05717605901009 0 -116.05717605901009 126.35944064056093 0 0 0 0 -84.729801717705413 -87.487446519298828 0 -87.487446519298828 25.465761027589906 0 0 0 0 -32.702263744387892 -340.76948658291803 0 -340.76948658291803 268.35751461775726 0 0 0 0 112.72543128507459 -75.762299239446293 0 -75.762299239446293 -59.560023714540876 0 0 0 0 62.272424533854064 -73.782949432323221 0 -73.782949432323221 -10.233883912786041 0 0 0 0 -143.5325825062173 -52.072279675165191 0 -52.072279675165191 150.73750073788688 0 0 0 0 60.483120550932654 -86.065663542322 0 -86.065663542322 -15.992851909572778 0 0 0 0 10.031613917795738 -10.4974259018407 0 -10.4974259018407 12.187707259855841 0 0 0 0 -60.707661288090094 11.403069408164811 0 11.403069408164811 190.06828856555512 0 0 0 0 -352.70206346631312 137.25479774123596 0 137.25479774123596 323.66633488591469 0 0 0 0 516.68905581306899 -78.031833759276196 0 -78.031833759276196 -59.55311539193076 0 0 0 0 9.422183250382659 266.6924633336539 0 266.6924633336539 555.57194049730606 0 0 0 0 4.3800147733276731 -3.6076018865386175 0 -3.6076018865386175 3.4002223816833066 0 0 0 0 70.017218245164258 -335.4482363372299 0 -335.4482363372299 499.26886612789531 0 0 0 0 595.16288758373412 -41.900240268256312 0 -41.900240268256312 -68.081240556566627 0 0 0 0 12.943834278634313 -128.53330988273228 0 -128.53330988273228 -138.78048876467801 0 0 0 0 -0.28182528731903034 -20.711495481570211 0 -20.711495481570211 1.179379938098009 0 0 0 0 -267.91679927075893 -304.5995728480957 0 -304.5995728480957 9.8610530971527623 0 0 0 0 112.25285291237742 -106.29432705362342 0 -106.29432705362342 -236.38572725253471 0 0 0 0 -54.224487497849623 -214.52851199349243 0 -214.52851199349243 -8.5381755382986739 0 0 0 0 56.478585858043516 -81.344864709648391 0 -81.344864709648391 4.3479434690816561 0 0 0 0 50.108839002674358 -82.191780281427782 0 -82.191780281427782 -59.729392675290001 0 0 0 0 -11.87411374765361 -108.72452890802379 0 -108.72452890802379 -5.6990791689931939 0 0 0 0 -44.880593247617071 -92.980056491753203 0 -92.980056491753203 32.95324986633932 0 0 0 0 9.3726710477785673 -58.012876928703918 0 -58.012876928703918 -60.951658726654387 0 0 0 0 -17.222156441912517 -59.91546489845264 0 -59.91546489845264 10.111008783781035 0 0 0 0 12.602841361862374 -52.615734072798659 0 -52.615734072798659 -54.630782356180134 0 0 0 0 -15.403449247409299 -98.770674575942394 0 -98.770674575942394 -21.690244284334767 0 0 0 0 -20.335551906506538 -58.02011666252578 0 -58.02011666252578 4.017518116384009 0 0 0 0 -28.078668042895515 -85.192149909256841 0 -85.192149909256841 -10.537727379542048 0 0 0 0 93.350218194173067 -96.611828810186125 0 -96.611828810186125 -33.041865841943945 0 0 0 0 141.6418160860776 -8.3305298616051005 0 -8.3305298616051005 -21.864859030218213 0 0 0 0 0.93213500278943684 -52.25863713115541 0 -52.25863713115541 -32.315945342430496 0 0 0 0 63.634631403583626 -108.97653810732299 0 -108.97653810732299 -22.363824413401744 0 0 0 0 19.058640665683924 -67.73267895326353 0 -67.73267895326353 -57.31269491533385 0 0 0 0 -16.364645553037263 -57.056495377238008 0 -57.056495377238008 4.8977373972082408 0 0 0 0 -0.04089364393330186 -18.82564294281147 0 -18.82564294281147 -0.029270139566108355 0 0 0 0 -74.151234989403747 -122.6460398490126 0 -122.6460398490126 -20.321950346457015 0 0 0 0 24.293329541240382 -105.247876234464 0 -105.247876234464 2.2479203705588588 0 0 0 0 1.4220223331022339 0.16855976891235969 0 0.16855976891235969 4.2665502105753603 0 0 0 0 474.79420191670943 13.835631899573855 0 13.835631899573855 -128.86742435121778 0 0 0 0 -204.88833441727911 -107.79317730365801 0 -107.79317730365801 80.785952471989731 0 0 0 0 -41.596550139554893 -57.61361693845538 0 -57.61361693845538 -36.532719911203912 0 0 0 0 -29.696225030529604 -174.07540284215065 0 -174.07540284215065 102.45355754165212 0 0 0 0 -11.474779063175447 -111.97360592285258 0 -111.97360592285258 25.237634295161115 0 0 0 0 -12.653002794962958 -96.121154394613768 0 -96.121154394613768 21.414110744935897 0 0 0 0 -65.053921131839161 -127.25689235133177 0 -127.25689235133177 54.284953471131416 0 0 0 0 -6.0398392332281219 -108.34674794931925 0 -108.34674794931925 42.692515619523874 0 0 0 0 5.5715634912994574 -84.996903999637652 0 -84.996903999637652 21.977495594532229 0 0 0 0 0.6629249261633845 0.85131958653769857 0 0.85131958653769857 0.49689683383959959 0 0 0 0 -61.268280194890394 -148.82495422126158 0 -148.82495422126158 -35.696362001075613 0 0 0 0 -321.65835944665014 -146.86524525980712 0 -146.86524525980712 50.315697161277058 0 0 0 0 -28.969292767182196 -75.517736808573318 0 -75.517736808573318 8.1436007636439172 0 0 0 0 49.236499973972968 -93.727995644632756 0 -93.727995644632756 -71.060645596804534 0 0 0 0 -30.792486211914365 -40.193428385624429 0 -40.193428385624429 22.888847057212843 0 0 0 0 -22.707513685636734 -50.138922880001324 0 -50.138922880001324 -9.8382066746112287 0 0 0 0 40.960728047772136 -77.088808706324926 0 -77.088808706324926 14.752964341376355 0 0 0 0 -13.603469810965727 -61.987486358028193 0 -61.987486358028193 -10.952604281855713 0 0 0 0 -25.110061352050252 -40.47287815864911 0 -40.47287815864911 -59.697795310136826 0 0 0 0 -55.184578919295745 -47.480418081116113 0 -47.480418081116113 3.5998079301280086 0 0 0 0 -33.479101867109421 -19.434877444145968 0 -19.434877444145968 42.387068072719558 0 0 0 0 25.171515261784407 -119.09126697665306 0 -119.09126697665306 16.18836914957501 0 0 0 0 -35.340584158668207 -92.154080080665153 0 -92.154080080665153 74.185085851069744 0 0 0 0 -36.382629557014297 -63.019409905871726 0 -63.019409905871726 -6.092300540787619 0 0 0 0 -12.450624048007739 -73.668299099870637 0 -73.668299099870637 -24.005682175611582 0 0 0 0 -12.4636865249159 -75.131980976571043 0 -75.131980976571043 6.496176111191744 0 0 0 0 7.1347379837006883 -76.422803179582843 0 -76.422803179582843 -53.363360729716078 0 0 0 0 5.5305029918927175 -81.262916045528982 0 -81.262916045528982 2.0127767065932858 0 0 0 0 -34.541538403502919 -59.04735206174049 0 -59.04735206174049 2.2130392247094619 0 0 0 0 -3.7119463437629747 -60.986672497860127 0 -60.986672497860127 -48.711528569416259 0 0 0 0 -7.0123165798240663 -12.601067700962147 0 -12.601067700962147 -7.9873889289458759 0 0 0 0 -146.96561077447404 -162.49411787269855 0 -162.49411787269855 -17.40069431840675 0 0 0 0 -74.979871155570436 -75.916481125241262 0 -75.916481125241262 -39.02381680890096 0 0 0 0 -125.76614765645354 35.380642086354783 0 35.380642086354783 -15.547254857083317 0 0 0 0 
</DataArray>
<DataArray type="Float64" Name="cross_section_updated" format="ascii">
1 1 1 1 1 1 1 0.011209060967710634 1 1 0.013654815608340629 1 1 0.0091812794948433404 1 1 0.010589674177524863 1 0.01072755491074189 0.010412502784510514 1 0.012692176441450386 1 1 1 1 1 1 1 1 1 1 1 1 1 1 0.01018657734899367 1 0.0098779141903583348 1 1 1 1 1 1 1 1 1 0.0081286655793377585 1 1 0.0087970337375149633 1 1 1 1 1 1 1 1 0.0091906389919609172 1 1 1 0.0082151994782262584 1 1 1 0.015722492323536324 1 1 0.012026564939658117 1 1 0.014175927988304863 1 1 1 1 0.013563704381086195 1 1 1 1 1 1 1 1 1 1 1 0.0099682300853209983 1 1 0.018481199428745598 1 1 1 1 1 1 0.0091052603497299763 1 1 1 1 1 1 1 1 0.016379225630661524 1 1 1 1 1 1 0.014913267874760147 1 1 1 1 1 1 1 1 1 1 0.010785536491106095 1 1 1 1 1 1 1 1 1 1 1 1 1 1 1 1 1 1 1 1 1 1 1 1 1 1 0.0073738352326630299 1 1 0.01284451513026319 0.010205778280310341 1 1 1 1 1 1 1 1 1 1 1 1 1 1 1 1 1 1 1 1 1 1 1 1 1 1 1 1 1 1 1 0.0092261012601871917 1 1 0.0081653627163526046 1 1 1 1 1 1 1 0.0096826889786493179 1 1 1 0.019384612657631431 1 1 1 1 1 1 0.020216648381647571 1 1 1 1 1 1 1 1 1 1 1 1 1 1 1 1 1 1 1 1 1 1 1 1 0.019619165020866504 1 1 1 1 1 1 1 1 1 1 0.020538039715187438 1 1 0.020148677397640306 1 1 1 1 1 1 1 0.011122716161585878 1 1 0.0099887084544938234 1 1 1 1 1 1 1 1 1 1 1 1 1 1 1 1 1 1 1 1 1 1 1 1 1 1 1 1 1 1 1 0.010175168864014074 1 1 1 0.010237457880308772 1 1 1 1 1 1 1 1 1 1 1 1 1 1 1 1 1 1 1 1 1 1 1 1 1 1 1 1 0.0097706497327708745 0.01003668236208026 1 1 1 1 1 1 1 1 1 1 0.0098216272490871982 1 1 1 0.010013400659186584 1 1 1 1 0.010553726717400189 1 1 1 0.010456437346335064 1 1 1 1 1 1 1 1 0.010117044210800612 1 1 1 1 0.0096071242684567862 1 1 1 1 0.0090640592183284796 0.0098014058155598306 1 1 0.011739763671051052 1 1 1 1 1 1 1 1 1 1 1 0.010029137267412173 1 1 0.015841045460431483 0.0068655906746532581 1 1 1 1 0.0073335508743225357 0.010567475866905389 1 1 1 1 1 1 1 1 1 1 1 1 0.0098204226572743067 0.013653006911498091 1 1 1 1 1 0.010743090370722304 1 1 1 0.014371704846905956 1 1 1 1 1 0.014014719996847107 1 1 1 1 1 1 1 1 1 1 1 0.0097986811894069381 1 1 0.010053516050506067 1 1 1 1 1 1 0.015016988154652168 1 0.0095772725667203698 1 1 0.0099924956322902173 1 1 1 1 1 1 1 1 1 0.010062289016294679 1 1 1 1 1 1 1 1 1 1 1 1 1 1 1 1 1 1 1 0.015476503734059314 1 1 1 1 1 1 1 1 1 1 1 1 1 1 1 1 1 0.014322429414060598 1 1 1 1 1 1 1 0.015748647619436378 1 0.012105631195516772 1 1 1 0.014972569194883005 1 1 1 1 0.011791494734264305 0.0127519486203442 0.010273006257287746 1 1 1 1 0.010322611844913742 1 1 1 1 1 1 1 1 1 1 1 1 0.013794724398433444 1 1 0.011338594103670047 1 1 0.015100543731666388 1 1 1 1 1 1 1 1 1 1 1 1 1 1 1 1 1 1 1 1 1 1 1 1 1 1 1 1 0.010084680588317137 1 1 1 0.010874458022966023 1 1 1 0.0076859197148596986 1 1 1 1 0.011106750925822431 1 1 0.010224567839023906 1 1 1 1 1 1 1 1 0.016904682162031875 0.01342105207089179 1 1 1 0.0032975148126100223 0.009876906088986788 0.020527781026592848 1 1 1 1 1 0.010974522067908617 1 1 1 1 1 1 1 1 1 1 1 1 1 1 1 1 1 1 1 1 1 1 1 1 1 1 1 1 1 1 1 1 1 1 1 1 1 1 1 1 1 1 1 1 1 1 1 1 1 1 1 1 1 1 1 1 1 1 1 1 1 1 1 1 1 1 1 1 1 1 1 1 1 1 1 1 1 1 1 1 1 1 1 1 0.009379234962457017 1 1 1 1 1 0.010383803012675392 1 1 1 1 1 0.010195942886221415 1 1 1 1 1 1 0.0092483225805548921 1 0.0074545950805904246 0.012821482834962192 1 1 1 0.015310698648446763 1 0.0099954723006809784 1 0.011382843208944136 1 1 0.0097972647372663799 1 1 1 1 1 1 1 1 1 1 0.0081708547793395078 1 1 1 0.007011534292119509 0.015078441112365362 1 1 0.016567160873356877 1 1 1 0.015870540797008163 1 1 1 0.012647405459119345 1 1 1 1 1 0.0073718576442177511 1 1 1 1 0.013684385544400253 1 1 0.014649857637064088 0.013882117765660441 0.0099071024207448184 1 0.01730314533348646 1 0.014672689022239309 1 1 0.010669457107980125 0.0077158993662148085 1 1 1 1 1 1 1 0.014855837914658346 1 0.010220608944627708 1 1 1 1 1 1 1 1 0.017426776695675002 1 1 0.013027571879938932 1 1 1 1 1 1 1 1 1 1 0.0099371187044019239 1 1 0.0093925834004597308 1 1 1 0.0056724219419667897 1 0.0078980978113802336 1 1 1 1 1 1 0.0062627255415943009 1 1 1 1 0.0081414186998321619 1 1 1 0.0087920949458649006 1 0.013968435075815995 0.010369994363730321 1 1 1 1 0.010809690298106021 1 1 1 1 1 1 1 1 1 1 1 0.0087274434436787427 1 1 1 0.01167110750472955 1 1 1 0.012112604784139431 1 1 1 1 1 1 1 1 1 1 1 1 1 0.0093137406807307348 1 1 1 1 0.0095119124248104776 1 1 1 1 1 0.0098729617219040708 1 1 0.0042434462589309788 1 1 0.011104342422521514 1 1 1 0.0047808751606659809 1 1 0.0066404070944355229 0.010129931400370402 1 1 0.008967703391151053 1 1 1 1 1 1 1 1 1 1 0.010059080040681239 1 0.009924927309214647 1 1 0.010844932428994912 1 1 0.0074168611895550317 1 1 1 1 1 1 1 0.010328303375251032 1 1 0.008413186369194952 1 1 1 1 1 1 1 1 1 1 1 1 1 1 1 1 1 1 1 1 1 1 1 1 0.0095922559977270581 1 1 1 1 1 1 1 1 1 1 1 0.0097465381732700536 1 1 1 1 1 1 0.0099273332426768838 1 1 1 1 1 1 1 1 1 1 1 1 0.011901194877652475 1 1 1 1 0.011604587504595591 1 1 1 0.012334701313278549 1 1 0.010024760684021366 1 1 0.016827021658886922 1 1 1 0.010540144336010622 1 1 1 1 1 1 1 1 1 1 1 1 1 1 1 1 1 1 1 1 1 1 1 1 1 0.0096258812851447821 1 1 1 0.019165149880257155 1 1 1 1 0.017573605794942312 1 1 1 1 1 1 1 1 1 1 1 0.020310811385120843 1 1 0.0088849666890203315 1 1 1 1 0.007508495880345082 1 1 0.020962292760392961 1 1 1 1 1 1 1 1 1 0.020007489478438847 1 0.0067470076401181384 1 1 1 0.01002345563134286 1 1 1 1 1 0.012450713173442604 1 1 1 0.018450504289331374 1 1 1 0.018526585109659086 1 1 0.010742647931175152 1 1 1 1 0.0038852813408417272 1 1 0.0097735591952332161 1 1 1 1 1 1 1 1 1 1 0.0035939458383893799 0.010327693131102364 1 1 1 1 0.010075158594516232 1 1 1 0.010489420878758232 1 1 1 1 1 1 1 1 1 1 1 1 1 0.009286829338018051 1 1 0.0078835664080453734 0.0063376090679905673 1 1 1 1 0.0038937365808842245 1 1 1 1 1 1 1 1 1 1 1 1 1 1 1 1 0.008784704803094661 1 1 0.013527005805276443 1 1 1 0.013206615838475143 1 0.012585086682976825 1 0.0102865425188564 0.010084232993606872 1 1 1 1 0.013842342498691783 1 1 1 1 0.01259405778732535 1 1 1 0.0043518312193713288 0.0080792815691259554 1.3795703850127961e-09 1 0.014560711894690527 1 1 0.0099618587198139485 1 0.0064396198772480456 1 1 1 1 1 0.01752372353332329 1 0.014472886853647535 1 1 1 0.0043300647661711766 1 1 1 1 1 1 1 1 0.019426025841458274 1 1 0.015712913265239166 1 0.0099604597469203013 1 1 1 1 1 1 1 1 0.018343139279187702 0.010009337514209519 1 0.0097227621458513859 1 1 1 1 1 1 1 1 1 1 1 1 0.01274057301929803 0.0099786270804627861 1 1 1 1 1 1 1 1 1 1 1 1 1 1 1 0.010378922056745621 1 0.0054757761955847653 1 1 1 0.010130673928959832 1 1 1 1 1 1 1 1 1 1 1 1 1 1 1 1 0.0069834771587218777 1 1 1 1 1 0.009382110470645702 1 1 1 0.0083611302155832401 1 0.009884586957629303 1 1 1 1 1 1 1 1 1 1 1 1 1 1 1 1 1 1 1 1 1 1 1 1 1 1 1 1 1 1 1 1 1 1 1 1 1 0.010506813199402505 1 1 1 0.010574576589922925 1 1 1 1 1 1 1 1 1 1 0.010263706276741828 1 1 1 1 1 1 1 1 1 1 1 1 1 1 1 1 1 1 1 1 1 1 1 0.010024785303435842 1 1 0.008267574222323321 1 1 1 1 1 0.010955390139328931 1 1 0.0099907982364271768 1 1 0.012731148939206141 1 1 0.0084533847113481796 1 1 1 1 1 0.0095335173746820961 1 1 1 1 0.0076937747872283593 1 0.0098800113650846337 1 1 1 1 0.010032533147007772 1 0.012497678302556717 1 1 0.0079624001657227494 0.0096179618713893595 1 1 1 1 0.014460460649703792 1 1 1 1 1 1 1 1 1 1 0.010275856985958598 1 1 1 1 0.0034991500657044951 1 0.011460429505169248 0.0096404207138519171 1 0.010683696597114732 0.0070164826633338923 1 1 1 0.0093544982612453371 1 0.0066240966777420026 1 0.007245594169900808 1 1 1 1 1 0.0087514469605645632 0.0069462866368546743 1 1 0.010150623292896132 1 1 0.0016149613886164184 1 1 0.0099984894969688126 1 1 1 0.0024054636898092289 1 1 0.0095818416127808666 1 1 1 0.0087527509509867617 1 1 1 1 1 1 1 1 1 0.0097500813083299803 1 1 1 1 1 0.010227065748390768 1 1 1 0.0070723040195150126 1 1 1 1 0.012919925806535159 1 1 1 1 0.0071195742792443603 1 1 0.0085792420487662037 0.004365423355641147 0.017790565027350196 1 0.0082470148698018421 0.010256363183887434 1 0.0162793285971242 1 1 1 0.01193801120478782 1 1 1 1 1 0.010700240857984477 1 1 1 1 1 1 1 1 -4.8829790558202468e-10 1 1 1 1 1 1 1 1 0.010390866653080019 1 1 0.011586611965487268 0.0020652760537860325 1 1 1 1 0.015633564029492297 1 1 1 1 1 0.014466821486824908 1 1 1 1 1 1 0.015709754589401825 1 1 1 0.013174196732399029 1 1 1 1 1 1 1 1 1 1 1 1 1 1 0.010774881609676181 1 1 1 1 0.010025205180578513 1 1 1 1 1 1 1 1 1 0.0084141686692760891 1 1 1 0.011133330180838076 1 1 1 1 1 0.010441110823351862 1 1 0.0091168686788290227 1 1 1 1 1 1 0.0078855614861727957 1 1 1 1 1 1 0.0066326806192137985 1 1 1 0.0090949373029142033 1 1 1 1 1 1 1 1 1 1 0.010151518000220388 1 1 0.012281286825224778 1 1 1 0.011609626206155358 1 0.0097164640890570197 1 1 1 1 1 1 1 1 1 1 1 1 0.0087395266803552765 1 0.011788169297003801 0.0094441554246910645 1 1 0.010000820849831688 1 1 1 0.01079518700544891 0.0087219809079693011 1 0.011103285197056065 1 1 1 1 1 0.012189996846009837 1 0.0076306408113498495 0.0090640325458277871 0.010495132308564937 1 1 1 1 1 1 0.011919785146006459 1 1 1 1 1 0.01031579466303803 1 1 1 1 1 1 1 1 1 1 1 0.011226584310541549 1 1 1 1 1 1 1 1 1 1 1 1 1 1 1 1 1 1 1 1 1 1 1 1 1 1 1 1 1 0.012021342672915391 1 1 1 1 1 1 1 1 0.010675536492618381 1 1 1 1 1 0.012893761372570423 1 1 1 1 1 0.011036275421627204 1 1 1 1 1 1 1 1 1 1 1 1 1 0.01239080422878959 1 0.0096001613020961982 1 0.0098388501785468749 1 1 1 1 1 1 1 0.0092992478655011257 1 1 1 1 1 1 1 1 1 1 1 1 1 1 1 1 1 1 1 1 1 1 1 1 1 1 1 1 1 1 1 1 1 1 1 1 1 1 1 1 1 1 1 1 1 1 1 0.010002424288087576 1 1 1 1 1 1 1 1 1 1 1 1 0.0064210403481837069 1 1 1 1 1 1 1 1 0.007496521561086579 1 1 1 1 1 1 0.0097757381217540781 1 1 1 1 1 1 1 1 1 0.0094851049914073393 1 1 1 1 1 1 1 1 1 1 1 0.011441250689316637 1 1 1 0.0091420051879917089 1 1 1 1 1 1 1 1 1 1 1 1 1 1 1 1 0.0099189577441120835 1 1 1 1 1 1 1 1 0.013976902015441469 1 1 1 1 1 1 1 1 1 1 1 1 1 1 1 1 1 1 1 1 1 0.0078228100581489504 1 1 1 0.0070505560509002904 1 1 1 1 1 1 1 1 0.023367552902363063 1 1 1 1 1 1 1 1 1 1 0.010025618630707075 1 1 1 0.010013306213330152 1 0.0069524247881864107 1 1 1 1 1 1 1 1 1 0.023361035271919239 1 1 0.010658544453586489 1 0.016354469315782716 1 0.0069774097056546514 1 1 1 1 1 1 0.010452371511195616 1 1 0.010022624029063424 0.018590868571803976 1 1 1 1 1 1 0.015330602548543692 1 0.016333535202135995 1 1 0.0165683563445033 1 1 0.00999501882094001 1 1 1 1 1 1 1 1 1 1 1 1 1 1 1 0.015186202062037673 1 1 0.01007721402903073 1 1 1 0.010203270900904341 1 1 1 1 1 1 1 1 1 1 1 0.0096873567577076443 1 1 1 1 1 1 1 1 1 1 1 1 1 0.0072941470628788956 1 0.0067766472678958932 1 1 1 1 0.010037008428782551 1 0.011196611226682281 1 0.0098855155207954303 1 1 1 1 0.0062560754205323033 1 1 0.005624767516384941 1 0.013812210449358682 1 1 1 1 0.014639877871952143 1 1 1 1 0.0074641591029461253 1 1 0.0099602018343488731 1 0.013156720149002982 1 0.01039015935970063 0.010443230059096208 1 1 1 1 1 1 0.0091146528013172842 1 1 1 0.0078112568762468554 1 1 1 1 0.013275676495923167 0.010813451001274389 1 0.011384419127710814 1 1 1 1 1 1 1 1 1 1 1 0.0090419226885526047 1 1 1 1 1 0.0076455921240733832 1 1 1 0.0071346882821993682 1 1 1 1 1 1 1 1 1 1 1 1 1 1 1 0.01013518375523953 1 1 1 1 1 1 1 1 1 1 1 1 1 1 1 1 1 1 1 1 1 0.0088520682694696734 1 1 0.010235748261283111 1 1 1 1 1 1 1 1 0.0079022535851988249 1 1 1 1 1 1 1 1 1 1 0.0079883260213141419 0.0074695993698083302 1 1 1 1 0.0080318332382753391 1 0.0073269051154265588 1 1 1 1 1 0.0093117558790272656 1 1 1 1 1 0.019356382042766761 1 1 1 1 1 1 1 1 0.0079337060888785491 1 1 0.0024149706037969662 0.013277737683153757 1 0.0032938043091867847 1 0.0073065505363623853 1 1 1 1 0.0042123225570205591 0.0034513640318667577 1 1 0.0079220266018969979 1 0.011285220270383584 1 1 1 1 1 0.004947052577430458 1 1 1 1 0.00639065026429083 0.015949908053791904 1 1 0.019372929303429494 0.0034334471380532486 1 1 1 1 0.010144322150566022 1 1 1 0.02178438921092864 1 1 0.010430803016514041 1 0.022852506810179501 1 1 1 1 1 1 1 1 1 1 1 1 1 1 1 0.010487878913863904 1 1 1 1 1 0.010252130652580783 1 1 1 1 1 0.0081837945726257258 1 1 1 1 0.005316429313404418 1 1 1 1 1 1 1 1 1 1 1 1 1 1 1 1 1 1 1 1 1 1 1 1 1 1 1 1 1 1 1 1 1 1 1 1 1 1 1 1 1 1 1 1 1 1 1 1 1 1 1 1 1 1 1 1 1 1 1 1 1 0.013911764579865631 1 1 1 1 1 0.013679529183957578 1 1 0.010349534012540917 1 1 1 1 1 1 1 1 1 1 1 0.009811048479968644 1 1 1 1 1 1 1 0.012700293072306692 1 0.0093374978768200126 0.0098686520703656355 1 1 1 1 1 1 1 1 0.011916737568111816 1 1 1 1 1 1 0.011436051543293795 1 1 1 0.010513882692896024 1 1 1 1 1 1 1 0.010051891388571946 1 1 0.0099214532410422454 1 1 1 1 1 1 1 1 1 0.003319784233825597 0.010477092561603615 1 1 1 1 0.011914724583832902 0.012378743104755972 0.0040552263860307927 0.015223923748052044 1 0.01447977720111333 1 1 1 1 1 1 1 1 1 1 1 1 1 1 1 0.009675705926975451 1 1 0.0089380553739520884 1 1 1 1 1 1 1 1 1 0.0052271263253951955 1 1 1 1 1 1 1 1 0.0090501853157291604 1 1 1 1 1 1 1 1 1 1 1 1 1 1 1 1 1 1 1 1 1 1 1 1 0.012418465533553953 1 1 1 1 1 0.012051199273108546 1 1 0.013061236606305305 0.012237160581879158 0.0082583874520688397 1 1 0.0090006715171163376 1 1 0.012971058436901261 1 1 0.013991148496502157 0.011117547228324873 1 1 0.010035838052017729 1 0.0082971461906985386 1 1 1 1 1 1 1 1 1 1 1 1 1 1 1 0.010639692426605256 1 1 1 1 1 1 1 1 0.0102279428899072 1 1 1 1 0.0098522205747949634 1 0.011945721952277812 1 1 0.0099684505713844365 1 1 1 1 1 1 1 1 0.010940484084923706 1 1 0.0092899697620982477 1 1 1 0.0099355153459693181 1 1 1 1 1 0.011549667646704266 1 1 0.012874704583798866 1 1 1 1 1 1 1 1 1 1 1 1 1 1 1 1 1 1 1 1 1 1 1 1 1 1 1 1 0.013648479170155259 0.014834201054728746 1 1 1 1 1 0.018721477190102448 1 1 1 1 1 1 1 1 1 1 1 1 0.019304782132246956 1 1 1 1 1 1 1 1 1 1 1 1 1 1 1 1 1 0.017393667597238309 1 1 0.013222222503065576 1 1 1 1 1 0.010085102510001366 1 1 1 1 1 0.010403213882926938 1 1 1 1 1 0.019720509579834337 1 1 1 1 1 1 1 1 1 1 1 1 1 1 1 1 1 1 1 1 1 0.019941958082990839 1 1 0.010196160024118044 1 1 1 1 1 1 1 0.010675572543712025 1 1 1 1 1 1 1 1 1 1 1 1 1 1 1 1 1 1 1 1 1 1 1 1 1 1 1 1 1 1 1 1 1 1 1 1 1 0.0098795745261597654 1 1 0.0096941691920045432 1 1 1 0.0098739670887868745 1 1 1 1 0.01000199043097786 1 1 1 1 1 1 0.010013500057781469 1 1 1 1 1 1 1 1 1 1 0.010023475881154117 1 1 1 1 0.01000996670283163 1 0.009958180749062101 1 1 1 1 0.0098042500868717741 1 1 1 1 1 1 1 1 1 1 1 0.0103096273858088 1 1 1 1 1 1 1 1 0.0099090321256737422 1 1 1 1 1 1 1 1 1 1 1 1 1 1 1 1 1 1 1 0.0098619864121561457 1 1 1 1 1 1 1 1 1 0.0080051286699868753 1 1 1 1 1 0.0099887648748983784 1 1 1 1 1 0.0099686302680860057 0.010822398750214179 0.011329090060419777 1 0.0099968390131832154 1 1 1 1 1 1 1 1 1 0.0099999123785572894 1 1 1 0.010912605039734636 1 1 1 1 1 1 1 1 1 1 1 1 1 1 1 1 1 1 1 1 1 1 1 0.0098291510400600676 1 1 1 1 1 1 1 0.010150498437131263 1 1 0.0096312765532983666 1 1 1 0.010029672426466629 1 1 0.010551499960131092 1 1 1 1 0.010471553652529018 1 1 0.01160654360471506 1 1 1 1 1 1 1 1 0.0090737954784231439 0.010147151162931252 1 1 1 1 1 1 1 0.0094699417889977586 1 1 1 0.0099884076397743788 1 1 1 1 1 1 1 1 1 1 1 1 0.0090007815468386432 1 1 1 1 0.0088891188149673884 1 1 1 0.0085703773017178908 0.010034017747562948 1 0.010577512192691641 1 0.016066045583259903 1 1 1 1 0.0054882998269905527 1 0.013810243730258617 1 1 1 1 1 1 1 1 1 0.0063406618351860115 1 0.0076360180506855014 0.01178915770018743 1 1 1 1 0.0059759371489478755 0.0090680077192747486 0.013300876399273161 1 1 1 1 0.011591979552141668 1 0.0080835444567485624 1 1 0.0088490407400175324 1 1 0.0099981131436579496 1 1 1 1 1 1 0.0052252499685671756 1 0.0079146339841324881 1 1 0.010272358660785078 1 1 1 1 1 1 1 1 1 1 1 1 1 1 1 1 1 1 0.0093494531414085643 1 1 1 1 1 1 1 0.010534854671214464 0.013143174981495644 0.01033786676118908 1 0.0076654357112169464 1 1 1 0.0091030112168259316 1 0.01347167741144574 1 1 0.0083031070207197823 1 1 0.0094270556393190284 1 1 0.01037945646422004 0.013255387998396997 1 0.009228029461045846 1 0.013179120283346703 1 1 1 0.00787077092245911 0.010016004092667608 1 1 1 0.012656170250011912 1 1 1 1 0.0097813681804812258 1 1 0.0094411719236551766 1 1 1 1 1 1 0.010419466055879041 1 1 1 1 1 1 1 1 1 1 1 1 1 1 1 1 1 0.010144076752060673 1 1 1 1 0.012510897640424658 1 1 1 1 1 1 1 0.010082949734233541 1 1 1 1 1 1 1 1 1 1 1 1 1 1 1 1 1 0.010233562096010203 1 1 1 0.012282055962455775 0.0091309134226732289 1 0.0070125236840284481 1 0.0055533840721384425 1 1 1 1 1 1 1 1 1 0.011198388937736498 1 1 1 1 0.0054675473577681013 1 0.005360504549470263 1 1 1 0.013407922909883387 1 1 0.0099191173246595456 0.012509893732343132 1 1 1 1 0.013797327654143734 1 1 0.0073580233288776057 1 1 1 1 1 0.013540322888430392 1 0.005161835158027565 1 1 1 0.013761240042573321 1 1 0.0096945603332695991 0.013469589064111442 1 1 6.9379079934826608e-05 1 1 1 1 1 0.0092718921139822476 1 1 1 1 1 1 1 1 1 1 1 0.012480637103686257 1 0.012463519259444576 1 1 1 1 1 1 1 1 0.0099361966418092598 1 0.0093736507016981274 0.013698878072392045 1 0.014497659419801983 1 1 1 1 1 0.0075738954669127764 1 1 1 0.0092467537835143263 1 1 1 0.0096364708956929238 1 1 1 1 1 1 1 1 1 1 1 1 1 1 1 0.010170504434504202 1 1 0.010407554110957586 1 1 1 1 1 1 1 1 1 0.0090531987794137403 1 1 1 1 1 1 1 1 1 0.010237049676453376 1 1 1 1 1 1 1 1 1 1 1 0.010501519961584825 1 1 1 1 1 1 0.011040192785522039 1 0.010881499548468888 0.010342826724531698 1 1 1 1 1 0.012815092329890643 1 1 1 1 1 1 1 1 1 1 1 1 1 1 1 1 0.0095379386531019329 1 1 1 1 1 1 0.0086652941137219178 1 1 1 1 1 1 1 1 1 1 1 0.0095458977976130305 1 1 1 1 1 1 0.01012257783736762 1 1 1 1 1 1 1 1 1 1 1 1 1 1 1 1 1 1 1 1 0.0085878651114757055 1 1 1 1 1 1 1 1 0.0091899937900620995 1 1 1 0.0091909934094638948 1 1 1 1 0.0076280093202494258 1 0.0072316644037398511 1 1 1 1 0.0078213506196146594 1 1 1 0.0041918982636228383 1 1 1 1 1 0.0091146341263046472 1 1 1 1 1 1 1 1 0.0073001315658032181 1 1 0.010018458306064704 0.008047840947918581 1 1 0.0077357124719723922 1 1 1 1 1 1 1 1 0.0025169957859598087 1 1 1 1 1 1 1 1 1 1 0.010141362094884943 0.011652609232012855 1 1 1 1 1 1 1 1 0.009177551327350545 1 1 0.010409539309639344 1 1 1 1 1 1 0.010823910956760059 1 1 1 1 1 0.0084651994061411048 1 1 1 1 1 1 0.010335196463037787 1 1 1 0.010267522181024509 0.0064061692678470655 1 1 1 1 1 1 1 0.01000620058639971 1 1 0.010049492036725217 1 1 1 1 1 0.0056804672721651132 1 1 1 1 1 1 1 1 1 1 1 0.008496477442003849 1 1 1 1 1 1 1 1 1 1 1 0.0052226344118176775 1 1 1 1 1 1 1 1 1 1 1 1 0.010014522892485105 1 1 1 0.01022709843698022 0.008113569095674629 1 0.0094221849792281084 1 1 1 0.0075335159143785357 0.0098832320588414062 1 1 1 1 0.0079895724153222127 0.013357825338308121 1 1 0.015143533101229401 1 1 0.0016206307335174218 1 1 1 1 1 1 0.011075435313597108 1 0.010150883809260325 1 1 0.0073750108872835136 0.0079770850021657815 0.011201464326115601 1 1 0.0093959726491928269 1 0.0074938025014021879 1 1 0.0099323016713595627 0.0071225365781447149 1 1 1 0.0088714151046937906 0.010520819975462661 1 1 0.010295457107279568 1 0.0099657277752287429 1 1 1 1 1 1 0.0097351940429514488 0.0096593446534908312 1 1 1 1 0.0099155668548083671 0.0099676854222230764 1 1 1 1 1 0.010147981587876071 1 1 1 1 1 1 1 1 1 0.0098346599487979473 0.0055151190149536362 1 1 1 1 1 1 0.0084564444027443991 1 1 1 1 1 0.0091352567923089125 1 1 1 0.008962162868997663 1 1 1 1 1 0.010007726302370352 1 0.010809473025800806 1 1 1 0.0088974615373955332 1 1 1 1 0.011107098273137724 1 1 1 0.0098883058037107178 1 1 1 1 1 0.010672531791225091 1 0.0039260968400265913 1 1 0.0062889499703736628 1 1 1 0.01084568201464374 1 1 0.0051044622616377572 1 1 1 1 0.0095202415932340509 1 1 1 1 1 1 1 1 0.010861129110840258 1 1 1 1 1 1 0.011548618466219823 0.0079168068640844483 0.010133732063411852 0.01110828760860047 1 1 0.011235061678465337 1 1 1 0.012261591863391326 0.011419964645995838 1 1 1 1 1 1 1 1 1 0.0091212085326684966 1 1 1 1 1 1 0.0074196093605170543 1 1 0.013043356946605078 1 0.0077633273148204548 0.00999882830297779 1 1 1 0.012330831888851042 1 0.0091054256133324026 1 1 1 0.0082969148603410821 0.0083132699491290894 1 0.010031702337657603 1 1 1 1 0.010532988264360631 1 1 1 1 0.010017546573358717 1 1 1 1 1 1 0.0088061053678381834 1 1 1 1 1 1 1 1 1 1 1 1 1 1 1 1 1 1 1 1 1 1 1 1 1 0.013392220666405989 1 1 0.013404796278892128 1 1 0.010077320439570686 0.0035845680045062181 0.012545928215069897 1 1 1 0.0098645119722150822 1 0.0020207024850375892 0.010025721103118987 1 0.0038829418064170416 1 1 1 1 1 1 0.0033689903305533179 1 1 1 0.0052003213136068184 1 0.0037895582360157297 1 1 1 1 0.0095685740937506477 1 1 1 1 0.0099540426025145415 1 0.0040469074371154937 1 1 0.0071054826974726662 0.014632965057976184 1 1 1 1 1 1 1 1 0.01518248731518617 0.0066505944517387099 1 0.0059510491814060568 1 1 1 1 0.019743248920234324 1 0.0033254169062031554 1 1 1 0.0046249896023338351 1 1 1 1 1 1 1 0.010068745296480899 1 1 1 1 1 0.0074236353550163042 1 1 1 0.0052335712522312075 0.010188324615277217 1 0.0053824343748232108 0.0075786849274262491 1 1 1 1 1 1 0.0089712319629498861 1 1 0.013517301433226936 1 0.0072739012975704944 1 1 1 0.011629451908454685 0.0099951182199916246 1 1 0.0090213753850413858 1 0.011908405580546295 1 0.010049375737185159 1 1 1 1 1 1 0.0095882293627482032 0.010762486087672198 1 1 0.012181616995045344 1 1 0.0099884237452373265 1 1 0.0070623121022061648 0.010485265803858342 1 1 1 1 1 1 0.007078028810248712 1 1 1 1 0.0097814785992010114 1 0.01096625376524335 1 1 0.009855636737224862 1 1 1 1 1 1 1 1 1 1 1 1 1 1 1 1 1 1 1 1 1 0.0058526067030153991 1 1 1 1 1 1 1 1 1 1 1 1 1 0.010336824884534013 1 0.010994901242757586 1 1 1 1 1 1 1 0.011648146211473731 1 0.0070953045808116039 1 0.010329337689941726 1 1 1 1 1 1 0.010753700523681499 1 1 1 1 1 1 1 1 1 1 1 0.01003059425921142 1 0.01021860974628294 1 1 1 0.012029273143960025 1 1 0.0089350774479775037 1 1 1 1 0.0096833838612824016 1 1 0.010101242417180634 1 0.010160421450170862 1 1 1 1 1 0.010413062725915707 1 1 1 1 0.009503143407621947 1 0.010436483355926127 1 1 0.010514347384730123 1 1 0.0090978468760708735 1 0.01044674700216966 1 1 0.0096038477391034369 1 1 0.0098413090735352208 1 0.0099996258686630424 1 1 1 1 1 1 1 1 1 1 1 1 1 1 1 1 1 1 1 1 1 1 1 1 1 1 1 1 1 1 1 1 1 1 1 1 1 1 0.0099911698899750462 1 1 0.010213678771654286 0.010650247210099231 1 1 1 0.010175937704682277 0.0096405769211266729 0.01077204307647623 0.010419003021528778 1 1 1 1 0.0099940905701329658 1 1 1 1 0.0096694997875378177 1 1 1 1 1 0.0089239032026529053 1 1 1 1 0.010250150682684041 1 1 1 1 1 1 1 1 1 1 1 1 1 1 0.010239270678433499 1 1 1 1 1 1 1 0.010223593191061815 1 1 1 1 1 1 0.011209729322448 1 1 1 1 1 1 1 1 1 1 1 1 1 1 1 1 1 1 1 1 1 1 1 1 1 1 1 1 0.010843911533873984 1 1 1 1 0.013032276579951367 1 1 1 1 1 0.0099625650064564843 1 1 1 0.014033930087475173 1 0.015224717898222155 1 1 0.016226447528840775 1 1 1 1 1 0.016648472045821906 1 1 1 0.018489339419587345 1 1 0.0016280195858556865 1 0.0050309072067645962 1 1 1 1 1 1 0.0083754959857740476 1 1 1 1 1 1 0.014861188953203049 1 1 1 1 1 1 1 1 1 1 1 1 1 0.014810108454235693 1 1 1 0.01298550095239491 1 1 1 1 1 1 1 1 1 0.000390127429087124 1 0.011033601490660374 1 1 1 1 1 1 1 1 1 0.017935934798317066 1 1 1 1 1 1 1 1 0.016692078672931963 1 1 1 1 1 1 1 1 1 1 1 1 1 1 1 1 1 1 1 1 1 1 1 1 1 1 1 1 1 1 0.0071349783873740219 1 0.0065886787009497658 1 1 1 1 1 1 1 1 0.01005085641842229 0.01035695243437618 1 1 1 1 1 1 1 1 1 1 1 1 1 1 1 1 1 1 1 1 0.0098547099347885154 1 1 1 0.0075687846720493487 1 0.011983323076459171 1 1 1 1 1 1 1 1 1 0.012058466070639475 1 1 0.012681033795608372 0.011529685598340927 1 0.010367152067749446 1 1 1 0.01068681393880884 1 1 1 1 1 1 1 1 0.0085827776820969291 1 1 1 1 1 1 1 1 1 1 1 1 0.014738437669763254 1 1 1 0.01354808186385858 1 1 1 1 1 1 1 1 1 0.010073299224801841 1 0.01016518531584298 1 1 0.0091293001000532434 1 1 0.010110391554647984 1 1 1 1 1 0.010298811349397405 1 1 1 1 1 1 1 1 1 1 0.013277522808426978 0.0080560866584152048 1 1 1 1 0.0092569171860154391 1 1 1 1 1 1 1 1 1 1 1 0.0078884780689726444 1 1 1 1 1 1 1 1 1 1 1 0.0091631741597061403 1 1 0.010318759886984337 1 1 0.012997064451807233 1 1 0.010899662764260156 1 1 0.014574982305330789 1 1 1 0.010244188912927124 1 1 1 1 1 1 0.010532449693158058 1 1 1 1 1 0.010851209580142393 1 1 1 1 1 1 1 1 1 0.011138097995193927 1 1 1 1 1 1 1 1 0.0040196565931150743 1 1 1 1 1 1 1 1 1 1 1 1 1 0.0097529422490928719 1 1 1 1 1 1 0.0060200466085753995 1 1 1 1 1 1 1 1 0.0081701961834240236 1 1 1 1 1 0.010180479684263666 0.0096385894607176441 0.0085482865988716072 1 1 1 1 1 1 1 1 1 1 1 1 1 1 1 1 1 1 1 1 0.01197247583349504 1 1 1 0.013448013582268777 1 1 1 1 1 0.010598605461422272 1 1 1 0.012273300951786938 1 1 1 1 1 1 1 1 1 1 0.0063474816529909463 1 1 1 1 -1.4166248105129675e-09 0.0080056213696444202 1 0.017064730018404139 1 0.010057716266109884 0.0099892493844875949 1 1 1 1 1 1 1 1 1 1 1 1 1 1 1 1 1 1 1 1 1 1 0.0057254237225800282 1 0.0062034998183784339 1 1 0.0045522563399247006 0.0069866356415375086 1 1 1 1 1 0.0099819623206787861 1 0.0026361325316285374 0.0025572131989130241 1 1 0.012408266994088705 0.011868690006556078 1 1 1 1 1 1 1 1 0.0049787378136943658 0.010713038671372448 1 1 1 0.0098004655232056849 1 0.0064542597712736694 1 1 -3.0839297435192314e-10 1 1 1 0.0085188815198280043 0.0093297397674327806 1 1 0.010895999276752739 1 1 1 1 1 1 1 1 1 1 1 1 1 1 1 1 1 1 0.010603501984374337 1 1 0.0069770238532535916 1 1 1 0.01182985418845499 1 1 0.0052215115324803565 1 1 1 1 1 1 0.010910986704863099 1 1 1 1 1 1 1 1 0.0092932925722437453 1 0.0037301079119973091 1 1 1 1 1 1 1 1 1 0.0088451016654015613 1 1 1 1 1 1 1 1 1 1 1 1 1 1 1 1 1 1 1 0.009135837291257061 1 1 1 1 1 1 1 1 1 1 1 1 1 1 0.01021922285276335 1 1 1 1 1 1 0.011189592629544618 1 1 1 0.0096394463880276754 1 5.1369291893116342e-10 1 2.5715212771670881e-09 0.012906392648526541 1 1 1 1 1 1 1 1 1 1 1 1 1 0.00057296994224643842 1 1 1 1 0.00040129110070960972 1 1 1 0.0093636789555672853 1 0.010935280327828745 1 1 1 1 1 -2.37356762716745e-10 1 1 1 1 1 1 1 1 1 1 0.023414838783775642 0.0013568999782454308 1 1 0.0012750375108418685 0.0083007938021209364 1 1 1 1 1 1 1 1 1 1 1 1 1 1 1 1 0.011628054681643222 1 1 1 1 1 1 1 0.006993374987244701 1 1 1 1 1 0.0011662447605543338 0.010011850358407359 1 1 1 0.0066428482247050131 1 1 1 1 1 -3.1187617930902856e-09 1 1 1 1 1 5.2712955563027908e-09 0.0089435880934074161 1 1 1 1 0.0097556200110925952 1 1 0.0097610149880549366 1 1 1 1 1 1 1 1 1 1 1 1 1 1 1 0.010092769574329552 1 1 1 1 0.010038079801026707 1 1 1 1 1 1 1 1 1 1 1 1 1 1 1 1 1 1 1 1 1 1 1 1 1 1 1 1 1 1 1 1 1 1 1 1 0.009667169309650692 1 1 1 1 0.0097218590829535375 1 1 1 0.0059308072667545193 1 1 1 1 1 1 1 1 1 1 1 1 1 1 1 0.00814424098576433 1 0.0078258565006572699 1 1 1 1 0.0092612347158430794 0.0092284748257443032 1 1 1 1 1 1 1 1 1 1 1 1 1 0.0052189029023734399 1 1 1 1 0.0049498672519369897 1 0.010048101963718963 1 1 1 1 0.0051748607770730646 1 1 0.013628171007895703 0.0030016329490116242 1 1 1 1 0.014950433117337552 1 1 0.0036432436376163599 1 1 1 1 0.009984434318223049 1 1 1 1 1 1 1 1 1 1 0.0087501338049713467 0.012276206415611434 0.0065746169029986604 1 1 0.012917090720823582 1 1 1 1 1 1 0.0051365538054492874 0.011656348287130074 1 0.012102366874315908 1 1 0.004898498640221783 1 1 1 1 0.0095664209525813185 1 1 1 1 1 1 1 1 1 0.013254387530887117 0.0051266361867295298 1 1 1 1 1 1 1 1 1 1 1 0.013656125727223396 1 0.013706007095326288 1 1 1 1 1 1 1 1 1 1 1 1 1 1 1 1 1 0.0085254233125813157 1 1 1 1 1 0.010638737072948965 1 0.010123046499037031 1 1 1 1 0.011193167641784085 1 0.011989706143868819 1 1 1 0.0088806789922947684 0.0077298202440582841 1 1 1 1 1 1 0.0057911584690433799 1 1 1 1 1 1 1 0.0085059160082004304 1 1 1 1 1 1 1 1 1 0.010680673330088323 1 0.010798697471244605 1 1 1 1 1 0.012256329550260162 1 1 1 1 1 0.0091982096059207048 1 0.01133519070427589 1 0.003951485802875028 1 1 1 0.01200053330918017 1 1 1 1 0.0091502729002455232 1 1 1 1 1 1 1 1 1 1 1 0.011981730180909991 1 1 0.0092158458600203764 1 1 1 1 1 1 1 1 1 1 1 0.010560850406578056 1 1 1 1 1 0.011698887032126119 1 0.011738776205786214 0.0098702760334099908 1 1 0.0074103995973375976 1 0.0068629816740545975 1 1 1 1 1 1 1 1 1 1 1 1 1 1 1 1 1 1 1 1 1 1 0.0092724420841927765 1 1 1 1 1 1 1 1 1 1 1 1 1 1 1 1 1 1 1 1 1 1 1 1 1 1 1 1 1 1 0.010750697569207294 1 1 1 1 1 1 0.012155264763567876 1 1 1 1 1 1 1 1 1 1 1 1 1 1 1 1 0.010780314943690748 1 1 1 1 1 1 1 1 1 1 1 1 1 1 1 1 1 1 1 1 1 1 0.013134049016123726 1 1 1 1 1 1 1 1 1 0.010013472331545398 1 1 1 1 1 1 1 1 0.0080700476535902968 1 1 1 1 1 1 1 0.011267262591126811 0.0099295463312099562 1 1 1 1 1 0.0076577439832458301 1 0.011479659886893201 1 1 0.010535558206352181 1 1 1 1 1 1 1 1 1 1 1 1 1 1 1 1 1 1 0.0094039523306491297 1 1 1 1 1 1 1 1 1 1 0.010498129729935184 1 0.0083316466753917302 1 0.0080715088400341514 1 1 1 1 1 1 1 1 1 1 1 1 1 1 1 1 1 1 1 1 1 1 1 1 1 1 1 1 1 1 1 1 1 1 1 1 1 1 1 1 1 1 1 1 1 1 1 1 1 1 0.0099824856396397953 1 1 1 0.0099417585107586526 1 1 1 1 0.0096938358301691206 1 0.016841900704058079 1 1 1 1 0.013841971640177388 1 1 1 1 1 1 1 1 1 1 1 0.01444719946065706 0.0074851657416677561 1 1 1 1 0.015280575757641756 0.010207924612496278 1 1 1 1 1 1 1 1 1 1 1 1 1 1 1 1 1 0.01151852429367458 1 1 1 1 1 1 1 1 1 1 1 1 1 1 1 1 1 1 1 1 1 1 1 1 1 1 1 1 1 1 1 1 1 1 1 1 1 1 1 0.01022507497190997 1 1 0.0091976652589368275 1 1 1 1 1 1 1 1 1 1 1 1 1 1 1 1 1 1 1 1 1 1 1 1 1 1 1 1 1 1 1 1 1 1 1 1 1 1 1 1 1 1 1 1 1 1 1 1 1 1 1 1 1 0.010159038345515221 1 1 1 0.01031714267893432 1 1 1 1 1 0.010340826110425368 1 1 1 0.0011721869054935729 1 1 1 1 1 0.016222638678896992 0.0096186934380743314 1 0.0099598742312223109 1 1 1 1 1 0.0075425536008316453 1 1 1 1 0.0098680454275544144 1 1 1 1 0.0073594894453928011 1 1 1 1 1 1 1 1 1 1 1 1 1 1 1 1 1 1 1 1 0.010520750462579128 0.0094085695750819598 1 1 1 1 1 1 1 0.018850682780720558 0.01538478730366514 1 1 1 0.010065030133737227 1 0.0097663500413964158 1 1 1 0.010533646832238419 1 1 1 1 1 1 1 1 1 1 1 1 1 1 1 1 0.0087880626642072371 1 1 1 1 0.012638814655893744 1 1 1 1 1 0.014975085578138453 1 1 1 1 1 1 0.015852481631720393 1 1 1 0.020439843615186755 0.0096169161506937835 0.017325953712842623 1 1 1 0.010903852330640916 1 1 1 1 0.018347235069712826 1 3.5710906263558551e-05 1 1 -1.068843857171542e-09 1 1 1 1 1 1 1 0.00887360025053688 1 1 1 1 1 5.7210444203217858e-09 1 1 1 1 -7.5725135884052719e-09 1 1 1 1 1 1 1 1 9.2104816650348878e-05 1 1 0.0024748471592408623 0.015280412975081854 1 1 1 0.0015073880482768115 1 0.013829675149738214 1 1 1 1 0.015085281269547638 0.0099983246105440939 1 1 1 1 1 8.142903885899333e-10 1 1 1 1 1 1 1 1 1 0.0014697347186351656 0.00074579873838700669 1 1 1 1 1 -1.8202541973710851e-09 1 0.010189336303925045 1 1 1 1 1 1 1 1 1 1 1 1 1 1 1 1 1 0.01264149723824393 1 1 0.0024624810370283169 1 0.013054825647270302 1 0.014300246747243978 1 0.00365233774397071 1 1 0.012278256733001718 0.0036283956420737201 1 1 0.013734185681502514 1 0.00019129092664636358 1 0.010028891329229243 1 1 1 0.00019495446980052726 -1.0569177581742917e-09 1 1 1 0.0010781154901425664 1 1 1 0.014865475066350886 0.0098307343701994968 1 1 1 1 1 0.016328094900741205 1 1 1 0.0079498604600078265 1 1 0.0025895235644279486 1 1 0.011467896951839503 1 1 1 0.010106063608768574 1 1 1 1 0.0098429427983479784 1 1 0.012717509010912518 0.011343508497745349 1 1 1 1 0.0026596767404400944 0.0034693242627118759 1 0.017267810223951883 1 1 1 0.0029559832542338169 1 1 0.0066300380516122366 1 1 0.015193795396467126 0.0045080262189970723 1 1 0.015390726391589196 1 0.0030823147496798599 0.0047885340510122765 1 0.0018283016162474377 0.014049169366210052 1 1 1 1 0.01937942684010734 1 1 1 1 1 1 1 0.008463950535507872 1 1 0.014329472277839784 1 1 1 1 1 1 1 0.010681661215837886 1 0.025471711813388212 1 1 1 1 1 1 0.010009101802686885 0.0045062997730477301 1 0.016397950859297239 1 0.018232722881604397 0.011931436905023079 1 0.0048565603745060297 1 1 1 0.0057945542537999779 1 1 1 1 0.01334906767165249 1 1 0.0085315569780042566 1 1 0.005591117515403728 1 1 1 0.010052466110020771 1 1 1 1 1 0.0059655818921051703 1 1 1 1 1 1 1 1 1 1 1 1 1 0.010957668661756924 0.010121362314929364 1 1 1 0.022759066416492633 1 1 1 0.02958275923842181 0.0098534502769093354 1 1 1 1 1 1 1 1 0.02607379230049308 1 1 1 1 0.022411915822798764 1 1 1 1 1 1 1 1 1 1 1 1 1 1 1 1 1 1 1 1 1 1 1 1 1 1 1 1 1 1 1 0.011103835205614809 1 1 1 1 1 1 1 1 1 1 1 1 1 1 1 1 1 1 1 0.0096356507050697898 1 1 1 0.010215514053667718 1 1 0.0099997702968074448 1 0.0099996715912666762 1 1 1 1 1 1 1 1 1 1 1 0.010094891864733467 1 1 1 1 1 1 0.0073090350913560947 1 0.0079829512021757434 1 1 0.010147248691715714 0.010033772644904395 1 1 1 1 0.0098885468131304551 1 0.01004421705915165 1 1 1 1 0.0073262693865028209 1 1 1 1 0.0080936510244427138 0.010003302902793297 1 1 0.0089679518112629752 1 1 0.010028159728656484 1 1 1 1 0.0096313651891308874 1 1 1 0.010053420079732055 1 1 1 1 1 1 1 1 1 1 1 1 1 1 1 1 1 0.0097462086778716608 1 1 0.0016740128977663707 1 0.0076596133187731338 1 1 0.010013291283159441 1 0.0059932702989847235 1 0.012840905390083982 1 1 0.010960279115854069 1 1 1 1 1 1 1 1 1 1 1 1 1 1 1 1 0.0065998084965376985 1 0.01352646091895738 1 1 1 1 1 1 1 1 1 1 0.0046335405870406507 1 0.0099294562222763914 1 1 1 0.010604156005157094 1 1 1 1 0.0021761550987363584 0.0018541824865516698 1 1 1 1 1 1 1 0.0016105333461333381 1 0.0019533527428505851 1 1 1 1 1 1 1 1 0.0011798663559135017 1 1 1 1 0.0041303929653788464 1 1 0.0054859187866061858 1 1 1 1 1 1 1 1 1 1 1 0.0027408808004619235 1 1 1 1 1 0.0018116475513486746 1 1 1 1 1 1 1 1 0.010990893748307124 1 1 1 0.012791665445477059 1 1 1 1 1 1 1 0.010089702973826633 1 1 1 1 1 1 1 1 1 1 0.0013874242244872118 1 1 0.0092787415745759182 1 0.007820291867014377 1 1 1 1 1 0.0022827671225188056 0.0063211681492433072 1 1 1 0.0055703891108730749 1 0.0029650010824917583 1 1 1 1 1 1 1 1 0.0077855332459996762 0.0037992812149360046 1 1 0.014535878666181248 1 1 0.010013838424557282 0.0037436964085555569 1 1 1 0.0038862600791165873 1 1 1 1 1 1 0.0055160708864292751 1 1 1 1 1 1 1 1 1 1 1 1 1 1 1 0.0099447924169311086 1 1 1 1 1 1 1 1 0.019278834930284081 1 1 1 1 1 1 1 1 0.010297610143479593 1 1 1 1 1 1 1 1 1 0.010169145021917271 1 1 1 0.010930406087660471 0.010482555215895214 0.010864269458507325 0.010105307484438022 1 1 1 1 1 1 0.01134220529702152 1 1 1 1 1 1 1 1 1 1 1 1 1 0.0099842453189433761 0.014898276134827483 0.019021098778127583 1 1 1 1 1 1 1 0.014544851377796004 0.015267924830272464 1 1 1 0.015551195636704722 0.015583877616388284 1 1 1 1 1 1 1 1 1 1 1 1 1 1 1 1 0.014889759482798155 1 0.012037847085672453 1 1 1 1 1 0.011177577436093732 0.0079958230847480272 0.01385979292743616 1 1 0.012976908341424703 0.01679022291416598 1 0.008300103591448886 1 0.014707456622487397 0.0099756982868697691 0.011371854867032682 1 0.0093874799683620405 1 1 1 1 1 1 0.014282500279719744 1 0.0078587063443391388 1 1 1 1 1 1 1 1 1 1 1 0.0035809074465901203 1 1 1 0.019013993115239703 1 1 1 1 1 0.014831762794353848 1 1 0.013345181083906615 1 1 0.010078297529198303 1 1 1 0.01020730887546111 1 1 1 1 1 1 1 1 0.0098615815792528969 1 1 1 0.0099605864366603472 1 1 1 1 0.011394873432449326 1 1 1 1 1 1 1 1 1 1 1 1 1 1 1 1 1 1 1 1 1 1 1 1 1 1 0.013730992634683121 1 1 1 1 0.010167509274211735 1 1 1 1 1 1 0.010718311277799888 1 1 1 1 1 1 1 1 1 0.011480355161788264 1 1 1 1 1 1 1 1 1 1 1 1 1 1 1 1 1 1 1 1 1 1 1 0.010509886790032973 1 1 1 1 0.010177585623043332 1 1 1 1 1 1 1 1 1 1 1 1 1 0.01026239918960881 1 1 0.010730315023438025 0.01118088847449848 1 1 1 0.010411904764594991 0.010663937774971009 1 0.010815059595833759 1 0.011837911406989839 1 1 1 1 1 0.010033679984225607 1 1 0.010014671559744897 1 0.010274898455249521 1 1 0.012396282058026566 0.0099602635074551547 1 1 1 1 1 1 1 1 0.0093372217856364133 1 0.010013850942899711 1 1 1 1 1 0.0090442365355068652 1 1 1 1 1 1 1 1 1 1 1 1 1 0.014201067612765706 1 1 0.011323668446730674 1 1 1 1 1 1 1 1 1 1 1 1 1 1 0.017255963482758811 1 1 1 1 0.010837386054035763 1 1 1 1 1 0.010120909094824241 1 1 0.012318087485230203 1 1 1 0.021740780208210242 1 1 1 0.019845436843931273 1 1 1 1 1 1 1 1 1 1 1 1 1 1 1 1 1 1 1 1 1 1 1 0.0098282242146071966 1 1 1 1 1 1 1 1 1 1 1 1 0.015427287250999452 1 1 0.013899555223986655 1 1 1 1 1 1 1 1 1 1 1 1 1 1 1 1 1 0.018414078452827966 1 1 1 1 1 1 1 1 1 1 0.0090969060537650151 1 1 1 0.0074908346632993131 1 1 0.018416829421430463 1 1 1 1 1 1 1 1 1 1 1 1 1 1 1 1 1 1 1 1 1 1 1 1 1 1 1 1 1 1 1 1 1 1 1 1 1 1 1 1 1 1 1 1 1 1 1 1 1 1 1 1 1 1 1 1 1 0.0099673551878290342 1 1 0.014630960109198192 1 0.013588076244415897 1 1 1 1 1 1 1 1 0.016285742872068042 1 1 0.0099993220138711383 1 0.0086238523445140228 1 1 1 1 1 1 1 1 1 0.0062611290009939868 1 1 1 0.010017112435747513 1 0.012500929300354801 1 1 1 1 0.014807493278782625 1 1 1 1 0.01004446224490544 1 1 1 1 1 1 1 0.01058922646446407 0.0082452079135601278 1 1 1 1 1 1 1 1 1 1 1 1 1 1 1 1 1 1 0.011845051754672049 1 1 1 0.010588988331485102 1 1 0.010172454856142391 1 1 1 1 1 1 1 1 1 1 1 1 1 1 1 1 1 1 1 1 1 1 1 1 1 0.011583099741134889 1 1 1 1 1 1 1 1 1 1 1 0.0098365769301002326 1 1 0.0097000185017721563 1 1 0.011750096183953018 1 1 1 1 1 1 1 1 1 1 1 1 1 1 1 1 1 1 1 1 0.010128619727992861 1 1 1 1 1 1 1 1 1 1 1 1 1 1 0.0095884834344136943 1 1 1 1 0.009862507012224608 1 1 1 1 1 0.0099042910578619955 1 1 1 1 1 1 1 1 1 1 1 1 1 1 1 1 1 1 1 1 1 1 1 1 0.011294573256227592 1 1 1 1 1 1 1 1 1 1 1 1 1 1 1 0.010028341324448825 1 1 1 1 0.010371273031925679 1 1 1 1 1 1 1 1 1 1 1 1 1 1 1 1 1 1 1 1 1 1 1 1 1 1 1 1 1 0.010067805689848781 1 1 1 1 1 0.0098081290756986753 1 1 1 1 1 1 1 1 1 1 1 1 1 1 1 1 1 1 1 1 1 1 1 1 1 1 1 1 1 1 1 1 1 1 1 1 1 1 1 1 1 1 1 1 1 1 1 1 1 1 1 1 1 1 1 1 1 1 1 1 1 1 1 1 1 1 1 1 1 1 1 1 1 1 1 0.0095940671669359767 1 1 1 1 1 0.0095946960218766461 1 1 1 1 1 1 1 1 1 1 1 1 1 1 1 1 1 1 1 1 1 1 0.0083711989139344852 1 1 1 1 1 1 1 1 1 1 1 1 1 1 1 1 1 0.0098231035743539183 1 1 0.0055742826674906234 1 1 0.011453573744810423 1 0.010174883977941579 1 1 1 1 0.018118160401525155 1 1 0.014811798683085813 1 1 1 1 1 1 1 1 1 1 1 1 0.011618955103935399 1 1 1 1 1 1 1 1 1 1 1 1 1 1 1 1 1 1 1 1 1 0.02127114395108632 1 1 1 1 1 1 1 1 1 1 1 0.0092854929471996028 1 1 1 1 1 1 1 1 1 1 1 1 1 1 1 1 1 1 1 1 0.0088980978030004654 1 1 1 1 1 1 1 1 1 1 1 1 0.008775640301675559 1 0.020840561607019338 1 1 1 0.017668760845918445 1 1 0.010033586054126197 1 1 0.0094884871610612029 1 1 0.01016376462794772 1 1 1 1 1 1 0.013011547701339424 0.0093798363139707963 1 1 1 1 0.010685874206673168 1 1 1 1 1 1 1 1 1 1 1 1 0.0054993844335695027 1 1 1 1 0.0070941778830990385 1 1 1 1 1 1 1 1 1 0.0099979303832912689 1 1 1 1 1 1 1 1 1 1 1 1 1 1 1 0.0076684386197499801 1 1 1 1 0.0076606927526683133 0.0086726700436320983 1 1 1 1 1 1 1 1 0.0094273108688018234 1 1 1 1 1 1 1 1 1 1 1 1 1 1 1 1 1 1 1 0.0087853097163540575 1 1 1 1 1 1 1 1 1 1 1 1 1 1 1 1 1 1 1 1 1 1 1 0.0098763262098986674 1 1 1 0.0098948526240308071 1 1 1 0.010357075029278281 1 0.0092969670911172125 1 1 0.009184656775178747 1 1 1 1 0.010106524009999431 1 1 1 1 1 1 1 1 1 1 1 1 1 1 1 1 0.0097038700423381502 1 1 1 1 1 1 1 1 1 1 1 1 1 1 1 1 1 1 0.0099536026291110677 1 1 1 1 1 1 1 1 1 1 1 0.010560784538066125 1 0.0074079540195530411 1 1 1 0.0094928673826732198 1 1 1 0.010070673824754198 0.0072393305211044118 1 1 1 1 1 0.010108654495040274 1 0.0068778634276897895 1 1 1 0.011290192264076933 1 1 1 1 1 0.0086064317004920093 1 1 1 1 1 1 1 1 1 1 1 1 1 1 1 1 1 1 1 1 1 0.01366838622047368 1 1 1 1 1 1 1 0.010097058249328631 1 1 1 1 0.010023439392300562 0.01220325758436842 1 1 0.012386467607978199 0.0099221611264196825 1 1 1 1 1 1 1 1 1 1 1 1 1 1 1 1 1 1 1 1 1 1 1 1 1 1 1 1 1 1 1 0.016584303735001908 1 0.0075286014106750176 1 1 1 1 1 1 1 1 1 1 1 1 0.015682601566431073 1 1 0.012483250142919004 1 0.010591393235802044 1 1 0.018098988775042828 0.0077141233545160101 1 1 0.011645545611572414 0.0096317231317976926 1 1 1 1 0.012207642354376637 0.0099116130119453125 1 0.010612994701817128 1 1 1 0.0098765119569306867 0.012241804323234049 1 1 1 1 0.010088866797862519 1 1 1 1 1 1 0.0094347590256729022 1 1 1 1 1 1 1 1 1 1 1 1 1 1 1 1 1 0.017230034771001781 1 1 1 0.0082487825225833686 1 1 1 0.0099953749219331769 1 1 1 0.010604411473860778 1 1 1 1 0.010186154546572507 1 1 0.015253185405142802 1 1 1 1 0.010599878313285072 1 1 0.010974653208418873 1 1 1 1 1 1 1 1 1 1 1 1 0.010201491775685016 1 1 1 1 0.0088725364778867374 1 1 0.011123888030206135 1 1 1 0.01042272101406766 1 1 1 0.016601145904946116 1 1 1 1 0.010649890157029052 1 0.014396384504373812 1 1 1 1 1 1 1 1 1 0.01050700430316907 1 1 1 1 1 1 1 1 1 1 1 0.018366835282595591 1 1 0.010104450840591812 1 1 0.010327571206560977 1 1 1 1 1 1 1 1 1 1 1 0.01026174539981986 1 1 1 1 1 1 0.01965316123058844 1 1 0.00096942629044283538 1 1 1 1 1 1 1 1 1 1 1 1 0.010116975256353388 1 1 1 1 1 1 1 0.0039959750698817312 1 1 1 0.0024752182173447303 1 1 1 1 1 1 1 1 1 0.010056613537491987 1 1 1 1 1 1 1 1 1 1 1 0.0068229315227999326 1 1 1 0.005889508303715027 1 1 1 1 0.01007544216715768 1 0.0081703887063272543 0.014482902837425227 0.012623430047873588 1 1 1 1 1 1 0.010892285218911127 1 1 1 1 0.010374484635402623 0.016254348886428439 1 1 1 1 1 1 1 0.014766153529306469 1 1 1 1 1 1 1 1 1 1 0.011909686414139949 1 1 1 1 1 1 1 1 1 1 1 1 0.010077390908858432 1 1 1 1 1 1 0.010506252131069512 1 0.010042462090505376 1 1 1 1 1 1 1 1 1 1 0.010304347726786355 1 1 1 1 1 1 1 1 0.010061654149156584 1 1 1 1 1 1 1 1 0.01019451982607395 1 1 0.010043948670701517 1 1 1 1 1 0.010318879660636536 1 1 1 0.010086410761206902 1 1 1 1 1 1 1 1 1 1 1 1 1 1 1 0.0099639205923057438 1 1 1 0.010007652922140196 0.0089600365736508258 1 0.009603899876653596 1 1 1 1 1 1 0.0092495881126660393 1 1 1 1 1 1 1 1 1 1 1 1 1 1 1 1 1 1 1 1 1 1 1 1 1 1 1 1 1 1 1 1 1 1 1 1 1 0.010022516220984899 0.0084173802633506212 1 1 1 1 1 0.0092695649789605664 1 0.0087941733315671303 1 0.0099267732819150571 1 1 0.0099998169200961259 1 0.007288820867684025 1 1 0.010699682338693527 1 1 0.0098120268712749634 1 0.0092009904551518598 1 1 1 1 1 1 0.0097881087237317727 1 1 1 1 1 1 1 1 1 1 1 1 1 1 1 1 1 1 1 1 1 1 1 1 1 1 1 1 1 1 1 1 1 1 1 1 1 1 1 1 1 1 1 1 1 1 1 1 1 1 1 1 1 1 1 1 1 1 1 1 1 1 1 1 1 1 1 1 1 1 1 1 1 1 1 1 1 1 1 1 0.010892798342791572 1 1 1 1 1 0.0098684503326382303 1 1 1 0.012344481048753618 1 1 1 1 0.0099833591027229541 1 0.012498994774122118 1 0.0095383600972977316 1 1 1 0.011626095281173556 1 1 1 1 1 1 1 1 1 1 1 1 1 1 1 1 1 1 1 1 1 1 1 1 0.012702952986326716 1 1 1 1 0.013171961339280778 1 0.013808367229497883 1 1 0.013327677138966697 1 1 1 1 1 1 1 0.0099661029987864469 1 1 0.0087099111557621053 0.012001075285496314 1 1 1 1 1 1 1 1 0.0088238672974013804 1 0.012171216088472818 0.0089846594479541641 0.010356585706947313 1 1 1 1 1 0.011384067854907975 1 1 1 1 1 1 1 1 1 1 1 1 1 1 0.0097756205074587179 1 1 1 1 1 1 0.0093536332288545933 0.010887403220202952 1 1 0.012853719118441461 0.0078063464237372576 1 1 1 1 0.013267222762159907 1 1 1 1 1 1 1 0.010278021419877395 1 1 1 0.010926843271808713 1 1 1 1 1 1 1 1 1 1 1 0.010312062125018845 1 1 1 1 1 1 1 1 1 1 1 1 1 1 1 1 1 1 1 1 0.0097360043605831288 1 1 1 1 1 1 1 1 1 1 1 1 1 1 1 1 1 1 1 1 1 1 1 1 1 1 0.01009976073041494 1 1 1 1 1 1 1 1 1 1 1 1 1 1 1 1 1 1 1 1 1 1 1 1 1 1 1 1 0.013980875148392878 1 1 1 0.0062248163524519333 1 1 1 1 1 1 1 1 1 1 1 1 1 1 0.0076113661493717056 1 1 0.0091761338353220871 1 1 1 1 1 1 1 1 1 1 1 0.012554859878803466 1 1 0.010041365886419115 1 1 1 1 1 1 1 1 1 1 1 1 1 1 1 1 1 1 1 1 1 1 1 0.013451573989653924 1 1 0.0073681659641953549 1 1 0.014148737988943319 1 0.0056344076366957197 1 1 0.004539892149213633 0.0045553598842102781 1 1 1 1 1 1 0.0047896376105331685 0.013219169066668189 1 1 1 1 1 0.0055027330324121659 0.016537137236625161 1 1 1 1 1 1 1 1 1 1 1 1 1 1 1 0.009731699817738965 1 1 0.0085307045822470284 1 1 1 1 1 0.012272757428584968 1 1 1 1 1 1 1 1 1 1 1 1 1 0.01011132884817785 0.010257486949481724 1 1 1 1 1 1 0.010823551207419801 1 1 1 1 1 1 1 1 0.0084485834209978225 1 1 1 1 1 1 1 1 0.0094527437761134023 1 0.0098303705535735652 1 1 1 1 1 0.0099707774861183679 0.013392020478586862 1 1 1 0.0075671359907210425 1 0.013372206882468422 1 0.0072100998888732816 1 1 1 1 1 1 0.0063116278214786891 0.013709018133808329 1 1 1 1 1 0.009581224786475941 1 1 1 0.0088034731326439974 1 1 0.016764152413099788 1 1 1 1 0.00085208238358501498 0.010123536797943615 1 1 1 1 1 1 1 1 1 1 0.0011824832259114126 0.0091672549545923007 1 1 0.014917525320723268 1 0.0032141367940184823 1 0.012979654355439317 1 1 1 1 1 1 1 1 1 1 0.014111359668865356 1 1 1 1 0.014686064870992978 1 1 1 1 1 2.7562623433619038e-08 1 1 1 1 1 1 1 1 1 1 1 0.013805779183870194 1 1 1 1 1 0.014515823661694918 0.010044081796585926 1 1 1 1 1 1 1 1 1 1 1 1 1 0.015774695322043578 1 1 1 1 1 1 1 1 1 0.01232093399299334 1 1 1 1 1 1 1 1 0.011193318036433253 1 1 1 1 1 1 1 0.0098348847152764773 1 1 0.0013935295429242014 1 1 1 1 0.0034598408241539487 1 1 1 1 1 1 1 1 0.0094635198248976191 1 1 1 1 1 0.01039143429149899 1 1 0.010345661908575693 0.010247312350445466 1 1 1 1 1 1 1 1 0.010041421037839553 1 1 1 1 1 1 1 1 1 1 1 1 0.0073698278421679177 1 1 1 1 0.0074537179223381246 1 1 1 1 1 1 1 1 1 1 1 1 1 1 1 1 1 1 0.010362330887517666 1 1 1 1 1 1 1 1 1 1 1 1 1 1 0.0097770057137740243 1 1 1 1 1 1 1 1 1 1 1 1 1 0.0096641830013797884 1 1 1 1 1 1 0.010354323721372009 1 1 1 1 1 1 1 0.009681891522035883 1 1 1 1 1 0.011184032958526558 1 1 1 1 1 1 1 1 1 1 1 1 1 1 1 1 1 1 1 1 1 0.0093498005445484811 1 1 1 1 1 1 1 0.0098228961626847765 1 1 1 1 1 1 1 0.010957717787128854 0.0098729969405680854 1 1 1 1 1 1 1 1 1 0.010305196959104902 1 1 1 1 1 1 1 0.0034680803931319872 1 1 1 0.0043384106542283096 1 1 1 1 1 1 0.010693501714266694 1 1 1 1 1 1 0.011398565021311997 1 1 1 1 1 1 0.0099076606448376178 1 0.0086609447945851046 1 0.01011108060434732 1 1 0.0065273186948763152 1 1 0.0085353480138969651 0.0069102245548884507 1 0.0080993531427132615 1 0.010978121092863238 1 1 1 1 1 1 1 1 1 1 1 1 1 1 1 1 1 1 1 1 1 1 1 1 1 1 1 0.011113559429568889 1 1 1 0.0099717734677729278 1 1 1 1 1 1 1 1 1 0.011940255864895499 1 1 1 1 1 1 1 1 0.012134729073535411 0.0059071589559214835 1 0.0085967024804598155 1 1 1 1 1 1 1 1 1 1 1 1 1 1 1 1 1 1 1 1 1 1 1 1 1 1 1 1 1 1 1 1 1 1 1 0.0092024767771543212 1 0.008386540747987635 1 1 1 1 1 1 1 1 1 1 1 1 1 1 1 1 1 1 1 1 1 1 1 1 1 1 1 1 1 1 1 1 1 1 1 1 1 1 1 1 1 1 1 1 1 1 1 1 1 0.011009158786136709 1 1 1 1 0.012020278832777155 1 0.011016125762469818 1 1 1 1 1 1 1 1 1 1 0.013680440891611023 1 1 1 1 1 1 1 1 1 1 1 1 1 1 0.01149647045910053 1 1 1 0.010916806581473266 1 1 1 1 1 1 1 1 1 1 1 1 1 1 1 1 1 1 1 1 1 1 1 1 0.013849396148314527 1 1 1 1 1 1 0.01166542571580402 1 1 1 1 1 1 1 1 1 1 1 1 1 1 0.0081905298910157093 1 0.010134621185189187 1 0.01105000774480587 1 1 1 1 1 0.009006272032029335 1 1 1 1 1 1 0.0070039291237671344 1 1 1 1 1 1 1 1 1 1 1 0.016318552771552346 1 0.0025716787607514002 1 -1.1285015651119057e-08 1 1 1 1 1 0.012016029872575641 1 1 1 1 1 1 1 1 1 1 1 1 1 1 1 1 1 1 1 0.007428794464465845 1 1 1 1 1 1 1 0.0034736310310263998 1 1 1 1 1 1 1 1 1 1 1 1 1 1 1 1 1 1 1 0.0009038911216042618 1 1 1 1 1 0.010725682428932841 0.0026462363050841816 1 1 1 0.0050905463342255982 1 1 1 0.0067296709099982869 1 1 1 1 1 1 1 0.0091823849719154717 1 1 1 0.0088117390849819632 1 0.0080414635713177349 1 1 1 1 1 1 1 0.0072835690596915505 1 1 1 1 1 1 1 1 1 1 1 1 0.0091840639708333019 1 1 1 1 1 1 1 1 1 1 1 1 1 1 1 1 0.0092470700577721027 1 1 1 1 1 1 1 1 1 1 1 1 1 1 1 1 1 1 1 1 1 1 1 1 1 1 1 1 1 1 1 1 0.0084192280144464171 1 1 1 1 1 1 1 1 1 1 1 1 1 1 1 1 1 1 1 1 1 1 1 0.011515699674825415 1 1 1 1 1 0.012950633657649507 1 1 1 1 1 0.014726012810784256 1 1 1 1 1 1 1 1 0.016344547369920304 1 1 1 1 1 1 1 1 1 0.001840378349844761 1 1 0.017475026373832178 1 1 1 1 1 1 1 1 1 1 1 1 1 1 0.0055883499323949593 1 1 1 1 0.00035284283445892115 1 1 1 1.186259923104116e-08 1 1 1 1 1 1 1 1 1 1 1 1 1 1 0.0034249261726138382 1 1 1 1 0.00018954586539087458 1 0.0095183705964748035 1 1 1 0.0066827972540015584 1 1 1 0.012328615626471001 0.0062371713823870002 0.015208261524040249 1 1 1 1 0.0095295161901605765 1 0.014615070842743751 1 0.012195039984259588 0.010038687625648066 1 1 1 1 1 0.012267998656677159 1 1 1 1 1 1 0.013194560709732857 1 0.013868804567976392 1 0.004392073567283339 1 1 1 1 0.0025893329779330537 0.01047645268242378 1 1 1 1 1 1 1 1 1 1 1 1 0.0094409830446150547 1 1 1 1 1 1 1 1 0.0091153847512194797 1 1 1 0.010001921324099309 1 0.015870362643542919 1 1 1 1 0.015071680646990186 0.0022939545696892515 0.017776402775690849 1 1 0.014805188401882937 1 1 0.0056886075626467539 1 1 1 0.0083905113322783713 1 1 1 1 1 0.0094424027081582637 1 1 1 1 1 1 1 0.0082417442013315648 1 1 0.0036157012245594377 0.013418867579084316 1 1 1 0.012038287712164635 0.0098172724645626611 1 1 1 1 1 1 1.4675910061864861e-08 1 1 1 1 1 1.4672149674897772e-08 1 1 1 1 1 1 1 1 1 1 1 1 1 1 1 1 1 1 1 1 1 1 0.0097174586739325122 1 0.001694602812760895 1 1 0.0093480685867463748 1 1 1 1 0.010148202478034878 1 1 1 1 1 1 1 1 1 1 0.0099795164946497178 1 0.00071826779052411999 1 0.001622045385696342 1 0.010905956054236415 1 1 0.00065566615581833139 1 1 1 1 1 1 1 1 1 0.010292449363238129 1 1 1 1 1 1 1 1 1 1 1 1 1 1 1 1 1 1 1 1 1 1 1 1 1 1 1 1 1 1 1 1 1 1 1 1 0.0094576874146016753 1 1 1 1 0.0084940060303695525 1 1 1 1 1 1 1 1 1 1 1 1 1 0.011443264469642797 1 1 1 1 1 1 1 1 1 1 0.010503005796371786 1 1 1 1 1 0.010369378337321645 1 1 1 1 1 1 1 1 1 1 1 0.0090460558994249936 1 1 1 1 1 1 0.010032576634014932 1 1 1 0.0098848848497298195 1 0.01270396920927136 0.0087072194003286058 1 1 1 1 1 1 1 1 0.0098417447146119316 1 1 1 0.010023638927086425 1 1 1 0.0096727577779437829 1 1 1 1 1 1 1 1 1 0.010050080493838254 0.013237071117464881 1 1 1 1 1 1 1 1 1 1 1 1 1 1 1 1 1 1 1 1 0.0098403733676843894 0.011531492757194811 1 1 1 1 1 1 1 1 1 1 1 1 1 1 1 0.010214430095027933 1 1 1 1 0.01001284926213216 1 1 1 1 1 1 1 1 1 1 1 1 1 1 1 1 1 1 1 1 1 1 1 0.016769755965757346 1 1 1 1 1 0.010030313945253827 1 1 1 1 0.010076814950374987 0.0058654133050166594 1 1 1 1 0.0028877181428571333 1 0.015578211341097825 1 0.0087224061115225866 0.01686371395610229 1 1 1 1 0.0074103651862458819 1 0.0068074225932260105 1 1 0.013377665345800033 1 0.0040512527732686349 1 0.0054531436585279827 1 1 1 1 1 1 1 1 1 1 1 1 1 1 1 1 1 0.013921680363217739 1 1 1 1 0.014369027194048527 0.016757058736784403 1 1 1 1 1 1 1 0.020587718552104697 1 1 0.010020602714039033 1 0.0068464326602802814 1 1 1 1 1 1 0.0054265071696807179 1 1 1 1 1 1 1 1 1 1 1 1 0.010061879030783826 1 1 0.012782861466040367 1 1 1 1 1 1 1 1 1 1 1 1 1 1 1 1 1 1 1 0.010082175770766387 1 1 1 1 0.014416134602611893 0.01489795593930594 1 1 1 1 1 1 1 1 1 0.015304601522370497 1 1 0.009953548136304325 1 0.0081070342749094033 1 1 1 1 0.010130716389735608 1 1 1 1 1 1 1 1 1 1 1 1 1 1 0.0098622587073665963 1 1 1 0.0099678502211332943 1 1 1 1 1 1 1 1 1 1 1 1 0.0082077335872229751 1 0.0098048319255432722 1 1 1 1 0.0069573697089992947 1 1 1 0.014096618460726983 1 1 1 1 1 1 1 1 1 1 1 0.0083365296367003509 0.014821630434325984 1 1 1 1 1 1 1 1 1 0.011681920154974774 1 1 1 1 1 1 1 1 0.011084608807116942 1 1 1 1 0.0012370571195654536 1 1 1 1 0.0099601185416440322 1 0.01295930103142162 1 1 1 1 1 1 1 1 1 1 1 1 1 1 1 1 1 0.010382864818435185 1 1 1 1 1 1 1 0.0097741118843734983 1 1 1 1 1 1 1 1 1 1 1 1 1 0.0072301448857683848 0.013740973490020346 1 1 1 1 0.0089963102496618923 1 1 1 1 1 0.010802230007044982 1 1 1 1 1 1 0.0038725349518373819 1 1 0.010106717660051863 1 0.0015387806155407538 1 1 0.010090492469654344 1 1 1 1 1 1 1 0.010167749895264869 1 1 1 1 1 1 1 1 0.0047796247015176631 0.011988260888207604 0.01121517928508399 1 1 1 1 1 1 1 1 1 0.010389783454208133 1 1 1 1 1 1 1 0.0088182483412196592 1 1 1 0.020957007223022163 1 1 0.0085267033045932344 1 1 1 1 0.010035711336625463 1 1 1 1 1 1 1 1 0.008301830257591165 1 0.0083990744117174998 1 1 1 1 1 1 0.008496320309309368 1 1 0.01012758987373606 1 1 1 1 1 1 1 1 1 0.0027955558948262395 1 1 1 1 1 1 0.0058577367581003946 1 1 1 1 0.010486792617694064 1 1 1 1 1 1 1 1 1 1 1 1 1 1 1 1 1 1 1 1 1 1 1 1 1 1 1 1 1 1 1 1 1 1 1 1 1 1 1 1 1 1 1 1 1 1 1 1 1 1 1 1 0.014560119408112533 1 1 0.010000923732475051 1 0.0078807371200515543 0.011919666561137016 1 1 0.009332866813261247 1 0.014118319042782788 1 1 1 1 0.010623154792715635 1 1 0.008883781008649741 1 1 1 1 1 1 0.010182804035462357 0.0065621828171709851 1 1 1 1 1 1 0.0067427631980726439 1 0.016761488714003916 1 0.0091739954375352813 0.012230366959138182 1 0.014087135836468881 1 0.0062053501046993344 0.014298130046755075 1 1 1 1 1 1 1 1 1 0.016200033715536917 1 0.0025443342919918826 1 1 1 1 1 1 1 0.0099361974949058463 0.01136155308504007 1 1 1 1 0.004596532508753453 1 0.010002398163664914 1 1 0.01824285371833128 1 0.0099336167161611384 1 1 1 0.0046492934759639823 1 0.0183775212642414 0.0094331495974298869 1 1 1 0.0069065639890942485 1 0.016904291879036804 0.0099467370797791353 1 1 1 0.0040565731782539957 1 1 0.0055829249518901392 1 1 1 1 1 1 1 0.010707951949925461 1 1 1 1 1 1 1 1 1 1 1 1 1 1 1 1 1 1 1 1 1 1 1 1 1 1 1 1 1 1 1 0.0085839883027829088 1 1 1 0.0020415681394474264 1 1 1 0.0053573070806386437 0.010282402237600827 1 1 1 1 0.0017026208148092845 1 1 1 1 1 1 1 1 1 1 1 1 1 1 1 1 1 1 1 0.010989409590477504 1 0.010018782957883738 1 1 1 1 0.016481732074313409 1 1 0.0032209093582397201 1 1 1 1 1 1 1 0.0023971173402722763 1 1 1 1 0.018478651144002853 1 1 1 0.0094690832621830631 1 0.021802333319122333 0.0051399791891259834 1 1 0.017224345260257914 1 1 1 1 1 1 0.017130767378622187 1 1 1 1 1 0.00933934768565183 1 1 1 0.010027129654911614 1 0.011873051328716301 1 1 1 1 1 0.0099744613725991482 1 0.0044776060590298108 0.016909562219982893 1 0.0052839575625031228 1 1 0.008476401291220648 1 1 0.015668588493957927 1 1 1 0.0092435231772949981 1 0.0097506373578884978 1 1 1 0.014736332646381557 1 1 1 1 1 1 1 1 1 0.010562884834751901 1 1 1 1 1 1 1 1 1 0.012166220089405426 1 1 1 1 0.010742511352755682 1 1 1 0.011365432281055132 1 1 1 1 1 1 1 1 0.008527252099257903 1 1 0.0082079301014290652 1 1 1 1 1 1 0.0086008946747804203 0.011144625584424292 1 1 0.010386893241275466 1 1 1 1 1 1 1 1 1 0.010004053772926645 1 1 1 1 1 0.0067862502660719793 1 0.0062354814761916583 1 1 1 1 1 1 1 1 1 1 0.0074891256942137743 1 0.0099053042200788893 1 1 1 
</DataArray>
</CellData>
</Piece>
</UnstructuredGrid>
</VTKFile>
