<?xml version="1.0"?>
<VTKFile type="UnstructuredGrid" version="0.1" byte_order="LittleEndian">
<UnstructuredGrid>
<Piece NumberOfPoints="30095" NumberOfCells="10598">
<Points>
<DataArray type="Float64" NumberOfComponents="3" format="ascii">
-0.5 -0.5 0 -0.46833512168037489 -0.48599365290500102 0 -0.48267020241711872 -0.44889552808599659 0 -0.5 -0.5 0 -0.46833512168037489 -0.48599365290500102 0 -0.45170182487410532 -0.5 0 -0.5 -0.5 0 -0.48267020241711872 -0.44889552808599659 0 -0.50000000000000111 -0.43226180181301332 0 -0.46833512168037489 -0.48599365290500102 0 -0.44945724395605308 -0.49444265695663508 0 -0.45170182487410532 -0.5 0 -0.46833512168037489 -0.48599365290500102 0 -0.44801060725135278 -0.48216298063196222 0 -0.44945724395605308 -0.49444265695663508 0 -0.46833512168037489 -0.48599365290500102 0 -0.44801060725135278 -0.48216298063196222 0 -0.46534040483423572 -0.46552925435897929 0 -0.44801060725135278 -0.48216298063196222 0 -0.45744208655262719 -0.46312976840587983 0 -0.46534040483423572 -0.46552925435897929 0 -0.44801060725135278 -0.48216298063196222 0 -0.46534040483423572 -0.46552925435897929 0 -0.44801060725135278 -0.48216298063196222 0 -0.44053572124271739 -0.47147334132918672 0 -0.44559588103414971 -0.46166574296087493 0 -0.44801060725135278 -0.48216298063196222 0 -0.44559588103414971 -0.46166574296087493 0 -0.45744208655262719 -0.46312976840587983 0 -0.44801060725135278 -0.48216298063196222 0 -0.44559588103414971 -0.46166574296087493 0 -0.44801060725135278 -0.48216298063196222 0 -0.44053572124271739 -0.47147334132918672 0 -0.43727276302294132 -0.47953242095139459 0 -0.44801060725135278 -0.48216298063196222 0 -0.44105419339184743 -0.48883998210455182 0 -0.43727276302294132 -0.47953242095139459 0 -0.44801060725135278 -0.48216298063196222 0 -0.44105419339184743 -0.48883998210455182 0 -0.44105419339184743 -0.48883998210455182 0 -0.44945724395605308 -0.49444265695663508 0 -0.45170182487410532 -0.5 0 -0.44801060725135278 -0.48216298063196222 0 -0.44105419339184743 -0.48883998210455182 0 -0.44945724395605308 -0.49444265695663508 0 -0.44801060725135278 -0.48216298063196222 0 -0.44945724395605308 -0.49444265695663508 0 -0.44318115481694809 -0.44116850528978752 0 -0.44372874441645088 -0.45858668082044218 0 -0.43448279014183022 -0.43882331209734371 0 -0.44372874441645088 -0.45858668082044218 0 -0.43448279014183022 -0.43882331209734371 0 -0.44318115481694809 -0.44116850528978752 0 -0.45744208655262719 -0.46312976840587983 0 -0.43830886432492278 -0.45336063797264742 0 -0.44372874441645088 -0.45858668082044218 0 -0.43448279014183022 -0.43882331209734371 0 -0.44318115481694809 -0.44116850528978752 0 -0.44559588103414971 -0.46166574296087493 0 -0.43830886432492278 -0.45336063797264742 0 -0.43914703897766288 -0.45886196070206531 0 -0.44372874441645088 -0.45858668082044218 0 -0.44318115481694809 -0.44116850528978752 0 -0.44559588103414971 -0.46166574296087493 0 -0.45744208655262719 -0.46312976840587983 0 -0.44318115481694809 -0.44116850528978752 0 -0.44372874441645088 -0.45858668082044218 0 -0.44559588103414971 -0.46166574296087493 0 -0.43914703897766288 -0.45886196070206531 0 -0.43963734188520842 -0.46358574266201252 0 -0.43461596797707869 -0.45953252397386601 0 -0.43914703897766288 -0.45886196070206531 0 -0.44372874441645088 -0.45858668082044218 0 -0.43963734188520842 -0.46358574266201252 0 -0.44053572124271739 -0.47147334132918672 0 -0.43963734188520842 -0.46358574266201252 0 -0.44559588103414971 -0.46166574296087493 0 -0.44053572124271739 -0.47147334132918672 0 -0.43963734188520842 -0.46358574266201252 0 -0.43248861077492412 -0.46919240368091092 0 -0.44372874441645088 -0.45858668082044218 0 -0.43963734188520842 -0.46358574266201252 0 -0.44559588103414971 -0.46166574296087493 0 -0.45744208655262719 -0.46312976840587983 0 -0.46534040483423572 -0.46552925435897929 0 -0.46226408612207842 -0.45177793485149997 0 -0.44318115481694809 -0.44116850528978752 0 -0.46226408612207842 -0.45177793485149997 0 -0.46268658198946427 -0.44016661811685681 0 -0.44318115481694809 -0.44116850528978752 0 -0.45744208655262719 -0.46312976840587983 0 -0.46226408612207842 -0.45177793485149997 0 -0.46268658198946427 -0.44016661811685681 0 -0.48267020241711872 -0.44889552808599659 0 -0.46980426626823818 -0.426938967031886 0 -0.46226408612207842 -0.45177793485149997 0 -0.46268658198946427 -0.44016661811685681 0 -0.48267020241711872 -0.44889552808599659 0 -0.46833512168037489 -0.48599365290500102 0 -0.46534040483423572 -0.46552925435897929 0 -0.48267020241711872 -0.44889552808599659 0 -0.46534040483423572 -0.46552925435897929 0 -0.48267020241711872 -0.44889552808599659 0 -0.46534040483423572 -0.46552925435897929 0 -0.46226408612207842 -0.45177793485149997 0 -0.48267020241711872 -0.44889552808599659 0 -0.48267020241711872 -0.44889552808599659 0 -0.50000000000000111 -0.43226180181301332 0 -0.48267020241711872 -0.44889552808599659 0 -0.50000000000000111 -0.43226180181301332 0 -0.48625744784290298 -0.42054309738734169 0 -0.50000000000000111 -0.43226180181301332 0 -0.48625744784290298 -0.42054309738734169 0 -0.5 -0.40269129651438729 0 -0.48625744784290298 -0.42054309738734169 0 -0.5 -0.40269129651438729 0 -0.47571583455138189 -0.4049312907656229 0 -0.48625744784290298 -0.42054309738734169 0 -0.46980426626823818 -0.426938967031886 0 -0.47571583455138189 -0.4049312907656229 0 -0.48267020241711872 -0.44889552808599659 0 -0.48625744784290298 -0.42054309738734169 0 -0.46980426626823818 -0.426938967031886 0 -0.4883321049493678 -0.38790604386507432 0 -0.5 -0.40269129651438729 0 -0.5 -0.37312079121576153 0 -0.4883321049493678 -0.38790604386507432 0 -0.5 -0.40269129651438729 0 -0.47571583455138189 -0.4049312907656229 0 -0.4883321049493678 -0.38790604386507432 0 -0.47571583455138189 -0.4049312907656229 0 -0.47075676975463171 -0.38113470252016701 0 -0.4883321049493678 -0.38790604386507432 0 -0.47075676975463171 -0.38113470252016701 0 -0.48537838487731622 -0.36234249421865139 0 -0.47075676975463171 -0.38113470252016701 0 -0.45613515463194709 -0.39992691082168258 0 -0.47075676975463171 -0.38113470252016701 0 -0.45534916411423582 -0.38028783056125859 0 -0.45613515463194709 -0.39992691082168258 0 -0.47571583455138189 -0.4049312907656229 0 -0.47075676975463171 -0.38113470252016701 0 -0.45613515463194709 -0.39992691082168258 0 -0.43967067534511428 -0.41137004136415273 0 -0.43616019587328209 -0.38157157743851777 0 -0.45613515463194709 -0.39992691082168258 0 -0.43967067534511428 -0.41137004136415273 0 -0.43616019587328209 -0.38157157743851777 0 -0.45534916411423582 -0.38028783056125859 0 -0.45613515463194709 -0.39992691082168258 0 -0.43616019587328209 -0.38157157743851777 0 -0.44318115481694809 -0.44116850528978752 0 -0.46268658198946427 -0.44016661811685681 0 -0.45455732640465168 -0.42831779812497112 0 -0.46268658198946427 -0.44016661811685681 0 -0.46980426626823818 -0.426938967031886 0 -0.45455732640465168 -0.42831779812497112 0 -0.46980426626823818 -0.426938967031886 0 -0.45455732640465168 -0.42831779812497112 0 -0.45872509841258602 -0.41537801721882228 0 -0.46980426626823818 -0.426938967031886 0 -0.47571583455138189 -0.4049312907656229 0 -0.45872509841258602 -0.41537801721882228 0 -0.47571583455138189 -0.4049312907656229 0 -0.45613515463194709 -0.39992691082168258 0 -0.45872509841258602 -0.41537801721882228 0 -0.45455732640465168 -0.42831779812497112 0 -0.45872509841258602 -0.41537801721882228 0 -0.44151353950926259 -0.41871911912319809 0 -0.45613515463194709 -0.39992691082168258 0 -0.44151353950926259 -0.41871911912319809 0 -0.45613515463194709 -0.39992691082168258 0 -0.45872509841258602 -0.41537801721882228 0 -0.44151353950926259 -0.41871911912319809 0 -0.45613515463194709 -0.39992691082168258 0 -0.44151353950926259 -0.41871911912319809 0 -0.43967067534511428 -0.41137004136415273 0 -0.44318115481694809 -0.44116850528978752 0 -0.45455732640465168 -0.42831779812497112 0 -0.44151353950926259 -0.41871911912319809 0 -0.44318115481694809 -0.44116850528978752 0 -0.43967067534511428 -0.41137004136415273 0 -0.44318115481694809 -0.44116850528978752 0 -0.44151353950926259 -0.41871911912319809 0 -0.43967067534511428 -0.41137004136415273 0 -0.42958601820476888 -0.42023253997046672 0 -0.42523683586720928 -0.41905994337424513 0 -0.43448279014183022 -0.43882331209734371 0 -0.44318115481694809 -0.44116850528978752 0 -0.42958601820476888 -0.42023253997046672 0 -0.43448279014183022 -0.43882331209734371 0 -0.44318115481694809 -0.44116850528978752 0 -0.42958601820476888 -0.42023253997046672 0 -0.44318115481694809 -0.44116850528978752 0 -0.43967067534511428 -0.41137004136415273 0 -0.42958601820476888 -0.42023253997046672 0 -0.42490216476393322 -0.43567900940143311 0 -0.42523683586720928 -0.41905994337424513 0 -0.43448279014183022 -0.43882331209734371 0 -0.42523683586720928 -0.41905994337424513 0 -0.43448279014183022 -0.43882331209734371 0 -0.42490216476393322 -0.43567900940143311 0 -0.42523683586720928 -0.41905994337424513 0 -0.42058264281736202 -0.42800776586195732 0 -0.42958601820476888 -0.42023253997046672 0 -0.42523683586720928 -0.41905994337424513 0 -0.41599088159258829 -0.39929657465114682 0 -0.42958601820476888 -0.42023253997046672 0 -0.41599088159258829 -0.39929657465114682 0 -0.42855375631878118 -0.40727222670987978 0 -0.42958601820476888 -0.42023253997046672 0 -0.41599088159258829 -0.39929657465114682 0 -0.43967067534511428 -0.41137004136415273 0 -0.42855375631878118 -0.40727222670987978 0 -0.42958601820476888 -0.42023253997046672 0 -0.42523683586720928 -0.41905994337424513 0 -0.41315812841981869 -0.42256507299705021 0 -0.41599088159258829 -0.39929657465114682 0 -0.41315812841981869 -0.42256507299705021 0 -0.41599088159258829 -0.39929657465114682 0 -0.40110216636634061 -0.41727494389252778 0 -0.42523683586720928 -0.41905994337424513 0 -0.41599088159258829 -0.39929657465114682 0 -0.41315812841981869 -0.42256507299705021 0 -0.4049277652127074 -0.4371005851744828 0 -0.40110216636634061 -0.41727494389252778 0 -0.41315812841981869 -0.42256507299705021 0 -0.41688536925431752 -0.43373319133613553 0 -0.4049277652127074 -0.4371005851744828 0 -0.42490216476393322 -0.43567900940143311 0 -0.41688536925431752 -0.43373319133613553 0 -0.42058264281736202 -0.42800776586195732 0 -0.41315812841981869 -0.42256507299705021 0 -0.41688536925431752 -0.43373319133613553 0 -0.42058264281736202 -0.42800776586195732 0 -0.42523683586720928 -0.41905994337424513 0 -0.41315812841981869 -0.42256507299705021 0 -0.42058264281736202 -0.42800776586195732 0 -0.43616019587328209 -0.38157157743851777 0 -0.42300397252629368 -0.38816276168079711 0 -0.41788829201222921 -0.37272081648283412 0 -0.43616019587328209 -0.38157157743851777 0 -0.42300397252629368 -0.38816276168079711 0 -0.42896745013265319 -0.39818975085375308 0 -0.43967067534511428 -0.41137004136415273 0 -0.43616019587328209 -0.38157157743851777 0 -0.42896745013265319 -0.39818975085375308 0 -0.42300397252629368 -0.38816276168079711 0 -0.42896745013265319 -0.39818975085375308 0 -0.41599088159258829 -0.39929657465114682 0 -0.43967067534511428 -0.41137004136415273 0 -0.42855375631878118 -0.40727222670987978 0 -0.42896745013265319 -0.39818975085375308 0 -0.42855375631878118 -0.40727222670987978 0 -0.42896745013265319 -0.39818975085375308 0 -0.41599088159258829 -0.39929657465114682 0 -0.41599088159258829 -0.39929657465114682 0 -0.41021701552400669 -0.38695484759065352 0 -0.42300397252629368 -0.38816276168079711 0 -0.41599088159258829 -0.39929657465114682 0 -0.41021701552400669 -0.38695484759065352 0 -0.41021701552400669 -0.38695484759065352 0 -0.41788829201222921 -0.37272081648283412 0 -0.39980969622557327 -0.37437819793062271 0 -0.41599088159258829 -0.39929657465114682 0 -0.39980969622557327 -0.37437819793062271 0 -0.41599088159258829 -0.39929657465114682 0 -0.41021701552400669 -0.38695484759065352 0 -0.39980969622557327 -0.37437819793062271 0 -0.42300397252629368 -0.38816276168079711 0 -0.41021701552400669 -0.38695484759065352 0 -0.41788829201222921 -0.37272081648283412 0 -0.41599088159258829 -0.39929657465114682 0 -0.3868188233733249 -0.39623745417092721 0 -0.39980969622557327 -0.37437819793062271 0 -0.41599088159258829 -0.39929657465114682 0 -0.3868188233733249 -0.39623745417092721 0 -0.40110216636634061 -0.41727494389252778 0 -0.3868188233733249 -0.39623745417092721 0 -0.39980969622557327 -0.37437819793062271 0 -0.38013556338091581 -0.36944098472372 0 -0.3868188233733249 -0.39623745417092721 0 -0.38013556338091581 -0.36944098472372 0 -0.36428762858488373 -0.38290996655623272 0 -0.4049277652127074 -0.4371005851744828 0 -0.40110216636634061 -0.41727494389252778 0 -0.4049277652127074 -0.4371005851744828 0 -0.40110216636634061 -0.41727494389252778 0 -0.39003941294935218 -0.42697439570044832 0 -0.4049277652127074 -0.4371005851744828 0 -0.39003941294935218 -0.42697439570044832 0 -0.38582952478426069 -0.43756146822127828 0 -0.3868188233733249 -0.39623745417092721 0 -0.40110216636634061 -0.41727494389252778 0 -0.38456322398183912 -0.41477434320696749 0 -0.40110216636634061 -0.41727494389252778 0 -0.38456322398183912 -0.41477434320696749 0 -0.39003941294935218 -0.42697439570044832 0 -0.3868188233733249 -0.39623745417092721 0 -0.38456322398183912 -0.41477434320696749 0 -0.36461124845074838 -0.40862347358398821 0 -0.38456322398183912 -0.41477434320696749 0 -0.37575964801685602 -0.42649861044394921 0 -0.39003941294935218 -0.42697439570044832 0 -0.37575964801685602 -0.42649861044394921 0 -0.39003941294935218 -0.42697439570044832 0 -0.38582952478426069 -0.43756146822127828 0 -0.37575964801685602 -0.42649861044394921 0 -0.38582952478426069 -0.43756146822127828 0 -0.37330325838241318 -0.44026344580857918 0 -0.38789901887864597 -0.45108905240975561 0 -0.36704467369823218 -0.44525187836306068 0 -0.38789901887864597 -0.45108905240975561 0 -0.38582952478426069 -0.43756146822127828 0 -0.37330325838241318 -0.44026344580857918 0 -0.38789901887864597 -0.45108905240975561 0 -0.36704467369823218 -0.44525187836306068 0 -0.37330325838241318 -0.44026344580857918 0 -0.4049277652127074 -0.4371005851744828 0 -0.38789901887864597 -0.45108905240975561 0 -0.40875336405906282 -0.45692622645643999 0 -0.4049277652127074 -0.4371005851744828 0 -0.38789901887864597 -0.45108905240975561 0 -0.38582952478426069 -0.43756146822127828 0 -0.38789901887864597 -0.45108905240975561 0 -0.39301730484311231 -0.46841622779014758 0 -0.40875336405906282 -0.45692622645643999 0 -0.39301730484311231 -0.46841622779014758 0 -0.41290916855572091 -0.47846311322821772 0 -0.40875336405906282 -0.45692622645643999 0 -0.38789901887864597 -0.45108905240975561 0 -0.40875336405906282 -0.45692622645643999 0 -0.38789901887864597 -0.45108905240975561 0 -0.39301730484311231 -0.46841622779014758 0 -0.37135216357044099 -0.47060606781224179 0 -0.38789901887864597 -0.45108905240975561 0 -0.37135216357044099 -0.47060606781224179 0 -0.36704467369823218 -0.44525187836306068 0 -0.39301730484311231 -0.46841622779014758 0 -0.38712457560232588 -0.48349708176612138 0 -0.37135216357044099 -0.47060606781224179 0 -0.38712457560232588 -0.48349708176612138 0 -0.39180307136490761 -0.5 0 -0.36654116967744782 -0.5 0 -0.38712457560232588 -0.48349708176612138 0 -0.36654116967744782 -0.5 0 -0.37135216357044099 -0.47060606781224179 0 -0.38712457560232588 -0.48349708176612138 0 -0.39180307136490761 -0.5 0 -0.41290916855572091 -0.47846311322821772 0 -0.39301730484311231 -0.46841622779014758 0 -0.38712457560232588 -0.48349708176612138 0 -0.41290916855572091 -0.47846311322821772 0 -0.41290916855572091 -0.47846311322821772 0 -0.4236300404285448 -0.46992097595011151 0 -0.41845770237828922 -0.45964249068278412 0 -0.44105419339184743 -0.48883998210455182 0 -0.45170182487410532 -0.5 0 -0.41706497305236723 -0.49999999999999772 0 -0.41290916855572091 -0.47846311322821772 0 -0.4236300404285448 -0.46992097595011151 0 -0.42726909075136998 -0.48193663678883453 0 -0.41290916855572091 -0.47846311322821772 0 -0.41706497305236723 -0.49999999999999772 0 -0.39180307136490761 -0.5 0 -0.41290916855572091 -0.47846311322821772 0 -0.41706497305236723 -0.49999999999999772 0 -0.41290916855572091 -0.47846311322821772 0 -0.41706497305236723 -0.49999999999999772 0 -0.42726909075136998 -0.48193663678883453 0 -0.44105419339184743 -0.48883998210455182 0 -0.41706497305236723 -0.49999999999999772 0 -0.42726909075136998 -0.48193663678883453 0 -0.4236300404285448 -0.46992097595011151 0 -0.42726909075136998 -0.48193663678883453 0 -0.43248861077492412 -0.46919240368091092 0 -0.42726909075136998 -0.48193663678883453 0 -0.43727276302294132 -0.47953242095139459 0 -0.43248861077492412 -0.46919240368091092 0 -0.44105419339184743 -0.48883998210455182 0 -0.42726909075136998 -0.48193663678883453 0 -0.43727276302294132 -0.47953242095139459 0 -0.44053572124271739 -0.47147334132918672 0 -0.43727276302294132 -0.47953242095139459 0 -0.43248861077492412 -0.46919240368091092 0 -0.43963734188520842 -0.46358574266201252 0 -0.43248861077492412 -0.46919240368091092 0 -0.43461596797707869 -0.45953252397386601 0 -0.43248861077492412 -0.46919240368091092 0 -0.42702562968241953 -0.46037023536981031 0 -0.43461596797707869 -0.45953252397386601 0 -0.4236300404285448 -0.46992097595011151 0 -0.42702562968241953 -0.46037023536981031 0 -0.41845770237828922 -0.45964249068278412 0 -0.4236300404285448 -0.46992097595011151 0 -0.43248861077492412 -0.46919240368091092 0 -0.42702562968241953 -0.46037023536981031 0 -0.42702562968241953 -0.46037023536981031 0 -0.42471313106572423 -0.45299129073151773 0 -0.41845770237828922 -0.45964249068278412 0 -0.42702562968241953 -0.46037023536981031 0 -0.4310123478790383 -0.45287911507959422 0 -0.42471313106572423 -0.45299129073151773 0 -0.42702562968241953 -0.46037023536981031 0 -0.43461596797707869 -0.45953252397386601 0 -0.4310123478790383 -0.45287911507959422 0 -0.43830886432492278 -0.45336063797264742 0 -0.43914703897766288 -0.45886196070206531 0 -0.43461596797707869 -0.45953252397386601 0 -0.43830886432492278 -0.45336063797264742 0 -0.43461596797707869 -0.45953252397386601 0 -0.4310123478790383 -0.45287911507959422 0 -0.43830886432492278 -0.45336063797264742 0 -0.43301367222987092 -0.4476905893015462 0 -0.4310123478790383 -0.45287911507959422 0 -0.43830886432492278 -0.45336063797264742 0 -0.43301367222987092 -0.4476905893015462 0 -0.43448279014183022 -0.43882331209734371 0 -0.43301367222987092 -0.4476905893015462 0 -0.4310123478790383 -0.45287911507959422 0 -0.4282506865736922 -0.44569929205659969 0 -0.43301367222987092 -0.4476905893015462 0 -0.43448279014183022 -0.43882331209734371 0 -0.4282506865736922 -0.44569929205659969 0 -0.42490216476393322 -0.43567900940143311 0 -0.43448279014183022 -0.43882331209734371 0 -0.4282506865736922 -0.44569929205659969 0 -0.42490216476393322 -0.43567900940143311 0 -0.4282506865736922 -0.44569929205659969 0 -0.41881928881518138 -0.4463653204688004 0 -0.4282506865736922 -0.44569929205659969 0 -0.42471313106572423 -0.45299129073151773 0 -0.41881928881518138 -0.4463653204688004 0 -0.4310123478790383 -0.45287911507959422 0 -0.4282506865736922 -0.44569929205659969 0 -0.42471313106572423 -0.45299129073151773 0 -0.4049277652127074 -0.4371005851744828 0 -0.41881928881518138 -0.4463653204688004 0 -0.40875336405906282 -0.45692622645643999 0 -0.42471313106572423 -0.45299129073151773 0 -0.41881928881518138 -0.4463653204688004 0 -0.41845770237828922 -0.45964249068278412 0 -0.4049277652127074 -0.4371005851744828 0 -0.40875336405906282 -0.45692622645643999 0 -0.42490216476393322 -0.43567900940143311 0 -0.41688536925431752 -0.43373319133613553 0 -0.41881928881518138 -0.4463653204688004 0 -0.41688536925431752 -0.43373319133613553 0 -0.4049277652127074 -0.4371005851744828 0 -0.41881928881518138 -0.4463653204688004 0 -0.41290916855572091 -0.47846311322821772 0 -0.40875336405906282 -0.45692622645643999 0 -0.40875336405906282 -0.45692622645643999 0 -0.41845770237828922 -0.45964249068278412 0 -0.41290916855572091 -0.47846311322821772 0 -0.40875336405906282 -0.45692622645643999 0 -0.41845770237828922 -0.45964249068278412 0 -0.41881928881518138 -0.4463653204688004 0 -0.40875336405906282 -0.45692622645643999 0 -0.41845770237828922 -0.45964249068278412 0 -0.44193441075943318 -0.2576287881938828 0 -0.44923049372044499 -0.27222599658557978 0 -0.46031532898616162 -0.26145303659922459 0 -0.44193441075943318 -0.2576287881938828 0 -0.46031532898616162 -0.26145303659922459 0 -0.45580677800631703 -0.24459137081616669 0 -0.44923049372044499 -0.27222599658557978 0 -0.44603258944368562 -0.28901161139440978 0 -0.43164948357153182 -0.27409120386146812 0 -0.44193441075943318 -0.2576287881938828 0 -0.44923049372044499 -0.27222599658557978 0 -0.43164948357153182 -0.27409120386146812 0 -0.44923049372044499 -0.27222599658557978 0 -0.46031532898616162 -0.26145303659922459 0 -0.47373574145645858 -0.28100669547773371 0 -0.44923049372044499 -0.27222599658557978 0 -0.47373574145645858 -0.28100669547773371 0 -0.44603258944368562 -0.28901161139440978 0 -0.46031532898616162 -0.26145303659922459 0 -0.46862277139851172 -0.25111975325190861 0 -0.45580677800631703 -0.24459137081616669 0 -0.46031532898616162 -0.26145303659922459 0 -0.46862277139851172 -0.25111975325190861 0 -0.47724993060684179 -0.26037923252663592 0 -0.46862277139851172 -0.25111975325190861 0 -0.47724993060684179 -0.26037923252663592 0 -0.48386395273398258 -0.24618543112483249 0 -0.47724993060684179 -0.26037923252663592 0 -0.5 -0.26182123415195058 0 -0.48386395273398258 -0.24618543112483249 0 -0.5 -0.26182123415195058 0 -0.47373574145645858 -0.28100669547773371 0 -0.5 -0.2890642514070122 0 -0.46031532898616162 -0.26145303659922459 0 -0.47724993060684179 -0.26037923252663592 0 -0.47373574145645858 -0.28100669547773371 0 -0.47724993060684179 -0.26037923252663592 0 -0.5 -0.26182123415195058 0 -0.47373574145645858 -0.28100669547773371 0 -0.47373574145645858 -0.28100669547773371 0 -0.48477318522969792 -0.30287385462554878 0 -0.46476243513656251 -0.3067215398684815 0 -0.47373574145645858 -0.28100669547773371 0 -0.5 -0.2890642514070122 0 -0.48477318522969792 -0.30287385462554878 0 -0.5 -0.2890642514070122 0 -0.48477318522969792 -0.30287385462554878 0 -0.5 -0.31630726866207393 0 -0.48477318522969792 -0.30287385462554878 0 -0.46476243513656251 -0.3067215398684815 0 -0.48228606405114133 -0.32394196566145228 0 -0.47373574145645858 -0.28100669547773371 0 -0.46476243513656251 -0.3067215398684815 0 -0.44603258944368562 -0.28901161139440978 0 -0.46476243513656251 -0.3067215398684815 0 -0.44603258944368562 -0.28901161139440978 0 -0.43725969470805848 -0.31284853876858759 0 -0.44403122776101861 -0.33461555202865251 0 -0.46427043802040058 -0.33083466787416271 0 -0.43725969470805848 -0.31284853876858759 0 -0.44403122776101861 -0.33461555202865251 0 -0.46427043802040058 -0.33083466787416271 0 -0.4583445361970821 -0.35851813146466682 0 -0.46476243513656251 -0.3067215398684815 0 -0.46427043802040058 -0.33083466787416271 0 -0.43725969470805848 -0.31284853876858759 0 -0.46476243513656251 -0.3067215398684815 0 -0.46427043802040058 -0.33083466787416271 0 -0.48228606405114133 -0.32394196566145228 0 -0.48477318522969792 -0.30287385462554878 0 -0.48228606405114133 -0.32394196566145228 0 -0.5 -0.31630726866207393 0 -0.48228606405114133 -0.32394196566145228 0 -0.5 -0.31630726866207393 0 -0.50000000000000044 -0.34355028591713549 0 -0.48228606405114133 -0.32394196566145228 0 -0.50000000000000044 -0.34355028591713549 0 -0.48003313406807752 -0.34309911658647241 0 -0.46427043802040058 -0.33083466787416271 0 -0.48228606405114133 -0.32394196566145228 0 -0.48003313406807752 -0.34309911658647241 0 -0.48003313406807752 -0.34309911658647241 0 -0.48537838487731622 -0.36234249421865139 0 -0.4583445361970821 -0.35851813146466682 0 -0.50000000000000044 -0.34355028591713549 0 -0.48003313406807752 -0.34309911658647241 0 -0.48537838487731622 -0.36234249421865139 0 -0.50000000000000044 -0.34355028591713549 0 -0.48537838487731622 -0.36234249421865139 0 -0.4883321049493678 -0.38790604386507432 0 -0.48537838487731622 -0.36234249421865139 0 -0.5 -0.37312079121576153 0 -0.50000000000000044 -0.34355028591713549 0 -0.48537838487731622 -0.36234249421865139 0 -0.5 -0.37312079121576153 0 -0.47075676975463171 -0.38113470252016701 0 -0.48537838487731622 -0.36234249421865139 0 -0.47075676975463171 -0.38113470252016701 0 -0.48537838487731622 -0.36234249421865139 0 -0.4583445361970821 -0.35851813146466682 0 -0.47075676975463171 -0.38113470252016701 0 -0.45534916411423582 -0.38028783056125859 0 -0.4583445361970821 -0.35851813146466682 0 -0.46427043802040058 -0.33083466787416271 0 -0.48003313406807752 -0.34309911658647241 0 -0.4583445361970821 -0.35851813146466682 0 -0.44403122776101861 -0.33461555202865251 0 -0.4583445361970821 -0.35851813146466682 0 -0.43264971640145011 -0.35177311351288282 0 -0.43616019587328209 -0.38157157743851777 0 -0.4583445361970821 -0.35851813146466682 0 -0.43264971640145011 -0.35177311351288282 0 -0.45534916411423582 -0.38028783056125859 0 -0.43616019587328209 -0.38157157743851777 0 -0.4583445361970821 -0.35851813146466682 0 -0.43616019587328209 -0.38157157743851777 0 -0.43264971640145011 -0.35177311351288282 0 -0.41788829201222921 -0.37272081648283412 0 -0.43616019587328209 -0.38157157743851777 0 -0.43264971640145011 -0.35177311351288282 0 -0.43264971640145011 -0.35177311351288282 0 -0.40695425668811269 -0.35493513241763769 0 -0.41247654984925081 -0.33272295519062561 0 -0.43264971640145011 -0.35177311351288282 0 -0.40695425668811269 -0.35493513241763769 0 -0.41788829201222921 -0.37272081648283412 0 -0.40695425668811269 -0.35493513241763769 0 -0.41788829201222921 -0.37272081648283412 0 -0.39980969622557327 -0.37437819793062271 0 -0.39980969622557327 -0.37437819793062271 0 -0.38362851085855842 -0.34945982121009861 0 -0.40695425668811269 -0.35493513241763769 0 -0.39980969622557327 -0.37437819793062271 0 -0.38362851085855842 -0.34945982121009861 0 -0.39980969622557327 -0.37437819793062271 0 -0.38013556338091581 -0.36944098472372 0 -0.38362851085855842 -0.34945982121009861 0 -0.38013556338091581 -0.36944098472372 0 -0.38362851085855842 -0.34945982121009861 0 -0.36396400871901879 -0.35719645952847712 0 -0.40695425668811269 -0.35493513241763769 0 -0.38362851085855842 -0.34945982121009861 0 -0.41247654984925081 -0.33272295519062561 0 -0.38362851085855842 -0.34945982121009861 0 -0.38966830201910818 -0.32283827683275468 0 -0.41247654984925081 -0.33272295519062561 0 -0.38362851085855842 -0.34945982121009861 0 -0.38966830201910818 -0.32283827683275468 0 -0.36744732549154352 -0.32454144448957428 0 -0.38362851085855842 -0.34945982121009861 0 -0.36744732549154352 -0.32454144448957428 0 -0.38966830201910818 -0.32283827683275468 0 -0.37928082433367249 -0.30325537234122701 0 -0.36744732549154352 -0.32454144448957428 0 -0.38966830201910818 -0.32283827683275468 0 -0.41247654984925081 -0.33272295519062561 0 -0.40550829956251588 -0.30421179093224793 0 -0.41247654984925081 -0.33272295519062561 0 -0.43725969470805848 -0.31284853876858759 0 -0.40550829956251588 -0.30421179093224793 0 -0.44403122776101861 -0.33461555202865251 0 -0.43264971640145011 -0.35177311351288282 0 -0.41247654984925081 -0.33272295519062561 0 -0.44403122776101861 -0.33461555202865251 0 -0.41247654984925081 -0.33272295519062561 0 -0.43725969470805848 -0.31284853876858759 0 -0.43725969470805848 -0.31284853876858759 0 -0.42592742839393849 -0.29116856846121192 0 -0.40550829956251588 -0.30421179093224793 0 -0.44603258944368562 -0.28901161139440978 0 -0.43725969470805848 -0.31284853876858759 0 -0.42592742839393849 -0.29116856846121192 0 -0.44603258944368562 -0.28901161139440978 0 -0.42592742839393849 -0.29116856846121192 0 -0.43164948357153182 -0.27409120386146812 0 -0.42592742839393849 -0.29116856846121192 0 -0.40550829956251588 -0.30421179093224793 0 -0.40918707468390031 -0.27567969734934578 0 -0.38966830201910818 -0.32283827683275468 0 -0.40550829956251588 -0.30421179093224793 0 -0.37928082433367249 -0.30325537234122701 0 -0.37928082433367249 -0.30325537234122701 0 -0.38693023636611201 -0.28172831869762638 0 -0.36174965573705348 -0.27928123273452921 0 -0.40550829956251588 -0.30421179093224793 0 -0.37928082433367249 -0.30325537234122701 0 -0.38693023636611201 -0.28172831869762638 0 -0.40550829956251588 -0.30421179093224793 0 -0.38693023636611201 -0.28172831869762638 0 -0.40918707468390031 -0.27567969734934578 0 -0.39176374497672323 -0.26434019072901749 0 -0.40370709189037229 -0.25715661138904972 0 -0.40918707468390031 -0.27567969734934578 0 -0.38693023636611201 -0.28172831869762638 0 -0.39176374497672323 -0.26434019072901749 0 -0.40918707468390031 -0.27567969734934578 0 -0.38693023636611201 -0.28172831869762638 0 -0.39176374497672323 -0.26434019072901749 0 -0.37082043854602398 -0.25836979014094658 0 -0.39176374497672323 -0.26434019072901749 0 -0.37082043854602398 -0.25836979014094658 0 -0.38817388339720738 -0.2487665360681196 0 -0.39176374497672323 -0.26434019072901749 0 -0.40370709189037229 -0.25715661138904972 0 -0.38817388339720738 -0.2487665360681196 0 -0.40370709189037229 -0.25715661138904972 0 -0.42084211708157182 -0.25502193243370908 0 -0.40918707468390031 -0.27567969734934578 0 -0.40370709189037229 -0.25715661138904972 0 -0.42084211708157182 -0.25502193243370908 0 -0.40418092522890731 -0.243695377048708 0 -0.42084211708157182 -0.25502193243370908 0 -0.40918707468390031 -0.27567969734934578 0 -0.43164948357153182 -0.27409120386146812 0 -0.42592742839393849 -0.29116856846121192 0 -0.40918707468390031 -0.27567969734934578 0 -0.43164948357153182 -0.27409120386146812 0 -0.44193441075943318 -0.2576287881938828 0 -0.42084211708157182 -0.25502193243370908 0 -0.438414761385786 -0.24141568151772891 0 -0.44193441075943318 -0.2576287881938828 0 -0.42084211708157182 -0.25502193243370908 0 -0.43164948357153182 -0.27409120386146812 0 -0.33508495475751371 -0.27470469104852607 0 -0.3189037693904988 -0.24978631432800211 0 -0.33508495475751371 -0.27470469104852607 0 -0.3100812481319446 -0.26514203783175311 0 -0.3189037693904988 -0.24978631432800211 0 -0.33508495475751371 -0.27470469104852607 0 -0.30920298641626931 -0.28465622879909752 0 -0.3100812481319446 -0.26514203783175311 0 -0.33508495475751371 -0.27470469104852607 0 -0.34533675118298179 -0.25622516502635118 0 -0.3189037693904988 -0.24978631432800211 0 -0.34533675118298179 -0.25622516502635118 0 -0.37082043854602398 -0.25836979014094658 0 -0.35226490790162379 -0.23807996287696501 0 -0.34533675118298179 -0.25622516502635118 0 -0.37082043854602398 -0.25836979014094658 0 -0.36174965573705348 -0.27928123273452921 0 -0.38693023636611201 -0.28172831869762638 0 -0.37082043854602398 -0.25836979014094658 0 -0.36174965573705348 -0.27928123273452921 0 -0.33508495475751371 -0.27470469104852607 0 -0.34533675118298179 -0.25622516502635118 0 -0.36174965573705348 -0.27928123273452921 0 -0.33508495475751371 -0.27470469104852607 0 -0.36174965573705348 -0.27928123273452921 0 -0.3512661401245285 -0.29962306776905018 0 -0.37928082433367249 -0.30325537234122701 0 -0.36174965573705348 -0.27928123273452921 0 -0.3512661401245285 -0.29962306776905018 0 -0.37928082433367249 -0.30325537234122701 0 -0.3512661401245285 -0.29962306776905018 0 -0.36744732549154352 -0.32454144448957428 0 -0.3512661401245285 -0.29962306776905018 0 -0.36744732549154352 -0.32454144448957428 0 -0.3512661401245285 -0.29962306776905018 0 -0.32555296372067932 -0.30136356962659511 0 -0.33247271848405452 -0.32029207987076558 0 -0.33508495475751371 -0.27470469104852607 0 -0.3512661401245285 -0.29962306776905018 0 -0.32555296372067932 -0.30136356962659511 0 -0.33508495475751371 -0.27470469104852607 0 -0.3512661401245285 -0.29962306776905018 0 -0.33508495475751371 -0.27470469104852607 0 -0.32555296372067932 -0.30136356962659511 0 -0.30920298641626931 -0.28465622879909752 0 -0.32555296372067932 -0.30136356962659511 0 -0.30383941978591961 -0.31159696005529208 0 -0.30920298641626931 -0.28465622879909752 0 -0.32555296372067932 -0.30136356962659511 0 -0.32016422140559608 -0.32178759332460533 0 -0.30383941978591961 -0.31159696005529208 0 -0.32555296372067932 -0.30136356962659511 0 -0.32016422140559608 -0.32178759332460533 0 -0.33247271848405452 -0.32029207987076558 0 -0.32016422140559608 -0.32178759332460533 0 -0.3174888352055536 -0.33389453222350429 0 -0.30383941978591961 -0.31159696005529208 0 -0.32016422140559608 -0.32178759332460533 0 -0.32723159436537469 -0.32939334071665161 0 -0.33247271848405452 -0.32029207987076558 0 -0.3208967479677059 -0.33416495433803811 0 -0.32887849459998042 -0.33832318458547589 0 -0.32843851460801321 -0.35178183795704859 0 -0.3174888352055536 -0.33389453222350429 0 -0.32843851460801321 -0.35178183795704859 0 -0.3174888352055536 -0.33389453222350429 0 -0.3208967479677059 -0.33416495433803811 0 -0.32843851460801321 -0.35178183795704859 0 -0.32016422140559608 -0.32178759332460533 0 -0.3174888352055536 -0.33389453222350429 0 -0.3208967479677059 -0.33416495433803811 0 -0.3174888352055536 -0.33389453222350429 0 -0.3208967479677059 -0.33416495433803811 0 -0.32723159436537469 -0.32939334071665161 0 -0.3208967479677059 -0.33416495433803811 0 -0.32887849459998042 -0.33832318458547589 0 -0.32016422140559608 -0.32178759332460533 0 -0.32723159436537469 -0.32939334071665161 0 -0.3208967479677059 -0.33416495433803811 0 -0.32723159436537469 -0.32939334071665161 0 -0.33374578936953653 -0.33239889146437329 0 -0.32887849459998042 -0.33832318458547589 0 -0.33504633106463449 -0.34085817350142572 0 -0.32887849459998042 -0.33832318458547589 0 -0.32843851460801321 -0.35178183795704859 0 -0.33374578936953653 -0.33239889146437329 0 -0.33504633106463449 -0.34085817350142572 0 -0.32887849459998042 -0.33832318458547589 0 -0.33504633106463449 -0.34085817350142572 0 -0.34242832719896199 -0.33537006363835598 0 -0.34303387276714659 -0.34683718437178779 0 -0.33374578936953653 -0.33239889146437329 0 -0.33504633106463449 -0.34085817350142572 0 -0.34242832719896199 -0.33537006363835598 0 -0.33374578936953653 -0.33239889146437329 0 -0.34242832719896199 -0.33537006363835598 0 -0.34048878138025152 -0.32687063331395111 0 -0.34048878138025152 -0.32687063331395111 0 -0.33247271848405452 -0.32029207987076558 0 -0.35053366149026749 -0.31978014520071391 0 -0.33374578936953653 -0.33239889146437329 0 -0.34048878138025152 -0.32687063331395111 0 -0.33247271848405452 -0.32029207987076558 0 -0.32723159436537469 -0.32939334071665161 0 -0.33374578936953653 -0.33239889146437329 0 -0.33247271848405452 -0.32029207987076558 0 -0.3512661401245285 -0.29962306776905018 0 -0.35053366149026749 -0.31978014520071391 0 -0.36744732549154352 -0.32454144448957428 0 -0.3512661401245285 -0.29962306776905018 0 -0.33247271848405452 -0.32029207987076558 0 -0.35053366149026749 -0.31978014520071391 0 -0.35053366149026749 -0.31978014520071391 0 -0.35654714823429318 -0.32767327457409129 0 -0.36744732549154352 -0.32454144448957428 0 -0.34048878138025152 -0.32687063331395111 0 -0.35053366149026749 -0.31978014520071391 0 -0.34857105182930892 -0.32841119419887882 0 -0.35053366149026749 -0.31978014520071391 0 -0.35654714823429318 -0.32767327457409129 0 -0.34857105182930892 -0.32841119419887882 0 -0.35654714823429318 -0.32767327457409129 0 -0.36744732549154352 -0.32454144448957428 0 -0.36364038885315408 -0.33148295250072168 0 -0.36994338812964012 -0.34242788177023642 0 -0.36364038885315408 -0.33148295250072168 0 -0.36396400871901879 -0.35719645952847712 0 -0.38362851085855842 -0.34945982121009861 0 -0.36744732549154352 -0.32454144448957428 0 -0.36994338812964012 -0.34242788177023642 0 -0.36744732549154352 -0.32454144448957428 0 -0.36994338812964012 -0.34242788177023642 0 -0.36364038885315408 -0.33148295250072168 0 -0.36364038885315408 -0.33148295250072168 0 -0.35254331350719242 -0.33415063648056759 0 -0.35352779610631679 -0.34474568744966899 0 -0.35654714823429318 -0.32767327457409129 0 -0.36364038885315408 -0.33148295250072168 0 -0.35254331350719242 -0.33415063648056759 0 -0.35654714823429318 -0.32767327457409129 0 -0.35254331350719242 -0.33415063648056759 0 -0.34857105182930892 -0.32841119419887882 0 -0.34242832719896199 -0.33537006363835598 0 -0.34048878138025152 -0.32687063331395111 0 -0.34857105182930892 -0.32841119419887882 0 -0.34242832719896199 -0.33537006363835598 0 -0.35254331350719242 -0.33415063648056759 0 -0.34857105182930892 -0.32841119419887882 0 -0.34242832719896199 -0.33537006363835598 0 -0.35254331350719242 -0.33415063648056759 0 -0.34821775864965449 -0.34021599445143519 0 -0.34242832719896199 -0.33537006363835598 0 -0.34821775864965449 -0.34021599445143519 0 -0.34303387276714659 -0.34683718437178779 0 -0.35254331350719242 -0.33415063648056759 0 -0.34821775864965449 -0.34021599445143519 0 -0.35352779610631679 -0.34474568744966899 0 -0.34821775864965449 -0.34021599445143519 0 -0.35352779610631679 -0.34474568744966899 0 -0.34303387276714659 -0.34683718437178779 0 -0.34463086268060389 -0.35886381424224839 0 -0.35352779610631679 -0.34474568744966899 0 -0.36396400871901879 -0.35719645952847712 0 -0.34463086268060389 -0.35886381424224839 0 -0.35352779610631679 -0.34474568744966899 0 -0.34303387276714659 -0.34683718437178779 0 -0.36364038885315408 -0.33148295250072168 0 -0.36396400871901879 -0.35719645952847712 0 -0.38362851085855842 -0.34945982121009861 0 -0.36994338812964012 -0.34242788177023642 0 -0.36396400871901879 -0.35719645952847712 0 -0.36364038885315408 -0.33148295250072168 0 -0.35352779610631679 -0.34474568744966899 0 -0.36396400871901879 -0.35719645952847712 0 -0.36396400871901879 -0.35719645952847712 0 -0.3514981406589372 -0.37274301664105541 0 -0.36428762858488373 -0.38290996655623272 0 -0.36396400871901879 -0.35719645952847712 0 -0.36428762858488373 -0.38290996655623272 0 -0.38013556338091581 -0.36944098472372 0 -0.36396400871901879 -0.35719645952847712 0 -0.36428762858488373 -0.38290996655623272 0 -0.34463086268060389 -0.35886381424224839 0 -0.3514981406589372 -0.37274301664105541 0 -0.33778932708296439 -0.37474807844114272 0 -0.34463086268060389 -0.35886381424224839 0 -0.36396400871901879 -0.35719645952847712 0 -0.3514981406589372 -0.37274301664105541 0 -0.34463086268060389 -0.35886381424224839 0 -0.33778932708296439 -0.37474807844114272 0 -0.32978215628937202 -0.36497610263420599 0 -0.33778932708296439 -0.37474807844114272 0 -0.32978215628937202 -0.36497610263420599 0 -0.32464683095828362 -0.37545780533972212 0 -0.34463086268060389 -0.35886381424224839 0 -0.32978215628937202 -0.36497610263420599 0 -0.32843851460801321 -0.35178183795704859 0 -0.34463086268060389 -0.35886381424224839 0 -0.34303387276714659 -0.34683718437178779 0 -0.32843851460801321 -0.35178183795704859 0 -0.33504633106463449 -0.34085817350142572 0 -0.34303387276714659 -0.34683718437178779 0 -0.32843851460801321 -0.35178183795704859 0 -0.3174888352055536 -0.33389453222350429 0 -0.32843851460801321 -0.35178183795704859 0 -0.31123666809736078 -0.34956404808576691 0 -0.32843851460801321 -0.35178183795704859 0 -0.31340524611699477 -0.36402897719086802 0 -0.31123666809736078 -0.34956404808576691 0 -0.32978215628937202 -0.36497610263420599 0 -0.32843851460801321 -0.35178183795704859 0 -0.31340524611699477 -0.36402897719086802 0 -0.32978215628937202 -0.36497610263420599 0 -0.31340524611699477 -0.36402897719086802 0 -0.32464683095828362 -0.37545780533972212 0 -0.31340524611699477 -0.36402897719086802 0 -0.31312815795657251 -0.37699599517614241 0 -0.32464683095828362 -0.37545780533972212 0 -0.31340524611699477 -0.36402897719086802 0 -0.2994842500877567 -0.36731222773309269 0 -0.29835090422819582 -0.35596481158252252 0 -0.2994842500877567 -0.36731222773309269 0 -0.30404857326831358 -0.37555070314648481 0 -0.29508629445085349 -0.37590731650566728 0 -0.31340524611699477 -0.36402897719086802 0 -0.2994842500877567 -0.36731222773309269 0 -0.30404857326831358 -0.37555070314648481 0 -0.31340524611699477 -0.36402897719086802 0 -0.31312815795657251 -0.37699599517614241 0 -0.30404857326831358 -0.37555070314648481 0 -0.31340524611699477 -0.36402897719086802 0 -0.31123666809736078 -0.34956404808576691 0 -0.29835090422819582 -0.35596481158252252 0 -0.31123666809736078 -0.34956404808576691 0 -0.29798517029818289 -0.34472962781916278 0 -0.29835090422819582 -0.35596481158252252 0 -0.29798517029818289 -0.34472962781916278 0 -0.29835090422819582 -0.35596481158252252 0 -0.28494247518401777 -0.35579248255706952 0 -0.29798517029818289 -0.34472962781916278 0 -0.28494247518401777 -0.35579248255706952 0 -0.28157091378684052 -0.34110573889256213 0 -0.29835090422819582 -0.35596481158252252 0 -0.28494247518401777 -0.35579248255706952 0 -0.29003220663510743 -0.36625038364732337 0 -0.28494247518401777 -0.35579248255706952 0 -0.29003220663510743 -0.36625038364732337 0 -0.28109815828678197 -0.36443749288784072 0 -0.2994842500877567 -0.36731222773309269 0 -0.29835090422819582 -0.35596481158252252 0 -0.29003220663510743 -0.36625038364732337 0 -0.29003220663510743 -0.36625038364732337 0 -0.28506311374312993 -0.37443088688932152 0 -0.29508629445085349 -0.37590731650566728 0 -0.2994842500877567 -0.36731222773309269 0 -0.29003220663510743 -0.36625038364732337 0 -0.29508629445085349 -0.37590731650566728 0 -0.28506311374312993 -0.37443088688932152 0 -0.27856746430867613 -0.37454199244620301 0 -0.28109815828678197 -0.36443749288784072 0 -0.29003220663510743 -0.36625038364732337 0 -0.28506311374312993 -0.37443088688932152 0 -0.28109815828678197 -0.36443749288784072 0 -0.27856746430867613 -0.37454199244620301 0 -0.26688553156297862 -0.351171718899286 0 -0.26688553156297862 -0.351171718899286 0 -0.26761411299937182 -0.37710458038493011 0 -0.27856746430867613 -0.37454199244620301 0 -0.26688553156297862 -0.351171718899286 0 -0.26761411299937182 -0.37710458038493011 0 -0.27856746430867613 -0.37454199244620301 0 -0.28109815828678197 -0.36443749288784072 0 -0.26688553156297862 -0.351171718899286 0 -0.25718802529817569 -0.35632830299104301 0 -0.26761411299937182 -0.37710458038493011 0 -0.2452151844951698 -0.37172913242620642 0 -0.25718802529817569 -0.35632830299104301 0 -0.26688553156297862 -0.351171718899286 0 -0.26761411299937182 -0.37710458038493011 0 -0.25718802529817569 -0.35632830299104301 0 -0.25837684828802121 -0.34782469575198333 0 -0.24660059497272549 -0.35005426434992792 0 -0.25837684828802121 -0.34782469575198333 0 -0.25527054836466467 -0.33970649141258402 0 -0.24660059497272549 -0.35005426434992792 0 -0.25718802529817569 -0.35632830299104301 0 -0.26616031637965709 -0.34972089072011892 0 -0.26688553156297862 -0.351171718899286 0 -0.25718802529817569 -0.35632830299104301 0 -0.25837684828802121 -0.34782469575198333 0 -0.26616031637965709 -0.34972089072011892 0 -0.25837684828802121 -0.34782469575198333 0 -0.26616031637965709 -0.34972089072011892 0 -0.2666647564248828 -0.34331352928624259 0 -0.28494247518401777 -0.35579248255706952 0 -0.26688553156297862 -0.351171718899286 0 -0.27482976757456729 -0.3470163301598238 0 -0.26688553156297862 -0.351171718899286 0 -0.2666647564248828 -0.34331352928624259 0 -0.28494247518401777 -0.35579248255706952 0 -0.28109815828678197 -0.36443749288784072 0 -0.26688553156297862 -0.351171718899286 0 -0.26616031637965709 -0.34972089072011892 0 -0.26688553156297862 -0.351171718899286 0 -0.2666647564248828 -0.34331352928624259 0 -0.26688553156297862 -0.351171718899286 0 -0.27482976757456729 -0.3470163301598238 0 -0.2666647564248828 -0.34331352928624259 0 -0.26616031637965709 -0.34972089072011892 0 -0.26688553156297862 -0.351171718899286 0 -0.27482976757456729 -0.3470163301598238 0 -0.2666647564248828 -0.34331352928624259 0 -0.28157091378684052 -0.34110573889256213 0 -0.28494247518401777 -0.35579248255706952 0 -0.27482976757456729 -0.3470163301598238 0 -0.28157091378684052 -0.34110573889256213 0 -0.27115361536870541 -0.33021777492360049 0 -0.2666647564248828 -0.34331352928624259 0 -0.28157091378684052 -0.34110573889256213 0 -0.27115361536870541 -0.33021777492360049 0 -0.2666647564248828 -0.34331352928624259 0 -0.25527054836466467 -0.33970649141258402 0 -0.27115361536870541 -0.33021777492360049 0 -0.24798600545028121 -0.32837939627364943 0 -0.27115361536870541 -0.33021777492360049 0 -0.25527054836466467 -0.33970649141258402 0 -0.24798600545028121 -0.32837939627364943 0 -0.25837684828802121 -0.34782469575198333 0 -0.2666647564248828 -0.34331352928624259 0 -0.25527054836466467 -0.33970649141258402 0 -0.25942175835488829 -0.31144766870469182 0 -0.24838889559803151 -0.32207614467911672 0 -0.24943431263974661 -0.30572050363919068 0 -0.2704771497283201 -0.31816111970868372 0 -0.24838889559803151 -0.32207614467911672 0 -0.27115361536870541 -0.33021777492360049 0 -0.25998324817153928 -0.32475506786800667 0 -0.24798600545028121 -0.32837939627364943 0 -0.25998324817153928 -0.32475506786800667 0 -0.2704771497283201 -0.31816111970868372 0 -0.24838889559803151 -0.32207614467911672 0 -0.2704771497283201 -0.31816111970868372 0 -0.25942175835488829 -0.31144766870469182 0 -0.24838889559803151 -0.32207614467911672 0 -0.25998324817153928 -0.32475506786800667 0 -0.24798600545028121 -0.32837939627364943 0 -0.24838889559803151 -0.32207614467911672 0 -0.2704771497283201 -0.31816111970868372 0 -0.2667122578417972 -0.30865307118202212 0 -0.25942175835488829 -0.31144766870469182 0 -0.27115361536870541 -0.33021777492360049 0 -0.25998324817153928 -0.32475506786800667 0 -0.2704771497283201 -0.31816111970868372 0 -0.27115361536870541 -0.33021777492360049 0 -0.2704771497283201 -0.31816111970868372 0 -0.28359175958363969 -0.32349323858758322 0 -0.29256540385860941 -0.31424609473825338 0 -0.28359175958363969 -0.32349323858758322 0 -0.2993813925689166 -0.32276526352010559 0 -0.2704771497283201 -0.31816111970868372 0 -0.29256540385860941 -0.31424609473825338 0 -0.28359175958363969 -0.32349323858758322 0 -0.29432122528712951 -0.33205615357355228 0 -0.2993813925689166 -0.32276526352010559 0 -0.2704771497283201 -0.31816111970868372 0 -0.29256540385860941 -0.31424609473825338 0 -0.28359175958363969 -0.32349323858758322 0 -0.27115361536870541 -0.33021777492360049 0 -0.28359175958363969 -0.32349323858758322 0 -0.29432122528712951 -0.33205615357355228 0 -0.29798517029818289 -0.34472962781916278 0 -0.29432122528712951 -0.33205615357355228 0 -0.28157091378684052 -0.34110573889256213 0 -0.27115361536870541 -0.33021777492360049 0 -0.29432122528712951 -0.33205615357355228 0 -0.27115361536870541 -0.33021777492360049 0 -0.29432122528712951 -0.33205615357355228 0 -0.28157091378684052 -0.34110573889256213 0 -0.3174888352055536 -0.33389453222350429 0 -0.31123666809736078 -0.34956404808576691 0 -0.29798517029818289 -0.34472962781916278 0 -0.3174888352055536 -0.33389453222350429 0 -0.29798517029818289 -0.34472962781916278 0 -0.29432122528712951 -0.33205615357355228 0 -0.3174888352055536 -0.33389453222350429 0 -0.29432122528712951 -0.33205615357355228 0 -0.2993813925689166 -0.32276526352010559 0 -0.3174888352055536 -0.33389453222350429 0 -0.29432122528712951 -0.33205615357355228 0 -0.3174888352055536 -0.33389453222350429 0 -0.30383941978591961 -0.31159696005529208 0 -0.3174888352055536 -0.33389453222350429 0 -0.2993813925689166 -0.32276526352010559 0 -0.30383941978591961 -0.31159696005529208 0 -0.29256540385860941 -0.31424609473825338 0 -0.2993813925689166 -0.32276526352010559 0 -0.30383941978591961 -0.31159696005529208 0 -0.30383941978591961 -0.31159696005529208 0 -0.29019000436628589 -0.28929938788707982 0 -0.30383941978591961 -0.31159696005529208 0 -0.30920298641626931 -0.28465622879909752 0 -0.29019000436628589 -0.28929938788707982 0 -0.29256540385860941 -0.31424609473825338 0 -0.29019000436628589 -0.28929938788707982 0 -0.27457987526904032 -0.30353212795570578 0 -0.29256540385860941 -0.31424609473825338 0 -0.30383941978591961 -0.31159696005529208 0 -0.29019000436628589 -0.28929938788707982 0 -0.2704771497283201 -0.31816111970868372 0 -0.29256540385860941 -0.31424609473825338 0 -0.27457987526904032 -0.30353212795570578 0 -0.27457987526904032 -0.30353212795570578 0 -0.26237024801494019 -0.30147136835900717 0 -0.26543825985268399 -0.28820558990375061 0 -0.27457987526904032 -0.30353212795570578 0 -0.2667122578417972 -0.30865307118202212 0 -0.26237024801494019 -0.30147136835900717 0 -0.2704771497283201 -0.31816111970868372 0 -0.27457987526904032 -0.30353212795570578 0 -0.2667122578417972 -0.30865307118202212 0 -0.2667122578417972 -0.30865307118202212 0 -0.25942175835488829 -0.31144766870469182 0 -0.26237024801494019 -0.30147136835900717 0 -0.26237024801494019 -0.30147136835900717 0 -0.25047972968146048 -0.28936486259926458 0 -0.24943431263974661 -0.30572050363919068 0 -0.25942175835488829 -0.31144766870469182 0 -0.26237024801494019 -0.30147136835900717 0 -0.24943431263974661 -0.30572050363919068 0 -0.26237024801494019 -0.30147136835900717 0 -0.25047972968146048 -0.28936486259926458 0 -0.26543825985268399 -0.28820558990375061 0 -0.25047972968146048 -0.28936486259926458 0 -0.26543825985268399 -0.28820558990375061 0 -0.29019000436628589 -0.28929938788707982 0 -0.26543825985268399 -0.28820558990375061 0 -0.27654058894665179 -0.26700181571886777 0 -0.29019000436628589 -0.28929938788707982 0 -0.27457987526904032 -0.30353212795570578 0 -0.26543825985268399 -0.28820558990375061 0 -0.27654058894665179 -0.26700181571886777 0 -0.25198058485566999 -0.2658838521481427 0 -0.25047972968146048 -0.28936486259926458 0 -0.25198058485566999 -0.2658838521481427 0 -0.26543825985268399 -0.28820558990375061 0 -0.27654058894665179 -0.26700181571886777 0 -0.25198058485566999 -0.2658838521481427 0 -0.25047972968146048 -0.28936486259926458 0 -0.26543825985268399 -0.28820558990375061 0 -0.25198058485566999 -0.2658838521481427 0 -0.25198058485566999 -0.2658838521481427 0 -0.26178616389492437 -0.25675349054478341 0 -0.26929413739218899 -0.26178342190567377 0 -0.25198058485566999 -0.2658838521481427 0 -0.26178616389492437 -0.25675349054478341 0 -0.25322281665070667 -0.2464490270809187 0 -0.25198058485566999 -0.2658838521481427 0 -0.25322281665070667 -0.2464490270809187 0 -0.27505490634448831 -0.25489516949870428 0 -0.25322281665070667 -0.2464490270809187 0 -0.25198058485566999 -0.2658838521481427 0 -0.2508749388500553 -0.2455407076959211 0 -0.25322281665070667 -0.2464490270809187 0 -0.26178616389492437 -0.25675349054478341 0 -0.27505490634448831 -0.25489516949870428 0 -0.25322281665070667 -0.2464490270809187 0 -0.26178616389492437 -0.25675349054478341 0 -0.26929413739218899 -0.26178342190567377 0 -0.27505490634448831 -0.25489516949870428 0 -0.27654058894665179 -0.26700181571886777 0 -0.25198058485566999 -0.2658838521481427 0 -0.26929413739218899 -0.26178342190567377 0 -0.26929413739218899 -0.26178342190567377 0 -0.27485786501698589 -0.26036600585048908 0 -0.27505490634448831 -0.25489516949870428 0 -0.27654058894665179 -0.26700181571886777 0 -0.27485786501698589 -0.26036600585048908 0 -0.2820820575756039 -0.25873353960661022 0 -0.27654058894665179 -0.26700181571886777 0 -0.26929413739218899 -0.26178342190567377 0 -0.27485786501698589 -0.26036600585048908 0 -0.27485786501698589 -0.26036600585048908 0 -0.27505490634448831 -0.25489516949870428 0 -0.2820820575756039 -0.25873353960661022 0 -0.27505490634448831 -0.25489516949870428 0 -0.2820820575756039 -0.25873353960661022 0 -0.2793983659123363 -0.24680434812365951 0 -0.2820820575756039 -0.25873353960661022 0 -0.29205543735114969 -0.26770804668109988 0 -0.29515909274429147 -0.24885490830203999 0 -0.2820820575756039 -0.25873353960661022 0 -0.29515909274429147 -0.24885490830203999 0 -0.2793983659123363 -0.24680434812365951 0 -0.27654058894665179 -0.26700181571886777 0 -0.2820820575756039 -0.25873353960661022 0 -0.29205543735114969 -0.26770804668109988 0 -0.27654058894665179 -0.26700181571886777 0 -0.29205543735114969 -0.26770804668109988 0 -0.29019000436628589 -0.28929938788707982 0 -0.27654058894665179 -0.26700181571886777 0 -0.29019000436628589 -0.28929938788707982 0 -0.27654058894665179 -0.26700181571886777 0 -0.29205543735114969 -0.26770804668109988 0 -0.30920298641626931 -0.28465622879909752 0 -0.29019000436628589 -0.28929938788707982 0 -0.29205543735114969 -0.26770804668109988 0 -0.30920298641626931 -0.28465622879909752 0 -0.29205543735114969 -0.26770804668109988 0 -0.3100812481319446 -0.26514203783175311 0 -0.3100812481319446 -0.26514203783175311 0 -0.29515909274429147 -0.24885490830203999 0 -0.3189037693904988 -0.24978631432800211 0 -0.29205543735114969 -0.26770804668109988 0 -0.3100812481319446 -0.26514203783175311 0 -0.29515909274429147 -0.24885490830203999 0 -0.32905033780901422 -0.47553543153031441 0 -0.3480475057536192 -0.4603936549466825 0 -0.33351204832956882 -0.44865088086465432 0 -0.32905033780901422 -0.47553543153031441 0 -0.3480475057536192 -0.4603936549466825 0 -0.33351204832956882 -0.44865088086465432 0 -0.3480475057536192 -0.4603936549466825 0 -0.34690193474071163 -0.43961388435966359 0 -0.33351204832956882 -0.44865088086465432 0 -0.34690193474071163 -0.43961388435966359 0 -0.3267591957831924 -0.43397589035626111 0 -0.31876577479992968 -0.4587245234531715 0 -0.31124630943522058 -0.43991760848764372 0 -0.33351204832956882 -0.44865088086465432 0 -0.32291646929252482 -0.44506772492938451 0 -0.31876577479992968 -0.4587245234531715 0 -0.32291646929252482 -0.44506772492938451 0 -0.31876577479992968 -0.4587245234531715 0 -0.31124630943522058 -0.43991760848764372 0 -0.31333973111258528 -0.45578348792971751 0 -0.31876577479992968 -0.4587245234531715 0 -0.31124630943522058 -0.43991760848764372 0 -0.33351204832956882 -0.44865088086465432 0 -0.32291646929252482 -0.44506772492938451 0 -0.3267591957831924 -0.43397589035626111 0 -0.32291646929252482 -0.44506772492938451 0 -0.3267591957831924 -0.43397589035626111 0 -0.31124630943522058 -0.43991760848764372 0 -0.31876577479992968 -0.4587245234531715 0 -0.32905033780901422 -0.47553543153031441 0 -0.31876577479992968 -0.4587245234531715 0 -0.3180778318635803 -0.46597238902575477 0 -0.32905033780901422 -0.47553543153031441 0 -0.33351204832956882 -0.44865088086465432 0 -0.31876577479992968 -0.4587245234531715 0 -0.32905033780901422 -0.47553543153031441 0 -0.31333973111258528 -0.45578348792971751 0 -0.31616846139980681 -0.46038193246827858 0 -0.31876577479992968 -0.4587245234531715 0 -0.31333973111258528 -0.45578348792971751 0 -0.31616846139980681 -0.46038193246827858 0 -0.31416255483058508 -0.46192534587239081 0 -0.31616846139980681 -0.46038193246827858 0 -0.31876577479992968 -0.4587245234531715 0 -0.3180778318635803 -0.46597238902575477 0 -0.31616846139980681 -0.46038193246827858 0 -0.3180778318635803 -0.46597238902575477 0 -0.31416255483058508 -0.46192534587239081 0 -0.3180778318635803 -0.46597238902575477 0 -0.31416255483058508 -0.46192534587239081 0 -0.31085015914977743 -0.46509742160688627 0 -0.3180778318635803 -0.46597238902575477 0 -0.31085015914977743 -0.46509742160688627 0 -0.31087555393683258 -0.4702526784341558 0 -0.31431567213297879 -0.47635213299439028 0 -0.32905033780901422 -0.47553543153031441 0 -0.30569335903137551 -0.49415221458717562 0 -0.3180778318635803 -0.46597238902575477 0 -0.31431567213297879 -0.47635213299439028 0 -0.31087555393683258 -0.4702526784341558 0 -0.3180778318635803 -0.46597238902575477 0 -0.31431567213297879 -0.47635213299439028 0 -0.32905033780901422 -0.47553543153031441 0 -0.32905033780901422 -0.47553543153031441 0 -0.30569335903137551 -0.49415221458717562 0 -0.31294058388513291 -0.5 0 -0.34127926798998809 -0.50000000000000455 0 -0.32905033780901422 -0.47553543153031441 0 -0.31294058388513291 -0.5 0 -0.32905033780901422 -0.47553543153031441 0 -0.30569335903137551 -0.49415221458717562 0 -0.34127926798998809 -0.50000000000000455 0 -0.32905033780901422 -0.47553543153031441 0 -0.34127926798998809 -0.50000000000000455 0 -0.32905033780901422 -0.47553543153031441 0 -0.35125408896010191 -0.48130703085784882 0 -0.32905033780901422 -0.47553543153031441 0 -0.35125408896010191 -0.48130703085784882 0 -0.3480475057536192 -0.4603936549466825 0 -0.35125408896010191 -0.48130703085784882 0 -0.37135216357044099 -0.47060606781224179 0 -0.3480475057536192 -0.4603936549466825 0 -0.34127926798998809 -0.50000000000000455 0 -0.35125408896010191 -0.48130703085784882 0 -0.36654116967744782 -0.5 0 -0.35125408896010191 -0.48130703085784882 0 -0.36654116967744782 -0.5 0 -0.37135216357044099 -0.47060606781224179 0 -0.37135216357044099 -0.47060606781224179 0 -0.3480475057536192 -0.4603936549466825 0 -0.36704467369823218 -0.44525187836306068 0 -0.34690193474071163 -0.43961388435966359 0 -0.36704467369823218 -0.44525187836306068 0 -0.34690193474071163 -0.43961388435966359 0 -0.36704467369823218 -0.44525187836306068 0 -0.36033688928553431 -0.43041587391044589 0 -0.3480475057536192 -0.4603936549466825 0 -0.36704467369823218 -0.44525187836306068 0 -0.3480475057536192 -0.4603936549466825 0 -0.34690193474071163 -0.43961388435966359 0 -0.36704467369823218 -0.44525187836306068 0 -0.36704467369823218 -0.44525187836306068 0 -0.37330325838241318 -0.44026344580857918 0 -0.36033688928553431 -0.43041587391044589 0 -0.36704467369823218 -0.44525187836306068 0 -0.37330325838241318 -0.44026344580857918 0 -0.37575964801685602 -0.42649861044394921 0 -0.37330325838241318 -0.44026344580857918 0 -0.36033688928553431 -0.43041587391044589 0 -0.37575964801685602 -0.42649861044394921 0 -0.36033688928553431 -0.43041587391044589 0 -0.36461124845074838 -0.40862347358398821 0 -0.38456322398183912 -0.41477434320696749 0 -0.37575964801685602 -0.42649861044394921 0 -0.36461124845074838 -0.40862347358398821 0 -0.36033688928553431 -0.43041587391044589 0 -0.36461124845074838 -0.40862347358398821 0 -0.35178232956435451 -0.4181451878061655 0 -0.36461124845074838 -0.40862347358398821 0 -0.35178232956435451 -0.4181451878061655 0 -0.34420593391995769 -0.40673362909477812 0 -0.35178232956435451 -0.4181451878061655 0 -0.34420593391995769 -0.40673362909477812 0 -0.33746982363463329 -0.41680293895614667 0 -0.36033688928553431 -0.43041587391044589 0 -0.35178232956435451 -0.4181451878061655 0 -0.34121659006652461 -0.42799594653213813 0 -0.34690193474071163 -0.43961388435966359 0 -0.36033688928553431 -0.43041587391044589 0 -0.34121659006652461 -0.42799594653213813 0 -0.3868188233733249 -0.39623745417092721 0 -0.36461124845074838 -0.40862347358398821 0 -0.36428762858488373 -0.38290996655623272 0 -0.36461124845074838 -0.40862347358398821 0 -0.36428762858488373 -0.38290996655623272 0 -0.36461124845074838 -0.40862347358398821 0 -0.36428762858488373 -0.38290996655623272 0 -0.34681887622721519 -0.38999676443717579 0 -0.36461124845074838 -0.40862347358398821 0 -0.34420593391995769 -0.40673362909477812 0 -0.34681887622721519 -0.38999676443717579 0 -0.3514981406589372 -0.37274301664105541 0 -0.33778932708296439 -0.37474807844114272 0 -0.34681887622721519 -0.38999676443717579 0 -0.3514981406589372 -0.37274301664105541 0 -0.36428762858488373 -0.38290996655623272 0 -0.34681887622721519 -0.38999676443717579 0 -0.33778932708296439 -0.37474807844114272 0 -0.33173939359807358 -0.38557913459320592 0 -0.32464683095828362 -0.37545780533972212 0 -0.33778932708296439 -0.37474807844114272 0 -0.34681887622721519 -0.38999676443717579 0 -0.33173939359807358 -0.38557913459320592 0 -0.34681887622721519 -0.38999676443717579 0 -0.33173939359807358 -0.38557913459320592 0 -0.33031241292630581 -0.39830520309499068 0 -0.34420593391995769 -0.40673362909477812 0 -0.34681887622721519 -0.38999676443717579 0 -0.33031241292630581 -0.39830520309499068 0 -0.33031241292630581 -0.39830520309499068 0 -0.32199171537488552 -0.40611463268051312 0 -0.33297128399350989 -0.40851053731481968 0 -0.34420593391995769 -0.40673362909477812 0 -0.33031241292630581 -0.39830520309499068 0 -0.33297128399350989 -0.40851053731481968 0 -0.33031241292630581 -0.39830520309499068 0 -0.32199171537488552 -0.40611463268051312 0 -0.31636312098346042 -0.39836090138096958 0 -0.32199171537488552 -0.40611463268051312 0 -0.31636312098346042 -0.39836090138096958 0 -0.31167076278691003 -0.40567377380089209 0 -0.31636312098346042 -0.39836090138096958 0 -0.31831978184625209 -0.38687201255389381 0 -0.30699970321256981 -0.3930401081684704 0 -0.33031241292630581 -0.39830520309499068 0 -0.31636312098346042 -0.39836090138096958 0 -0.31831978184625209 -0.38687201255389381 0 -0.33173939359807358 -0.38557913459320592 0 -0.33031241292630581 -0.39830520309499068 0 -0.31831978184625209 -0.38687201255389381 0 -0.31831978184625209 -0.38687201255389381 0 -0.31312815795657251 -0.37699599517614241 0 -0.30691944493147988 -0.38430128390744622 0 -0.31831978184625209 -0.38687201255389381 0 -0.31312815795657251 -0.37699599517614241 0 -0.32464683095828362 -0.37545780533972212 0 -0.33173939359807358 -0.38557913459320592 0 -0.31831978184625209 -0.38687201255389381 0 -0.32464683095828362 -0.37545780533972212 0 -0.34690193474071163 -0.43961388435966359 0 -0.34121659006652461 -0.42799594653213813 0 -0.3267591957831924 -0.43397589035626111 0 -0.34690193474071163 -0.43961388435966359 0 -0.3267591957831924 -0.43397589035626111 0 -0.32873101807543292 -0.42423242329410821 0 -0.34121659006652461 -0.42799594653213813 0 -0.33746982363463329 -0.41680293895614667 0 -0.32873101807543292 -0.42423242329410821 0 -0.34121659006652461 -0.42799594653213813 0 -0.3267591957831924 -0.43397589035626111 0 -0.35178232956435451 -0.4181451878061655 0 -0.34121659006652461 -0.42799594653213813 0 -0.33746982363463329 -0.41680293895614667 0 -0.34420593391995769 -0.40673362909477812 0 -0.33746982363463329 -0.41680293895614667 0 -0.33297128399350989 -0.40851053731481968 0 -0.33746982363463329 -0.41680293895614667 0 -0.33297128399350989 -0.40851053731481968 0 -0.32511263441019322 -0.41534640197834732 0 -0.32873101807543292 -0.42423242329410821 0 -0.33746982363463329 -0.41680293895614667 0 -0.32511263441019322 -0.41534640197834732 0 -0.32873101807543292 -0.42423242329410821 0 -0.32511263441019322 -0.41534640197834732 0 -0.32131697100375411 -0.42160560179579221 0 -0.32511263441019322 -0.41534640197834732 0 -0.32131697100375411 -0.42160560179579221 0 -0.31823136986878331 -0.41783793353448412 0 -0.32199171537488552 -0.40611463268051312 0 -0.32511263441019322 -0.41534640197834732 0 -0.31603189347818411 -0.41152256936292692 0 -0.32199171537488552 -0.40611463268051312 0 -0.33297128399350989 -0.40851053731481968 0 -0.32511263441019322 -0.41534640197834732 0 -0.32199171537488552 -0.40611463268051312 0 -0.31603189347818411 -0.41152256936292692 0 -0.31167076278691003 -0.40567377380089209 0 -0.32511263441019322 -0.41534640197834732 0 -0.31603189347818411 -0.41152256936292692 0 -0.31823136986878331 -0.41783793353448412 0 -0.32131697100375411 -0.42160560179579221 0 -0.31823136986878331 -0.41783793353448412 0 -0.31603288145060238 -0.42076726091804562 0 -0.31603189347818411 -0.41152256936292692 0 -0.31823136986878331 -0.41783793353448412 0 -0.31339969235371762 -0.41749744094558439 0 -0.31603189347818411 -0.41152256936292692 0 -0.31339969235371762 -0.41749744094558439 0 -0.30957358016137032 -0.41430511956611488 0 -0.31823136986878331 -0.41783793353448412 0 -0.31339969235371762 -0.41749744094558439 0 -0.31603288145060238 -0.42076726091804562 0 -0.31339969235371762 -0.41749744094558439 0 -0.31603288145060238 -0.42076726091804562 0 -0.31181049690629409 -0.42149517800592462 0 -0.32208397319386323 -0.43266728595152809 0 -0.30431275410608383 -0.4225761115647535 0 -0.31603288145060238 -0.42076726091804562 0 -0.31636151167829318 -0.42460197339880212 0 -0.31181049690629409 -0.42149517800592462 0 -0.31636151167829318 -0.42460197339880212 0 -0.32208397319386323 -0.43266728595152809 0 -0.30431275410608383 -0.4225761115647535 0 -0.32131697100375411 -0.42160560179579221 0 -0.31603288145060238 -0.42076726091804562 0 -0.31636151167829318 -0.42460197339880212 0 -0.32873101807543292 -0.42423242329410821 0 -0.32343241053922012 -0.42684761765096668 0 -0.3267591957831924 -0.43397589035626111 0 -0.32131697100375411 -0.42160560179579221 0 -0.31636151167829318 -0.42460197339880212 0 -0.32343241053922012 -0.42684761765096668 0 -0.31636151167829318 -0.42460197339880212 0 -0.32343241053922012 -0.42684761765096668 0 -0.32208397319386323 -0.43266728595152809 0 -0.32873101807543292 -0.42423242329410821 0 -0.32131697100375411 -0.42160560179579221 0 -0.32343241053922012 -0.42684761765096668 0 -0.3267591957831924 -0.43397589035626111 0 -0.32208397319386323 -0.43266728595152809 0 -0.32343241053922012 -0.42684761765096668 0 -0.3267591957831924 -0.43397589035626111 0 -0.32208397319386323 -0.43266728595152809 0 -0.32208397319386323 -0.43266728595152809 0 -0.30661645682567251 -0.42833789635286129 0 -0.3267591957831924 -0.43397589035626111 0 -0.32208397319386323 -0.43266728595152809 0 -0.31124630943522058 -0.43991760848764372 0 -0.32208397319386323 -0.43266728595152809 0 -0.30661645682567251 -0.42833789635286129 0 -0.31124630943522058 -0.43991760848764372 0 -0.29886429512377649 -0.43587364466474648 0 -0.30661645682567251 -0.42833789635286129 0 -0.2870126885815768 -0.42285076135908189 0 -0.30661645682567251 -0.42833789635286129 0 -0.31124630943522058 -0.43991760848764372 0 -0.29886429512377649 -0.43587364466474648 0 -0.30661645682567251 -0.42833789635286129 0 -0.31124630943522058 -0.43991760848764372 0 -0.32208397319386323 -0.43266728595152809 0 -0.30431275410608383 -0.4225761115647535 0 -0.30661645682567251 -0.42833789635286129 0 -0.30661645682567251 -0.42833789635286129 0 -0.3019313298000712 -0.42128253954003692 0 -0.2870126885815768 -0.42285076135908189 0 -0.30431275410608383 -0.4225761115647535 0 -0.30661645682567251 -0.42833789635286129 0 -0.3019313298000712 -0.42128253954003692 0 -0.30661645682567251 -0.42833789635286129 0 -0.3019313298000712 -0.42128253954003692 0 -0.30431275410608383 -0.4225761115647535 0 -0.3019313298000712 -0.42128253954003692 0 -0.30431275410608383 -0.4225761115647535 0 -0.30661645682567251 -0.42833789635286129 0 -0.31636151167829318 -0.42460197339880212 0 -0.30431275410608383 -0.4225761115647535 0 -0.31181049690629409 -0.42149517800592462 0 -0.31339969235371762 -0.41749744094558439 0 -0.31181049690629409 -0.42149517800592462 0 -0.30821247999377932 -0.41838332799774169 0 -0.30431275410608383 -0.4225761115647535 0 -0.30821247999377932 -0.41838332799774169 0 -0.30340196797411673 -0.4134627756573126 0 -0.30431275410608383 -0.4225761115647535 0 -0.3019313298000712 -0.42128253954003692 0 -0.29468793392460629 -0.39850349922703771 0 -0.30431275410608383 -0.4225761115647535 0 -0.29468793392460629 -0.39850349922703771 0 -0.30431275410608383 -0.4225761115647535 0 -0.30340196797411673 -0.4134627756573126 0 -0.29468793392460629 -0.39850349922703771 0 -0.31339969235371762 -0.41749744094558439 0 -0.30957358016137032 -0.41430511956611488 0 -0.30821247999377932 -0.41838332799774169 0 -0.30957358016137032 -0.41430511956611488 0 -0.30821247999377932 -0.41838332799774169 0 -0.30340196797411673 -0.4134627756573126 0 -0.30431275410608383 -0.4225761115647535 0 -0.31181049690629409 -0.42149517800592462 0 -0.30821247999377932 -0.41838332799774169 0 -0.30957358016137032 -0.41430511956611488 0 -0.30657492978464962 -0.40966346303794082 0 -0.31167076278691003 -0.40567377380089209 0 -0.31603189347818411 -0.41152256936292692 0 -0.30957358016137032 -0.41430511956611488 0 -0.31167076278691003 -0.40567377380089209 0 -0.30957358016137032 -0.41430511956611488 0 -0.30657492978464962 -0.40966346303794082 0 -0.30340196797411673 -0.4134627756573126 0 -0.30657492978464962 -0.40966346303794082 0 -0.30385486178662119 -0.40849862214451083 0 -0.30465648501896381 -0.40466462083004578 0 -0.30657492978464962 -0.40966346303794082 0 -0.31167076278691003 -0.40567377380089209 0 -0.30465648501896381 -0.40466462083004578 0 -0.30385486178662119 -0.40849862214451083 0 -0.30340196797411673 -0.4134627756573126 0 -0.30078606436875482 -0.40620362905274388 0 -0.30385486178662119 -0.40849862214451083 0 -0.30465648501896381 -0.40466462083004578 0 -0.30078606436875482 -0.40620362905274388 0 -0.30657492978464962 -0.40966346303794082 0 -0.30385486178662119 -0.40849862214451083 0 -0.30340196797411673 -0.4134627756573126 0 -0.3019313298000712 -0.42128253954003692 0 -0.28513701211791709 -0.41215999070530612 0 -0.3019313298000712 -0.42128253954003692 0 -0.28513701211791709 -0.41215999070530612 0 -0.29024939705437391 -0.39791226599311991 0 -0.3019313298000712 -0.42128253954003692 0 -0.28513701211791709 -0.41215999070530612 0 -0.2870126885815768 -0.42285076135908189 0 -0.3019313298000712 -0.42128253954003692 0 -0.29024939705437391 -0.39791226599311991 0 -0.2870126885815768 -0.42285076135908189 0 -0.27767573738424689 -0.43336509016320079 0 -0.29009342070196759 -0.44074726533176839 0 -0.29886429512377649 -0.43587364466474648 0 -0.2870126885815768 -0.42285076135908189 0 -0.29009342070196759 -0.44074726533176839 0 -0.30661645682567251 -0.42833789635286129 0 -0.2870126885815768 -0.42285076135908189 0 -0.30404857326831358 -0.37555070314648481 0 -0.29922981137526461 -0.38302308802237972 0 -0.29508629445085349 -0.37590731650566728 0 -0.30404857326831358 -0.37555070314648481 0 -0.30691944493147988 -0.38430128390744622 0 -0.29922981137526461 -0.38302308802237972 0 -0.31312815795657251 -0.37699599517614241 0 -0.30404857326831358 -0.37555070314648481 0 -0.30691944493147988 -0.38430128390744622 0 -0.31831978184625209 -0.38687201255389381 0 -0.30691944493147988 -0.38430128390744622 0 -0.30699970321256981 -0.3930401081684704 0 -0.30691944493147988 -0.38430128390744622 0 -0.29979064192990668 -0.3903257963773063 0 -0.30699970321256981 -0.3930401081684704 0 -0.30691944493147988 -0.38430128390744622 0 -0.29922981137526461 -0.38302308802237972 0 -0.29979064192990668 -0.3903257963773063 0 -0.29922981137526461 -0.38302308802237972 0 -0.29979064192990668 -0.3903257963773063 0 -0.29470599986151158 -0.38655812730937339 0 -0.29979064192990668 -0.3903257963773063 0 -0.29696435242129843 -0.39327490469440318 0 -0.29470599986151158 -0.38655812730937339 0 -0.29979064192990668 -0.3903257963773063 0 -0.29696435242129843 -0.39327490469440318 0 -0.29975039591749791 -0.39609416580550982 0 -0.29696435242129843 -0.39327490469440318 0 -0.29975039591749791 -0.39609416580550982 0 -0.29468793392460629 -0.39850349922703771 0 -0.29975039591749791 -0.39609416580550982 0 -0.29842803248568472 -0.40071333414412241 0 -0.29468793392460629 -0.39850349922703771 0 -0.29975039591749791 -0.39609416580550982 0 -0.30699970321256981 -0.3930401081684704 0 -0.3031568977949381 -0.3998231339992292 0 -0.29979064192990668 -0.3903257963773063 0 -0.29975039591749791 -0.39609416580550982 0 -0.30699970321256981 -0.3930401081684704 0 -0.31636312098346042 -0.39836090138096958 0 -0.30699970321256981 -0.3930401081684704 0 -0.30876956994535881 -0.4002153739232327 0 -0.30699970321256981 -0.3930401081684704 0 -0.30876956994535881 -0.4002153739232327 0 -0.3031568977949381 -0.3998231339992292 0 -0.30876956994535881 -0.4002153739232327 0 -0.30465648501896381 -0.40466462083004578 0 -0.3031568977949381 -0.3998231339992292 0 -0.31636312098346042 -0.39836090138096958 0 -0.30876956994535881 -0.4002153739232327 0 -0.31167076278691003 -0.40567377380089209 0 -0.30876956994535881 -0.4002153739232327 0 -0.31167076278691003 -0.40567377380089209 0 -0.30465648501896381 -0.40466462083004578 0 -0.30465648501896381 -0.40466462083004578 0 -0.30175686991708528 -0.40285117950653532 0 -0.3031568977949381 -0.3998231339992292 0 -0.30340196797411673 -0.4134627756573126 0 -0.30078606436875482 -0.40620362905274388 0 -0.29468793392460629 -0.39850349922703771 0 -0.30465648501896381 -0.40466462083004578 0 -0.30078606436875482 -0.40620362905274388 0 -0.30175686991708528 -0.40285117950653532 0 -0.30175686991708528 -0.40285117950653532 0 -0.3031568977949381 -0.3998231339992292 0 -0.29842803248568472 -0.40071333414412241 0 -0.30078606436875482 -0.40620362905274388 0 -0.29842803248568472 -0.40071333414412241 0 -0.29468793392460629 -0.39850349922703771 0 -0.29975039591749791 -0.39609416580550982 0 -0.3031568977949381 -0.3998231339992292 0 -0.29842803248568472 -0.40071333414412241 0 -0.30078606436875482 -0.40620362905274388 0 -0.30175686991708528 -0.40285117950653532 0 -0.29842803248568472 -0.40071333414412241 0 -0.3019313298000712 -0.42128253954003692 0 -0.29024939705437391 -0.39791226599311991 0 -0.29468793392460629 -0.39850349922703771 0 -0.29696435242129843 -0.39327490469440318 0 -0.29468793392460629 -0.39850349922703771 0 -0.29470599986151158 -0.38655812730937339 0 -0.28506311374312993 -0.37443088688932152 0 -0.29024939705437391 -0.39791226599311991 0 -0.29468793392460629 -0.39850349922703771 0 -0.28506311374312993 -0.37443088688932152 0 -0.29468793392460629 -0.39850349922703771 0 -0.28506311374312993 -0.37443088688932152 0 -0.27856746430867613 -0.37454199244620301 0 -0.29024939705437391 -0.39791226599311991 0 -0.28506311374312993 -0.37443088688932152 0 -0.29468793392460629 -0.39850349922703771 0 -0.29470599986151158 -0.38655812730937339 0 -0.27856746430867613 -0.37454199244620301 0 -0.29024939705437391 -0.39791226599311991 0 -0.27636896011706358 -0.38983527919215211 0 -0.27856746430867613 -0.37454199244620301 0 -0.29024939705437391 -0.39791226599311991 0 -0.28506311374312993 -0.37443088688932152 0 -0.29470599986151158 -0.38655812730937339 0 -0.29508629445085349 -0.37590731650566728 0 -0.29922981137526461 -0.38302308802237972 0 -0.29470599986151158 -0.38655812730937339 0 -0.29508629445085349 -0.37590731650566728 0 -0.26761411299937182 -0.37710458038493011 0 -0.27636896011706358 -0.38983527919215211 0 -0.26834269443576342 -0.40303744187057428 0 -0.26761411299937182 -0.37710458038493011 0 -0.26834269443576342 -0.40303744187057428 0 -0.27856746430867613 -0.37454199244620301 0 -0.26761411299937182 -0.37710458038493011 0 -0.27636896011706358 -0.38983527919215211 0 -0.29024939705437391 -0.39791226599311991 0 -0.27636896011706358 -0.38983527919215211 0 -0.26834269443576342 -0.40303744187057428 0 -0.28513701211791709 -0.41215999070530612 0 -0.29024939705437391 -0.39791226599311991 0 -0.26834269443576342 -0.40303744187057428 0 -0.26761411299937182 -0.37710458038493011 0 -0.26834269443576342 -0.40303744187057428 0 -0.25376367050922388 -0.39511822417744458 0 -0.26413144522171161 -0.4017176597398246 0 -0.24382977401761469 -0.39340400050248481 0 -0.26413144522171161 -0.4017176597398246 0 -0.25376367050922388 -0.39511822417744458 0 -0.24382977401761469 -0.39340400050248481 0 -0.26413144522171161 -0.4017176597398246 0 -0.24951387374856759 -0.3997540431003424 0 -0.24382977401761469 -0.39340400050248481 0 -0.26834269443576342 -0.40303744187057428 0 -0.25376367050922388 -0.39511822417744458 0 -0.26834269443576342 -0.40303744187057428 0 -0.26413144522171161 -0.4017176597398246 0 -0.25376367050922388 -0.39511822417744458 0 -0.26413144522171161 -0.4017176597398246 0 -0.25386187522231229 -0.40472486177198302 0 -0.24951387374856759 -0.3997540431003424 0 -0.26761411299937182 -0.37710458038493011 0 -0.25123018245347961 -0.38332219211110918 0 -0.2452151844951698 -0.37172913242620642 0 -0.26761411299937182 -0.37710458038493011 0 -0.25376367050922388 -0.39511822417744458 0 -0.25123018245347961 -0.38332219211110918 0 -0.2870126885815768 -0.42285076135908189 0 -0.26889358720226858 -0.4226457177524216 0 -0.27767573738424689 -0.43336509016320079 0 -0.26889358720226858 -0.4226457177524216 0 -0.26743689113091601 -0.43296733417069272 0 -0.27767573738424689 -0.43336509016320079 0 -0.26743689113091601 -0.43296733417069272 0 -0.27767573738424689 -0.43336509016320079 0 -0.27004827474979548 -0.4430588357698243 0 -0.28513701211791709 -0.41215999070530612 0 -0.26834269443576342 -0.40303744187057428 0 -0.26875577877139872 -0.41774061480714197 0 -0.2870126885815768 -0.42285076135908189 0 -0.26875577877139872 -0.41774061480714197 0 -0.28513701211791709 -0.41215999070530612 0 -0.26834269443576342 -0.40303744187057428 0 -0.28513701211791709 -0.41215999070530612 0 -0.2870126885815768 -0.42285076135908189 0 -0.26875577877139872 -0.41774061480714197 0 -0.26834269443576342 -0.40303744187057428 0 -0.26413144522171161 -0.4017176597398246 0 -0.26875577877139872 -0.41774061480714197 0 -0.2870126885815768 -0.42285076135908189 0 -0.26889358720226858 -0.4226457177524216 0 -0.26875577877139872 -0.41774061480714197 0 -0.26834269443576342 -0.40303744187057428 0 -0.26875577877139872 -0.41774061480714197 0 -0.26889358720226858 -0.4226457177524216 0 -0.26875577877139872 -0.41774061480714197 0 -0.26875577877139872 -0.41774061480714197 0 -0.24633948040819589 -0.41146624685664551 0 -0.25769896422944888 -0.42098725772292522 0 -0.24633948040819589 -0.41146624685664551 0 -0.24720114439379309 -0.42834506083176899 0 -0.25386187522231229 -0.40472486177198302 0 -0.26875577877139872 -0.41774061480714197 0 -0.24633948040819589 -0.41146624685664551 0 -0.26413144522171161 -0.4017176597398246 0 -0.25386187522231229 -0.40472486177198302 0 -0.26875577877139872 -0.41774061480714197 0 -0.26875577877139872 -0.41774061480714197 0 -0.25769896422944888 -0.42098725772292522 0 -0.24633948040819589 -0.41146624685664551 0 -0.26889358720226858 -0.4226457177524216 0 -0.26875577877139872 -0.41774061480714197 0 -0.25769896422944888 -0.42098725772292522 0 -0.27004827474979548 -0.4430588357698243 0 -0.24720114439379309 -0.42834506083176899 0 -0.25769896422944888 -0.42098725772292522 0 -0.26030764673910672 -0.42623634261945209 0 -0.24720114439379309 -0.42834506083176899 0 -0.26743689113091601 -0.43296733417069272 0 -0.27004827474979548 -0.4430588357698243 0 -0.24720114439379309 -0.42834506083176899 0 -0.26743689113091601 -0.43296733417069272 0 -0.26030764673910672 -0.42623634261945209 0 -0.24720114439379309 -0.42834506083176899 0 -0.26889358720226858 -0.4226457177524216 0 -0.25769896422944888 -0.42098725772292522 0 -0.26030764673910672 -0.42623634261945209 0 -0.26889358720226858 -0.4226457177524216 0 -0.26743689113091601 -0.43296733417069272 0 -0.26030764673910672 -0.42623634261945209 0 -0.27004827474979548 -0.4430588357698243 0 -0.2492638626398096 -0.45023720461659739 0 -0.24720114439379309 -0.42834506083176899 0 -0.27351550904504007 -0.45969927365977598 0 -0.27004827474979548 -0.4430588357698243 0 -0.2492638626398096 -0.45023720461659739 0 -0.27351550904504007 -0.45969927365977598 0 -0.25707712074889261 -0.47201807393107731 0 -0.2492638626398096 -0.45023720461659739 0 -0.27351550904504007 -0.45969927365977598 0 -0.27004827474979548 -0.4430588357698243 0 -0.28068482114671262 -0.44775466322676072 0 -0.27767573738424689 -0.43336509016320079 0 -0.27004827474979548 -0.4430588357698243 0 -0.28068482114671262 -0.44775466322676072 0 -0.27767573738424689 -0.43336509016320079 0 -0.28068482114671262 -0.44775466322676072 0 -0.29009342070196759 -0.44074726533176839 0 -0.29886429512377649 -0.43587364466474648 0 -0.29009342070196759 -0.44074726533176839 0 -0.30069945850836322 -0.44789168023421438 0 -0.29009342070196759 -0.44074726533176839 0 -0.29035200559280389 -0.45496641410151412 0 -0.30069945850836322 -0.44789168023421438 0 -0.28068482114671262 -0.44775466322676072 0 -0.29009342070196759 -0.44074726533176839 0 -0.29035200559280389 -0.45496641410151412 0 -0.27351550904504007 -0.45969927365977598 0 -0.28068482114671262 -0.44775466322676072 0 -0.29035200559280389 -0.45496641410151412 0 -0.27351550904504007 -0.45969927365977598 0 -0.29103563648654213 -0.46868263205084609 0 -0.29035200559280389 -0.45496641410151412 0 -0.29103563648654213 -0.46868263205084609 0 -0.29035200559280389 -0.45496641410151412 0 -0.30289413901210632 -0.4603148327146554 0 -0.30289413901210632 -0.4603148327146554 0 -0.30864634226027449 -0.45339928413525332 0 -0.30069945850836322 -0.44789168023421438 0 -0.29035200559280389 -0.45496641410151412 0 -0.30289413901210632 -0.4603148327146554 0 -0.30069945850836322 -0.44789168023421438 0 -0.29103563648654213 -0.46868263205084609 0 -0.30289413901210632 -0.4603148327146554 0 -0.30380184698299129 -0.46921013033376779 0 -0.30289413901210632 -0.4603148327146554 0 -0.31085015914977743 -0.46509742160688627 0 -0.30997858527306571 -0.45930407445178068 0 -0.30289413901210632 -0.4603148327146554 0 -0.31085015914977743 -0.46509742160688627 0 -0.30380184698299129 -0.46921013033376779 0 -0.31085015914977743 -0.46509742160688627 0 -0.31087555393683258 -0.4702526784341558 0 -0.30380184698299129 -0.46921013033376779 0 -0.31416255483058508 -0.46192534587239081 0 -0.31085015914977743 -0.46509742160688627 0 -0.30997858527306571 -0.45930407445178068 0 -0.30289413901210632 -0.4603148327146554 0 -0.30997858527306571 -0.45930407445178068 0 -0.30864634226027449 -0.45339928413525332 0 -0.31333973111258528 -0.45578348792971751 0 -0.31416255483058508 -0.46192534587239081 0 -0.30997858527306571 -0.45930407445178068 0 -0.31333973111258528 -0.45578348792971751 0 -0.30997858527306571 -0.45930407445178068 0 -0.30864634226027449 -0.45339928413525332 0 -0.30864634226027449 -0.45339928413525332 0 -0.31124630943522058 -0.43991760848764372 0 -0.30069945850836322 -0.44789168023421438 0 -0.31333973111258528 -0.45578348792971751 0 -0.30864634226027449 -0.45339928413525332 0 -0.31124630943522058 -0.43991760848764372 0 -0.29886429512377649 -0.43587364466474648 0 -0.31124630943522058 -0.43991760848764372 0 -0.30069945850836322 -0.44789168023421438 0 -0.31294058388513291 -0.5 0 -0.30569335903137551 -0.49415221458717562 0 -0.28460189978027778 -0.5 0 -0.30569335903137551 -0.49415221458717562 0 -0.30376428083929491 -0.48181695653452911 0 -0.29312230992549182 -0.4838185169633461 0 -0.31431567213297879 -0.47635213299439028 0 -0.30733225955483517 -0.47463131820997939 0 -0.30376428083929491 -0.48181695653452911 0 -0.31431567213297879 -0.47635213299439028 0 -0.30569335903137551 -0.49415221458717562 0 -0.30376428083929491 -0.48181695653452911 0 -0.31431567213297879 -0.47635213299439028 0 -0.31087555393683258 -0.4702526784341558 0 -0.30733225955483517 -0.47463131820997939 0 -0.31087555393683258 -0.4702526784341558 0 -0.30733225955483517 -0.47463131820997939 0 -0.30380184698299129 -0.46921013033376779 0 -0.29103563648654213 -0.46868263205084609 0 -0.29866206572064258 -0.47548557947109588 0 -0.30380184698299129 -0.46921013033376779 0 -0.30733225955483517 -0.47463131820997939 0 -0.29866206572064258 -0.47548557947109588 0 -0.30380184698299129 -0.46921013033376779 0 -0.30733225955483517 -0.47463131820997939 0 -0.29866206572064258 -0.47548557947109588 0 -0.30376428083929491 -0.48181695653452911 0 -0.29866206572064258 -0.47548557947109588 0 -0.30376428083929491 -0.48181695653452911 0 -0.29312230992549182 -0.4838185169633461 0 -0.29103563648654213 -0.46868263205084609 0 -0.29312230992549182 -0.4838185169633461 0 -0.27602443497861667 -0.48068888548123501 0 -0.29103563648654213 -0.46868263205084609 0 -0.29866206572064258 -0.47548557947109588 0 -0.29312230992549182 -0.4838185169633461 0 -0.29312230992549182 -0.4838185169633461 0 -0.28460189978027778 -0.5 0 -0.27602443497861667 -0.48068888548123501 0 -0.30569335903137551 -0.49415221458717562 0 -0.29312230992549182 -0.4838185169633461 0 -0.28460189978027778 -0.5 0 -0.28460189978027778 -0.5 0 -0.27602443497861667 -0.48068888548123501 0 -0.25626321567542271 -0.5 0 -0.27351550904504007 -0.45969927365977598 0 -0.27602443497861667 -0.48068888548123501 0 -0.25707712074889261 -0.47201807393107731 0 -0.27351550904504007 -0.45969927365977598 0 -0.29103563648654213 -0.46868263205084609 0 -0.27602443497861667 -0.48068888548123501 0 -0.25707712074889261 -0.47201807393107731 0 -0.25626321567542271 -0.5 0 -0.2389825997922439 -0.47949626820413072 0 -0.27602443497861667 -0.48068888548123501 0 -0.25707712074889261 -0.47201807393107731 0 -0.25626321567542271 -0.5 0 -0.25626321567542271 -0.5 0 -0.2389825997922439 -0.47949626820413072 0 -0.2279245315705675 -0.5 0 -0.25707712074889261 -0.47201807393107731 0 -0.2389825997922439 -0.47949626820413072 0 -0.24314977621112069 -0.46523951754230658 0 -0.2389825997922439 -0.47949626820413072 0 -0.22150807757290519 -0.47819387545883102 0 -0.22833735954582149 -0.46005332103752322 0 -0.2389825997922439 -0.47949626820413072 0 -0.22150807757290519 -0.47819387545883102 0 -0.2279245315705675 -0.5 0 -0.2492638626398096 -0.45023720461659739 0 -0.23085579089533631 -0.44035451366452699 0 -0.24720114439379309 -0.42834506083176899 0 -0.2492638626398096 -0.45023720461659739 0 -0.22833735954582149 -0.46005332103752322 0 -0.23085579089533631 -0.44035451366452699 0 -0.25707712074889261 -0.47201807393107731 0 -0.2492638626398096 -0.45023720461659739 0 -0.24314977621112069 -0.46523951754230658 0 -0.2492638626398096 -0.45023720461659739 0 -0.24314977621112069 -0.46523951754230658 0 -0.22833735954582149 -0.46005332103752322 0 -0.2389825997922439 -0.47949626820413072 0 -0.24314977621112069 -0.46523951754230658 0 -0.22833735954582149 -0.46005332103752322 0 -0.22150807757290519 -0.47819387545883102 0 -0.22833735954582149 -0.46005332103752322 0 -0.21115948871797369 -0.46054934588120189 0 -0.22833735954582149 -0.46005332103752322 0 -0.23085579089533631 -0.44035451366452699 0 -0.21198831953969241 -0.4432910470757162 0 -0.23085579089533631 -0.44035451366452699 0 -0.21198831953969241 -0.4432910470757162 0 -0.22164799283074779 -0.43395773131222709 0 -0.21198831953969241 -0.4432910470757162 0 -0.21115948871797369 -0.46054934588120189 0 -0.19453062956950279 -0.4544390542544911 0 -0.22833735954582149 -0.46005332103752322 0 -0.21198831953969241 -0.4432910470757162 0 -0.21115948871797369 -0.46054934588120189 0 -0.21115948871797369 -0.46054934588120189 0 -0.19453062956950279 -0.4544390542544911 0 -0.20215040086129091 -0.4749919424652948 0 -0.19453062956950279 -0.4544390542544911 0 -0.1792048180605178 -0.43719049368537449 0 -0.20009539894298889 -0.43071676645322748 0 -0.21198831953969241 -0.4432910470757162 0 -0.19453062956950279 -0.4544390542544911 0 -0.20009539894298889 -0.43071676645322748 0 -0.22150807757290519 -0.47819387545883102 0 -0.2279245315705675 -0.5 0 -0.19958584746571231 -0.5 0 -0.22150807757290519 -0.47819387545883102 0 -0.20215040086129091 -0.4749919424652948 0 -0.19958584746571231 -0.5 0 -0.22150807757290519 -0.47819387545883102 0 -0.21115948871797369 -0.46054934588120189 0 -0.20215040086129091 -0.4749919424652948 0 -0.19453062956950279 -0.4544390542544911 0 -0.20215040086129091 -0.4749919424652948 0 -0.18093129907103669 -0.47747354456835001 0 -0.20215040086129091 -0.4749919424652948 0 -0.19958584746571231 -0.5 0 -0.18093129907103669 -0.47747354456835001 0 -0.19958584746571231 -0.5 0 -0.17124716336085699 -0.5 0 -0.18093129907103669 -0.47747354456835001 0 -0.15791263205112541 -0.48540552509350549 0 -0.17124716336085699 -0.5 0 -0.1429084792560017 -0.5 0 -0.15791263205112541 -0.48540552509350549 0 -0.17124716336085699 -0.5 0 -0.18093129907103669 -0.47747354456835001 0 -0.15791263205112541 -0.48540552509350549 0 -0.16516020300901749 -0.4699607293471017 0 -0.18093129907103669 -0.47747354456835001 0 -0.15791263205112541 -0.48540552509350549 0 -0.16516020300901749 -0.4699607293471017 0 -0.14810708640850229 -0.46932738540364888 0 -0.16516020300901749 -0.4699607293471017 0 -0.18093129907103669 -0.47747354456835001 0 -0.1758817601396151 -0.45841353973819637 0 -0.19453062956950279 -0.4544390542544911 0 -0.18093129907103669 -0.47747354456835001 0 -0.1758817601396151 -0.45841353973819637 0 -0.19453062956950279 -0.4544390542544911 0 -0.1758817601396151 -0.45841353973819637 0 -0.1792048180605178 -0.43719049368537449 0 -0.1758817601396151 -0.45841353973819637 0 -0.15958185098800101 -0.45300387683566479 0 -0.1792048180605178 -0.43719049368537449 0 -0.15958185098800101 -0.45300387683566479 0 -0.1580515299113682 -0.43460630329767591 0 -0.1792048180605178 -0.43719049368537449 0 -0.16516020300901749 -0.4699607293471017 0 -0.1758817601396151 -0.45841353973819637 0 -0.15958185098800101 -0.45300387683566479 0 -0.16516020300901749 -0.4699607293471017 0 -0.15958185098800101 -0.45300387683566479 0 -0.14810708640850229 -0.46932738540364888 0 -0.15958185098800101 -0.45300387683566479 0 -0.14113783471680449 -0.45379814283086012 0 -0.14810708640850229 -0.46932738540364888 0 -0.14113783471680449 -0.45379814283086012 0 -0.1580515299113682 -0.43460630329767591 0 -0.14113783471680449 -0.45379814283086012 0 -0.14485370483809329 -0.43886794235135762 0 -0.1580515299113682 -0.43460630329767591 0 -0.15958185098800101 -0.45300387683566479 0 -0.14113783471680449 -0.45379814283086012 0 -0.1580515299113682 -0.43460630329767591 0 -0.14113783471680449 -0.45379814283086012 0 -0.14485370483809329 -0.43886794235135762 0 -0.13869161742967681 -0.44455643244597809 0 -0.13538098600730969 -0.43791496709366512 0 -0.13166251044381599 -0.44946357566313011 0 -0.13021254006614369 -0.42569250990204588 0 -0.13166251044381599 -0.44946357566313011 0 -0.13045105657935471 -0.46495914480149059 0 -0.1211967384117625 -0.44370290430188669 0 -0.13166251044381599 -0.44946357566313011 0 -0.13021254006614369 -0.42569250990204588 0 -0.13166251044381599 -0.44946357566313011 0 -0.13021254006614369 -0.42569250990204588 0 -0.1211967384117625 -0.44370290430188669 0 -0.13538098600730969 -0.43791496709366512 0 -0.13869161742967681 -0.44455643244597809 0 -0.13166251044381599 -0.44946357566313011 0 -0.14485370483809329 -0.43886794235135762 0 -0.13538098600730969 -0.43791496709366512 0 -0.13869161742967681 -0.44455643244597809 0 -0.14113783471680449 -0.45379814283086012 0 -0.13869161742967681 -0.44455643244597809 0 -0.13166251044381599 -0.44946357566313011 0 -0.14113783471680449 -0.45379814283086012 0 -0.13045105657935471 -0.46495914480149059 0 -0.14810708640850229 -0.46932738540364888 0 -0.13045105657935471 -0.46495914480149059 0 -0.1211967384117625 -0.44370290430188669 0 -0.14113783471680449 -0.45379814283086012 0 -0.13166251044381599 -0.44946357566313011 0 -0.13045105657935471 -0.46495914480149059 0 -0.13045105657935471 -0.46495914480149059 0 -0.133932716092861 -0.48326153465856359 0 -0.14810708640850229 -0.46932738540364888 0 -0.13045105657935471 -0.46495914480149059 0 -0.133932716092861 -0.48326153465856359 0 -0.1155548340309195 -0.47643349291920761 0 -0.133932716092861 -0.48326153465856359 0 -0.1429084792560017 -0.5 0 -0.1145697951511464 -0.5 0 -0.15791263205112541 -0.48540552509350549 0 -0.133932716092861 -0.48326153465856359 0 -0.1429084792560017 -0.5 0 -0.15791263205112541 -0.48540552509350549 0 -0.133932716092861 -0.48326153465856359 0 -0.14810708640850229 -0.46932738540364888 0 -0.14742531600596359 -0.38377996909037332 0 -0.14140315100664699 -0.41084746809202161 0 -0.1549642748889159 -0.39966096500475939 0 -0.14742531600596359 -0.38377996909037332 0 -0.14140315100664699 -0.41084746809202161 0 -0.14742531600596359 -0.38377996909037332 0 -0.15125735243725449 -0.36655632239699759 0 -0.12731259931081801 -0.37815037837987642 0 -0.12876256968847141 -0.40192144414096181 0 -0.14742531600596359 -0.38377996909037332 0 -0.12731259931081801 -0.37815037837987642 0 -0.12876256968847141 -0.40192144414096181 0 -0.12731259931081801 -0.37815037837987642 0 -0.12876256968847141 -0.40192144414096181 0 -0.120538249786524 -0.39049335028714738 0 -0.14742531600596359 -0.38377996909037332 0 -0.12731259931081801 -0.37815037837987642 0 -0.13783629615235199 -0.37436465409455028 0 -0.14742531600596359 -0.38377996909037332 0 -0.12731259931081801 -0.37815037837987642 0 -0.12731259931081801 -0.37815037837987642 0 -0.13783629615235199 -0.37436465409455028 0 -0.12703088625481179 -0.37353192569784421 0 -0.12731259931081801 -0.37815037837987642 0 -0.12703088625481179 -0.37353192569784421 0 -0.14742531600596359 -0.38377996909037332 0 -0.12876256968847141 -0.40192144414096181 0 -0.14140315100664699 -0.41084746809202161 0 -0.12876256968847141 -0.40192144414096181 0 -0.13021254006614369 -0.42569250990204588 0 -0.12876256968847141 -0.40192144414096181 0 -0.13021254006614369 -0.42569250990204588 0 -0.14140315100664699 -0.41084746809202161 0 -0.12876256968847141 -0.40192144414096181 0 -0.13021254006614369 -0.42569250990204588 0 -0.12164930739674711 -0.41331108322626531 0 -0.13538098600730969 -0.43791496709366512 0 -0.14140315100664699 -0.41084746809202161 0 -0.13538098600730969 -0.43791496709366512 0 -0.13021254006614369 -0.42569250990204588 0 -0.14140315100664699 -0.41084746809202161 0 -0.14754368869993961 -0.42710166239880948 0 -0.15538557392256061 -0.41752617251155161 0 -0.1580515299113682 -0.43460630329767591 0 -0.13538098600730969 -0.43791496709366512 0 -0.14754368869993961 -0.42710166239880948 0 -0.14140315100664699 -0.41084746809202161 0 -0.14485370483809329 -0.43886794235135762 0 -0.13538098600730969 -0.43791496709366512 0 -0.14754368869993961 -0.42710166239880948 0 -0.14485370483809329 -0.43886794235135762 0 -0.14754368869993961 -0.42710166239880948 0 -0.1580515299113682 -0.43460630329767591 0 -0.1549642748889159 -0.39966096500475939 0 -0.14140315100664699 -0.41084746809202161 0 -0.15538557392256061 -0.41752617251155161 0 -0.14754368869993961 -0.42710166239880948 0 -0.14140315100664699 -0.41084746809202161 0 -0.15538557392256061 -0.41752617251155161 0 -0.1549642748889159 -0.39966096500475939 0 -0.15538557392256061 -0.41752617251155161 0 -0.1749652251059319 -0.41541446376449159 0 -0.1580515299113682 -0.43460630329767591 0 -0.1792048180605178 -0.43719049368537449 0 -0.1749652251059319 -0.41541446376449159 0 -0.15538557392256061 -0.41752617251155161 0 -0.1580515299113682 -0.43460630329767591 0 -0.1749652251059319 -0.41541446376449159 0 -0.1580515299113682 -0.43460630329767591 0 -0.1749652251059319 -0.41541446376449159 0 -0.1792048180605178 -0.43719049368537449 0 -0.1749652251059319 -0.41541446376449159 0 -0.19177275059653959 -0.41582139717288341 0 -0.1749652251059319 -0.41541446376449159 0 -0.191878920300495 -0.39622262423130711 0 -0.19177275059653959 -0.41582139717288341 0 -0.1749652251059319 -0.41541446376449159 0 -0.16965211815322939 -0.39000129666083988 0 -0.191878920300495 -0.39622262423130711 0 -0.1749652251059319 -0.41541446376449159 0 -0.191878920300495 -0.39622262423130711 0 -0.16965211815322939 -0.39000129666083988 0 -0.191878920300495 -0.39622262423130711 0 -0.1549642748889159 -0.39966096500475939 0 -0.14742531600596359 -0.38377996909037332 0 -0.16965211815322939 -0.39000129666083988 0 -0.1549642748889159 -0.39966096500475939 0 -0.1749652251059319 -0.41541446376449159 0 -0.16965211815322939 -0.39000129666083988 0 -0.14742531600596359 -0.38377996909037332 0 -0.16965211815322939 -0.39000129666083988 0 -0.14742531600596359 -0.38377996909037332 0 -0.1746819960720867 -0.38164202152317139 0 -0.15125735243725449 -0.36655632239699759 0 -0.14742531600596359 -0.38377996909037332 0 -0.16965211815322939 -0.39000129666083988 0 -0.1746819960720867 -0.38164202152317139 0 -0.1746819960720867 -0.38164202152317139 0 -0.191878920300495 -0.39622262423130711 0 -0.193813233430078 -0.39396272510326191 0 -0.1746819960720867 -0.38164202152317139 0 -0.193813233430078 -0.39396272510326191 0 -0.1746819960720867 -0.38164202152317139 0 -0.18554251269988009 -0.37727479363527711 0 -0.193813233430078 -0.39396272510326191 0 -0.16965211815322939 -0.39000129666083988 0 -0.1746819960720867 -0.38164202152317139 0 -0.191878920300495 -0.39622262423130711 0 -0.19664250086743781 -0.38227501852136342 0 -0.2063730469289137 -0.37806524035653372 0 -0.18764468338456289 -0.37039586028355892 0 -0.18554251269988009 -0.37727479363527711 0 -0.1981066397069203 -0.39672772064934342 0 -0.18554251269988009 -0.37727479363527711 0 -0.19664250086743781 -0.38227501852136342 0 -0.1981066397069203 -0.39672772064934342 0 -0.18554251269988009 -0.37727479363527711 0 -0.193813233430078 -0.39396272510326191 0 -0.1981066397069203 -0.39672772064934342 0 -0.18554251269988009 -0.37727479363527711 0 -0.19664250086743781 -0.38227501852136342 0 -0.18764468338456289 -0.37039586028355892 0 -0.19664250086743781 -0.38227501852136342 0 -0.2063730469289137 -0.37806524035653372 0 -0.20554562161691181 -0.38891147768210338 0 -0.19664250086743781 -0.38227501852136342 0 -0.1981066397069203 -0.39672772064934342 0 -0.20554562161691181 -0.38891147768210338 0 -0.191878920300495 -0.39622262423130711 0 -0.193813233430078 -0.39396272510326191 0 -0.191878920300495 -0.39622262423130711 0 -0.193813233430078 -0.39396272510326191 0 -0.1981066397069203 -0.39672772064934342 0 -0.19908272426168749 -0.39823898375522943 0 -0.1989791829295835 -0.40749813483323888 0 -0.2074615640426469 -0.41121186747649818 0 -0.191878920300495 -0.39622262423130711 0 -0.19908272426168749 -0.39823898375522943 0 -0.1989791829295835 -0.40749813483323888 0 -0.20150688368178871 -0.39891751095565808 0 -0.19908272426168749 -0.39823898375522943 0 -0.2074615640426469 -0.41121186747649818 0 -0.20150688368178871 -0.39891751095565808 0 -0.19908272426168749 -0.39823898375522943 0 -0.20150688368178871 -0.39891751095565808 0 -0.1981066397069203 -0.39672772064934342 0 -0.20554562161691181 -0.38891147768210338 0 -0.191878920300495 -0.39622262423130711 0 -0.1981066397069203 -0.39672772064934342 0 -0.19908272426168749 -0.39823898375522943 0 -0.193813233430078 -0.39396272510326191 0 -0.1981066397069203 -0.39672772064934342 0 -0.191878920300495 -0.39622262423130711 0 -0.19908272426168749 -0.39823898375522943 0 -0.1981066397069203 -0.39672772064934342 0 -0.19908272426168749 -0.39823898375522943 0 -0.20150688368178871 -0.39891751095565808 0 -0.1981066397069203 -0.39672772064934342 0 -0.19908272426168749 -0.39823898375522943 0 -0.20150688368178871 -0.39891751095565808 0 -0.1981066397069203 -0.39672772064934342 0 -0.20150688368178871 -0.39891751095565808 0 -0.22435401403779079 -0.4136312858937139 0 -0.22392318204499231 -0.40519187890615149 0 -0.20150688368178871 -0.39891751095565808 0 -0.22392318204499231 -0.40519187890615149 0 -0.20554562161691181 -0.38891147768210338 0 -0.22510141047326451 -0.3857346204295084 0 -0.22392318204499231 -0.40519187890615149 0 -0.20150688368178871 -0.39891751095565808 0 -0.20554562161691181 -0.38891147768210338 0 -0.22392318204499231 -0.40519187890615149 0 -0.19908272426168749 -0.39823898375522943 0 -0.2074615640426469 -0.41121186747649818 0 -0.2063730469289137 -0.37806524035653372 0 -0.22510141047326451 -0.3857346204295084 0 -0.2063730469289137 -0.37806524035653372 0 -0.22510141047326451 -0.3857346204295084 0 -0.22213026073888681 -0.36220800050491908 0 -0.2063730469289137 -0.37806524035653372 0 -0.20554562161691181 -0.38891147768210338 0 -0.22510141047326451 -0.3857346204295084 0 -0.1792048180605178 -0.43719049368537449 0 -0.20009539894298889 -0.43071676645322748 0 -0.19177275059653959 -0.41582139717288341 0 -0.20009539894298889 -0.43071676645322748 0 -0.19177275059653959 -0.41582139717288341 0 -0.2074615640426469 -0.41121186747649818 0 -0.191878920300495 -0.39622262423130711 0 -0.19177275059653959 -0.41582139717288341 0 -0.1989791829295835 -0.40749813483323888 0 -0.19177275059653959 -0.41582139717288341 0 -0.1989791829295835 -0.40749813483323888 0 -0.2074615640426469 -0.41121186747649818 0 -0.20150688368178871 -0.39891751095565808 0 -0.2074615640426469 -0.41121186747649818 0 -0.22435401403779079 -0.4136312858937139 0 -0.20150688368178871 -0.39891751095565808 0 -0.22435401403779079 -0.4136312858937139 0 -0.2074615640426469 -0.41121186747649818 0 -0.2158404038236075 -0.42418475119776627 0 -0.22435401403779079 -0.4136312858937139 0 -0.2074615640426469 -0.41121186747649818 0 -0.2158404038236075 -0.42418475119776627 0 -0.21198831953969241 -0.4432910470757162 0 -0.2158404038236075 -0.42418475119776627 0 -0.22164799283074779 -0.43395773131222709 0 -0.20009539894298889 -0.43071676645322748 0 -0.2074615640426469 -0.41121186747649818 0 -0.2158404038236075 -0.42418475119776627 0 -0.21198831953969241 -0.4432910470757162 0 -0.20009539894298889 -0.43071676645322748 0 -0.2158404038236075 -0.42418475119776627 0 -0.22790745706435489 -0.42800061331089873 0 -0.22435401403779079 -0.4136312858937139 0 -0.24720114439379309 -0.42834506083176899 0 -0.23085579089533631 -0.44035451366452699 0 -0.22164799283074779 -0.43395773131222709 0 -0.22790745706435489 -0.42800061331089873 0 -0.2158404038236075 -0.42418475119776627 0 -0.22164799283074779 -0.43395773131222709 0 -0.22790745706435489 -0.42800061331089873 0 -0.2158404038236075 -0.42418475119776627 0 -0.22790745706435489 -0.42800061331089873 0 -0.22435401403779079 -0.4136312858937139 0 -0.22435401403779079 -0.4136312858937139 0 -0.24633948040819589 -0.41146624685664551 0 -0.22392318204499231 -0.40519187890615149 0 -0.24633948040819589 -0.41146624685664551 0 -0.22392318204499231 -0.40519187890615149 0 -0.22435401403779079 -0.4136312858937139 0 -0.24633948040819589 -0.41146624685664551 0 -0.24720114439379309 -0.42834506083176899 0 -0.24633948040819589 -0.41146624685664551 0 -0.22392318204499231 -0.40519187890615149 0 -0.24211889347768259 -0.40235323345098012 0 -0.22435401403779079 -0.4136312858937139 0 -0.24720114439379309 -0.42834506083176899 0 -0.23085579089533631 -0.44035451366452699 0 -0.22790745706435489 -0.42800061331089873 0 -0.24720114439379309 -0.42834506083176899 0 -0.22510141047326451 -0.3857346204295084 0 -0.2362602657262767 -0.38071576898148241 0 -0.22213026073888681 -0.36220800050491908 0 -0.22392318204499231 -0.40519187890615149 0 -0.23640706701796271 -0.39696310078054592 0 -0.24211889347768259 -0.40235323345098012 0 -0.22510141047326451 -0.3857346204295084 0 -0.22392318204499231 -0.40519187890615149 0 -0.23640706701796271 -0.39696310078054592 0 -0.22510141047326451 -0.3857346204295084 0 -0.23640706701796271 -0.39696310078054592 0 -0.24382977401761469 -0.39340400050248481 0 -0.23640706701796271 -0.39696310078054592 0 -0.24382977401761469 -0.39340400050248481 0 -0.24362738080351659 -0.39657046003643959 0 -0.23640706701796271 -0.39696310078054592 0 -0.24211889347768259 -0.40235323345098012 0 -0.24362738080351659 -0.39657046003643959 0 -0.25386187522231229 -0.40472486177198302 0 -0.24211889347768259 -0.40235323345098012 0 -0.24951387374856759 -0.3997540431003424 0 -0.25386187522231229 -0.40472486177198302 0 -0.24633948040819589 -0.41146624685664551 0 -0.24211889347768259 -0.40235323345098012 0 -0.24211889347768259 -0.40235323345098012 0 -0.24951387374856759 -0.3997540431003424 0 -0.24362738080351659 -0.39657046003643959 0 -0.24382977401761469 -0.39340400050248481 0 -0.24362738080351659 -0.39657046003643959 0 -0.24951387374856759 -0.3997540431003424 0 -0.24382977401761469 -0.39340400050248481 0 -0.24362738080351659 -0.39657046003643959 0 -0.25376367050922388 -0.39511822417744458 0 -0.25123018245347961 -0.38332219211110918 0 -0.24382977401761469 -0.39340400050248481 0 -0.24382977401761469 -0.39340400050248481 0 -0.2452151844951698 -0.37172913242620642 0 -0.25123018245347961 -0.38332219211110918 0 -0.24382977401761469 -0.39340400050248481 0 -0.2452151844951698 -0.37172913242620642 0 -0.24382977401761469 -0.39340400050248481 0 -0.2362602657262767 -0.38071576898148241 0 -0.2452151844951698 -0.37172913242620642 0 -0.22510141047326451 -0.3857346204295084 0 -0.24382977401761469 -0.39340400050248481 0 -0.2362602657262767 -0.38071576898148241 0 -0.22510141047326451 -0.3857346204295084 0 -0.24382977401761469 -0.39340400050248481 0 -0.2362602657262767 -0.38071576898148241 0 -0.2452151844951698 -0.37172913242620642 0 -0.22213026073888681 -0.36220800050491908 0 -0.2452151844951698 -0.37172913242620642 0 -0.24660059497272549 -0.35005426434992792 0 -0.2452151844951698 -0.37172913242620642 0 -0.23559662257404429 -0.35661291650890148 0 -0.24660059497272549 -0.35005426434992792 0 -0.2452151844951698 -0.37172913242620642 0 -0.22213026073888681 -0.36220800050491908 0 -0.23559662257404429 -0.35661291650890148 0 -0.22213026073888681 -0.36220800050491908 0 -0.23559662257404429 -0.35661291650890148 0 -0.23048401005839519 -0.34337940702464792 0 -0.22213026073888681 -0.36220800050491908 0 -0.23048401005839519 -0.34337940702464792 0 -0.21467287986980971 -0.33923724769727842 0 -0.23559662257404429 -0.35661291650890148 0 -0.24660059497272549 -0.35005426434992792 0 -0.23048401005839519 -0.34337940702464792 0 -0.25718802529817569 -0.35632830299104301 0 -0.2452151844951698 -0.37172913242620642 0 -0.24660059497272549 -0.35005426434992792 0 -0.24660059497272549 -0.35005426434992792 0 -0.24798600545028121 -0.32837939627364943 0 -0.24660059497272549 -0.35005426434992792 0 -0.24798600545028121 -0.32837939627364943 0 -0.23645969765535799 -0.33307037913276039 0 -0.25527054836466467 -0.33970649141258402 0 -0.24660059497272549 -0.35005426434992792 0 -0.24798600545028121 -0.32837939627364943 0 -0.24798600545028121 -0.32837939627364943 0 -0.23645969765535799 -0.33307037913276039 0 -0.22578191981833859 -0.32608922991734979 0 -0.24660059497272549 -0.35005426434992792 0 -0.23645969765535799 -0.33307037913276039 0 -0.23048401005839519 -0.34337940702464792 0 -0.24838889559803151 -0.32207614467911672 0 -0.24943431263974661 -0.30572050363919068 0 -0.24798600545028121 -0.32837939627364943 0 -0.22991212161638691 -0.32535105409859288 0 -0.22578191981833859 -0.32608922991734979 0 -0.24798600545028121 -0.32837939627364943 0 -0.24838889559803151 -0.32207614467911672 0 -0.22991212161638691 -0.32535105409859288 0 -0.24838889559803151 -0.32207614467911672 0 -0.2381642835306472 -0.31432837930097041 0 -0.24943431263974661 -0.30572050363919068 0 -0.24838889559803151 -0.32207614467911672 0 -0.22991212161638691 -0.32535105409859288 0 -0.24838889559803151 -0.32207614467911672 0 -0.23371325453872679 -0.31973213811739581 0 -0.22991212161638691 -0.32535105409859288 0 -0.24798600545028121 -0.32837939627364943 0 -0.22578191981833859 -0.32608922991734979 0 -0.24798600545028121 -0.32837939627364943 0 -0.24838889559803151 -0.32207614467911672 0 -0.24838889559803151 -0.32207614467911672 0 -0.2381642835306472 -0.31432837930097041 0 -0.23371325453872679 -0.31973213811739581 0 -0.2381642835306472 -0.31432837930097041 0 -0.23371325453872679 -0.31973213811739581 0 -0.22796967592192341 -0.31532996419906878 0 -0.23371325453872679 -0.31973213811739581 0 -0.22796967592192341 -0.31532996419906878 0 -0.22413129602664411 -0.32157514830923012 0 -0.23371325453872679 -0.31973213811739581 0 -0.22991212161638691 -0.32535105409859288 0 -0.22413129602664411 -0.32157514830923012 0 -0.22991212161638691 -0.32535105409859288 0 -0.22578191981833859 -0.32608922991734979 0 -0.22991212161638691 -0.32535105409859288 0 -0.22578191981833859 -0.32608922991734979 0 -0.22413129602664411 -0.32157514830923012 0 -0.22578191981833859 -0.32608922991734979 0 -0.22413129602664411 -0.32157514830923012 0 -0.2112477342690765 -0.32868687159259702 0 -0.22796967592192341 -0.31532996419906878 0 -0.21859999825495921 -0.31851311263594623 0 -0.2212284953044189 -0.30993101853692051 0 -0.22796967592192341 -0.31532996419906878 0 -0.22413129602664411 -0.32157514830923012 0 -0.21859999825495921 -0.31851311263594623 0 -0.23048401005839519 -0.34337940702464792 0 -0.22287407281458041 -0.33466783361728403 0 -0.21467287986980971 -0.33923724769727842 0 -0.23645969765535799 -0.33307037913276039 0 -0.23048401005839519 -0.34337940702464792 0 -0.22914371894036989 -0.33384445978902533 0 -0.23048401005839519 -0.34337940702464792 0 -0.22914371894036989 -0.33384445978902533 0 -0.22287407281458041 -0.33466783361728403 0 -0.23645969765535799 -0.33307037913276039 0 -0.22578191981833859 -0.32608922991734979 0 -0.22914371894036989 -0.33384445978902533 0 -0.22578191981833859 -0.32608922991734979 0 -0.22287407281458041 -0.33466783361728403 0 -0.2112477342690765 -0.32868687159259702 0 -0.22578191981833859 -0.32608922991734979 0 -0.22914371894036989 -0.33384445978902533 0 -0.22287407281458041 -0.33466783361728403 0 -0.22287407281458041 -0.33466783361728403 0 -0.21467287986980971 -0.33923724769727842 0 -0.2112477342690765 -0.32868687159259702 0 -0.21467287986980971 -0.33923724769727842 0 -0.2112477342690765 -0.32868687159259702 0 -0.21467287986980971 -0.33923724769727842 0 -0.2112477342690765 -0.32868687159259702 0 -0.2018303739944674 -0.33058137455637832 0 -0.21467287986980971 -0.33923724769727842 0 -0.2016070615234456 -0.34262798154079072 0 -0.2018303739944674 -0.33058137455637832 0 -0.21859999825495921 -0.31851311263594623 0 -0.20721549900073249 -0.31626649488963782 0 -0.2212284953044189 -0.30993101853692051 0 -0.22578191981833859 -0.32608922991734979 0 -0.2112477342690765 -0.32868687159259702 0 -0.2112477342690765 -0.32868687159259702 0 -0.21859999825495921 -0.31851311263594623 0 -0.20721549900073249 -0.31626649488963782 0 -0.22413129602664411 -0.32157514830923012 0 -0.2112477342690765 -0.32868687159259702 0 -0.21859999825495921 -0.31851311263594623 0 -0.2112477342690765 -0.32868687159259702 0 -0.20721549900073249 -0.31626649488963782 0 -0.2018303739944674 -0.33058137455637832 0 -0.2112477342690765 -0.32868687159259702 0 -0.20721549900073249 -0.31626649488963782 0 -0.20721549900073249 -0.31626649488963782 0 -0.19463208907838861 -0.32255209108556182 0 -0.18987584451123249 -0.31165373602639779 0 -0.20721549900073249 -0.31626649488963782 0 -0.19463208907838861 -0.32255209108556182 0 -0.2018303739944674 -0.33058137455637832 0 -0.19463208907838861 -0.32255209108556182 0 -0.18833426705090819 -0.33502361246445911 0 -0.1838206615512771 -0.32394913890676857 0 -0.19463208907838861 -0.32255209108556182 0 -0.18987584451123249 -0.31165373602639779 0 -0.1838206615512771 -0.32394913890676857 0 -0.2016070615234456 -0.34262798154079072 0 -0.2018303739944674 -0.33058137455637832 0 -0.18833426705090819 -0.33502361246445911 0 -0.19463208907838861 -0.32255209108556182 0 -0.2018303739944674 -0.33058137455637832 0 -0.18833426705090819 -0.33502361246445911 0 -0.2016070615234456 -0.34262798154079072 0 -0.18833426705090819 -0.33502361246445911 0 -0.18990120990022041 -0.34648794901607272 0 -0.2016070615234456 -0.34262798154079072 0 -0.18990120990022041 -0.34648794901607272 0 -0.1988021527556896 -0.35371085626778898 0 -0.18990120990022041 -0.34648794901607272 0 -0.1988021527556896 -0.35371085626778898 0 -0.18629685877200139 -0.35712758532036831 0 -0.1988021527556896 -0.35371085626778898 0 -0.1927361442600477 -0.36152278858751818 0 -0.18629685877200139 -0.35712758532036831 0 -0.2063730469289137 -0.37806524035653372 0 -0.18764468338456289 -0.37039586028355892 0 -0.19820088212793721 -0.36485685247835647 0 -0.1927361442600477 -0.36152278858751818 0 -0.18764468338456289 -0.37039586028355892 0 -0.18629685877200139 -0.35712758532036831 0 -0.1927361442600477 -0.36152278858751818 0 -0.18764468338456289 -0.37039586028355892 0 -0.19820088212793721 -0.36485685247835647 0 -0.2063730469289137 -0.37806524035653372 0 -0.18764468338456289 -0.37039586028355892 0 -0.1988021527556896 -0.35371085626778898 0 -0.19820088212793721 -0.36485685247835647 0 -0.2071524249601352 -0.36209998066841348 0 -0.1988021527556896 -0.35371085626778898 0 -0.1927361442600477 -0.36152278858751818 0 -0.19820088212793721 -0.36485685247835647 0 -0.2063730469289137 -0.37806524035653372 0 -0.19820088212793721 -0.36485685247835647 0 -0.2071524249601352 -0.36209998066841348 0 -0.2063730469289137 -0.37806524035653372 0 -0.22213026073888681 -0.36220800050491908 0 -0.2071524249601352 -0.36209998066841348 0 -0.22213026073888681 -0.36220800050491908 0 -0.21467287986980971 -0.33923724769727842 0 -0.22213026073888681 -0.36220800050491908 0 -0.2071524249601352 -0.36209998066841348 0 -0.21025578224924871 -0.35165895373446943 0 -0.22213026073888681 -0.36220800050491908 0 -0.21467287986980971 -0.33923724769727842 0 -0.21025578224924871 -0.35165895373446943 0 -0.2016070615234456 -0.34262798154079072 0 -0.1988021527556896 -0.35371085626778898 0 -0.21025578224924871 -0.35165895373446943 0 -0.21467287986980971 -0.33923724769727842 0 -0.2016070615234456 -0.34262798154079072 0 -0.21025578224924871 -0.35165895373446943 0 -0.1988021527556896 -0.35371085626778898 0 -0.2071524249601352 -0.36209998066841348 0 -0.21025578224924871 -0.35165895373446943 0 -0.23844635295844299 -0.26526777821905068 0 -0.21114915929045841 -0.26402521864980799 0 -0.21906731033578741 -0.25070158993507968 0 -0.23844635295844299 -0.26526777821905068 0 -0.23447079457332121 -0.24898436209678301 0 -0.21906731033578741 -0.25070158993507968 0 -0.23844635295844299 -0.26526777821905068 0 -0.21114915929045841 -0.26402521864980799 0 -0.23844635295844299 -0.26526777821905068 0 -0.2508749388500553 -0.2455407076959211 0 -0.25198058485566999 -0.2658838521481427 0 -0.23844635295844299 -0.26526777821905068 0 -0.2508749388500553 -0.2455407076959211 0 -0.23844635295844299 -0.26526777821905068 0 -0.23447079457332121 -0.24898436209678301 0 -0.2508749388500553 -0.2455407076959211 0 -0.25198058485566999 -0.2658838521481427 0 -0.23844635295844299 -0.26526777821905068 0 -0.25047972968146048 -0.28936486259926458 0 -0.23844635295844299 -0.26526777821905068 0 -0.23015692905030791 -0.27842503130142121 0 -0.25047972968146048 -0.28936486259926458 0 -0.25198058485566999 -0.2658838521481427 0 -0.23844635295844299 -0.26526777821905068 0 -0.23844635295844299 -0.26526777821905068 0 -0.23015692905030791 -0.27842503130142121 0 -0.21114915929045841 -0.26402521864980799 0 -0.23844635295844299 -0.26526777821905068 0 -0.23015692905030791 -0.27842503130142121 0 -0.25047972968146048 -0.28936486259926458 0 -0.23015692905030791 -0.27842503130142121 0 -0.22186750514217199 -0.29158228438379119 0 -0.23015692905030791 -0.27842503130142121 0 -0.22186750514217199 -0.29158228438379119 0 -0.21130557265160729 -0.28032869856598502 0 -0.23015692905030791 -0.27842503130142121 0 -0.22186750514217199 -0.29158228438379119 0 -0.25047972968146048 -0.28936486259926458 0 -0.22186750514217199 -0.29158228438379119 0 -0.25047972968146048 -0.28936486259926458 0 -0.22186750514217199 -0.29158228438379119 0 -0.23679751432824139 -0.29841200568039478 0 -0.25047972968146048 -0.28936486259926458 0 -0.23679751432824139 -0.29841200568039478 0 -0.24943431263974661 -0.30572050363919068 0 -0.25047972968146048 -0.28936486259926458 0 -0.24943431263974661 -0.30572050363919068 0 -0.2381642835306472 -0.31432837930097041 0 -0.24943431263974661 -0.30572050363919068 0 -0.2321120825558266 -0.30759957124153958 0 -0.23679751432824139 -0.29841200568039478 0 -0.24943431263974661 -0.30572050363919068 0 -0.2321120825558266 -0.30759957124153958 0 -0.22796967592192341 -0.31532996419906878 0 -0.2321120825558266 -0.30759957124153958 0 -0.2212284953044189 -0.30993101853692051 0 -0.2381642835306472 -0.31432837930097041 0 -0.22796967592192341 -0.31532996419906878 0 -0.2321120825558266 -0.30759957124153958 0 -0.22186750514217199 -0.29158228438379119 0 -0.23679751432824139 -0.29841200568039478 0 -0.22522043893513971 -0.30228828221141318 0 -0.23679751432824139 -0.29841200568039478 0 -0.2321120825558266 -0.30759957124153958 0 -0.22522043893513971 -0.30228828221141318 0 -0.22186750514217199 -0.29158228438379119 0 -0.22522043893513971 -0.30228828221141318 0 -0.21409659734503891 -0.30391653121441958 0 -0.2321120825558266 -0.30759957124153958 0 -0.22522043893513971 -0.30228828221141318 0 -0.2212284953044189 -0.30993101853692051 0 -0.22522043893513971 -0.30228828221141318 0 -0.2212284953044189 -0.30993101853692051 0 -0.21409659734503891 -0.30391653121441958 0 -0.20721549900073249 -0.31626649488963782 0 -0.21409659734503891 -0.30391653121441958 0 -0.199758118131655 -0.29329574208199721 0 -0.20721549900073249 -0.31626649488963782 0 -0.199758118131655 -0.29329574208199721 0 -0.20721549900073249 -0.31626649488963782 0 -0.2212284953044189 -0.30993101853692051 0 -0.21409659734503891 -0.30391653121441958 0 -0.22186750514217199 -0.29158228438379119 0 -0.21409659734503891 -0.30391653121441958 0 -0.18987584451123249 -0.31165373602639779 0 -0.199758118131655 -0.29329574208199721 0 -0.18021945718615731 -0.30451139671038963 0 -0.20721549900073249 -0.31626649488963782 0 -0.18987584451123249 -0.31165373602639779 0 -0.199758118131655 -0.29329574208199721 0 -0.199758118131655 -0.29329574208199721 0 -0.19359615164344271 -0.27431521641290713 0 -0.199758118131655 -0.29329574208199721 0 -0.21130557265160729 -0.28032869856598502 0 -0.19359615164344271 -0.27431521641290713 0 -0.199758118131655 -0.29329574208199721 0 -0.19359615164344271 -0.27431521641290713 0 -0.18072412887709319 -0.28174085196009779 0 -0.22186750514217199 -0.29158228438379119 0 -0.199758118131655 -0.29329574208199721 0 -0.22186750514217199 -0.29158228438379119 0 -0.199758118131655 -0.29329574208199721 0 -0.21130557265160729 -0.28032869856598502 0 -0.22186750514217199 -0.29158228438379119 0 -0.21409659734503891 -0.30391653121441958 0 -0.199758118131655 -0.29329574208199721 0 -0.23015692905030791 -0.27842503130142121 0 -0.21130557265160729 -0.28032869856598502 0 -0.21114915929045841 -0.26402521864980799 0 -0.21130557265160729 -0.28032869856598502 0 -0.19359615164344271 -0.27431521641290713 0 -0.21114915929045841 -0.26402521864980799 0 -0.19359615164344271 -0.27431521641290713 0 -0.2005593250693537 -0.25610476117175518 0 -0.18743418515523 -0.25533469074381721 0 -0.2005593250693537 -0.25610476117175518 0 -0.18743418515523 -0.25533469074381721 0 -0.18964217591845089 -0.24002307996666741 0 -0.19359615164344271 -0.27431521641290713 0 -0.2005593250693537 -0.25610476117175518 0 -0.21114915929045841 -0.26402521864980799 0 -0.19359615164344271 -0.27431521641290713 0 -0.18743418515523 -0.25533469074381721 0 -0.21906731033578741 -0.25070158993507968 0 -0.2005593250693537 -0.25610476117175518 0 -0.2048048756623756 -0.2446353592032969 0 -0.21906731033578741 -0.25070158993507968 0 -0.2005593250693537 -0.25610476117175518 0 -0.21114915929045841 -0.26402521864980799 0 -0.14822282342019369 -0.26280282871250987 0 -0.16530228257869631 -0.23865896338888859 0 -0.1626250131987477 -0.25874771931983431 0 -0.14822282342019369 -0.26280282871250987 0 -0.16530228257869631 -0.23865896338888859 0 -0.1626250131987477 -0.25874771931983431 0 -0.17428661347802599 -0.26042132977434251 0 -0.16530228257869631 -0.23865896338888859 0 -0.15830334119345399 -0.26434472980180851 0 -0.1626250131987477 -0.25874771931983431 0 -0.14822282342019369 -0.26280282871250987 0 -0.15830334119345399 -0.26434472980180851 0 -0.1626250131987477 -0.25874771931983431 0 -0.1651781839882509 -0.26652842887930539 0 -0.1626250131987477 -0.25874771931983431 0 -0.17428661347802599 -0.26042132977434251 0 -0.1651781839882509 -0.26652842887930539 0 -0.18743418515523 -0.25533469074381721 0 -0.17428661347802599 -0.26042132977434251 0 -0.16530228257869631 -0.23865896338888859 0 -0.18743418515523 -0.25533469074381721 0 -0.17428661347802599 -0.26042132977434251 0 -0.1813245861597782 -0.26919251569644848 0 -0.17428661347802599 -0.26042132977434251 0 -0.1813245861597782 -0.26919251569644848 0 -0.17058185164509931 -0.27415048959107818 0 -0.19359615164344271 -0.27431521641290713 0 -0.18743418515523 -0.25533469074381721 0 -0.1813245861597782 -0.26919251569644848 0 -0.19359615164344271 -0.27431521641290713 0 -0.1813245861597782 -0.26919251569644848 0 -0.18072412887709319 -0.28174085196009779 0 -0.1813245861597782 -0.26919251569644848 0 -0.17058185164509931 -0.27415048959107818 0 -0.18072412887709319 -0.28174085196009779 0 -0.17058185164509931 -0.27415048959107818 0 -0.16737396565035409 -0.28369971881203598 0 -0.18072412887709319 -0.28174085196009779 0 -0.17058185164509931 -0.27415048959107818 0 -0.1604490312087879 -0.27249071138321368 0 -0.16167744036089629 -0.27879295859507769 0 -0.17058185164509931 -0.27415048959107818 0 -0.16167744036089629 -0.27879295859507769 0 -0.16737396565035409 -0.28369971881203598 0 -0.17428661347802599 -0.26042132977434251 0 -0.17058185164509931 -0.27415048959107818 0 -0.1651781839882509 -0.26652842887930539 0 -0.17058185164509931 -0.27415048959107818 0 -0.1651781839882509 -0.26652842887930539 0 -0.1604490312087879 -0.27249071138321368 0 -0.15830334119345399 -0.26434472980180851 0 -0.1651781839882509 -0.26652842887930539 0 -0.1604490312087879 -0.27249071138321368 0 -0.15830334119345399 -0.26434472980180851 0 -0.1604490312087879 -0.27249071138321368 0 -0.1541642447230627 -0.27078627017161372 0 -0.1604490312087879 -0.27249071138321368 0 -0.15644906016658011 -0.27666650364079598 0 -0.1541642447230627 -0.27078627017161372 0 -0.1604490312087879 -0.27249071138321368 0 -0.15644906016658011 -0.27666650364079598 0 -0.16167744036089629 -0.27879295859507769 0 -0.15644906016658011 -0.27666650364079598 0 -0.16167744036089629 -0.27879295859507769 0 -0.15504716152935891 -0.28382839026119427 0 -0.16983254804336009 -0.2956149469707039 0 -0.1522383678877024 -0.29023306065241261 0 -0.15504716152935891 -0.28382839026119427 0 -0.16167744036089629 -0.27879295859507769 0 -0.16737396565035409 -0.28369971881203598 0 -0.15504716152935891 -0.28382839026119427 0 -0.16983254804336009 -0.2956149469707039 0 -0.16737396565035409 -0.28369971881203598 0 -0.15504716152935891 -0.28382839026119427 0 -0.199758118131655 -0.29329574208199721 0 -0.16983254804336009 -0.2956149469707039 0 -0.16983254804336009 -0.2956149469707039 0 -0.16737396565035409 -0.28369971881203598 0 -0.18072412887709319 -0.28174085196009779 0 -0.199758118131655 -0.29329574208199721 0 -0.16983254804336009 -0.2956149469707039 0 -0.18072412887709319 -0.28174085196009779 0 -0.18987584451123249 -0.31165373602639779 0 -0.18021945718615731 -0.30451139671038963 0 -0.17397343924175071 -0.31683386078711778 0 -0.199758118131655 -0.29329574208199721 0 -0.16983254804336009 -0.2956149469707039 0 -0.18021945718615731 -0.30451139671038963 0 -0.16983254804336009 -0.2956149469707039 0 -0.18021945718615731 -0.30451139671038963 0 -0.16897673094698129 -0.30625392306038118 0 -0.18021945718615731 -0.30451139671038963 0 -0.16897673094698129 -0.30625392306038118 0 -0.17397343924175071 -0.31683386078711778 0 -0.16897673094698129 -0.30625392306038118 0 -0.17397343924175071 -0.31683386078711778 0 -0.16210377498835191 -0.31321926126348199 0 -0.16983254804336009 -0.2956149469707039 0 -0.16897673094698129 -0.30625392306038118 0 -0.1587544352752864 -0.30109014957021268 0 -0.16897673094698129 -0.30625392306038118 0 -0.1587544352752864 -0.30109014957021268 0 -0.16210377498835191 -0.31321926126348199 0 -0.1587544352752864 -0.30109014957021268 0 -0.16210377498835191 -0.31321926126348199 0 -0.1495501087207281 -0.31390710050209142 0 -0.1587544352752864 -0.30109014957021268 0 -0.13478732859181281 -0.30908655472834828 0 -0.1399069779550651 -0.29793415185940902 0 -0.1587544352752864 -0.30109014957021268 0 -0.13478732859181281 -0.30908655472834828 0 -0.16983254804336009 -0.2956149469707039 0 -0.1587544352752864 -0.30109014957021268 0 -0.1399069779550651 -0.29793415185940902 0 -0.1587544352752864 -0.30109014957021268 0 -0.13478732859181281 -0.30908655472834828 0 -0.1495501087207281 -0.31390710050209142 0 -0.13478732859181281 -0.30908655472834828 0 -0.1399069779550651 -0.29793415185940902 0 -0.1169256129609467 -0.30704519185296641 0 -0.1399069779550651 -0.29793415185940902 0 -0.13257421819057011 -0.28492401028273812 0 -0.1169256129609467 -0.30704519185296641 0 -0.1399069779550651 -0.29793415185940902 0 -0.13257421819057011 -0.28492401028273812 0 -0.1441667840230256 -0.28355475351834308 0 -0.16983254804336009 -0.2956149469707039 0 -0.1399069779550651 -0.29793415185940902 0 -0.1522383678877024 -0.29023306065241261 0 -0.16983254804336009 -0.2956149469707039 0 -0.1399069779550651 -0.29793415185940902 0 -0.1399069779550651 -0.29793415185940902 0 -0.1441667840230256 -0.28355475351834308 0 -0.1522383678877024 -0.29023306065241261 0 -0.1441667840230256 -0.28355475351834308 0 -0.15504716152935891 -0.28382839026119427 0 -0.15122281225989881 -0.27678231710807449 0 -0.1441667840230256 -0.28355475351834308 0 -0.1522383678877024 -0.29023306065241261 0 -0.15504716152935891 -0.28382839026119427 0 -0.13257421819057011 -0.28492401028273812 0 -0.14692265979381269 -0.27386237969630628 0 -0.14822282342019369 -0.26280282871250987 0 -0.15122281225989881 -0.27678231710807449 0 -0.1541642447230627 -0.27078627017161372 0 -0.14692265979381269 -0.27386237969630628 0 -0.15644906016658011 -0.27666650364079598 0 -0.15504716152935891 -0.28382839026119427 0 -0.15122281225989881 -0.27678231710807449 0 -0.15644906016658011 -0.27666650364079598 0 -0.15122281225989881 -0.27678231710807449 0 -0.1541642447230627 -0.27078627017161372 0 -0.14692265979381269 -0.27386237969630628 0 -0.14822282342019369 -0.26280282871250987 0 -0.15118507614612539 -0.26432409838455878 0 -0.1541642447230627 -0.27078627017161372 0 -0.14692265979381269 -0.27386237969630628 0 -0.15118507614612539 -0.26432409838455878 0 -0.15830334119345399 -0.26434472980180851 0 -0.1541642447230627 -0.27078627017161372 0 -0.15118507614612539 -0.26432409838455878 0 -0.13257421819057011 -0.28492401028273812 0 -0.1441667840230256 -0.28355475351834308 0 -0.14692265979381269 -0.27386237969630628 0 -0.1441667840230256 -0.28355475351834308 0 -0.15122281225989881 -0.27678231710807449 0 -0.14692265979381269 -0.27386237969630628 0 -0.13257421819057011 -0.28492401028273812 0 -0.14822282342019369 -0.26280282871250987 0 -0.13257421819057011 -0.28492401028273812 0 -0.13374798070478441 -0.26837309096382661 0 -0.1243063921770825 -0.27198804626285372 0 -0.13257421819057011 -0.28492401028273812 0 -0.13374798070478441 -0.26837309096382661 0 -0.14822282342019369 -0.26280282871250987 0 -0.13257421819057011 -0.28492401028273812 0 -0.1243063921770825 -0.27198804626285372 0 -0.1221626902126717 -0.2819873119560653 0 -0.13374798070478441 -0.26837309096382661 0 -0.12745105800744411 -0.26390907244020551 0 -0.1243063921770825 -0.27198804626285372 0 -0.13300922847988161 -0.25498986245784899 0 -0.14822282342019369 -0.26280282871250987 0 -0.13374798070478441 -0.26837309096382661 0 -0.13300922847988161 -0.25498986245784899 0 -0.14822282342019369 -0.26280282871250987 0 -0.13374798070478441 -0.26837309096382661 0 -0.12745105800744411 -0.26390907244020551 0 -0.13300922847988161 -0.25498986245784899 0 -0.12745105800744411 -0.26390907244020551 0 -0.13300922847988161 -0.25498986245784899 0 -0.12360456238295239 -0.25801993517505117 0 -0.13300922847988161 -0.25498986245784899 0 -0.1177956335395702 -0.247176896203187 0 -0.13300922847988161 -0.25498986245784899 0 -0.14822282342019369 -0.26280282871250987 0 -0.14624722887204919 -0.24812456183528761 0 -0.15830334119345399 -0.26434472980180851 0 -0.14822282342019369 -0.26280282871250987 0 -0.15118507614612539 -0.26432409838455878 0 -0.14822282342019369 -0.26280282871250987 0 -0.15118507614612539 -0.26432409838455878 0 -0.17297838569283969 -0.35782186662121102 0 -0.17769775428775639 -0.34518283948514822 0 -0.15698701933099601 -0.34080349879568439 0 -0.17297838569283969 -0.35782186662121102 0 -0.15698701933099601 -0.34080349879568439 0 -0.15125735243725449 -0.36655632239699759 0 -0.1746819960720867 -0.38164202152317139 0 -0.15125735243725449 -0.36655632239699759 0 -0.1746819960720867 -0.38164202152317139 0 -0.17297838569283969 -0.35782186662121102 0 -0.15125735243725449 -0.36655632239699759 0 -0.18554251269988009 -0.37727479363527711 0 -0.18764468338456289 -0.37039586028355892 0 -0.17297838569283969 -0.35782186662121102 0 -0.1746819960720867 -0.38164202152317139 0 -0.18554251269988009 -0.37727479363527711 0 -0.17297838569283969 -0.35782186662121102 0 -0.18554251269988009 -0.37727479363527711 0 -0.17297838569283969 -0.35782186662121102 0 -0.18764468338456289 -0.37039586028355892 0 -0.18629685877200139 -0.35712758532036831 0 -0.17297838569283969 -0.35782186662121102 0 -0.18629685877200139 -0.35712758532036831 0 -0.17297838569283969 -0.35782186662121102 0 -0.17769775428775639 -0.34518283948514822 0 -0.18990120990022041 -0.34648794901607272 0 -0.18629685877200139 -0.35712758532036831 0 -0.17769775428775639 -0.34518283948514822 0 -0.18833426705090819 -0.33502361246445911 0 -0.18990120990022041 -0.34648794901607272 0 -0.17769775428775639 -0.34518283948514822 0 -0.18833426705090819 -0.33502361246445911 0 -0.17769775428775639 -0.34518283948514822 0 -0.17168878497957279 -0.33383252469309388 0 -0.18833426705090819 -0.33502361246445911 0 -0.1838206615512771 -0.32394913890676857 0 -0.17168878497957279 -0.33383252469309388 0 -0.18987584451123249 -0.31165373602639779 0 -0.1838206615512771 -0.32394913890676857 0 -0.17397343924175071 -0.31683386078711778 0 -0.1838206615512771 -0.32394913890676857 0 -0.17397343924175071 -0.31683386078711778 0 -0.17168878497957279 -0.33383252469309388 0 -0.17397343924175071 -0.31683386078711778 0 -0.16447325678470859 -0.32465258025190241 0 -0.17168878497957279 -0.33383252469309388 0 -0.17397343924175071 -0.31683386078711778 0 -0.16447325678470859 -0.32465258025190241 0 -0.16210377498835191 -0.31321926126348199 0 -0.16447325678470859 -0.32465258025190241 0 -0.16210377498835191 -0.31321926126348199 0 -0.1527116180424582 -0.32442884054650928 0 -0.17769775428775639 -0.34518283948514822 0 -0.17168878497957279 -0.33383252469309388 0 -0.15698701933099601 -0.34080349879568439 0 -0.16447325678470859 -0.32465258025190241 0 -0.15698701933099601 -0.34080349879568439 0 -0.1527116180424582 -0.32442884054650928 0 -0.16447325678470859 -0.32465258025190241 0 -0.17168878497957279 -0.33383252469309388 0 -0.15698701933099601 -0.34080349879568439 0 -0.14294323083671021 -0.33974513864826622 0 -0.1527116180424582 -0.32442884054650928 0 -0.13939338670573129 -0.32171069640190458 0 -0.15698701933099601 -0.34080349879568439 0 -0.14294323083671021 -0.33974513864826622 0 -0.1527116180424582 -0.32442884054650928 0 -0.16210377498835191 -0.31321926126348199 0 -0.1495501087207281 -0.31390710050209142 0 -0.1527116180424582 -0.32442884054650928 0 -0.1495501087207281 -0.31390710050209142 0 -0.1527116180424582 -0.32442884054650928 0 -0.13939338670573129 -0.32171069640190458 0 -0.13478732859181281 -0.30908655472834828 0 -0.1495501087207281 -0.31390710050209142 0 -0.13939338670573129 -0.32171069640190458 0 -0.13478732859181281 -0.30908655472834828 0 -0.13939338670573129 -0.32171069640190458 0 -0.12621108921675661 -0.32105341454128111 0 -0.13939338670573129 -0.32171069640190458 0 -0.12621108921675661 -0.32105341454128111 0 -0.12752073513736489 -0.33224080380229382 0 -0.14294323083671021 -0.33974513864826622 0 -0.13939338670573129 -0.32171069640190458 0 -0.12752073513736489 -0.33224080380229382 0 -0.14294323083671021 -0.33974513864826622 0 -0.12752073513736489 -0.33224080380229382 0 -0.12978927336645751 -0.35273066994620572 0 -0.15698701933099601 -0.34080349879568439 0 -0.14294323083671021 -0.33974513864826622 0 -0.15125735243725449 -0.36655632239699759 0 -0.14294323083671021 -0.33974513864826622 0 -0.12978927336645751 -0.35273066994620572 0 -0.15125735243725449 -0.36655632239699759 0 -0.15698701933099601 -0.34080349879568439 0 -0.15125735243725449 -0.36655632239699759 0 -0.14742531600596359 -0.38377996909037332 0 -0.15125735243725449 -0.36655632239699759 0 -0.13783629615235199 -0.37436465409455028 0 -0.15125735243725449 -0.36655632239699759 0 -0.13783629615235199 -0.37436465409455028 0 -0.13433214091169149 -0.36644396550764052 0 -0.13783629615235199 -0.37436465409455028 0 -0.13433214091169149 -0.36644396550764052 0 -0.12703088625481179 -0.37353192569784421 0 -0.12978927336645751 -0.35273066994620572 0 -0.15125735243725449 -0.36655632239699759 0 -0.12978927336645751 -0.35273066994620572 0 -0.15125735243725449 -0.36655632239699759 0 -0.13433214091169149 -0.36644396550764052 0 -0.12978927336645751 -0.35273066994620572 0 -0.13433214091169149 -0.36644396550764052 0 -0.12574689634758279 -0.3650362554026032 0 -0.13433214091169149 -0.36644396550764052 0 -0.12574689634758279 -0.3650362554026032 0 -0.12703088625481179 -0.37353192569784421 0 -0.1202193409875652 -0.37017809234613291 0 -0.116549508231926 -0.3624189048983526 0 -0.10445681479268561 -0.37175299735199402 0 -0.12731259931081801 -0.37815037837987642 0 -0.10445681479268561 -0.37175299735199402 0 -0.12731259931081801 -0.37815037837987642 0 -0.1202193409875652 -0.37017809234613291 0 -0.10445681479268561 -0.37175299735199402 0 -0.12731259931081801 -0.37815037837987642 0 -0.12703088625481179 -0.37353192569784421 0 -0.1202193409875652 -0.37017809234613291 0 -0.12574689634758279 -0.3650362554026032 0 -0.12703088625481179 -0.37353192569784421 0 -0.1202193409875652 -0.37017809234613291 0 -0.12574689634758279 -0.3650362554026032 0 -0.1202193409875652 -0.37017809234613291 0 -0.116549508231926 -0.3624189048983526 0 -0.12978927336645751 -0.35273066994620572 0 -0.12574689634758279 -0.3650362554026032 0 -0.116549508231926 -0.3624189048983526 0 -0.116549508231926 -0.3624189048983526 0 -0.10445681479268561 -0.37175299735199402 0 -0.1043546792729013 -0.35321865146658771 0 -0.10445681479268561 -0.37175299735199402 0 -0.1043546792729013 -0.35321865146658771 0 -0.092676203453425324 -0.3587216162109409 0 -0.1043546792729013 -0.35321865146658771 0 -0.096371713194957853 -0.34290656444041068 0 -0.083009622468826205 -0.35016436019561342 0 -0.1043546792729013 -0.35321865146658771 0 -0.1083211942956615 -0.33890501749541208 0 -0.096371713194957853 -0.34290656444041068 0 -0.12978927336645751 -0.35273066994620572 0 -0.1043546792729013 -0.35321865146658771 0 -0.1083211942956615 -0.33890501749541208 0 -0.12978927336645751 -0.35273066994620572 0 -0.116549508231926 -0.3624189048983526 0 -0.1043546792729013 -0.35321865146658771 0 -0.12978927336645751 -0.35273066994620572 0 -0.1083211942956615 -0.33890501749541208 0 -0.12752073513736489 -0.33224080380229382 0 -0.1183728229236959 -0.32625549209349369 0 -0.1083211942956615 -0.33890501749541208 0 -0.12752073513736489 -0.33224080380229382 0 -0.12978927336645751 -0.35273066994620572 0 -0.1083211942956615 -0.33890501749541208 0 -0.13478732859181281 -0.30908655472834828 0 -0.11082022190833909 -0.31708295988648388 0 -0.1183728229236959 -0.32625549209349369 0 -0.11082022190833909 -0.31708295988648388 0 -0.1083211942956615 -0.33890501749541208 0 -0.13478732859181281 -0.30908655472834828 0 -0.12621108921675661 -0.32105341454128111 0 -0.11082022190833909 -0.31708295988648388 0 -0.12621108921675661 -0.32105341454128111 0 -0.1183728229236959 -0.32625549209349369 0 -0.11082022190833909 -0.31708295988648388 0 -0.12621108921675661 -0.32105341454128111 0 -0.12752073513736489 -0.33224080380229382 0 -0.1183728229236959 -0.32625549209349369 0 -0.11082022190833909 -0.31708295988648388 0 -0.086853115224865357 -0.3250793650446191 0 -0.11082022190833909 -0.31708295988648388 0 -0.086853115224865357 -0.3250793650446191 0 -0.091026365486778393 -0.30653046617934882 0 -0.11082022190833909 -0.31708295988648388 0 -0.1083211942956615 -0.33890501749541208 0 -0.086853115224865357 -0.3250793650446191 0 -0.1083211942956615 -0.33890501749541208 0 -0.086853115224865357 -0.3250793650446191 0 -0.1083211942956615 -0.33890501749541208 0 -0.096371713194957853 -0.34290656444041068 0 -0.086853115224865357 -0.3250793650446191 0 -0.096371713194957853 -0.34290656444041068 0 -0.086609498105586519 -0.33805253717800521 0 -0.086853115224865357 -0.3250793650446191 0 -0.096371713194957853 -0.34290656444041068 0 -0.086609498105586519 -0.33805253717800521 0 -0.083009622468826205 -0.35016436019561342 0 -0.086609498105586519 -0.33805253717800521 0 -0.08225402606434104 -0.33201580887082932 0 -0.074658016699990087 -0.33761988120731729 0 -0.086609498105586519 -0.33805253717800521 0 -0.08225402606434104 -0.33201580887082932 0 -0.086853115224865357 -0.3250793650446191 0 -0.08225402606434104 -0.33201580887082932 0 -0.079661005129346124 -0.32600010933688039 0 -0.074953244706148503 -0.32865309907241702 0 -0.086609498105586519 -0.33805253717800521 0 -0.074658016699990087 -0.33761988120731729 0 -0.083009622468826205 -0.35016436019561342 0 -0.086853115224865357 -0.3250793650446191 0 -0.07568266178057409 -0.31788548400248218 0 -0.091026365486778393 -0.30653046617934882 0 -0.086853115224865357 -0.3250793650446191 0 -0.079661005129346124 -0.32600010933688039 0 -0.07568266178057409 -0.31788548400248218 0 -0.086853115224865357 -0.3250793650446191 0 -0.07568266178057409 -0.31788548400248218 0 -0.08225402606434104 -0.33201580887082932 0 -0.086853115224865357 -0.3250793650446191 0 -0.079661005129346124 -0.32600010933688039 0 -0.07568266178057409 -0.31788548400248218 0 -0.058001085320626929 -0.33097063082807571 0 -0.07568266178057409 -0.31788548400248218 0 -0.074953244706148503 -0.32865309907241702 0 -0.058001085320626929 -0.33097063082807571 0 -0.071177311977466282 -0.31498399475690653 0 -0.07568266178057409 -0.31788548400248218 0 -0.058001085320626929 -0.33097063082807571 0 -0.071177311977466282 -0.31498399475690653 0 -0.07568266178057409 -0.31788548400248218 0 -0.079184192874685311 -0.30738249380854621 0 -0.071177311977466282 -0.31498399475690653 0 -0.07568266178057409 -0.31788548400248218 0 -0.079661005129346124 -0.32600010933688039 0 -0.07568266178057409 -0.31788548400248218 0 -0.074953244706148503 -0.32865309907241702 0 -0.074658016699990087 -0.33761988120731729 0 -0.074953244706148503 -0.32865309907241702 0 -0.058001085320626929 -0.33097063082807571 0 -0.074658016699990087 -0.33761988120731729 0 -0.061664565664751043 -0.34711006892463903 0 -0.058001085320626929 -0.33097063082807571 0 -0.08225402606434104 -0.33201580887082932 0 -0.074658016699990087 -0.33761988120731729 0 -0.074953244706148503 -0.32865309907241702 0 -0.071255116041136532 -0.35539707018515282 0 -0.083009622468826205 -0.35016436019561342 0 -0.061664565664751043 -0.34711006892463903 0 -0.083009622468826205 -0.35016436019561342 0 -0.061664565664751043 -0.34711006892463903 0 -0.074658016699990087 -0.33761988120731729 0 -0.083009622468826205 -0.35016436019561342 0 -0.061664565664751043 -0.34711006892463903 0 -0.071255116041136532 -0.35539707018515282 0 -0.058745245756417368 -0.35895823529624099 0 -0.061664565664751043 -0.34711006892463903 0 -0.071255116041136532 -0.35539707018515282 0 -0.081601030274551511 -0.3653556163241175 0 -0.058745245756417368 -0.35895823529624099 0 -0.081601030274551511 -0.3653556163241175 0 -0.058745245756417368 -0.35895823529624099 0 -0.06683076037414025 -0.37223170670979222 0 -0.081601030274551511 -0.3653556163241175 0 -0.07629227901192398 -0.38380234867392782 0 -0.06683076037414025 -0.37223170670979222 0 -0.081601030274551511 -0.3653556163241175 0 -0.058745245756417368 -0.35895823529624099 0 -0.10445681479268561 -0.37175299735199402 0 -0.081601030274551511 -0.3653556163241175 0 -0.093433783908985796 -0.37993418280307473 0 -0.10445681479268561 -0.37175299735199402 0 -0.081601030274551511 -0.3653556163241175 0 -0.10445681479268561 -0.37175299735199402 0 -0.081601030274551511 -0.3653556163241175 0 -0.092676203453425324 -0.3587216162109409 0 -0.1043546792729013 -0.35321865146658771 0 -0.092676203453425324 -0.3587216162109409 0 -0.083009622468826205 -0.35016436019561342 0 -0.1043546792729013 -0.35321865146658771 0 -0.083009622468826205 -0.35016436019561342 0 -0.071255116041136532 -0.35539707018515282 0 -0.081601030274551511 -0.3653556163241175 0 -0.083009622468826205 -0.35016436019561342 0 -0.081601030274551511 -0.3653556163241175 0 -0.092676203453425324 -0.3587216162109409 0 -0.083009622468826205 -0.35016436019561342 0 -0.09681974899521055 -0.25229235668335998 0 -0.10742645245257949 -0.26529452768222023 0 -0.1158055047269833 -0.24615486233701511 0 -0.09681974899521055 -0.25229235668335998 0 -0.10742645245257949 -0.26529452768222023 0 -0.083941362524087071 -0.26873007638502028 0 -0.10742645245257949 -0.26529452768222023 0 -0.1158055047269833 -0.24615486233701511 0 -0.12360456238295239 -0.25801993517505117 0 -0.1153301019417515 -0.2659818218084874 0 -0.1177956335395702 -0.247176896203187 0 -0.10742645245257949 -0.26529452768222023 0 -0.1153301019417515 -0.2659818218084874 0 -0.1177956335395702 -0.247176896203187 0 -0.1153301019417515 -0.2659818218084874 0 -0.1177956335395702 -0.247176896203187 0 -0.10742645245257949 -0.26529452768222023 0 -0.1177956335395702 -0.247176896203187 0 -0.1158055047269833 -0.24615486233701511 0 -0.13300922847988161 -0.25498986245784899 0 -0.12360456238295239 -0.25801993517505117 0 -0.1177956335395702 -0.247176896203187 0 -0.12745105800744411 -0.26390907244020551 0 -0.12360456238295239 -0.25801993517505117 0 -0.1153301019417515 -0.2659818218084874 0 -0.1153301019417515 -0.2659818218084874 0 -0.11084599987304811 -0.27175918355376882 0 -0.1151311056054678 -0.27768564531103801 0 -0.10742645245257949 -0.26529452768222023 0 -0.1153301019417515 -0.2659818218084874 0 -0.11084599987304811 -0.27175918355376882 0 -0.12745105800744411 -0.26390907244020551 0 -0.1153301019417515 -0.2659818218084874 0 -0.1243063921770825 -0.27198804626285372 0 -0.1153301019417515 -0.2659818218084874 0 -0.1243063921770825 -0.27198804626285372 0 -0.1151311056054678 -0.27768564531103801 0 -0.1243063921770825 -0.27198804626285372 0 -0.1151311056054678 -0.27768564531103801 0 -0.1221626902126717 -0.2819873119560653 0 -0.10742645245257949 -0.26529452768222023 0 -0.11084599987304811 -0.27175918355376882 0 -0.099047400178174733 -0.28443419302742501 0 -0.11084599987304811 -0.27175918355376882 0 -0.1151311056054678 -0.27768564531103801 0 -0.099047400178174733 -0.28443419302742501 0 -0.10742645245257949 -0.26529452768222023 0 -0.099047400178174733 -0.28443419302742501 0 -0.1151311056054678 -0.27768564531103801 0 -0.099047400178174733 -0.28443419302742501 0 -0.10742645245257949 -0.26529452768222023 0 -0.099047400178174733 -0.28443419302742501 0 -0.083941362524087071 -0.26873007638502028 0 -0.1151311056054678 -0.27768564531103801 0 -0.099047400178174733 -0.28443419302742501 0 -0.1110855781070965 -0.2865983512269577 0 -0.097813066669135418 -0.28725369212036822 0 -0.1063700691929786 -0.29517544835620968 0 -0.091026365486778393 -0.30653046617934882 0 -0.097813066669135418 -0.28725369212036822 0 -0.099047400178174733 -0.28443419302742501 0 -0.1042831695718473 -0.28852381466028859 0 -0.097813066669135418 -0.28725369212036822 0 -0.099047400178174733 -0.28443419302742501 0 -0.1063700691929786 -0.29517544835620968 0 -0.1042831695718473 -0.28852381466028859 0 -0.1110855781070965 -0.2865983512269577 0 -0.097813066669135418 -0.28725369212036822 0 -0.1063700691929786 -0.29517544835620968 0 -0.1042831695718473 -0.28852381466028859 0 -0.099047400178174733 -0.28443419302742501 0 -0.1042831695718473 -0.28852381466028859 0 -0.1110855781070965 -0.2865983512269577 0 -0.13257421819057011 -0.28492401028273812 0 -0.1169256129609467 -0.30704519185296641 0 -0.1151311056054678 -0.27768564531103801 0 -0.1110855781070965 -0.2865983512269577 0 -0.1221626902126717 -0.2819873119560653 0 -0.13257421819057011 -0.28492401028273812 0 -0.11983016797403891 -0.29147211375001703 0 -0.1169256129609467 -0.30704519185296641 0 -0.1110855781070965 -0.2865983512269577 0 -0.1221626902126717 -0.2819873119560653 0 -0.11983016797403891 -0.29147211375001703 0 -0.13257421819057011 -0.28492401028273812 0 -0.1221626902126717 -0.2819873119560653 0 -0.11983016797403891 -0.29147211375001703 0 -0.1110855781070965 -0.2865983512269577 0 -0.11983016797403891 -0.29147211375001703 0 -0.11228121886716699 -0.29713855322775329 0 -0.1063700691929786 -0.29517544835620968 0 -0.1110855781070965 -0.2865983512269577 0 -0.11228121886716699 -0.29713855322775329 0 -0.11983016797403891 -0.29147211375001703 0 -0.11228121886716699 -0.29713855322775329 0 -0.1169256129609467 -0.30704519185296641 0 -0.13478732859181281 -0.30908655472834828 0 -0.11082022190833909 -0.31708295988648388 0 -0.1169256129609467 -0.30704519185296641 0 -0.11228121886716699 -0.29713855322775329 0 -0.1169256129609467 -0.30704519185296641 0 -0.1071946661007742 -0.30540166095261578 0 -0.11082022190833909 -0.31708295988648388 0 -0.1169256129609467 -0.30704519185296641 0 -0.1071946661007742 -0.30540166095261578 0 -0.1063700691929786 -0.29517544835620968 0 -0.1071946661007742 -0.30540166095261578 0 -0.091026365486778393 -0.30653046617934882 0 -0.11082022190833909 -0.31708295988648388 0 -0.1071946661007742 -0.30540166095261578 0 -0.091026365486778393 -0.30653046617934882 0 -0.1063700691929786 -0.29517544835620968 0 -0.11228121886716699 -0.29713855322775329 0 -0.1071946661007742 -0.30540166095261578 0 -0.1063700691929786 -0.29517544835620968 0 -0.091026365486778393 -0.30653046617934882 0 -0.091026365486778393 -0.30653046617934882 0 -0.079184192874685311 -0.30738249380854621 0 -0.075222044552467338 -0.29443105289449711 0 -0.07568266178057409 -0.31788548400248218 0 -0.091026365486778393 -0.30653046617934882 0 -0.079184192874685311 -0.30738249380854621 0 -0.07568266178057409 -0.31788548400248218 0 -0.091026365486778393 -0.30653046617934882 0 -0.075222044552467338 -0.29443105289449711 0 -0.051396688926760623 -0.30442791276157039 0 -0.071177311977466282 -0.31498399475690653 0 -0.075222044552467338 -0.29443105289449711 0 -0.051396688926760623 -0.30442791276157039 0 -0.071177311977466282 -0.31498399475690653 0 -0.079184192874685311 -0.30738249380854621 0 -0.075222044552467338 -0.29443105289449711 0 -0.075222044552467338 -0.29443105289449711 0 -0.065814553524763383 -0.27803782868466648 0 -0.051396688926760623 -0.30442791276157039 0 -0.099047400178174733 -0.28443419302742501 0 -0.075222044552467338 -0.29443105289449711 0 -0.083941362524087071 -0.26873007638502028 0 -0.099047400178174733 -0.28443419302742501 0 -0.075222044552467338 -0.29443105289449711 0 -0.097813066669135418 -0.28725369212036822 0 -0.091026365486778393 -0.30653046617934882 0 -0.075222044552467338 -0.29443105289449711 0 -0.097813066669135418 -0.28725369212036822 0 -0.099047400178174733 -0.28443419302742501 0 -0.075222044552467338 -0.29443105289449711 0 -0.075222044552467338 -0.29443105289449711 0 -0.083941362524087071 -0.26873007638502028 0 -0.065814553524763383 -0.27803782868466648 0 -0.083941362524087071 -0.26873007638502028 0 -0.065814553524763383 -0.27803782868466648 0 -0.061985605076137887 -0.25827780968425201 0 -0.083941362524087071 -0.26873007638502028 0 -0.061985605076137887 -0.25827780968425201 0 -0.081273732889275266 -0.24834276603872149 0 -0.09681974899521055 -0.25229235668335998 0 -0.083941362524087071 -0.26873007638502028 0 -0.081273732889275266 -0.24834276603872149 0 -0.041572738466587093 -0.25922856357412682 0 -0.020248400191203789 -0.25532804206607279 0 -0.047544673664052163 -0.23857510946018851 0 -0.041572738466587093 -0.25922856357412682 0 -0.032806650150975482 -0.27102410124642928 0 -0.020248400191203789 -0.25532804206607279 0 -0.041572738466587093 -0.25922856357412682 0 -0.061985605076137887 -0.25827780968425201 0 -0.047544673664052163 -0.23857510946018851 0 -0.041572738466587093 -0.25922856357412682 0 -0.061985605076137887 -0.25827780968425201 0 -0.047648137906679502 -0.27579971050544078 0 -0.065814553524763383 -0.27803782868466648 0 -0.061985605076137887 -0.25827780968425201 0 -0.047648137906679502 -0.27579971050544078 0 -0.041572738466587093 -0.25922856357412682 0 -0.047648137906679502 -0.27579971050544078 0 -0.032806650150975482 -0.27102410124642928 0 -0.047648137906679502 -0.27579971050544078 0 -0.032806650150975482 -0.27102410124642928 0 -0.034644477901925867 -0.2854207582602904 0 -0.047648137906679502 -0.27579971050544078 0 -0.034644477901925867 -0.2854207582602904 0 -0.051396688926760623 -0.30442791276157039 0 -0.034644477901925867 -0.2854207582602904 0 -0.051396688926760623 -0.30442791276157039 0 -0.023745414794765909 -0.29688410222742723 0 -0.065814553524763383 -0.27803782868466648 0 -0.047648137906679502 -0.27579971050544078 0 -0.051396688926760623 -0.30442791276157039 0 -0.051396688926760623 -0.30442791276157039 0 -0.027571333301051638 -0.31442477262863872 0 -0.051396688926760623 -0.30442791276157039 0 -0.023745414794765909 -0.29688410222742723 0 -0.027571333301051638 -0.31442477262863872 0 -0.023745414794765909 -0.29688410222742723 0 -0.027571333301051638 -0.31442477262863872 0 -0.018883535252547209 -0.31807007811783661 0 -0.023745414794765909 -0.29688410222742723 0 -0.027571333301051638 -0.31442477262863872 0 -0.023745414794765909 -0.29688410222742723 0 -0.0111586100417972 -0.29085337535245642 0 -0.018883535252547209 -0.31807007811783661 0 -0.0067545365319594307 -0.30879114732062579 0 -0.0111586100417972 -0.29085337535245642 0 -0.018883535252547209 -0.31807007811783661 0 -0.0067545365319594307 -0.30879114732062579 0 -0.0111586100417972 -0.29085337535245642 0 0.003323148759076668 -0.3022104613585353 0 -0.0111586100417972 -0.29085337535245642 0 -0.018883535252547209 -0.31807007811783661 0 -0.034644477901925867 -0.2854207582602904 0 -0.023745414794765909 -0.29688410222742723 0 -0.02000125804030296 -0.27932559819772562 0 -0.023745414794765909 -0.29688410222742723 0 -0.02000125804030296 -0.27932559819772562 0 -0.023745414794765909 -0.29688410222742723 0 -0.0111586100417972 -0.29085337535245642 0 -0.02000125804030296 -0.27932559819772562 0 -0.02000125804030296 -0.27932559819772562 0 -0.020248400191203789 -0.25532804206607279 0 -0.02000125804030296 -0.27932559819772562 0 -0.01394704743379436 -0.25196157393351171 0 -0.032806650150975482 -0.27102410124642928 0 -0.02000125804030296 -0.27932559819772562 0 -0.020248400191203789 -0.25532804206607279 0 -0.032806650150975482 -0.27102410124642928 0 -0.034644477901925867 -0.2854207582602904 0 -0.02000125804030296 -0.27932559819772562 0 -0.0111586100417972 -0.29085337535245642 0 -0.0034336848310450759 -0.26363667258707679 0 0.012301823433282221 -0.28445531933498941 0 -0.0111586100417972 -0.29085337535245642 0 -0.02000125804030296 -0.27932559819772562 0 -0.0034336848310450759 -0.26363667258707679 0 -0.0111586100417972 -0.29085337535245642 0 -0.0034336848310450759 -0.26363667258707679 0 -0.02000125804030296 -0.27932559819772562 0 -0.01394704743379436 -0.25196157393351171 0 -0.0034336848310450759 -0.26363667258707679 0 -0.01394704743379436 -0.25196157393351171 0 -0.0034336848310450759 -0.26363667258707679 0 0.0042912403797070262 -0.2364199698216973 0 -0.02000125804030296 -0.27932559819772562 0 -0.01394704743379436 -0.25196157393351171 0 -0.020248400191203789 -0.25532804206607279 0 -0.040319508860675958 -0.34405577765366391 0 -0.035889461238286118 -0.35256085426835421 0 -0.04915469538003181 -0.35067123403572698 0 -0.034907883452695639 -0.34806061925751541 0 -0.035889461238286118 -0.35256085426835421 0 -0.034907883452695639 -0.34806061925751541 0 -0.033831876232445497 -0.34312745406626188 0 -0.030765028221893059 -0.35112651494250308 0 -0.040319508860675958 -0.34405577765366391 0 -0.034907883452695639 -0.34806061925751541 0 -0.035889461238286118 -0.35256085426835421 0 -0.040319508860675958 -0.34405577765366391 0 -0.034907883452695639 -0.34806061925751541 0 -0.033831876232445497 -0.34312745406626188 0 -0.040319508860675958 -0.34405577765366391 0 -0.034907883452695639 -0.34806061925751541 0 -0.034907883452695639 -0.34806061925751541 0 -0.033831876232445497 -0.34312745406626188 0 -0.034907883452695639 -0.34806061925751541 0 -0.030765028221893059 -0.35112651494250308 0 -0.034907883452695639 -0.34806061925751541 0 -0.035889461238286118 -0.35256085426835421 0 -0.030765028221893059 -0.35112651494250308 0 -0.035889461238286118 -0.35256085426835421 0 -0.030765028221893059 -0.35112651494250308 0 -0.035889461238286118 -0.35256085426835421 0 -0.030765028221893059 -0.35112651494250308 0 -0.02916404981963797 -0.36465575649723009 0 -0.035889461238286118 -0.35256085426835421 0 -0.02916404981963797 -0.36465575649723009 0 -0.041723054893971143 -0.3793061033896894 0 -0.048114528341656623 -0.36026265743910912 0 -0.041723054893971143 -0.3793061033896894 0 -0.035889461238286118 -0.35256085426835421 0 -0.048114528341656623 -0.36026265743910912 0 -0.041723054893971143 -0.3793061033896894 0 -0.035889461238286118 -0.35256085426835421 0 -0.041723054893971143 -0.3793061033896894 0 -0.02916404981963797 -0.36465575649723009 0 -0.02299046663820915 -0.37708661041322122 0 -0.041723054893971143 -0.3793061033896894 0 -0.048114528341656623 -0.36026265743910912 0 -0.054894417169568388 -0.37230984417605001 0 -0.041723054893971143 -0.3793061033896894 0 -0.048114528341656623 -0.36026265743910912 0 -0.054894417169568388 -0.37230984417605001 0 -0.058745245756417368 -0.35895823529624099 0 -0.06683076037414025 -0.37223170670979222 0 -0.054894417169568388 -0.37230984417605001 0 -0.058745245756417368 -0.35895823529624099 0 -0.058745245756417368 -0.35895823529624099 0 -0.04915469538003181 -0.35067123403572698 0 -0.061664565664751043 -0.34711006892463903 0 -0.035889461238286118 -0.35256085426835421 0 -0.058745245756417368 -0.35895823529624099 0 -0.035889461238286118 -0.35256085426835421 0 -0.048114528341656623 -0.36026265743910912 0 -0.058745245756417368 -0.35895823529624099 0 -0.040319508860675958 -0.34405577765366391 0 -0.061664565664751043 -0.34711006892463903 0 -0.040319508860675958 -0.34405577765366391 0 -0.04915469538003181 -0.35067123403572698 0 -0.061664565664751043 -0.34711006892463903 0 -0.035889461238286118 -0.35256085426835421 0 -0.058745245756417368 -0.35895823529624099 0 -0.04915469538003181 -0.35067123403572698 0 -0.040319508860675958 -0.34405577765366391 0 -0.061664565664751043 -0.34711006892463903 0 -0.058001085320626929 -0.33097063082807571 0 -0.040319508860675958 -0.34405577765366391 0 -0.058001085320626929 -0.33097063082807571 0 -0.058001085320626929 -0.33097063082807571 0 -0.055011098357084259 -0.31931156667285798 0 -0.039469307203483232 -0.32686372834487931 0 -0.051396688926760623 -0.30442791276157039 0 -0.055011098357084259 -0.31931156667285798 0 -0.039469307203483232 -0.32686372834487931 0 -0.071177311977466282 -0.31498399475690653 0 -0.058001085320626929 -0.33097063082807571 0 -0.055011098357084259 -0.31931156667285798 0 -0.071177311977466282 -0.31498399475690653 0 -0.051396688926760623 -0.30442791276157039 0 -0.055011098357084259 -0.31931156667285798 0 -0.051396688926760623 -0.30442791276157039 0 -0.039469307203483232 -0.32686372834487931 0 -0.027571333301051638 -0.31442477262863872 0 -0.040319508860675958 -0.34405577765366391 0 -0.058001085320626929 -0.33097063082807571 0 -0.039469307203483232 -0.32686372834487931 0 -0.039469307203483232 -0.32686372834487931 0 -0.033831876232445497 -0.34312745406626188 0 -0.027571333301051638 -0.31442477262863872 0 -0.040319508860675958 -0.34405577765366391 0 -0.039469307203483232 -0.32686372834487931 0 -0.033831876232445497 -0.34312745406626188 0 -0.040319508860675958 -0.34405577765366391 0 -0.033831876232445497 -0.34312745406626188 0 -0.033831876232445497 -0.34312745406626188 0 -0.0164178869995209 -0.33526179740717582 0 -0.008920340904456675 -0.3395628308564359 0 -0.033831876232445497 -0.34312745406626188 0 -0.022040231955932899 -0.33322819604217002 0 -0.023392444229599609 -0.32638111119723162 0 -0.033831876232445497 -0.34312745406626188 0 -0.027571333301051638 -0.31442477262863872 0 -0.033831876232445497 -0.34312745406626188 0 -0.022040231955932899 -0.33322819604217002 0 -0.0164178869995209 -0.33526179740717582 0 -0.033831876232445497 -0.34312745406626188 0 -0.008920340904456675 -0.3395628308564359 0 -0.022040231955932899 -0.33322819604217002 0 -0.016032148567680531 -0.3287750353085237 0 -0.023392444229599609 -0.32638111119723162 0 -0.022040231955932899 -0.33322819604217002 0 -0.016032148567680531 -0.3287750353085237 0 -0.0164178869995209 -0.33526179740717582 0 -0.033831876232445497 -0.34312745406626188 0 -0.027571333301051638 -0.31442477262863872 0 -0.023392444229599609 -0.32638111119723162 0 -0.027571333301051638 -0.31442477262863872 0 -0.023392444229599609 -0.32638111119723162 0 -0.01937014742273559 -0.31978452562854348 0 -0.016032148567680531 -0.3287750353085237 0 -0.023392444229599609 -0.32638111119723162 0 -0.01695512845568909 -0.32428673993316709 0 -0.023392444229599609 -0.32638111119723162 0 -0.01695512845568909 -0.32428673993316709 0 -0.01937014742273559 -0.31978452562854348 0 -0.01937014742273559 -0.31978452562854348 0 -0.018883535252547209 -0.31807007811783661 0 -0.0090257736027406291 -0.32220628759836972 0 -0.027571333301051638 -0.31442477262863872 0 -0.01937014742273559 -0.31978452562854348 0 -0.018883535252547209 -0.31807007811783661 0 -0.027571333301051638 -0.31442477262863872 0 -0.018883535252547209 -0.31807007811783661 0 -0.01937014742273559 -0.31978452562854348 0 -0.018883535252547209 -0.31807007811783661 0 -0.0067545365319594307 -0.30879114732062579 0 -0.018883535252547209 -0.31807007811783661 0 -0.0090257736027406291 -0.32220628759836972 0 -0.018883535252547209 -0.31807007811783661 0 -0.0090257736027406291 -0.32220628759836972 0 -0.016032148567680531 -0.3287750353085237 0 -0.01695512845568909 -0.32428673993316709 0 -0.0090257736027406291 -0.32220628759836972 0 -0.016032148567680531 -0.3287750353085237 0 -0.0090257736027406291 -0.32220628759836972 0 -0.0075933607006537247 -0.330918097490561 0 -0.01695512845568909 -0.32428673993316709 0 -0.01937014742273559 -0.31978452562854348 0 -0.0090257736027406291 -0.32220628759836972 0 -0.0090257736027406291 -0.32220628759836972 0 0.002036169775394434 -0.33074387099242142 0 0.0036753886295589318 -0.31760360145895911 0 -0.0090257736027406291 -0.32220628759836972 0 -0.0075933607006537247 -0.330918097490561 0 0.002036169775394434 -0.33074387099242142 0 -0.0067545365319594307 -0.30879114732062579 0 -0.0090257736027406291 -0.32220628759836972 0 0.0036753886295589318 -0.31760360145895911 0 -0.0164178869995209 -0.33526179740717582 0 -0.008920340904456675 -0.3395628308564359 0 -0.0075933607006537247 -0.330918097490561 0 -0.016032148567680531 -0.3287750353085237 0 -0.0164178869995209 -0.33526179740717582 0 -0.0075933607006537247 -0.330918097490561 0 -0.008920340904456675 -0.3395628308564359 0 -0.0075933607006537247 -0.330918097490561 0 0.002036169775394434 -0.33074387099242142 0 -0.008920340904456675 -0.3395628308564359 0 -0.0032626783328855158 -0.34342855072419909 0 0.002036169775394434 -0.33074387099242142 0 -0.008920340904456675 -0.3395628308564359 0 -0.0032626783328855158 -0.34342855072419909 0 -0.030765028221893059 -0.35112651494250308 0 -0.0032626783328855158 -0.34342855072419909 0 -0.0042055800094244816 -0.35594650712409043 0 -0.030765028221893059 -0.35112651494250308 0 -0.0032626783328855158 -0.34342855072419909 0 -0.030765028221893059 -0.35112651494250308 0 -0.030765028221893059 -0.35112651494250308 0 -0.014452238105836689 -0.36319869947236821 0 -0.0042055800094244816 -0.35594650712409043 0 -0.030765028221893059 -0.35112651494250308 0 -0.014452238105836689 -0.36319869947236821 0 -0.033831876232445497 -0.34312745406626188 0 -0.008920340904456675 -0.3395628308564359 0 -0.030765028221893059 -0.35112651494250308 0 -0.030765028221893059 -0.35112651494250308 0 -0.02916404981963797 -0.36465575649723009 0 -0.014452238105836689 -0.36319869947236821 0 -0.02916404981963797 -0.36465575649723009 0 -0.014452238105836689 -0.36319869947236821 0 -0.02299046663820915 -0.37708661041322122 0 -0.014452238105836689 -0.36319869947236821 0 -0.00049818021965669299 -0.36793998380101861 0 -0.0091625555842868977 -0.37864897017850219 0 -0.014452238105836689 -0.36319869947236821 0 -0.0091625555842868977 -0.37864897017850219 0 -0.02299046663820915 -0.37708661041322122 0 -0.0042055800094244816 -0.35594650712409043 0 -0.014452238105836689 -0.36319869947236821 0 -0.00049818021965669299 -0.36793998380101861 0 -0.00049818021965669299 -0.36793998380101861 0 -0.0091625555842868977 -0.37864897017850219 0 0.0063160394866382131 -0.39658058355250198 0 -0.014187932444370161 -0.38843897365340102 0 -0.0091625555842868977 -0.37864897017850219 0 0.0063160394866382131 -0.39658058355250198 0 -0.014187932444370161 -0.38843897365340102 0 -0.0091625555842868977 -0.37864897017850219 0 -0.02299046663820915 -0.37708661041322122 0 -0.014187932444370161 -0.38843897365340102 0 -0.010997450813427481 -0.40058352836793287 0 0.0063160394866382131 -0.39658058355250198 0 -0.010997450813427481 -0.40058352836793287 0 -0.0069005692177502602 -0.41485602653172571 0 0.0063160394866382131 -0.39658058355250198 0 -0.014187932444370161 -0.38843897365340102 0 -0.010997450813427481 -0.40058352836793287 0 -0.033621455661523907 -0.40344488271175161 0 -0.014187932444370161 -0.38843897365340102 0 -0.02299046663820915 -0.37708661041322122 0 -0.033621455661523907 -0.40344488271175161 0 -0.02299046663820915 -0.37708661041322122 0 -0.041723054893971143 -0.3793061033896894 0 -0.033621455661523907 -0.40344488271175161 0 -0.041723054893971143 -0.3793061033896894 0 -0.045501965724792218 -0.3966312579245182 0 -0.041723054893971143 -0.3793061033896894 0 -0.045501965724792218 -0.3966312579245182 0 -0.052921398555225208 -0.38465876514529279 0 -0.041723054893971143 -0.3793061033896894 0 -0.033621455661523907 -0.40344488271175161 0 -0.041723054893971143 -0.3793061033896894 0 -0.033621455661523907 -0.40344488271175161 0 -0.045501965724792218 -0.3966312579245182 0 -0.033621455661523907 -0.40344488271175161 0 -0.045501965724792218 -0.3966312579245182 0 -0.049280876555615659 -0.4139564124593465 0 -0.045501965724792218 -0.3966312579245182 0 -0.059758784724302252 -0.40642168719310068 0 -0.049280876555615659 -0.4139564124593465 0 -0.045501965724792218 -0.3966312579245182 0 -0.049280876555615659 -0.4139564124593465 0 -0.045501965724792218 -0.3966312579245182 0 -0.059866725329556648 -0.39431413115758179 0 -0.052921398555225208 -0.38465876514529279 0 -0.045501965724792218 -0.3966312579245182 0 -0.059866725329556648 -0.39431413115758179 0 -0.059758784724302252 -0.40642168719310068 0 -0.059866725329556648 -0.39431413115758179 0 -0.052921398555225208 -0.38465876514529279 0 -0.062620829658239993 -0.38073248907862461 0 -0.054894417169568388 -0.37230984417605001 0 -0.052921398555225208 -0.38465876514529279 0 -0.062620829658239993 -0.38073248907862461 0 -0.06683076037414025 -0.37223170670979222 0 -0.054894417169568388 -0.37230984417605001 0 -0.062620829658239993 -0.38073248907862461 0 -0.054894417169568388 -0.37230984417605001 0 -0.041723054893971143 -0.3793061033896894 0 -0.052921398555225208 -0.38465876514529279 0 -0.05583106242747779 -0.42715365531609761 0 -0.050837327835113577 -0.44104489701053962 0 -0.068083297190238576 -0.43666111615527647 0 -0.05583106242747779 -0.42715365531609761 0 -0.049280876555615659 -0.4139564124593465 0 -0.041798958374846588 -0.4272503188121069 0 -0.05583106242747779 -0.42715365531609761 0 -0.041798958374846588 -0.4272503188121069 0 -0.050837327835113577 -0.44104489701053962 0 -0.059758784724302252 -0.40642168719310068 0 -0.049280876555615659 -0.4139564124593465 0 -0.067569164098457743 -0.4172573341241147 0 -0.05583106242747779 -0.42715365531609761 0 -0.049280876555615659 -0.4139564124593465 0 -0.067569164098457743 -0.4172573341241147 0 -0.033621455661523907 -0.40344488271175161 0 -0.049280876555615659 -0.4139564124593465 0 -0.041798958374846588 -0.4272503188121069 0 -0.033621455661523907 -0.40344488271175161 0 -0.041798958374846588 -0.4272503188121069 0 -0.025519856429074041 -0.42758366203381282 0 -0.041798958374846588 -0.4272503188121069 0 -0.025519856429074041 -0.42758366203381282 0 -0.037800118792926121 -0.4511204530918852 0 -0.033621455661523907 -0.40344488271175161 0 -0.025519856429074041 -0.42758366203381282 0 -0.0069005692177502602 -0.41485602653172571 0 -0.010997450813427481 -0.40058352836793287 0 -0.033621455661523907 -0.40344488271175161 0 -0.0069005692177502602 -0.41485602653172571 0 -0.033621455661523907 -0.40344488271175161 0 -0.025519856429074041 -0.42758366203381282 0 -0.025519856429074041 -0.42758366203381282 0 -0.0032746580085849359 -0.4322889095963432 0 -0.017418257196624171 -0.45172244135587403 0 -0.025519856429074041 -0.42758366203381282 0 -0.0069005692177502602 -0.41485602653172571 0 -0.0032746580085849359 -0.4322889095963432 0 -0.0032746580085849359 -0.4322889095963432 0 -0.017418257196624171 -0.45172244135587403 0 0.001716639485354166 -0.44953294239826891 0 -0.017418257196624171 -0.45172244135587403 0 0.001716639485354166 -0.44953294239826891 0 0.0037264172664160612 -0.46476221296183129 0 -0.017418257196624171 -0.45172244135587403 0 -0.0093166579641743019 -0.47586122067793529 0 0.0037264172664160612 -0.46476221296183129 0 -0.017418257196624171 -0.45172244135587403 0 -0.0093166579641743019 -0.47586122067793529 0 -0.017418257196624171 -0.45172244135587403 0 -0.034765769956175759 -0.47661528403520143 0 -0.037800118792926121 -0.4511204530918852 0 -0.017418257196624171 -0.45172244135587403 0 -0.0093166579641743019 -0.47586122067793529 0 -0.034765769956175759 -0.47661528403520143 0 -0.025519856429074041 -0.42758366203381282 0 -0.017418257196624171 -0.45172244135587403 0 -0.037800118792926121 -0.4511204530918852 0 -0.025519856429074041 -0.42758366203381282 0 -0.017418257196624171 -0.45172244135587403 0 -0.0012150587317253359 -0.49999999999999689 0 -0.0093166579641743019 -0.47586122067793529 0 -0.02955374283658058 -0.5 0 -0.0012150587317253359 -0.49999999999999689 0 -0.0093166579641743019 -0.47586122067793529 0 -0.0093166579641743019 -0.47586122067793529 0 -0.02955374283658058 -0.5 0 -0.034765769956175759 -0.47661528403520143 0 -0.02955374283658058 -0.5 0 -0.034765769956175759 -0.47661528403520143 0 -0.057892426941435933 -0.5 0 -0.034765769956175759 -0.47661528403520143 0 -0.060493098404131813 -0.48128096473191367 0 -0.046527643832088281 -0.46730596501106741 0 -0.034765769956175759 -0.47661528403520143 0 -0.060493098404131813 -0.48128096473191367 0 -0.057892426941435933 -0.5 0 -0.041798958374846588 -0.4272503188121069 0 -0.037800118792926121 -0.4511204530918852 0 -0.050837327835113577 -0.44104489701053962 0 -0.034765769956175759 -0.47661528403520143 0 -0.037800118792926121 -0.4511204530918852 0 -0.046527643832088281 -0.46730596501106741 0 -0.037800118792926121 -0.4511204530918852 0 -0.046527643832088281 -0.46730596501106741 0 -0.060107654401864129 -0.45714707297643609 0 -0.060493098404131813 -0.48128096473191367 0 -0.046527643832088281 -0.46730596501106741 0 -0.060107654401864129 -0.45714707297643609 0 -0.037800118792926121 -0.4511204530918852 0 -0.060107654401864129 -0.45714707297643609 0 -0.050837327835113577 -0.44104489701053962 0 -0.060107654401864129 -0.45714707297643609 0 -0.050837327835113577 -0.44104489701053962 0 -0.068083297190238576 -0.43666111615527647 0 -0.076215960986966091 -0.45064351749524267 0 -0.085238693344377295 -0.43919349547655318 0 -0.068083297190238576 -0.43666111615527647 0 -0.060107654401864129 -0.45714707297643609 0 -0.076215960986966091 -0.45064351749524267 0 -0.068083297190238576 -0.43666111615527647 0 -0.060107654401864129 -0.45714707297643609 0 -0.076215960986966091 -0.45064351749524267 0 -0.080796133771584483 -0.47197259733912739 0 -0.076215960986966091 -0.45064351749524267 0 -0.090455867387084138 -0.45492837382284063 0 -0.080796133771584483 -0.47197259733912739 0 -0.090455867387084138 -0.45492837382284063 0 -0.080796133771584483 -0.47197259733912739 0 -0.10136153491973419 -0.46615706817959068 0 -0.076215960986966091 -0.45064351749524267 0 -0.090455867387084138 -0.45492837382284063 0 -0.085238693344377295 -0.43919349547655318 0 -0.090455867387084138 -0.45492837382284063 0 -0.085238693344377295 -0.43919349547655318 0 -0.098675274990616915 -0.44122073313743448 0 -0.060493098404131813 -0.48128096473191367 0 -0.080796133771584483 -0.47197259733912739 0 -0.086231111046291165 -0.5 0 -0.060493098404131813 -0.48128096473191367 0 -0.057892426941435933 -0.5 0 -0.086231111046291165 -0.5 0 -0.060493098404131813 -0.48128096473191367 0 -0.060107654401864129 -0.45714707297643609 0 -0.080796133771584483 -0.47197259733912739 0 -0.080796133771584483 -0.47197259733912739 0 -0.098514161029900488 -0.48342727467041952 0 -0.10136153491973419 -0.46615706817959068 0 -0.080796133771584483 -0.47197259733912739 0 -0.086231111046291165 -0.5 0 -0.098514161029900488 -0.48342727467041952 0 -0.086231111046291165 -0.5 0 -0.098514161029900488 -0.48342727467041952 0 -0.1145697951511464 -0.5 0 -0.098514161029900488 -0.48342727467041952 0 -0.1155548340309195 -0.47643349291920761 0 -0.10136153491973419 -0.46615706817959068 0 -0.098514161029900488 -0.48342727467041952 0 -0.1155548340309195 -0.47643349291920761 0 -0.1145697951511464 -0.5 0 -0.133932716092861 -0.48326153465856359 0 -0.1155548340309195 -0.47643349291920761 0 -0.1145697951511464 -0.5 0 -0.1058990074454743 -0.45050349201487738 0 -0.098675274990616915 -0.44122073313743448 0 -0.107966846099008 -0.43675202388278311 0 -0.090455867387084138 -0.45492837382284063 0 -0.1058990074454743 -0.45050349201487738 0 -0.098675274990616915 -0.44122073313743448 0 -0.1058990074454743 -0.45050349201487738 0 -0.10136153491973419 -0.46615706817959068 0 -0.1157377828646399 -0.46025984876472881 0 -0.090455867387084138 -0.45492837382284063 0 -0.1058990074454743 -0.45050349201487738 0 -0.10136153491973419 -0.46615706817959068 0 -0.13045105657935471 -0.46495914480149059 0 -0.1155548340309195 -0.47643349291920761 0 -0.1157377828646399 -0.46025984876472881 0 -0.1155548340309195 -0.47643349291920761 0 -0.10136153491973419 -0.46615706817959068 0 -0.1157377828646399 -0.46025984876472881 0 -0.13045105657935471 -0.46495914480149059 0 -0.1157377828646399 -0.46025984876472881 0 -0.1211967384117625 -0.44370290430188669 0 -0.1058990074454743 -0.45050349201487738 0 -0.1157377828646399 -0.46025984876472881 0 -0.1211967384117625 -0.44370290430188669 0 -0.1058990074454743 -0.45050349201487738 0 -0.1211967384117625 -0.44370290430188669 0 -0.107966846099008 -0.43675202388278311 0 -0.13021254006614369 -0.42569250990204588 0 -0.1211967384117625 -0.44370290430188669 0 -0.1119424202441703 -0.4224466638022828 0 -0.1211967384117625 -0.44370290430188669 0 -0.1119424202441703 -0.4224466638022828 0 -0.107966846099008 -0.43675202388278311 0 -0.1211967384117625 -0.44370290430188669 0 -0.1119424202441703 -0.4224466638022828 0 -0.1119424202441703 -0.4224466638022828 0 -0.107966846099008 -0.43675202388278311 0 -0.096703381333705485 -0.4261020298886522 0 -0.098675274990616915 -0.44122073313743448 0 -0.107966846099008 -0.43675202388278311 0 -0.096703381333705485 -0.4261020298886522 0 -0.096703381333705485 -0.4261020298886522 0 -0.10268810207657809 -0.40119042330267879 0 -0.085311023742514341 -0.4102908943412984 0 -0.1119424202441703 -0.4224466638022828 0 -0.10268810207657809 -0.40119042330267879 0 -0.1119424202441703 -0.4224466638022828 0 -0.096703381333705485 -0.4261020298886522 0 -0.10268810207657809 -0.40119042330267879 0 -0.13021254006614369 -0.42569250990204588 0 -0.1119424202441703 -0.4224466638022828 0 -0.12164930739674711 -0.41331108322626531 0 -0.1119424202441703 -0.4224466638022828 0 -0.1156796995882033 -0.40318371505977069 0 -0.10268810207657809 -0.40119042330267879 0 -0.1119424202441703 -0.4224466638022828 0 -0.12164930739674711 -0.41331108322626531 0 -0.1156796995882033 -0.40318371505977069 0 -0.12876256968847141 -0.40192144414096181 0 -0.12164930739674711 -0.41331108322626531 0 -0.1156796995882033 -0.40318371505977069 0 -0.12876256968847141 -0.40192144414096181 0 -0.1156796995882033 -0.40318371505977069 0 -0.120538249786524 -0.39049335028714738 0 -0.1156796995882033 -0.40318371505977069 0 -0.120538249786524 -0.39049335028714738 0 -0.10698558987010361 -0.38667678426898439 0 -0.12731259931081801 -0.37815037837987642 0 -0.120538249786524 -0.39049335028714738 0 -0.10698558987010361 -0.38667678426898439 0 -0.12731259931081801 -0.37815037837987642 0 -0.10445681479268561 -0.37175299735199402 0 -0.10698558987010361 -0.38667678426898439 0 -0.10698558987010361 -0.38667678426898439 0 -0.10268810207657809 -0.40119042330267879 0 -0.093433783908985796 -0.37993418280307473 0 -0.10268810207657809 -0.40119042330267879 0 -0.093433783908985796 -0.37993418280307473 0 -0.10445681479268561 -0.37175299735199402 0 -0.10698558987010361 -0.38667678426898439 0 -0.093433783908985796 -0.37993418280307473 0 -0.10268810207657809 -0.40119042330267879 0 -0.086332130246573616 -0.39503035759251959 0 -0.093433783908985796 -0.37993418280307473 0 -0.1156796995882033 -0.40318371505977069 0 -0.10698558987010361 -0.38667678426898439 0 -0.10268810207657809 -0.40119042330267879 0 -0.10268810207657809 -0.40119042330267879 0 -0.086332130246573616 -0.39503035759251959 0 -0.085311023742514341 -0.4102908943412984 0 -0.086332130246573616 -0.39503035759251959 0 -0.07629227901192398 -0.38380234867392782 0 -0.073565648989695656 -0.40111059421273593 0 -0.086332130246573616 -0.39503035759251959 0 -0.073565648989695656 -0.40111059421273593 0 -0.085311023742514341 -0.4102908943412984 0 -0.081601030274551511 -0.3653556163241175 0 -0.093433783908985796 -0.37993418280307473 0 -0.07629227901192398 -0.38380234867392782 0 -0.086332130246573616 -0.39503035759251959 0 -0.093433783908985796 -0.37993418280307473 0 -0.07629227901192398 -0.38380234867392782 0 -0.059866725329556648 -0.39431413115758179 0 -0.07629227901192398 -0.38380234867392782 0 -0.062620829658239993 -0.38073248907862461 0 -0.06683076037414025 -0.37223170670979222 0 -0.07629227901192398 -0.38380234867392782 0 -0.062620829658239993 -0.38073248907862461 0 -0.059866725329556648 -0.39431413115758179 0 -0.07629227901192398 -0.38380234867392782 0 -0.073565648989695656 -0.40111059421273593 0 -0.059866725329556648 -0.39431413115758179 0 -0.059758784724302252 -0.40642168719310068 0 -0.073565648989695656 -0.40111059421273593 0 -0.073565648989695656 -0.40111059421273593 0 -0.067569164098457743 -0.4172573341241147 0 -0.085311023742514341 -0.4102908943412984 0 -0.067569164098457743 -0.4172573341241147 0 -0.081298378177652661 -0.42560520235987298 0 -0.085311023742514341 -0.4102908943412984 0 -0.059758784724302252 -0.40642168719310068 0 -0.073565648989695656 -0.40111059421273593 0 -0.067569164098457743 -0.4172573341241147 0 -0.05583106242747779 -0.42715365531609761 0 -0.067569164098457743 -0.4172573341241147 0 -0.068083297190238576 -0.43666111615527647 0 -0.067569164098457743 -0.4172573341241147 0 -0.068083297190238576 -0.43666111615527647 0 -0.081298378177652661 -0.42560520235987298 0 -0.085238693344377295 -0.43919349547655318 0 -0.068083297190238576 -0.43666111615527647 0 -0.081298378177652661 -0.42560520235987298 0 -0.085238693344377295 -0.43919349547655318 0 -0.096703381333705485 -0.4261020298886522 0 -0.081298378177652661 -0.42560520235987298 0 -0.085238693344377295 -0.43919349547655318 0 -0.098675274990616915 -0.44122073313743448 0 -0.096703381333705485 -0.4261020298886522 0 -0.096703381333705485 -0.4261020298886522 0 -0.081298378177652661 -0.42560520235987298 0 -0.085311023742514341 -0.4102908943412984 0 -0.08022384646223743 -0.079727022664896202 0 -0.086695441452537825 -0.087321243365971524 0 -0.078006122601487177 -0.087211504938541518 0 -0.086695441452537825 -0.087321243365971524 0 -0.078006122601487177 -0.087211504938541518 0 -0.087397441684577692 -0.096311032880035341 0 -0.078006122601487177 -0.087211504938541518 0 -0.087397441684577692 -0.096311032880035341 0 -0.086695441452537825 -0.087321243365971524 0 -0.092459937136554121 -0.092441504054700488 0 -0.095389859377833564 -0.080915152291685 0 -0.086695441452537825 -0.087321243365971524 0 -0.092459937136554121 -0.092441504054700488 0 -0.087397441684577692 -0.096311032880035341 0 -0.08022384646223743 -0.079727022664896202 0 -0.095389859377833564 -0.080915152291685 0 -0.08022384646223743 -0.079727022664896202 0 -0.086695441452537825 -0.087321243365971524 0 -0.095389859377833564 -0.080915152291685 0 -0.08022384646223743 -0.079727022664896202 0 -0.091867377641549688 -0.079219400773716003 0 -0.095389859377833564 -0.080915152291685 0 -0.091867377641549688 -0.079219400773716003 0 -0.072359825900047942 -0.069365106554348743 0 -0.075457530542314896 -0.057871142663091658 0 -0.091867377641549688 -0.079219400773716003 0 -0.1015946592339077 -0.056505389891616929 0 -0.075457530542314896 -0.057871142663091658 0 -0.08022384646223743 -0.079727022664896202 0 -0.091867377641549688 -0.079219400773716003 0 -0.072359825900047942 -0.069365106554348743 0 -0.091867377641549688 -0.079219400773716003 0 -0.075457530542314896 -0.057871142663091658 0 -0.08022384646223743 -0.079727022664896202 0 -0.072359825900047942 -0.069365106554348743 0 -0.065057833546641311 -0.078538893038107224 0 -0.072359825900047942 -0.069365106554348743 0 -0.065057833546641311 -0.078538893038107224 0 -0.050802705429170578 -0.063132108385647548 0 -0.065057833546641311 -0.078538893038107224 0 -0.061101095670847552 -0.078228915885784067 0 -0.065057833546641311 -0.078538893038107224 0 -0.061741925896660547 -0.086355150006989442 0 -0.061101095670847552 -0.078228915885784067 0 -0.065057833546641311 -0.078538893038107224 0 -0.068213312430608464 -0.093337823940471937 0 -0.083943905421851067 -0.098950750435282717 0 -0.065057833546641311 -0.078538893038107224 0 -0.083943905421851067 -0.098950750435282717 0 -0.065057833546641311 -0.078538893038107224 0 -0.078006122601487177 -0.087211504938541518 0 -0.083943905421851067 -0.098950750435282717 0 -0.08022384646223743 -0.079727022664896202 0 -0.065057833546641311 -0.078538893038107224 0 -0.078006122601487177 -0.087211504938541518 0 -0.08022384646223743 -0.079727022664896202 0 -0.065057833546641311 -0.078538893038107224 0 -0.065057833546641311 -0.078538893038107224 0 -0.068213312430608464 -0.093337823940471937 0 -0.061741925896660547 -0.086355150006989442 0 -0.068213312430608464 -0.093337823940471937 0 -0.076890731114810873 -0.10434185874344649 0 -0.083943905421851067 -0.098950750435282717 0 -0.068213312430608464 -0.093337823940471937 0 -0.076890731114810873 -0.10434185874344649 0 -0.052718805281362018 -0.098506325735302672 0 -0.076890731114810873 -0.10434185874344649 0 -0.071379747459641138 -0.11863154175452389 0 -0.052718805281362018 -0.098506325735302672 0 -0.076890731114810873 -0.10434185874344649 0 -0.071379747459641138 -0.11863154175452389 0 -0.081966948794362365 -0.11108357418331739 0 -0.085292600219598155 -0.1206378996262356 0 -0.09067025045118722 -0.099482154482383456 0 -0.085292600219598155 -0.1206378996262356 0 -0.081966948794362365 -0.11108357418331739 0 -0.088757362288191421 -0.10415308132718749 0 -0.071379747459641138 -0.11863154175452389 0 -0.085292600219598155 -0.1206378996262356 0 -0.081966948794362365 -0.11108357418331739 0 -0.085292600219598155 -0.1206378996262356 0 -0.088757362288191421 -0.10415308132718749 0 -0.09067025045118722 -0.099482154482383456 0 -0.078006122601487177 -0.087211504938541518 0 -0.083943905421851067 -0.098950750435282717 0 -0.087397441684577692 -0.096311032880035341 0 -0.083943905421851067 -0.098950750435282717 0 -0.087397441684577692 -0.096311032880035341 0 -0.076890731114810873 -0.10434185874344649 0 -0.083943905421851067 -0.098950750435282717 0 -0.082889736904803946 -0.1046323161723086 0 -0.076890731114810873 -0.10434185874344649 0 -0.083943905421851067 -0.098950750435282717 0 -0.076890731114810873 -0.10434185874344649 0 -0.081966948794362365 -0.11108357418331739 0 -0.082889736904803946 -0.1046323161723086 0 -0.081966948794362365 -0.11108357418331739 0 -0.082889736904803946 -0.1046323161723086 0 -0.088757362288191421 -0.10415308132718749 0 -0.083943905421851067 -0.098950750435282717 0 -0.082889736904803946 -0.1046323161723086 0 -0.088757362288191421 -0.10415308132718749 0 -0.083943905421851067 -0.098950750435282717 0 -0.088757362288191421 -0.10415308132718749 0 -0.09067025045118722 -0.099482154482383456 0 -0.083943905421851067 -0.098950750435282717 0 -0.088757362288191421 -0.10415308132718749 0 -0.083943905421851067 -0.098950750435282717 0 -0.09067025045118722 -0.099482154482383456 0 -0.087397441684577692 -0.096311032880035341 0 -0.09067025045118722 -0.099482154482383456 0 -0.087397441684577692 -0.096311032880035341 0 -0.092459937136554121 -0.092441504054700488 0 -0.09067025045118722 -0.099482154482383456 0 -0.093470254998440305 -0.095094740913251402 0 -0.092459937136554121 -0.092441504054700488 0 -0.09067025045118722 -0.099482154482383456 0 -0.087397441684577692 -0.096311032880035341 0 -0.092459937136554121 -0.092441504054700488 0 -0.087397441684577692 -0.096311032880035341 0 -0.092459937136554121 -0.092441504054700488 0 -0.09067025045118722 -0.099482154482383456 0 -0.09067025045118722 -0.099482154482383456 0 -0.093470254998440305 -0.095094740913251402 0 -0.10256115988493621 -0.098998012118652612 0 -0.09067025045118722 -0.099482154482383456 0 -0.10256115988493621 -0.098998012118652612 0 -0.10951433610534381 -0.1177407486611982 0 -0.093470254998440305 -0.095094740913251402 0 -0.10256115988493621 -0.098998012118652612 0 -0.1079914355768294 -0.091348624820827062 0 -0.10256115988493621 -0.098998012118652612 0 -0.10951433610534381 -0.1177407486611982 0 -0.1124647268540552 -0.098956879909225595 0 -0.09067025045118722 -0.099482154482383456 0 -0.10951433610534381 -0.1177407486611982 0 -0.10256115988493621 -0.098998012118652612 0 -0.1124647268540552 -0.098956879909225595 0 -0.1079914355768294 -0.091348624820827062 0 -0.085292600219598155 -0.1206378996262356 0 -0.09067025045118722 -0.099482154482383456 0 -0.10951433610534381 -0.1177407486611982 0 -0.085292600219598155 -0.1206378996262356 0 -0.10951433610534381 -0.1177407486611982 0 -0.098551057693538974 -0.1291739625937384 0 -0.10951433610534381 -0.1177407486611982 0 -0.1244559523629037 -0.1000842215631873 0 -0.13245454895425601 -0.11142717823252769 0 -0.10951433610534381 -0.1177407486611982 0 -0.12835842175950049 -0.13599934284001289 0 -0.13245454895425601 -0.11142717823252769 0 -0.10951433610534381 -0.1177407486611982 0 -0.1124647268540552 -0.098956879909225595 0 -0.1244559523629037 -0.1000842215631873 0 -0.1124647268540552 -0.098956879909225595 0 -0.11628216919394389 -0.091044252601654579 0 -0.1079914355768294 -0.091348624820827062 0 -0.1124647268540552 -0.098956879909225595 0 -0.1244559523629037 -0.1000842215631873 0 -0.11628216919394389 -0.091044252601654579 0 -0.1244559523629037 -0.1000842215631873 0 -0.11628216919394389 -0.091044252601654579 0 -0.12890923599052551 -0.08354111368619857 0 -0.11628216919394389 -0.091044252601654579 0 -0.10699430368144799 -0.081824262956187513 0 -0.12890923599052551 -0.08354111368619857 0 -0.10699430368144799 -0.081824262956187513 0 -0.12890923599052551 -0.08354111368619857 0 -0.1092632557683474 -0.079597852850708556 0 -0.10699430368144799 -0.081824262956187513 0 -0.12890923599052551 -0.08354111368619857 0 -0.11628216919394389 -0.091044252601654579 0 -0.1079914355768294 -0.091348624820827062 0 -0.10699430368144799 -0.081824262956187513 0 -0.093470254998440305 -0.095094740913251402 0 -0.1079914355768294 -0.091348624820827062 0 -0.10699430368144799 -0.081824262956187513 0 -0.1092632557683474 -0.079597852850708556 0 -0.10699430368144799 -0.081824262956187513 0 -0.095389859377833564 -0.080915152291685 0 -0.1092632557683474 -0.079597852850708556 0 -0.10699430368144799 -0.081824262956187513 0 -0.092459937136554121 -0.092441504054700488 0 -0.10699430368144799 -0.081824262956187513 0 -0.095389859377833564 -0.080915152291685 0 -0.10699430368144799 -0.081824262956187513 0 -0.095389859377833564 -0.080915152291685 0 -0.093470254998440305 -0.095094740913251402 0 -0.10699430368144799 -0.081824262956187513 0 -0.092459937136554121 -0.092441504054700488 0 -0.093470254998440305 -0.095094740913251402 0 -0.10699430368144799 -0.081824262956187513 0 -0.092459937136554121 -0.092441504054700488 0 -0.095389859377833564 -0.080915152291685 0 -0.092459937136554121 -0.092441504054700488 0 -0.10699430368144799 -0.081824262956187513 0 -0.091867377641549688 -0.079219400773716003 0 -0.095389859377833564 -0.080915152291685 0 -0.1015946592339077 -0.056505389891616929 0 -0.1092632557683474 -0.079597852850708556 0 -0.095389859377833564 -0.080915152291685 0 -0.1114315954833443 -0.066058251980055854 0 -0.095389859377833564 -0.080915152291685 0 -0.1114315954833443 -0.066058251980055854 0 -0.1015946592339077 -0.056505389891616929 0 -0.095389859377833564 -0.080915152291685 0 -0.1015946592339077 -0.056505389891616929 0 -0.1092632557683474 -0.079597852850708556 0 -0.12784166275969169 -0.065397409203157134 0 -0.12890923599052551 -0.08354111368619857 0 -0.1092632557683474 -0.079597852850708556 0 -0.1250098080103795 -0.064146542423957634 0 -0.1092632557683474 -0.079597852850708556 0 -0.1250098080103795 -0.064146542423957634 0 -0.12784166275969169 -0.065397409203157134 0 -0.1092632557683474 -0.079597852850708556 0 -0.12784166275969169 -0.065397409203157134 0 -0.1092632557683474 -0.079597852850708556 0 -0.1114315954833443 -0.066058251980055854 0 -0.1250098080103795 -0.064146542423957634 0 -0.1114315954833443 -0.066058251980055854 0 -0.1186500533871072 -0.046748107695021912 0 -0.1015946592339077 -0.056505389891616929 0 -0.1114315954833443 -0.066058251980055854 0 -0.1186500533871072 -0.046748107695021912 0 -0.1250098080103795 -0.064146542423957634 0 -0.1186500533871072 -0.046748107695021912 0 -0.1250098080103795 -0.064146542423957634 0 -0.12829464659483969 -0.044786120536291239 0 -0.1186500533871072 -0.046748107695021912 0 -0.10779945908998349 -0.032095627491549338 0 -0.13002286364664609 -0.031316149569472977 0 -0.10779945908998349 -0.032095627491549338 0 -0.13002286364664609 -0.031316149569472977 0 -0.10779945908998349 -0.032095627491549338 0 -0.1015946592339077 -0.056505389891616929 0 -0.10779945908998349 -0.032095627491549338 0 -0.091502844290497071 -0.02943976064894625 0 -0.086359236851496185 -0.032847635575487408 0 -0.1186500533871072 -0.046748107695021912 0 -0.10779945908998349 -0.032095627491549338 0 -0.1015946592339077 -0.056505389891616929 0 -0.10779945908998349 -0.032095627491549338 0 -0.086359236851496185 -0.032847635575487408 0 -0.10779945908998349 -0.032095627491549338 0 -0.1015946592339077 -0.056505389891616929 0 -0.086359236851496185 -0.032847635575487408 0 -0.1140835083949741 -0.0073740967406504248 0 -0.1081753613973562 -0.005400591745477544 0 -0.11262869904329049 0.0001426134633649314 0 -0.1140835083949741 -0.0073740967406504248 0 -0.1202061722546995 -0.0013910732862858659 0 -0.1140835083949741 -0.0073740967406504248 0 -0.11871605765840609 -0.002265960235820368 0 -0.11262869904329049 0.0001426134633649314 0 -0.1140835083949741 -0.0073740967406504248 0 -0.11871605765840609 -0.002265960235820368 0 -0.1202061722546995 -0.0013910732862858659 0 -0.11871605765840609 -0.002265960235820368 0 -0.1202061722546995 -0.0013910732862858659 0 -0.1140835083949741 -0.0073740967406504248 0 -0.1202061722546995 -0.0013910732862858659 0 -0.1236901537548759 -0.01489206594046069 0 -0.10779945908998349 -0.032095627491549338 0 -0.1236901537548759 -0.01489206594046069 0 -0.13002286364664609 -0.031316149569472977 0 -0.10779945908998349 -0.032095627491549338 0 -0.1140835083949741 -0.0073740967406504248 0 -0.1236901537548759 -0.01489206594046069 0 -0.10779945908998349 -0.032095627491549338 0 -0.1140835083949741 -0.0073740967406504248 0 -0.10779945908998349 -0.032095627491549338 0 -0.1140835083949741 -0.0073740967406504248 0 -0.10279317634273499 -0.018406928694797781 0 -0.10779945908998349 -0.032095627491549338 0 -0.10279317634273499 -0.018406928694797781 0 -0.091502844290497071 -0.02943976064894625 0 -0.10279317634273499 -0.018406928694797781 0 -0.091502844290497071 -0.02943976064894625 0 -0.10279317634273499 -0.018406928694797781 0 -0.087963509652400504 -0.01969819435094437 0 -0.091502844290497071 -0.02943976064894625 0 -0.1140835083949741 -0.0073740967406504248 0 -0.10279317634273499 -0.018406928694797781 0 -0.1081753613973562 -0.005400591745477544 0 -0.10279317634273499 -0.018406928694797781 0 -0.097480550556826001 -0.0063456501565944757 0 -0.1081753613973562 -0.005400591745477544 0 -0.1140835083949741 -0.0073740967406504248 0 -0.10279317634273499 -0.018406928694797781 0 -0.10279317634273499 -0.018406928694797781 0 -0.097480550556826001 -0.0063456501565944757 0 -0.087963509652400504 -0.01969819435094437 0 -0.097480550556826001 -0.0063456501565944757 0 -0.1081753613973562 -0.005400591745477544 0 -0.10766802143425221 0.0057165579607475628 0 -0.097480550556826001 -0.0063456501565944757 0 -0.084025503774487115 -0.0070039595572996306 0 -0.094681377386978766 0.0041082946190843907 0 -0.097480550556826001 -0.0063456501565944757 0 -0.084025503774487115 -0.0070039595572996306 0 -0.087963509652400504 -0.01969819435094437 0 -0.084025503774487115 -0.0070039595572996306 0 -0.087963509652400504 -0.01969819435094437 0 -0.073798117199627172 -0.01679096887871721 0 -0.087963509652400504 -0.01969819435094437 0 -0.077830673618678542 -0.027171137327562569 0 -0.073798117199627172 -0.01679096887871721 0 -0.087963509652400504 -0.01969819435094437 0 -0.091502844290497071 -0.02943976064894625 0 -0.086359236851496185 -0.032847635575487408 0 -0.087963509652400504 -0.01969819435094437 0 -0.077830673618678542 -0.027171137327562569 0 -0.086359236851496185 -0.032847635575487408 0 -0.077830673618678542 -0.027171137327562569 0 -0.086359236851496185 -0.032847635575487408 0 -0.064919014613008988 -0.033599643659427372 0 -0.077830673618678542 -0.027171137327562569 0 -0.064919014613008988 -0.033599643659427372 0 -0.067597734592178646 -0.025975102638722491 0 -0.064919014613008988 -0.033599643659427372 0 -0.057013796940564111 -0.033876916326141253 0 -0.077830673618678542 -0.027171137327562569 0 -0.067597734592178646 -0.025975102638722491 0 -0.064919014613008988 -0.033599643659427372 0 -0.067597734592178646 -0.025975102638722491 0 -0.073798117199627172 -0.01679096887871721 0 -0.061488771571752671 -0.01888734957214128 0 -0.077830673618678542 -0.027171137327562569 0 -0.067597734592178646 -0.025975102638722491 0 -0.073798117199627172 -0.01679096887871721 0 -0.084025503774487115 -0.0070039595572996306 0 -0.073798117199627172 -0.01679096887871721 0 -0.062413360479634639 -0.0022353211108208362 0 -0.084025503774487115 -0.0070039595572996306 0 -0.062413360479634639 -0.0022353211108208362 0 -0.073798117199627172 -0.01679096887871721 0 -0.062413360479634639 -0.0022353211108208362 0 -0.061488771571752671 -0.01888734957214128 0 -0.1015946592339077 -0.056505389891616929 0 -0.07598962129279048 -0.043216487928558048 0 -0.075457530542314896 -0.057871142663091658 0 -0.1015946592339077 -0.056505389891616929 0 -0.086359236851496185 -0.032847635575487408 0 -0.07598962129279048 -0.043216487928558048 0 -0.086359236851496185 -0.032847635575487408 0 -0.064919014613008988 -0.033599643659427372 0 -0.07598962129279048 -0.043216487928558048 0 -0.075457530542314896 -0.057871142663091658 0 -0.059047683443079271 -0.036522884552467952 0 -0.086359236851496185 -0.032847635575487408 0 -0.07598962129279048 -0.043216487928558048 0 -0.064919014613008988 -0.033599643659427372 0 -0.07598962129279048 -0.043216487928558048 0 -0.064919014613008988 -0.033599643659427372 0 -0.059047683443079271 -0.036522884552467952 0 -0.075457530542314896 -0.057871142663091658 0 -0.06013627620528867 -0.053432274863174332 0 -0.059047683443079271 -0.036522884552467952 0 -0.075457530542314896 -0.057871142663091658 0 -0.059047683443079271 -0.036522884552467952 0 -0.072359825900047942 -0.069365106554348743 0 -0.075457530542314896 -0.057871142663091658 0 -0.06013627620528867 -0.053432274863174332 0 -0.06013627620528867 -0.053432274863174332 0 -0.036547577311699962 -0.047725323733187872 0 -0.050802705429170578 -0.063132108385647548 0 -0.072359825900047942 -0.069365106554348743 0 -0.06013627620528867 -0.053432274863174332 0 -0.050802705429170578 -0.063132108385647548 0 -0.06013627620528867 -0.053432274863174332 0 -0.059047683443079271 -0.036522884552467952 0 -0.036547577311699962 -0.047725323733187872 0 -0.059047683443079271 -0.036522884552467952 0 -0.036547577311699962 -0.047725323733187872 0 -0.059047683443079271 -0.036522884552467952 0 -0.057013796940564111 -0.033876916326141253 0 -0.036547577311699962 -0.047725323733187872 0 -0.064919014613008988 -0.033599643659427372 0 -0.059047683443079271 -0.036522884552467952 0 -0.057013796940564111 -0.033876916326141253 0 -0.064919014613008988 -0.033599643659427372 0 -0.057013796940564111 -0.033876916326141253 0 -0.064919014613008988 -0.033599643659427372 0 -0.059047683443079271 -0.036522884552467952 0 -0.059047683443079271 -0.036522884552467952 0 -0.057013796940564111 -0.033876916326141253 0 -0.057013796940564111 -0.033876916326141253 0 -0.036547577311699962 -0.047725323733187872 0 -0.027608311982311409 -0.034908303135232029 0 -0.057013796940564111 -0.033876916326141253 0 -0.027608311982311409 -0.034908303135232029 0 -0.036547577311699962 -0.047725323733187872 0 -0.02662556397245841 -0.037001721561616623 0 -0.036547577311699962 -0.047725323733187872 0 -0.035424018343680377 -0.063063067970776807 0 -0.050802705429170578 -0.063132108385647548 0 -0.036547577311699962 -0.047725323733187872 0 -0.050802705429170578 -0.063132108385647548 0 -0.062413360479634639 -0.0022353211108208362 0 -0.061488771571752671 -0.01888734957214128 0 -0.043197234205671377 -0.015902370574288401 0 -0.062413360479634639 -0.0022353211108208362 0 -0.043197234205671377 -0.015902370574288401 0 -0.040801217184782149 0.0025333173356579639 0 -0.057013796940564111 -0.033876916326141253 0 -0.061488771571752671 -0.01888734957214128 0 -0.043197234205671377 -0.015902370574288401 0 -0.057013796940564111 -0.033876916326141253 0 -0.043197234205671377 -0.015902370574288401 0 -0.067597734592178646 -0.025975102638722491 0 -0.057013796940564111 -0.033876916326141253 0 -0.061488771571752671 -0.01888734957214128 0 -0.057013796940564111 -0.033876916326141253 0 -0.043197234205671377 -0.015902370574288401 0 -0.027608311982311409 -0.034908303135232029 0 -0.043197234205671377 -0.015902370574288401 0 -0.027025611003190429 -0.019425209131535261 0 -0.027608311982311409 -0.034908303135232029 0 -0.043197234205671377 -0.015902370574288401 0 -0.040801217184782149 0.0025333173356579639 0 -0.029380671470779201 0.0020721751775648329 0 -0.043197234205671377 -0.015902370574288401 0 -0.02288696417543129 -0.00590033191195867 0 -0.029380671470779201 0.0020721751775648329 0 -0.043197234205671377 -0.015902370574288401 0 -0.029380671470779201 0.0020721751775648329 0 -0.043197234205671377 -0.015902370574288401 0 -0.02288696417543129 -0.00590033191195867 0 -0.027025611003190429 -0.019425209131535261 0 -0.02288696417543129 -0.00590033191195867 0 -0.027025611003190429 -0.019425209131535261 0 -0.011837074165476301 -0.0203050306283315 0 -0.027025611003190429 -0.019425209131535261 0 -0.011837074165476301 -0.0203050306283315 0 -0.027608311982311409 -0.034908303135232029 0 -0.011837074165476301 -0.0203050306283315 0 0.0073598710512064588 -0.017051605744856251 0 0.0017971729759412511 -0.035939689944323977 0 -0.011837074165476301 -0.0203050306283315 0 -0.027608311982311409 -0.034908303135232029 0 0.0017971729759412511 -0.035939689944323977 0 -0.02288696417543129 -0.00590033191195867 0 -0.0025007363194086028 -0.0051543784696279817 0 -0.01918907388992936 0.0073019557821350058 0 -0.02288696417543129 -0.00590033191195867 0 -0.011837074165476301 -0.0203050306283315 0 -0.0025007363194086028 -0.0051543784696279817 0 -0.011837074165476301 -0.0203050306283315 0 -0.0025007363194086028 -0.0051543784696279817 0 0.0073598710512064588 -0.017051605744856251 0 -0.036547577311699962 -0.047725323733187872 0 -0.015396920924805491 -0.058255893696858532 0 -0.036547577311699962 -0.047725323733187872 0 -0.015396920924805491 -0.058255893696858532 0 -0.035424018343680377 -0.063063067970776807 0 -0.036547577311699962 -0.047725323733187872 0 -0.02662556397245841 -0.037001721561616623 0 -0.015396920924805491 -0.058255893696858532 0 -0.02662556397245841 -0.037001721561616623 0 -0.01300967340842802 -0.040950523551841159 0 -0.015396920924805491 -0.058255893696858532 0 -0.036547577311699962 -0.047725323733187872 0 -0.02662556397245841 -0.037001721561616623 0 -0.027608311982311409 -0.034908303135232029 0 -0.02662556397245841 -0.037001721561616623 0 -0.027608311982311409 -0.034908303135232029 0 -0.01300967340842802 -0.040950523551841159 0 -0.01300967340842802 -0.040950523551841159 0 -0.015396920924805491 -0.058255893696858532 0 0.0027852568614936749 -0.038647009421175223 0 -0.027608311982311409 -0.034908303135232029 0 -0.01300967340842802 -0.040950523551841159 0 0.0017971729759412511 -0.035939689944323977 0 -0.01300967340842802 -0.040950523551841159 0 0.0027852568614936749 -0.038647009421175223 0 0.0017971729759412511 -0.035939689944323977 0 -0.027608311982311409 -0.034908303135232029 0 0.0017971729759412511 -0.035939689944323977 0 -0.015396920924805491 -0.058255893696858532 0 0.0027852568614936749 -0.038647009421175223 0 0.0081310905596524187 -0.053877868703239302 0 -0.015396920924805491 -0.058255893696858532 0 0.0041624543485472504 -0.06799419051346825 0 0.0081310905596524187 -0.053877868703239302 0 -0.015396920924805491 -0.058255893696858532 0 0.0027852568614936749 -0.038647009421175223 0 -0.015396920924805491 -0.058255893696858532 0 0.0041624543485472504 -0.06799419051346825 0 -0.015396920924805491 -0.058255893696858532 0 -0.01236585867817609 -0.083505825833339847 0 0.0041624543485472504 -0.06799419051346825 0 -0.01236585867817609 -0.083505825833339847 0 -0.0076230775566098891 -0.1028627430724557 0 0.00765204248890697 -0.092104689521178201 0 -0.01236585867817609 -0.083505825833339847 0 0.00765204248890697 -0.092104689521178201 0 0.0041624543485472504 -0.06799419051346825 0 -0.01236585867817609 -0.083505825833339847 0 -0.034057863103082973 -0.078381109716081476 0 -0.02782051760270925 -0.105812024360599 0 -0.015396920924805491 -0.058255893696858532 0 -0.034057863103082973 -0.078381109716081476 0 -0.015396920924805491 -0.058255893696858532 0 -0.035424018343680377 -0.063063067970776807 0 -0.034057863103082973 -0.078381109716081476 0 -0.015396920924805491 -0.058255893696858532 0 -0.01236585867817609 -0.083505825833339847 0 -0.034057863103082973 -0.078381109716081476 0 -0.035424018343680377 -0.063063067970776807 0 -0.050802705429170578 -0.063132108385647548 0 -0.047082704177995788 -0.074625404649896934 0 -0.035424018343680377 -0.063063067970776807 0 -0.034057863103082973 -0.078381109716081476 0 -0.047082704177995788 -0.074625404649896934 0 -0.034057863103082973 -0.078381109716081476 0 -0.051483151004333122 -0.083218609547457079 0 -0.047082704177995788 -0.074625404649896934 0 -0.034057863103082973 -0.078381109716081476 0 -0.052718805281362018 -0.098506325735302672 0 -0.034057863103082973 -0.078381109716081476 0 -0.051483151004333122 -0.083218609547457079 0 -0.052718805281362018 -0.098506325735302672 0 -0.051483151004333122 -0.083218609547457079 0 -0.061101095670847552 -0.078228915885784067 0 -0.047082704177995788 -0.074625404649896934 0 -0.068213312430608464 -0.093337823940471937 0 -0.061741925896660547 -0.086355150006989442 0 -0.052718805281362018 -0.098506325735302672 0 -0.051483151004333122 -0.083218609547457079 0 -0.061741925896660547 -0.086355150006989442 0 -0.052718805281362018 -0.098506325735302672 0 -0.051483151004333122 -0.083218609547457079 0 -0.061741925896660547 -0.086355150006989442 0 -0.061101095670847552 -0.078228915885784067 0 -0.065057833546641311 -0.078538893038107224 0 -0.061101095670847552 -0.078228915885784067 0 -0.050802705429170578 -0.063132108385647548 0 -0.065057833546641311 -0.078538893038107224 0 -0.050802705429170578 -0.063132108385647548 0 -0.061101095670847552 -0.078228915885784067 0 -0.050802705429170578 -0.063132108385647548 0 -0.047082704177995788 -0.074625404649896934 0 -0.071379747459641138 -0.11863154175452389 0 -0.047672005097956771 -0.12232065250457221 0 -0.052718805281362018 -0.098506325735302672 0 -0.071379747459641138 -0.11863154175452389 0 -0.047672005097956771 -0.12232065250457221 0 -0.060949921753336057 -0.1286667283294789 0 -0.071379747459641138 -0.11863154175452389 0 -0.052718805281362018 -0.098506325735302672 0 -0.034057863103082973 -0.078381109716081476 0 -0.052718805281362018 -0.098506325735302672 0 -0.02782051760270925 -0.105812024360599 0 -0.047672005097956771 -0.12232065250457221 0 -0.052718805281362018 -0.098506325735302672 0 -0.02782051760270925 -0.105812024360599 0 -0.047672005097956771 -0.12232065250457221 0 -0.02782051760270925 -0.105812024360599 0 -0.028466882567910849 -0.13670223289825789 0 -0.02782051760270925 -0.105812024360599 0 -0.010652485253781679 -0.12097888809487579 0 -0.028466882567910849 -0.13670223289825789 0 -0.01236585867817609 -0.083505825833339847 0 -0.02782051760270925 -0.105812024360599 0 -0.0076230775566098891 -0.1028627430724557 0 -0.02782051760270925 -0.105812024360599 0 -0.0076230775566098891 -0.1028627430724557 0 -0.010652485253781679 -0.12097888809487579 0 -0.0076230775566098891 -0.1028627430724557 0 -0.010652485253781679 -0.12097888809487579 0 0.0091259489502686364 -0.1158979362851186 0 -0.010652485253781679 -0.12097888809487579 0 -0.028466882567910849 -0.13670223289825789 0 0.0017828297527261699 -0.139357474086204 0 -0.028466882567910849 -0.13670223289825789 0 -0.014768201373660739 -0.15132101169240009 0 -0.028077634131695482 -0.1608664671061304 0 -0.014768201373660739 -0.15132101169240009 0 -0.00062364201311971884 -0.1561696486636899 0 0.0017828297527261699 -0.139357474086204 0 -0.028466882567910849 -0.13670223289825789 0 -0.014768201373660739 -0.15132101169240009 0 0.0017828297527261699 -0.139357474086204 0 -0.00062364201311971884 -0.1561696486636899 0 -0.0051888141902375687 -0.1698458684150719 0 -0.01399314645347533 -0.16397131322330299 0 -0.0051888141902375687 -0.1698458684150719 0 -0.01399314645347533 -0.16397131322330299 0 -0.013183720802204261 -0.1737312239141969 0 -0.014768201373660739 -0.15132101169240009 0 -0.00062364201311971884 -0.1561696486636899 0 -0.01399314645347533 -0.16397131322330299 0 -0.0046529789385846149 -0.1779333961074297 0 -0.020989826643907371 -0.18333537367111441 0 -0.0071903878078849581 -0.18642644669834799 0 -0.0046529789385846149 -0.1779333961074297 0 -0.020989826643907371 -0.18333537367111441 0 -0.0046529789385846149 -0.1779333961074297 0 -0.013183720802204261 -0.1737312239141969 0 -0.020989826643907371 -0.18333537367111441 0 -0.0071903878078849581 -0.18642644669834799 0 -0.0046529789385846149 -0.1779333961074297 0 0.0048857991779218428 -0.18923532338487031 0 -0.0051888141902375687 -0.1698458684150719 0 -0.0046529789385846149 -0.1779333961074297 0 -0.013183720802204261 -0.1737312239141969 0 -0.020989826643907371 -0.18333537367111441 0 -0.021088935688514329 -0.1737118640736332 0 -0.013183720802204261 -0.1737312239141969 0 -0.020989826643907371 -0.18333537367111441 0 -0.021088935688514329 -0.1737118640736332 0 -0.020989826643907371 -0.18333537367111441 0 -0.021088935688514329 -0.1737118640736332 0 -0.034615394731196042 -0.177420518746008 0 -0.021088935688514329 -0.1737118640736332 0 -0.028077634131695482 -0.1608664671061304 0 -0.034615394731196042 -0.177420518746008 0 -0.014768201373660739 -0.15132101169240009 0 -0.01399314645347533 -0.16397131322330299 0 -0.028077634131695482 -0.1608664671061304 0 -0.01399314645347533 -0.16397131322330299 0 -0.013183720802204261 -0.1737312239141969 0 -0.021088935688514329 -0.1737118640736332 0 -0.01399314645347533 -0.16397131322330299 0 -0.021088935688514329 -0.1737118640736332 0 -0.028077634131695482 -0.1608664671061304 0 -0.034615394731196042 -0.177420518746008 0 -0.048612770602457597 -0.17683142601984389 0 -0.047416310447590267 -0.15933659867743419 0 -0.028077634131695482 -0.1608664671061304 0 -0.034615394731196042 -0.177420518746008 0 -0.047416310447590267 -0.15933659867743419 0 -0.020989826643907371 -0.18333537367111441 0 -0.034615394731196042 -0.177420518746008 0 -0.042431606498254282 -0.19042535919267231 0 -0.020989826643907371 -0.18333537367111441 0 -0.042431606498254282 -0.19042535919267231 0 -0.034615394731196042 -0.177420518746008 0 -0.048612770602457597 -0.17683142601984389 0 -0.042431606498254282 -0.19042535919267231 0 -0.048612770602457597 -0.17683142601984389 0 -0.047416310447590267 -0.15933659867743419 0 -0.066365738327269691 -0.18197096445661051 0 -0.048612770602457597 -0.17683142601984389 0 -0.042431606498254282 -0.19042535919267231 0 -0.066365738327269691 -0.18197096445661051 0 -0.047416310447590267 -0.15933659867743419 0 -0.066365738327269691 -0.18197096445661051 0 -0.047416310447590267 -0.15933659867743419 0 -0.062272400799346789 -0.15787819680307999 0 -0.066365738327269691 -0.18197096445661051 0 -0.047416310447590267 -0.15933659867743419 0 -0.062272400799346789 -0.15787819680307999 0 -0.059692117657407742 -0.143085610488451 0 -0.047672005097956771 -0.12232065250457221 0 -0.059692117657407742 -0.143085610488451 0 -0.060949921753336057 -0.1286667283294789 0 -0.047672005097956771 -0.12232065250457221 0 -0.028466882567910849 -0.13670223289825789 0 -0.059692117657407742 -0.143085610488451 0 -0.028466882567910849 -0.13670223289825789 0 -0.028077634131695482 -0.1608664671061304 0 -0.047416310447590267 -0.15933659867743419 0 -0.028466882567910849 -0.13670223289825789 0 -0.047416310447590267 -0.15933659867743419 0 -0.028466882567910849 -0.13670223289825789 0 -0.047416310447590267 -0.15933659867743419 0 -0.059692117657407742 -0.143085610488451 0 -0.020248400191203789 -0.25532804206607279 0 -0.020495542342104611 -0.2313304859344199 0 -0.047544673664052163 -0.23857510946018851 0 -0.020248400191203789 -0.25532804206607279 0 -0.020495542342104611 -0.2313304859344199 0 -0.01394704743379436 -0.25196157393351171 0 -0.020248400191203789 -0.25532804206607279 0 -0.020495542342104611 -0.2313304859344199 0 -0.01394704743379436 -0.25196157393351171 0 -0.0092583180747059304 -0.23607530854427869 0 0.0042912403797070262 -0.2364199698216973 0 -0.01394704743379436 -0.25196157393351171 0 -0.0092583180747059304 -0.23607530854427869 0 -0.020495542342104611 -0.2313304859344199 0 -0.0092583180747059304 -0.23607530854427869 0 -0.0070180959367191348 -0.21976330680666231 0 -0.020495542342104611 -0.2313304859344199 0 -0.0092583180747059304 -0.23607530854427869 0 -0.0070180959367191348 -0.21976330680666231 0 0.0042912403797070262 -0.2364199698216973 0 -0.0070180959367191348 -0.21976330680666231 0 -0.020495542342104611 -0.2313304859344199 0 -0.020742684493005439 -0.2073329298027671 0 -0.020495542342104611 -0.2313304859344199 0 -0.020742684493005439 -0.2073329298027671 0 -0.020495542342104611 -0.2313304859344199 0 -0.020742684493005439 -0.2073329298027671 0 -0.04432584818054984 -0.21470932504550369 0 -0.0070180959367191348 -0.21976330680666231 0 -0.020742684493005439 -0.2073329298027671 0 -0.0080045448269695854 -0.1952016936299778 0 -0.0070180959367191348 -0.21976330680666231 0 -0.0080045448269695854 -0.1952016936299778 0 0.01201616559045914 -0.20920326705631781 0 -0.0071903878078849581 -0.18642644669834799 0 -0.0080045448269695854 -0.1952016936299778 0 0.0048857991779218428 -0.18923532338487031 0 -0.0071903878078849581 -0.18642644669834799 0 -0.020989826643907371 -0.18333537367111441 0 -0.0080045448269695854 -0.1952016936299778 0 -0.020989826643907371 -0.18333537367111441 0 -0.020742684493005439 -0.2073329298027671 0 -0.042431606498254282 -0.19042535919267231 0 -0.020989826643907371 -0.18333537367111441 0 -0.020742684493005439 -0.2073329298027671 0 -0.020989826643907371 -0.18333537367111441 0 -0.020742684493005439 -0.2073329298027671 0 -0.0080045448269695854 -0.1952016936299778 0 -0.042431606498254282 -0.19042535919267231 0 -0.063873386352601078 -0.19751534471423049 0 -0.066365738327269691 -0.18197096445661051 0 -0.042431606498254282 -0.19042535919267231 0 -0.04432584818054984 -0.21470932504550369 0 -0.063873386352601078 -0.19751534471423049 0 -0.042431606498254282 -0.19042535919267231 0 -0.063873386352601078 -0.19751534471423049 0 -0.04432584818054984 -0.21470932504550369 0 -0.070867195733281513 -0.2230767211687438 0 -0.063873386352601078 -0.19751534471423049 0 -0.020742684493005439 -0.2073329298027671 0 -0.042431606498254282 -0.19042535919267231 0 -0.04432584818054984 -0.21470932504550369 0 -0.020495542342104611 -0.2313304859344199 0 -0.04432584818054984 -0.21470932504550369 0 -0.047544673664052163 -0.23857510946018851 0 -0.04432584818054984 -0.21470932504550369 0 -0.047544673664052163 -0.23857510946018851 0 -0.070867195733281513 -0.2230767211687438 0 -0.047544673664052163 -0.23857510946018851 0 -0.065398276682652606 -0.24111087493004951 0 -0.070867195733281513 -0.2230767211687438 0 -0.061985605076137887 -0.25827780968425201 0 -0.047544673664052163 -0.23857510946018851 0 -0.065398276682652606 -0.24111087493004951 0 -0.081273732889275266 -0.24834276603872149 0 -0.093336350230132065 -0.23461579175288011 0 -0.070867195733281513 -0.2230767211687438 0 -0.09681974899521055 -0.25229235668335998 0 -0.081273732889275266 -0.24834276603872149 0 -0.093336350230132065 -0.23461579175288011 0 -0.081273732889275266 -0.24834276603872149 0 -0.065398276682652606 -0.24111087493004951 0 -0.070867195733281513 -0.2230767211687438 0 -0.061985605076137887 -0.25827780968425201 0 -0.081273732889275266 -0.24834276603872149 0 -0.065398276682652606 -0.24111087493004951 0 -0.093336350230132065 -0.23461579175288011 0 -0.070867195733281513 -0.2230767211687438 0 -0.093336350230132065 -0.23461579175288011 0 -0.070867195733281513 -0.2230767211687438 0 -0.086995126042118814 -0.22143789553650389 0 -0.093336350230132065 -0.23461579175288011 0 -0.086995126042118814 -0.22143789553650389 0 -0.1005426548998386 -0.22279398221840091 0 -0.085315166206948179 -0.20460533023578781 0 -0.1005426548998386 -0.22279398221840091 0 -0.070867195733281513 -0.2230767211687438 0 -0.086995126042118814 -0.22143789553650389 0 -0.085315166206948179 -0.20460533023578781 0 -0.086995126042118814 -0.22143789553650389 0 -0.085315166206948179 -0.20460533023578781 0 -0.1005426548998386 -0.22279398221840091 0 -0.070867195733281513 -0.2230767211687438 0 -0.085315166206948179 -0.20460533023578781 0 -0.063873386352601078 -0.19751534471423049 0 -0.085315166206948179 -0.20460533023578781 0 -0.066365738327269691 -0.18197096445661051 0 -0.085315166206948179 -0.20460533023578781 0 -0.066365738327269691 -0.18197096445661051 0 -0.081487608761993444 -0.18556709756165499 0 -0.085315166206948179 -0.20460533023578781 0 -0.063873386352601078 -0.19751534471423049 0 -0.085315166206948179 -0.20460533023578781 0 -0.063873386352601078 -0.19751534471423049 0 -0.066365738327269691 -0.18197096445661051 0 -0.085315166206948179 -0.20460533023578781 0 -0.09195948243348237 -0.18919832032981729 0 -0.081487608761993444 -0.18556709756165499 0 -0.085315166206948179 -0.20460533023578781 0 -0.09195948243348237 -0.18919832032981729 0 -0.098679905738352544 -0.1986460382544929 0 -0.09195948243348237 -0.18919832032981729 0 -0.098679905738352544 -0.1986460382544929 0 -0.10480613311340729 -0.18549808813551849 0 -0.098679905738352544 -0.1986460382544929 0 -0.1099308845404153 -0.1972797349503774 0 -0.1035554213942442 -0.21063669265373849 0 -0.098679905738352544 -0.1986460382544929 0 -0.1099308845404153 -0.1972797349503774 0 -0.10480613311340729 -0.18549808813551849 0 -0.1143064209414878 -0.188177832304637 0 -0.1246827178545081 -0.19464822113178129 0 -0.1099308845404153 -0.1972797349503774 0 -0.1143064209414878 -0.188177832304637 0 -0.1099308845404153 -0.1972797349503774 0 -0.10480613311340729 -0.18549808813551849 0 -0.1143064209414878 -0.188177832304637 0 -0.1246827178545081 -0.19464822113178129 0 -0.11851494259000769 -0.18113947694370111 0 -0.1246827178545081 -0.19464822113178129 0 -0.1099308845404153 -0.1972797349503774 0 -0.11499117509267701 -0.20480817595189629 0 -0.1246827178545081 -0.19464822113178129 0 -0.11499117509267701 -0.20480817595189629 0 -0.12179567658154079 -0.21666805507168721 0 -0.11499117509267701 -0.20480817595189629 0 -0.12179567658154079 -0.21666805507168721 0 -0.1035554213942442 -0.21063669265373849 0 -0.1246827178545081 -0.19464822113178129 0 -0.12179567658154079 -0.21666805507168721 0 -0.1099308845404153 -0.1972797349503774 0 -0.11499117509267701 -0.20480817595189629 0 -0.1035554213942442 -0.21063669265373849 0 -0.12179567658154079 -0.21666805507168721 0 -0.1035554213942442 -0.21063669265373849 0 -0.12179567658154079 -0.21666805507168721 0 -0.12783948286944791 -0.21866651319258079 0 -0.085315166206948179 -0.20460533023578781 0 -0.098679905738352544 -0.1986460382544929 0 -0.1035554213942442 -0.21063669265373849 0 -0.085315166206948179 -0.20460533023578781 0 -0.1035554213942442 -0.21063669265373849 0 -0.1005426548998386 -0.22279398221840091 0 -0.085315166206948179 -0.20460533023578781 0 -0.1035554213942442 -0.21063669265373849 0 -0.1005426548998386 -0.22279398221840091 0 -0.1111649065620232 -0.2293695942788076 0 -0.11577014359272809 -0.24098263420101479 0 -0.1035554213942442 -0.21063669265373849 0 -0.1005426548998386 -0.22279398221840091 0 -0.1111649065620232 -0.2293695942788076 0 -0.093336350230132065 -0.23461579175288011 0 -0.1005426548998386 -0.22279398221840091 0 -0.11577014359272809 -0.24098263420101479 0 -0.1005426548998386 -0.22279398221840091 0 -0.11577014359272809 -0.24098263420101479 0 -0.1188377532558344 -0.2392285155157903 0 -0.12783948286944791 -0.21866651319258079 0 -0.12179567658154079 -0.21666805507168721 0 -0.1188377532558344 -0.2392285155157903 0 -0.12783948286944791 -0.21866651319258079 0 -0.12179567658154079 -0.21666805507168721 0 -0.1188377532558344 -0.2392285155157903 0 -0.12179567658154079 -0.21666805507168721 0 -0.1035554213942442 -0.21063669265373849 0 -0.1111649065620232 -0.2293695942788076 0 -0.12179567658154079 -0.21666805507168721 0 -0.1111649065620232 -0.2293695942788076 0 -0.1188377532558344 -0.2392285155157903 0 -0.1111649065620232 -0.2293695942788076 0 -0.11577014359272809 -0.24098263420101479 0 -0.1188377532558344 -0.2392285155157903 0 -0.11577014359272809 -0.24098263420101479 0 -0.1188377532558344 -0.2392285155157903 0 -0.1158055047269833 -0.24615486233701511 0 -0.1188377532558344 -0.2392285155157903 0 -0.1177956335395702 -0.247176896203187 0 -0.1158055047269833 -0.24615486233701511 0 -0.1188377532558344 -0.2392285155157903 0 -0.1177956335395702 -0.247176896203187 0 -0.1188377532558344 -0.2392285155157903 0 -0.1177956335395702 -0.247176896203187 0 -0.12830487636215679 -0.24340640238721981 0 -0.1188377532558344 -0.2392285155157903 0 -0.1158055047269833 -0.24615486233701511 0 -0.1177956335395702 -0.247176896203187 0 -0.1158055047269833 -0.24615486233701511 0 -0.093336350230132065 -0.23461579175288011 0 -0.1158055047269833 -0.24615486233701511 0 -0.093336350230132065 -0.23461579175288011 0 -0.11577014359272809 -0.24098263420101479 0 -0.1158055047269833 -0.24615486233701511 0 -0.09681974899521055 -0.25229235668335998 0 -0.093336350230132065 -0.23461579175288011 0 -0.1158055047269833 -0.24615486233701511 0 -0.081158065632194659 -0.15186374694008711 0 -0.1026240136069816 -0.16064188339172311 0 -0.095173508603425383 -0.15210388680156051 0 -0.081158065632194659 -0.15186374694008711 0 -0.090040689637920196 -0.1387567577737451 0 -0.072644108428099957 -0.1362008770572572 0 -0.081158065632194659 -0.15186374694008711 0 -0.090040689637920196 -0.1387567577737451 0 -0.095173508603425383 -0.15210388680156051 0 -0.085292600219598155 -0.1206378996262356 0 -0.090040689637920196 -0.1387567577737451 0 -0.098551057693538974 -0.1291739625937384 0 -0.071379747459641138 -0.11863154175452389 0 -0.090040689637920196 -0.1387567577737451 0 -0.071379747459641138 -0.11863154175452389 0 -0.085292600219598155 -0.1206378996262356 0 -0.090040689637920196 -0.1387567577737451 0 -0.071379747459641138 -0.11863154175452389 0 -0.060949921753336057 -0.1286667283294789 0 -0.072644108428099957 -0.1362008770572572 0 -0.071379747459641138 -0.11863154175452389 0 -0.090040689637920196 -0.1387567577737451 0 -0.072644108428099957 -0.1362008770572572 0 -0.059692117657407742 -0.143085610488451 0 -0.060949921753336057 -0.1286667283294789 0 -0.072644108428099957 -0.1362008770572572 0 -0.062272400799346789 -0.15787819680307999 0 -0.059692117657407742 -0.143085610488451 0 -0.081158065632194659 -0.15186374694008711 0 -0.059692117657407742 -0.143085610488451 0 -0.081158065632194659 -0.15186374694008711 0 -0.059692117657407742 -0.143085610488451 0 -0.081158065632194659 -0.15186374694008711 0 -0.072644108428099957 -0.1362008770572572 0 -0.062272400799346789 -0.15787819680307999 0 -0.072538963795879596 -0.16623374660404491 0 -0.066365738327269691 -0.18197096445661051 0 -0.062272400799346789 -0.15787819680307999 0 -0.081158065632194659 -0.15186374694008711 0 -0.072538963795879596 -0.16623374660404491 0 -0.072538963795879596 -0.16623374660404491 0 -0.077997770196531868 -0.17540018954193379 0 -0.081718704517605295 -0.1668267426231809 0 -0.072538963795879596 -0.16623374660404491 0 -0.066365738327269691 -0.18197096445661051 0 -0.077997770196531868 -0.17540018954193379 0 -0.066365738327269691 -0.18197096445661051 0 -0.077997770196531868 -0.17540018954193379 0 -0.081487608761993444 -0.18556709756165499 0 -0.077997770196531868 -0.17540018954193379 0 -0.087877835579911301 -0.17640239646417749 0 -0.081718704517605295 -0.1668267426231809 0 -0.077997770196531868 -0.17540018954193379 0 -0.081487608761993444 -0.18556709756165499 0 -0.087877835579911301 -0.17640239646417749 0 -0.09195948243348237 -0.18919832032981729 0 -0.087877835579911301 -0.17640239646417749 0 -0.097478371359667471 -0.17938606486554659 0 -0.09195948243348237 -0.18919832032981729 0 -0.081487608761993444 -0.18556709756165499 0 -0.087877835579911301 -0.17640239646417749 0 -0.081158065632194659 -0.15186374694008711 0 -0.091098836317684923 -0.16397534678571379 0 -0.1026240136069816 -0.16064188339172311 0 -0.081158065632194659 -0.15186374694008711 0 -0.1026240136069816 -0.16064188339172311 0 -0.081158065632194659 -0.15186374694008711 0 -0.081718704517605295 -0.1668267426231809 0 -0.091098836317684923 -0.16397534678571379 0 -0.081158065632194659 -0.15186374694008711 0 -0.072538963795879596 -0.16623374660404491 0 -0.081718704517605295 -0.1668267426231809 0 -0.087877835579911301 -0.17640239646417749 0 -0.091098836317684923 -0.16397534678571379 0 -0.097237711148505837 -0.17150811847226621 0 -0.087877835579911301 -0.17640239646417749 0 -0.081718704517605295 -0.1668267426231809 0 -0.091098836317684923 -0.16397534678571379 0 -0.091098836317684923 -0.16397534678571379 0 -0.098885143938518938 -0.16591761604604069 0 -0.1026240136069816 -0.16064188339172311 0 -0.091098836317684923 -0.16397534678571379 0 -0.097237711148505837 -0.17150811847226621 0 -0.098885143938518938 -0.16591761604604069 0 -0.098885143938518938 -0.16591761604604069 0 -0.1031109207964532 -0.16848764145139919 0 -0.1026240136069816 -0.16064188339172311 0 -0.097237711148505837 -0.17150811847226621 0 -0.098885143938518938 -0.16591761604604069 0 -0.1031109207964532 -0.16848764145139919 0 -0.1031109207964532 -0.16848764145139919 0 -0.1026240136069816 -0.16064188339172311 0 -0.11129704076522889 -0.17004718842101249 0 -0.1031109207964532 -0.16848764145139919 0 -0.10466880056191501 -0.17526286775382391 0 -0.11129704076522889 -0.17004718842101249 0 -0.097237711148505837 -0.17150811847226621 0 -0.1031109207964532 -0.16848764145139919 0 -0.10466880056191501 -0.17526286775382391 0 -0.1087016318161993 -0.1588819737929664 0 -0.1026240136069816 -0.16064188339172311 0 -0.095173508603425383 -0.15210388680156051 0 -0.09195948243348237 -0.18919832032981729 0 -0.097478371359667471 -0.17938606486554659 0 -0.10480613311340729 -0.18549808813551849 0 -0.097237711148505837 -0.17150811847226621 0 -0.097478371359667471 -0.17938606486554659 0 -0.10466880056191501 -0.17526286775382391 0 -0.087877835579911301 -0.17640239646417749 0 -0.097237711148505837 -0.17150811847226621 0 -0.097478371359667471 -0.17938606486554659 0 -0.10466880056191501 -0.17526286775382391 0 -0.1120620806815502 -0.1789048255640894 0 -0.11129704076522889 -0.17004718842101249 0 -0.097478371359667471 -0.17938606486554659 0 -0.10466880056191501 -0.17526286775382391 0 -0.10480613311340729 -0.18549808813551849 0 -0.10466880056191501 -0.17526286775382391 0 -0.10480613311340729 -0.18549808813551849 0 -0.1120620806815502 -0.1789048255640894 0 -0.1246827178545081 -0.19464822113178129 0 -0.12255892666197871 -0.178415814352886 0 -0.11851494259000769 -0.18113947694370111 0 -0.1246827178545081 -0.19464822113178129 0 -0.12255892666197871 -0.178415814352886 0 -0.12756975912747001 -0.1726283871918747 0 -0.1143064209414878 -0.188177832304637 0 -0.10480613311340729 -0.18549808813551849 0 -0.1120620806815502 -0.1789048255640894 0 -0.1143064209414878 -0.188177832304637 0 -0.1120620806815502 -0.1789048255640894 0 -0.11851494259000769 -0.18113947694370111 0 -0.1120620806815502 -0.1789048255640894 0 -0.11793725215613921 -0.17424296665371389 0 -0.11129704076522889 -0.17004718842101249 0 -0.1120620806815502 -0.1789048255640894 0 -0.11793725215613921 -0.17424296665371389 0 -0.11851494259000769 -0.18113947694370111 0 -0.11793725215613921 -0.17424296665371389 0 -0.12255892666197871 -0.178415814352886 0 -0.12408996158176849 -0.16942001984335919 0 -0.12255892666197871 -0.178415814352886 0 -0.12408996158176849 -0.16942001984335919 0 -0.12756975912747001 -0.1726283871918747 0 -0.11793725215613921 -0.17424296665371389 0 -0.12255892666197871 -0.178415814352886 0 -0.11851494259000769 -0.18113947694370111 0 -0.1087016318161993 -0.1588819737929664 0 -0.1026240136069816 -0.16064188339172311 0 -0.12408996158176849 -0.16942001984335919 0 -0.1026240136069816 -0.16064188339172311 0 -0.11129704076522889 -0.17004718842101249 0 -0.12408996158176849 -0.16942001984335919 0 -0.1026240136069816 -0.16064188339172311 0 -0.12408996158176849 -0.16942001984335919 0 -0.11793725215613921 -0.17424296665371389 0 -0.11129704076522889 -0.17004718842101249 0 -0.12408996158176849 -0.16942001984335919 0 -0.12408996158176849 -0.16942001984335919 0 -0.1205705302042656 -0.15805478357754499 0 -0.12741167384211929 -0.16272938057423161 0 -0.1087016318161993 -0.1588819737929664 0 -0.12408996158176849 -0.16942001984335919 0 -0.1205705302042656 -0.15805478357754499 0 -0.1205705302042656 -0.15805478357754499 0 -0.1160384680192207 -0.15099395172202371 0 -0.12556926213580591 -0.14819539131425 0 -0.1087016318161993 -0.1588819737929664 0 -0.1160384680192207 -0.15099395172202371 0 -0.10935660481129381 -0.1395604443137744 0 -0.10935660481129381 -0.1395604443137744 0 -0.12835842175950049 -0.13599934284001289 0 -0.12556926213580591 -0.14819539131425 0 -0.1160384680192207 -0.15099395172202371 0 -0.10935660481129381 -0.1395604443137744 0 -0.12556926213580591 -0.14819539131425 0 -0.1087016318161993 -0.1588819737929664 0 -0.1205705302042656 -0.15805478357754499 0 -0.1160384680192207 -0.15099395172202371 0 -0.090040689637920196 -0.1387567577737451 0 -0.1087016318161993 -0.1588819737929664 0 -0.090040689637920196 -0.1387567577737451 0 -0.1087016318161993 -0.1588819737929664 0 -0.095173508603425383 -0.15210388680156051 0 -0.090040689637920196 -0.1387567577737451 0 -0.1087016318161993 -0.1588819737929664 0 -0.10935660481129381 -0.1395604443137744 0 -0.090040689637920196 -0.1387567577737451 0 -0.098551057693538974 -0.1291739625937384 0 -0.10935660481129381 -0.1395604443137744 0 -0.10951433610534381 -0.1177407486611982 0 -0.098551057693538974 -0.1291739625937384 0 -0.10935660481129381 -0.1395604443137744 0 -0.10951433610534381 -0.1177407486611982 0 -0.10935660481129381 -0.1395604443137744 0 -0.12835842175950049 -0.13599934284001289 0 -0.10951433610534381 -0.1177407486611982 0 -0.12835842175950049 -0.13599934284001289 0 -0.12835842175950049 -0.13599934284001289 0 -0.1524886220886042 -0.13276328462078951 0 -0.1444055645820771 -0.119989299271274 0 -0.1524886220886042 -0.13276328462078951 0 -0.1472025074136572 -0.15425793701882759 0 -0.16520690897539761 -0.14450060840461881 0 -0.12835842175950049 -0.13599934284001289 0 -0.1524886220886042 -0.13276328462078951 0 -0.1472025074136572 -0.15425793701882759 0 -0.12835842175950049 -0.13599934284001289 0 -0.1472025074136572 -0.15425793701882759 0 -0.12556926213580591 -0.14819539131425 0 -0.1472025074136572 -0.15425793701882759 0 -0.12556926213580591 -0.14819539131425 0 -0.1323510983109932 -0.1578063382729708 0 -0.12835842175950049 -0.13599934284001289 0 -0.1472025074136572 -0.15425793701882759 0 -0.1205705302042656 -0.15805478357754499 0 -0.12556926213580591 -0.14819539131425 0 -0.1323510983109932 -0.1578063382729708 0 -0.1323510983109932 -0.1578063382729708 0 -0.12741167384211929 -0.16272938057423161 0 -0.13263510527145009 -0.1656363806030515 0 -0.1205705302042656 -0.15805478357754499 0 -0.1323510983109932 -0.1578063382729708 0 -0.12741167384211929 -0.16272938057423161 0 -0.12408996158176849 -0.16942001984335919 0 -0.12741167384211929 -0.16272938057423161 0 -0.13263510527145009 -0.1656363806030515 0 -0.12408996158176849 -0.16942001984335919 0 -0.13263510527145009 -0.1656363806030515 0 -0.13574162138348031 -0.1715625449670069 0 -0.13263510527145009 -0.1656363806030515 0 -0.13968839350630291 -0.16926402695270459 0 -0.143049410512533 -0.16410122574804761 0 -0.13263510527145009 -0.1656363806030515 0 -0.13574162138348031 -0.1715625449670069 0 -0.13968839350630291 -0.16926402695270459 0 -0.13574162138348031 -0.1715625449670069 0 -0.13968839350630291 -0.16926402695270459 0 -0.14152062218909181 -0.17356918119890891 0 -0.1323510983109932 -0.1578063382729708 0 -0.13263510527145009 -0.1656363806030515 0 -0.143049410512533 -0.16410122574804761 0 -0.1246827178545081 -0.19464822113178129 0 -0.12756975912747001 -0.1726283871918747 0 -0.13370796306822871 -0.18463235124839811 0 -0.12408996158176849 -0.16942001984335919 0 -0.12756975912747001 -0.1726283871918747 0 -0.1455559095565554 -0.17819815629499511 0 -0.13370796306822871 -0.18463235124839811 0 -0.1455559095565554 -0.17819815629499511 0 -0.1366976962130016 -0.1984323347437878 0 -0.12408996158176849 -0.16942001984335919 0 -0.13574162138348031 -0.1715625449670069 0 -0.1455559095565554 -0.17819815629499511 0 -0.12408996158176849 -0.16942001984335919 0 -0.1455559095565554 -0.17819815629499511 0 -0.12756975912747001 -0.1726283871918747 0 -0.13370796306822871 -0.18463235124839811 0 -0.1455559095565554 -0.17819815629499511 0 -0.1246827178545081 -0.19464822113178129 0 -0.12756975912747001 -0.1726283871918747 0 -0.13574162138348031 -0.1715625449670069 0 -0.1455559095565554 -0.17819815629499511 0 -0.14152062218909181 -0.17356918119890891 0 -0.1455559095565554 -0.17819815629499511 0 -0.1472745395858249 -0.1742724135576067 0 -0.1455559095565554 -0.17819815629499511 0 -0.14152062218909181 -0.17356918119890891 0 -0.14471762123797419 -0.17397916832303559 0 -0.14152062218909181 -0.17356918119890891 0 -0.14471762123797419 -0.17397916832303559 0 -0.14451941362042481 -0.16987692224063161 0 -0.1455559095565554 -0.17819815629499511 0 -0.14471762123797419 -0.17397916832303559 0 -0.1472745395858249 -0.1742724135576067 0 -0.14471762123797419 -0.17397916832303559 0 -0.1472745395858249 -0.1742724135576067 0 -0.14451941362042481 -0.16987692224063161 0 -0.1455559095565554 -0.17819815629499511 0 -0.1472745395858249 -0.1742724135576067 0 -0.15640249393939731 -0.17627354655828961 0 -0.1455559095565554 -0.17819815629499511 0 -0.16089157097852391 -0.18446941571928199 0 -0.15640249393939731 -0.17627354655828961 0 -0.1472745395858249 -0.1742724135576067 0 -0.15175005891316981 -0.16617482376350709 0 -0.15640249393939731 -0.17627354655828961 0 -0.1455559095565554 -0.17819815629499511 0 -0.16089157097852391 -0.18446941571928199 0 -0.1455559095565554 -0.17819815629499511 0 -0.16089157097852391 -0.18446941571928199 0 -0.15064003445489399 -0.19251494137683681 0 -0.1472025074136572 -0.15425793701882759 0 -0.1323510983109932 -0.1578063382729708 0 -0.143049410512533 -0.16410122574804761 0 -0.1472025074136572 -0.15425793701882759 0 -0.143049410512533 -0.16410122574804761 0 -0.15175005891316981 -0.16617482376350709 0 -0.1472745395858249 -0.1742724135576067 0 -0.14451941362042481 -0.16987692224063161 0 -0.15175005891316981 -0.16617482376350709 0 -0.143049410512533 -0.16410122574804761 0 -0.14451941362042481 -0.16987692224063161 0 -0.15175005891316981 -0.16617482376350709 0 -0.13968839350630291 -0.16926402695270459 0 -0.143049410512533 -0.16410122574804761 0 -0.14451941362042481 -0.16987692224063161 0 -0.13968839350630291 -0.16926402695270459 0 -0.14152062218909181 -0.17356918119890891 0 -0.14451941362042481 -0.16987692224063161 0 -0.1472025074136572 -0.15425793701882759 0 -0.15175005891316981 -0.16617482376350709 0 -0.15933844627008131 -0.15785182051318411 0 -0.15175005891316981 -0.16617482376350709 0 -0.15933844627008131 -0.15785182051318411 0 -0.16543377232546519 -0.1677840800067088 0 -0.15175005891316981 -0.16617482376350709 0 -0.16543377232546519 -0.1677840800067088 0 -0.15640249393939731 -0.17627354655828961 0 -0.15933844627008131 -0.15785182051318411 0 -0.16543377232546519 -0.1677840800067088 0 -0.17003142803650539 -0.15641578820396701 0 -0.16543377232546519 -0.1677840800067088 0 -0.17003142803650539 -0.15641578820396701 0 -0.1794826578012525 -0.16319670836666239 0 -0.16089157097852391 -0.18446941571928199 0 -0.15640249393939731 -0.17627354655828961 0 -0.16585092186476241 -0.17642149393906539 0 -0.16543377232546519 -0.1677840800067088 0 -0.15640249393939731 -0.17627354655828961 0 -0.16585092186476241 -0.17642149393906539 0 -0.16543377232546519 -0.1677840800067088 0 -0.16585092186476241 -0.17642149393906539 0 -0.17604831689514469 -0.17541545246068299 0 -0.16089157097852391 -0.18446941571928199 0 -0.16585092186476241 -0.17642149393906539 0 -0.17622723240049251 -0.19074067514356879 0 -0.17604831689514469 -0.17541545246068299 0 -0.17622723240049251 -0.19074067514356879 0 -0.19324700008375131 -0.17893430484740969 0 -0.17604831689514469 -0.17541545246068299 0 -0.1794826578012525 -0.16319670836666239 0 -0.19324700008375131 -0.17893430484740969 0 -0.16585092186476241 -0.17642149393906539 0 -0.17604831689514469 -0.17541545246068299 0 -0.17622723240049251 -0.19074067514356879 0 -0.1794826578012525 -0.16319670836666239 0 -0.18069535481033061 -0.14874572372866091 0 -0.1965861711368333 -0.16197058029353911 0 -0.16543377232546519 -0.1677840800067088 0 -0.17604831689514469 -0.17541545246068299 0 -0.1794826578012525 -0.16319670836666239 0 -0.18069535481033061 -0.14874572372866091 0 -0.18356594986894359 -0.13381293047135881 0 -0.16520690897539761 -0.14450060840461881 0 -0.17003142803650539 -0.15641578820396701 0 -0.18069535481033061 -0.14874572372866091 0 -0.16520690897539761 -0.14450060840461881 0 -0.17003142803650539 -0.15641578820396701 0 -0.1794826578012525 -0.16319670836666239 0 -0.18069535481033061 -0.14874572372866091 0 -0.18069535481033061 -0.14874572372866091 0 -0.18356594986894359 -0.13381293047135881 0 -0.19455058299827011 -0.14606977114215 0 -0.18356594986894359 -0.13381293047135881 0 -0.1689242121409685 -0.12811226758445601 0 -0.18112894721710859 -0.1151187810104322 0 -0.18356594986894359 -0.13381293047135881 0 -0.1689242121409685 -0.12811226758445601 0 -0.16520690897539761 -0.14450060840461881 0 -0.1524886220886042 -0.13276328462078951 0 -0.1689242121409685 -0.12811226758445601 0 -0.1596969610419974 -0.115217598968132 0 -0.1524886220886042 -0.13276328462078951 0 -0.1689242121409685 -0.12811226758445601 0 -0.16520690897539761 -0.14450060840461881 0 -0.1472025074136572 -0.15425793701882759 0 -0.15933844627008131 -0.15785182051318411 0 -0.16520690897539761 -0.14450060840461881 0 -0.15933844627008131 -0.15785182051318411 0 -0.17003142803650539 -0.15641578820396701 0 -0.16520690897539761 -0.14450060840461881 0 -0.14822282342019369 -0.26280282871250987 0 -0.14624722887204919 -0.24812456183528761 0 -0.16530228257869631 -0.23865896338888859 0 -0.14649083067695021 -0.23525371373910661 0 -0.14624722887204919 -0.24812456183528761 0 -0.16530228257869631 -0.23865896338888859 0 -0.14649083067695021 -0.23525371373910661 0 -0.14624722887204919 -0.24812456183528761 0 -0.13736917512936381 -0.24565494316745151 0 -0.13300922847988161 -0.25498986245784899 0 -0.13736917512936381 -0.24565494316745151 0 -0.12830487636215679 -0.24340640238721981 0 -0.13300922847988161 -0.25498986245784899 0 -0.14624722887204919 -0.24812456183528761 0 -0.13736917512936381 -0.24565494316745151 0 -0.13300922847988161 -0.25498986245784899 0 -0.1177956335395702 -0.247176896203187 0 -0.12830487636215679 -0.24340640238721981 0 -0.1188377532558344 -0.2392285155157903 0 -0.12825327233814299 -0.23689401461915119 0 -0.13018975907040331 -0.22941506754181851 0 -0.12825327233814299 -0.23689401461915119 0 -0.13581921289405099 -0.2372635159471817 0 -0.13018975907040331 -0.22941506754181851 0 -0.1188377532558344 -0.2392285155157903 0 -0.12830487636215679 -0.24340640238721981 0 -0.12825327233814299 -0.23689401461915119 0 -0.12830487636215679 -0.24340640238721981 0 -0.12825327233814299 -0.23689401461915119 0 -0.13581921289405099 -0.2372635159471817 0 -0.14649083067695021 -0.23525371373910661 0 -0.13736917512936381 -0.24565494316745151 0 -0.13581921289405099 -0.2372635159471817 0 -0.13736917512936381 -0.24565494316745151 0 -0.12830487636215679 -0.24340640238721981 0 -0.13581921289405099 -0.2372635159471817 0 -0.14649083067695021 -0.23525371373910661 0 -0.13581921289405099 -0.2372635159471817 0 -0.13789500317128239 -0.22829225746742399 0 -0.13581921289405099 -0.2372635159471817 0 -0.13789500317128239 -0.22829225746742399 0 -0.13018975907040331 -0.22941506754181851 0 -0.1188377532558344 -0.2392285155157903 0 -0.13018975907040331 -0.22941506754181851 0 -0.12783948286944791 -0.21866651319258079 0 -0.13018975907040331 -0.22941506754181851 0 -0.1328262592453581 -0.22031545150575629 0 -0.12783948286944791 -0.21866651319258079 0 -0.1328262592453581 -0.22031545150575629 0 -0.12783948286944791 -0.21866651319258079 0 -0.13789500317128239 -0.22829225746742399 0 -0.13018975907040331 -0.22941506754181851 0 -0.1328262592453581 -0.22031545150575629 0 -0.13789500317128239 -0.22829225746742399 0 -0.1328262592453581 -0.22031545150575629 0 -0.1414189215665633 -0.21938338093977361 0 -0.1414189215665633 -0.21938338093977361 0 -0.14664113939802231 -0.22493538372923369 0 -0.14941930060751929 -0.21649819293793859 0 -0.13789500317128239 -0.22829225746742399 0 -0.1414189215665633 -0.21938338093977361 0 -0.14664113939802231 -0.22493538372923369 0 -0.14649083067695021 -0.23525371373910661 0 -0.13789500317128239 -0.22829225746742399 0 -0.14664113939802231 -0.22493538372923369 0 -0.14649083067695021 -0.23525371373910661 0 -0.14664113939802231 -0.22493538372923369 0 -0.1580314787114882 -0.22200772931557949 0 -0.14664113939802231 -0.22493538372923369 0 -0.14941930060751929 -0.21649819293793859 0 -0.1580314787114882 -0.22200772931557949 0 -0.14941930060751929 -0.21649819293793859 0 -0.15785648016638701 -0.21040622411283369 0 -0.1580314787114882 -0.22200772931557949 0 -0.14941930060751929 -0.21649819293793859 0 -0.1516736022575319 -0.2037558580797911 0 -0.15785648016638701 -0.21040622411283369 0 -0.1516736022575319 -0.2037558580797911 0 -0.14326480543964371 -0.21051598374393121 0 -0.1366976962130016 -0.1984323347437878 0 -0.14941930060751929 -0.21649819293793859 0 -0.1516736022575319 -0.2037558580797911 0 -0.14326480543964371 -0.21051598374393121 0 -0.1414189215665633 -0.21938338093977361 0 -0.14941930060751929 -0.21649819293793859 0 -0.14326480543964371 -0.21051598374393121 0 -0.12783948286944791 -0.21866651319258079 0 -0.1366976962130016 -0.1984323347437878 0 -0.1414189215665633 -0.21938338093977361 0 -0.14326480543964371 -0.21051598374393121 0 -0.13683036475025101 -0.21425114692676961 0 -0.12179567658154079 -0.21666805507168721 0 -0.12783948286944791 -0.21866651319258079 0 -0.1366976962130016 -0.1984323347437878 0 -0.1246827178545081 -0.19464822113178129 0 -0.12179567658154079 -0.21666805507168721 0 -0.1366976962130016 -0.1984323347437878 0 -0.1328262592453581 -0.22031545150575629 0 -0.1414189215665633 -0.21938338093977361 0 -0.13683036475025101 -0.21425114692676961 0 -0.14326480543964371 -0.21051598374393121 0 -0.13683036475025101 -0.21425114692676961 0 -0.1366976962130016 -0.1984323347437878 0 -0.13683036475025101 -0.21425114692676961 0 -0.12783948286944791 -0.21866651319258079 0 -0.1366976962130016 -0.1984323347437878 0 -0.1328262592453581 -0.22031545150575629 0 -0.13683036475025101 -0.21425114692676961 0 -0.12783948286944791 -0.21866651319258079 0 -0.1246827178545081 -0.19464822113178129 0 -0.13370796306822871 -0.18463235124839811 0 -0.1366976962130016 -0.1984323347437878 0 -0.1455559095565554 -0.17819815629499511 0 -0.1366976962130016 -0.1984323347437878 0 -0.1455559095565554 -0.17819815629499511 0 -0.1366976962130016 -0.1984323347437878 0 -0.15064003445489399 -0.19251494137683681 0 -0.1516736022575319 -0.2037558580797911 0 -0.1366976962130016 -0.1984323347437878 0 -0.15064003445489399 -0.19251494137683681 0 -0.1516736022575319 -0.2037558580797911 0 -0.15064003445489399 -0.19251494137683681 0 -0.16120652868628421 -0.19860367177246219 0 -0.16120652868628421 -0.19860367177246219 0 -0.17622723240049251 -0.19074067514356879 0 -0.16836142100102089 -0.20854901913927901 0 -0.16089157097852391 -0.18446941571928199 0 -0.15064003445489399 -0.19251494137683681 0 -0.16120652868628421 -0.19860367177246219 0 -0.16089157097852391 -0.18446941571928199 0 -0.16120652868628421 -0.19860367177246219 0 -0.17622723240049251 -0.19074067514356879 0 -0.16089157097852391 -0.18446941571928199 0 -0.17622723240049251 -0.19074067514356879 0 -0.17622723240049251 -0.19074067514356879 0 -0.18238174173719909 -0.2145150980652675 0 -0.19371322047670581 -0.20171652472726359 0 -0.17622723240049251 -0.19074067514356879 0 -0.18238174173719909 -0.2145150980652675 0 -0.16836142100102089 -0.20854901913927901 0 -0.18238174173719909 -0.2145150980652675 0 -0.16836142100102089 -0.20854901913927901 0 -0.1580314787114882 -0.22200772931557949 0 -0.1516736022575319 -0.2037558580797911 0 -0.16120652868628421 -0.19860367177246219 0 -0.15785648016638701 -0.21040622411283369 0 -0.16120652868628421 -0.19860367177246219 0 -0.16836142100102089 -0.20854901913927901 0 -0.15785648016638701 -0.21040622411283369 0 -0.16836142100102089 -0.20854901913927901 0 -0.15785648016638701 -0.21040622411283369 0 -0.1580314787114882 -0.22200772931557949 0 -0.14649083067695021 -0.23525371373910661 0 -0.1580314787114882 -0.22200772931557949 0 -0.16530228257869631 -0.23865896338888859 0 -0.18238174173719909 -0.2145150980652675 0 -0.1580314787114882 -0.22200772931557949 0 -0.16530228257869631 -0.23865896338888859 0 -0.18238174173719909 -0.2145150980652675 0 -0.18724822437649599 -0.22810380179717771 0 -0.16530228257869631 -0.23865896338888859 0 -0.18238174173719909 -0.2145150980652675 0 -0.16530228257869631 -0.23865896338888859 0 -0.18238174173719909 -0.2145150980652675 0 -0.18724822437649599 -0.22810380179717771 0 -0.19187963214169551 -0.2176854108514869 0 -0.18724822437649599 -0.22810380179717771 0 -0.16530228257869631 -0.23865896338888859 0 -0.18964217591845089 -0.24002307996666741 0 -0.18743418515523 -0.25533469074381721 0 -0.16530228257869631 -0.23865896338888859 0 -0.18964217591845089 -0.24002307996666741 0 -0.2048048756623756 -0.2446353592032969 0 -0.19930459359238989 -0.235705483801466 0 -0.22465534115634961 -0.23539717771944699 0 -0.21906731033578741 -0.25070158993507968 0 -0.2048048756623756 -0.2446353592032969 0 -0.22465534115634961 -0.23539717771944699 0 -0.2005593250693537 -0.25610476117175518 0 -0.2048048756623756 -0.2446353592032969 0 -0.18964217591845089 -0.24002307996666741 0 -0.18724822437649599 -0.22810380179717771 0 -0.18964217591845089 -0.24002307996666741 0 -0.19930459359238989 -0.235705483801466 0 -0.2048048756623756 -0.2446353592032969 0 -0.18964217591845089 -0.24002307996666741 0 -0.19930459359238989 -0.235705483801466 0 -0.18724822437649599 -0.22810380179717771 0 -0.19930459359238989 -0.235705483801466 0 -0.19843574346264489 -0.22525364774296999 0 -0.18724822437649599 -0.22810380179717771 0 -0.19843574346264489 -0.22525364774296999 0 -0.19187963214169551 -0.2176854108514869 0 -0.19843574346264489 -0.22525364774296999 0 -0.20189072242181211 -0.21748823909478701 0 -0.19187963214169551 -0.2176854108514869 0 -0.19843574346264489 -0.22525364774296999 0 -0.22465534115634961 -0.23539717771944699 0 -0.19930459359238989 -0.235705483801466 0 -0.19843574346264489 -0.22525364774296999 0 -0.22465534115634961 -0.23539717771944699 0 -0.19843574346264489 -0.22525364774296999 0 -0.21536770064247759 -0.22243798692028979 0 -0.20189072242181211 -0.21748823909478701 0 -0.19843574346264489 -0.22525364774296999 0 -0.21536770064247759 -0.22243798692028979 0 -0.22465534115634961 -0.23539717771944699 0 -0.20189072242181211 -0.21748823909478701 0 -0.21001557487290889 -0.19328796380971491 0 -0.21270383698995579 -0.21051387846345429 0 -0.20189072242181211 -0.21748823909478701 0 -0.21001557487290889 -0.19328796380971491 0 -0.21270383698995579 -0.21051387846345429 0 -0.21001557487290889 -0.19328796380971491 0 -0.22354135002262451 -0.20884132402902569 0 -0.21536770064247759 -0.22243798692028979 0 -0.21270383698995579 -0.21051387846345429 0 -0.22354135002262451 -0.20884132402902569 0 -0.21536770064247759 -0.22243798692028979 0 -0.21270383698995579 -0.21051387846345429 0 -0.20189072242181211 -0.21748823909478701 0 -0.18238174173719909 -0.2145150980652675 0 -0.19187963214169551 -0.2176854108514869 0 -0.19371322047670581 -0.20171652472726359 0 -0.20189072242181211 -0.21748823909478701 0 -0.19187963214169551 -0.2176854108514869 0 -0.19371322047670581 -0.20171652472726359 0 -0.20189072242181211 -0.21748823909478701 0 -0.19371322047670581 -0.20171652472726359 0 -0.21001557487290889 -0.19328796380971491 0 -0.17622723240049251 -0.19074067514356879 0 -0.19371322047670581 -0.20171652472726359 0 -0.19324700008375131 -0.17893430484740969 0 -0.19371322047670581 -0.20171652472726359 0 -0.21001557487290889 -0.19328796380971491 0 -0.19324700008375131 -0.17893430484740969 0 -0.21001557487290889 -0.19328796380971491 0 -0.23591907458205519 -0.19542995464143861 0 -0.22767994049449819 -0.18174509567794089 0 -0.21001557487290889 -0.19328796380971491 0 -0.23591907458205519 -0.19542995464143861 0 -0.22354135002262451 -0.20884132402902569 0 -0.23591907458205519 -0.19542995464143861 0 -0.24335773859866999 -0.17795020623119681 0 -0.25679644190605699 -0.1905393474454489 0 -0.23591907458205519 -0.19542995464143861 0 -0.24570541750444611 -0.20365384048844229 0 -0.25679644190605699 -0.1905393474454489 0 -0.23591907458205519 -0.19542995464143861 0 -0.23608249851188659 -0.20857146949185959 0 -0.24570541750444611 -0.20365384048844229 0 -0.23608249851188659 -0.20857146949185959 0 -0.24570541750444611 -0.20365384048844229 0 -0.24424586726138789 -0.21499134116475049 0 -0.24570541750444611 -0.20365384048844229 0 -0.24424586726138789 -0.21499134116475049 0 -0.25548909831179262 -0.21099285230565479 0 -0.24424586726138789 -0.21499134116475049 0 -0.25548909831179262 -0.21099285230565479 0 -0.23608249851188659 -0.20857146949185959 0 -0.24424586726138789 -0.21499134116475049 0 -0.2310007831889194 -0.219940887135641 0 -0.23608249851188659 -0.20857146949185959 0 -0.22354135002262451 -0.20884132402902569 0 -0.2310007831889194 -0.219940887135641 0 -0.21536770064247759 -0.22243798692028979 0 -0.22354135002262451 -0.20884132402902569 0 -0.2310007831889194 -0.219940887135641 0 -0.23591907458205519 -0.19542995464143861 0 -0.23608249851188659 -0.20857146949185959 0 -0.22354135002262451 -0.20884132402902569 0 -0.21536770064247759 -0.22243798692028979 0 -0.2310007831889194 -0.219940887135641 0 -0.22465534115634961 -0.23539717771944699 0 -0.2310007831889194 -0.219940887135641 0 -0.2433660095851525 -0.23044163108109569 0 -0.22465534115634961 -0.23539717771944699 0 -0.24424586726138789 -0.21499134116475049 0 -0.2310007831889194 -0.219940887135641 0 -0.2433660095851525 -0.23044163108109569 0 -0.24424586726138789 -0.21499134116475049 0 -0.2433660095851525 -0.23044163108109569 0 -0.25452081017742878 -0.22614180484510349 0 -0.22465534115634961 -0.23539717771944699 0 -0.2508749388500553 -0.2455407076959211 0 -0.2433660095851525 -0.23044163108109569 0 -0.22465534115634961 -0.23539717771944699 0 -0.2508749388500553 -0.2455407076959211 0 -0.23447079457332121 -0.24898436209678301 0 -0.22465534115634961 -0.23539717771944699 0 -0.2508749388500553 -0.2455407076959211 0 -0.2433660095851525 -0.23044163108109569 0 -0.25355252204306261 -0.241290757384552 0 -0.2508749388500553 -0.2455407076959211 0 -0.21906731033578741 -0.25070158993507968 0 -0.23447079457332121 -0.24898436209678301 0 -0.22465534115634961 -0.23539717771944699 0 -0.20647250412512971 -0.15147058889104509 0 -0.21613294869622879 -0.1461603489838659 0 -0.21814042732400579 -0.1690876885246427 0 -0.20647250412512971 -0.15147058889104509 0 -0.21613294869622879 -0.1461603489838659 0 -0.206688954852211 -0.13473057537224181 0 -0.21845458409954291 -0.12604013330062239 0 -0.206688954852211 -0.13473057537224181 0 -0.20991044862124339 -0.1190109332681611 0 -0.21613294869622879 -0.1461603489838659 0 -0.218128301644437 -0.1353122830204436 0 -0.206688954852211 -0.13473057537224181 0 -0.206688954852211 -0.13473057537224181 0 -0.20991044862124339 -0.1190109332681611 0 -0.19586007103591679 -0.1247770029037971 0 -0.218128301644437 -0.1353122830204436 0 -0.21845458409954291 -0.12604013330062239 0 -0.206688954852211 -0.13473057537224181 0 -0.206688954852211 -0.13473057537224181 0 -0.19540057533775049 -0.13501679649543091 0 -0.19455058299827011 -0.14606977114215 0 -0.206688954852211 -0.13473057537224181 0 -0.19540057533775049 -0.13501679649543091 0 -0.19586007103591679 -0.1247770029037971 0 -0.18356594986894359 -0.13381293047135881 0 -0.19540057533775049 -0.13501679649543091 0 -0.19586007103591679 -0.1247770029037971 0 -0.18356594986894359 -0.13381293047135881 0 -0.19540057533775049 -0.13501679649543091 0 -0.19455058299827011 -0.14606977114215 0 -0.20647250412512971 -0.15147058889104509 0 -0.206688954852211 -0.13473057537224181 0 -0.19455058299827011 -0.14606977114215 0 -0.20647250412512971 -0.15147058889104509 0 -0.19455058299827011 -0.14606977114215 0 -0.1965861711368333 -0.16197058029353911 0 -0.18069535481033061 -0.14874572372866091 0 -0.19455058299827011 -0.14606977114215 0 -0.1965861711368333 -0.16197058029353911 0 -0.1965861711368333 -0.16197058029353911 0 -0.19324700008375131 -0.17893430484740969 0 -0.21814042732400579 -0.1690876885246427 0 -0.1794826578012525 -0.16319670836666239 0 -0.1965861711368333 -0.16197058029353911 0 -0.19324700008375131 -0.17893430484740969 0 -0.21001557487290889 -0.19328796380971491 0 -0.19324700008375131 -0.17893430484740969 0 -0.21814042732400579 -0.1690876885246427 0 -0.21001557487290889 -0.19328796380971491 0 -0.21814042732400579 -0.1690876885246427 0 -0.22767994049449819 -0.18174509567794089 0 -0.21001557487290889 -0.19328796380971491 0 -0.21814042732400579 -0.1690876885246427 0 -0.20647250412512971 -0.15147058889104509 0 -0.1965861711368333 -0.16197058029353911 0 -0.21814042732400579 -0.1690876885246427 0 -0.21814042732400579 -0.1690876885246427 0 -0.23473796852886819 -0.16638720245670149 0 -0.23119356365244409 -0.15609640656643189 0 -0.21814042732400579 -0.1690876885246427 0 -0.23119356365244409 -0.15609640656643189 0 -0.22584502124280981 -0.14937094540269141 0 -0.21814042732400579 -0.1690876885246427 0 -0.22626527977510219 -0.1448874132395703 0 -0.21814042732400579 -0.1690876885246427 0 -0.22767994049449819 -0.18174509567794089 0 -0.23473796852886819 -0.16638720245670149 0 -0.22767994049449819 -0.18174509567794089 0 -0.24335773859866999 -0.17795020623119681 0 -0.23473796852886819 -0.16638720245670149 0 -0.23591907458205519 -0.19542995464143861 0 -0.22767994049449819 -0.18174509567794089 0 -0.24335773859866999 -0.17795020623119681 0 -0.23473796852886819 -0.16638720245670149 0 -0.24734168404742271 -0.16275892500173689 0 -0.2413608824693293 -0.1485638438256556 0 -0.23473796852886819 -0.16638720245670149 0 -0.2413608824693293 -0.1485638438256556 0 -0.23119356365244409 -0.15609640656643189 0 -0.24335773859866999 -0.17795020623119681 0 -0.23473796852886819 -0.16638720245670149 0 -0.24734168404742271 -0.16275892500173689 0 -0.24335773859866999 -0.17795020623119681 0 -0.24734168404742271 -0.16275892500173689 0 -0.2581037855003222 -0.17008584258524309 0 -0.2413608824693293 -0.1485638438256556 0 -0.24277308062338879 -0.13254810589866539 0 -0.25618789271048981 -0.1532063786790292 0 -0.24277308062338879 -0.13254810589866539 0 -0.25618789271048981 -0.1532063786790292 0 -0.24734168404742271 -0.16275892500173689 0 -0.2413608824693293 -0.1485638438256556 0 -0.25618789271048981 -0.1532063786790292 0 -0.2413608824693293 -0.1485638438256556 0 -0.23406028084897451 -0.14701145609064101 0 -0.2360901748165703 -0.13968341831247791 0 -0.2413608824693293 -0.1485638438256556 0 -0.23119356365244409 -0.15609640656643189 0 -0.23406028084897451 -0.14701145609064101 0 -0.23119356365244409 -0.15609640656643189 0 -0.23406028084897451 -0.14701145609064101 0 -0.22969644782396911 -0.14814498681522489 0 -0.21613294869622879 -0.1461603489838659 0 -0.21814042732400579 -0.1690876885246427 0 -0.22626527977510219 -0.1448874132395703 0 -0.21814042732400579 -0.1690876885246427 0 -0.22626527977510219 -0.1448874132395703 0 -0.22584502124280981 -0.14937094540269141 0 -0.23119356365244409 -0.15609640656643189 0 -0.22969644782396911 -0.14814498681522489 0 -0.22584502124280981 -0.14937094540269141 0 -0.23406028084897451 -0.14701145609064101 0 -0.23111809360051491 -0.1433587127767898 0 -0.22969644782396911 -0.14814498681522489 0 -0.23111809360051491 -0.1433587127767898 0 -0.2281709433091432 -0.13921130005448981 0 -0.2360901748165703 -0.13968341831247791 0 -0.23406028084897451 -0.14701145609064101 0 -0.23111809360051491 -0.1433587127767898 0 -0.2360901748165703 -0.13968341831247791 0 -0.22626527977510219 -0.1448874132395703 0 -0.2281709433091432 -0.13921130005448981 0 -0.23111809360051491 -0.1433587127767898 0 -0.22626527977510219 -0.1448874132395703 0 -0.2281709433091432 -0.13921130005448981 0 -0.23111809360051491 -0.1433587127767898 0 -0.22969644782396911 -0.14814498681522489 0 -0.22626527977510219 -0.1448874132395703 0 -0.22969644782396911 -0.14814498681522489 0 -0.22626527977510219 -0.1448874132395703 0 -0.22584502124280981 -0.14937094540269141 0 -0.22626527977510219 -0.1448874132395703 0 -0.22584502124280981 -0.14937094540269141 0 -0.21613294869622879 -0.1461603489838659 0 -0.22626527977510219 -0.1448874132395703 0 -0.22208457606786569 -0.13868716710570389 0 -0.22626527977510219 -0.1448874132395703 0 -0.22781177415569501 -0.12838862317893579 0 -0.22626527977510219 -0.1448874132395703 0 -0.22208457606786569 -0.13868716710570389 0 -0.22781177415569501 -0.12838862317893579 0 -0.22626527977510219 -0.1448874132395703 0 -0.2281709433091432 -0.13921130005448981 0 -0.22781177415569501 -0.12838862317893579 0 -0.218128301644437 -0.1353122830204436 0 -0.21845458409954291 -0.12604013330062239 0 -0.22781177415569501 -0.12838862317893579 0 -0.218128301644437 -0.1353122830204436 0 -0.22208457606786569 -0.13868716710570389 0 -0.22781177415569501 -0.12838862317893579 0 -0.21613294869622879 -0.1461603489838659 0 -0.218128301644437 -0.1353122830204436 0 -0.22208457606786569 -0.13868716710570389 0 -0.2281709433091432 -0.13921130005448981 0 -0.22781177415569501 -0.12838862317893579 0 -0.2360901748165703 -0.13968341831247791 0 -0.2413608824693293 -0.1485638438256556 0 -0.2360901748165703 -0.13968341831247791 0 -0.24277308062338879 -0.13254810589866539 0 -0.22781177415569501 -0.12838862317893579 0 -0.2360901748165703 -0.13968341831247791 0 -0.24277308062338879 -0.13254810589866539 0 -0.24277308062338879 -0.13254810589866539 0 -0.22935826853628791 -0.1118898331183014 0 -0.25163358583954409 -0.1156279226251417 0 -0.24277308062338879 -0.13254810589866539 0 -0.22935826853628791 -0.1118898331183014 0 -0.2493548319983401 -0.096664578098757323 0 -0.22935826853628791 -0.1118898331183014 0 -0.25163358583954409 -0.1156279226251417 0 -0.2493548319983401 -0.096664578098757323 0 -0.22935826853628791 -0.1118898331183014 0 -0.231523661282489 -0.088788319936804749 0 -0.22935826853628791 -0.1118898331183014 0 -0.231523661282489 -0.088788319936804749 0 -0.22935826853628791 -0.1118898331183014 0 -0.2184053613240505 -0.095022795141230132 0 -0.2097070711250191 -0.1063660629498691 0 -0.22935826853628791 -0.1118898331183014 0 -0.2184053613240505 -0.095022795141230132 0 -0.22935826853628791 -0.1118898331183014 0 -0.231523661282489 -0.088788319936804749 0 -0.2184053613240505 -0.095022795141230132 0 -0.22781177415569501 -0.12838862317893579 0 -0.22935826853628791 -0.1118898331183014 0 -0.22781177415569501 -0.12838862317893579 0 -0.24277308062338879 -0.13254810589866539 0 -0.22935826853628791 -0.1118898331183014 0 -0.21845458409954291 -0.12604013330062239 0 -0.22781177415569501 -0.12838862317893579 0 -0.22935826853628791 -0.1118898331183014 0 -0.21845458409954291 -0.12604013330062239 0 -0.22935826853628791 -0.1118898331183014 0 -0.20991044862124339 -0.1190109332681611 0 -0.23321003353932079 -0.070797241418383311 0 -0.24828530763826279 -0.051584040575180221 0 -0.25531714365595642 -0.074971307581390312 0 -0.2424724364444486 -0.082223365508721141 0 -0.23321003353932079 -0.070797241418383311 0 -0.25531714365595642 -0.074971307581390312 0 -0.2493548319983401 -0.096664578098757323 0 -0.2424724364444486 -0.082223365508721141 0 -0.25531714365595642 -0.074971307581390312 0 -0.2493548319983401 -0.096664578098757323 0 -0.231523661282489 -0.088788319936804749 0 -0.2493548319983401 -0.096664578098757323 0 -0.2424724364444486 -0.082223365508721141 0 -0.231523661282489 -0.088788319936804749 0 -0.2424724364444486 -0.082223365508721141 0 -0.231523661282489 -0.088788319936804749 0 -0.23321003353932079 -0.070797241418383311 0 -0.231523661282489 -0.088788319936804749 0 -0.23321003353932079 -0.070797241418383311 0 -0.231523661282489 -0.088788319936804749 0 -0.20745245411181459 -0.078155757164157763 0 -0.231523661282489 -0.088788319936804749 0 -0.20745245411181459 -0.078155757164157763 0 -0.2184053613240505 -0.095022795141230132 0 -0.231523661282489 -0.088788319936804749 0 -0.23321003353932079 -0.070797241418383311 0 -0.21478726858614 -0.066781687221112745 0 -0.23321003353932079 -0.070797241418383311 0 -0.21478726858614 -0.066781687221112745 0 -0.2169497607041678 -0.052249112661681682 0 -0.231523661282489 -0.088788319936804749 0 -0.21478726858614 -0.066781687221112745 0 -0.20745245411181459 -0.078155757164157763 0 -0.21478726858614 -0.066781687221112745 0 -0.20141308401829969 -0.068855369353781296 0 -0.2070838380507114 -0.058748383797045611 0 -0.21478726858614 -0.066781687221112745 0 -0.20745245411181459 -0.078155757164157763 0 -0.20141308401829969 -0.068855369353781296 0 -0.20745245411181459 -0.078155757164157763 0 -0.20141308401829969 -0.068855369353781296 0 -0.20745245411181459 -0.078155757164157763 0 -0.20289946492245681 -0.074410549110722979 0 -0.20141308401829969 -0.068855369353781296 0 -0.20745245411181459 -0.078155757164157763 0 -0.2184053613240505 -0.095022795141230132 0 -0.20745245411181459 -0.078155757164157763 0 -0.2184053613240505 -0.095022795141230132 0 -0.19298119094755789 -0.095357818724104287 0 -0.20745245411181459 -0.078155757164157763 0 -0.19298119094755789 -0.095357818724104287 0 -0.18710832599155541 -0.069169493294640894 0 -0.20745245411181459 -0.078155757164157763 0 -0.18710832599155541 -0.069169493294640894 0 -0.20745245411181459 -0.078155757164157763 0 -0.20289946492245681 -0.074410549110722979 0 -0.18710832599155541 -0.069169493294640894 0 -0.20289946492245681 -0.074410549110722979 0 -0.20141308401829969 -0.068855369353781296 0 -0.18710832599155541 -0.069169493294640894 0 -0.20289946492245681 -0.074410549110722979 0 -0.20141308401829969 -0.068855369353781296 0 -0.22935826853628791 -0.1118898331183014 0 -0.20991044862124339 -0.1190109332681611 0 -0.2097070711250191 -0.1063660629498691 0 -0.20991044862124339 -0.1190109332681611 0 -0.2097070711250191 -0.1063660629498691 0 -0.19788008619595601 -0.1105489344975485 0 -0.2184053613240505 -0.095022795141230132 0 -0.2097070711250191 -0.1063660629498691 0 -0.19298119094755789 -0.095357818724104287 0 -0.19298119094755789 -0.095357818724104287 0 -0.19788008619595601 -0.1105489344975485 0 -0.18112894721710859 -0.1151187810104322 0 -0.2097070711250191 -0.1063660629498691 0 -0.19298119094755789 -0.095357818724104287 0 -0.19788008619595601 -0.1105489344975485 0 -0.19788008619595601 -0.1105489344975485 0 -0.19586007103591679 -0.1247770029037971 0 -0.18112894721710859 -0.1151187810104322 0 -0.20991044862124339 -0.1190109332681611 0 -0.19788008619595601 -0.1105489344975485 0 -0.19586007103591679 -0.1247770029037971 0 -0.18356594986894359 -0.13381293047135881 0 -0.19586007103591679 -0.1247770029037971 0 -0.18112894721710859 -0.1151187810104322 0 -0.1689242121409685 -0.12811226758445601 0 -0.18112894721710859 -0.1151187810104322 0 -0.1596969610419974 -0.115217598968132 0 -0.18112894721710859 -0.1151187810104322 0 -0.1596969610419974 -0.115217598968132 0 -0.1687930352002078 -0.1021784185688939 0 -0.1596969610419974 -0.115217598968132 0 -0.1687930352002078 -0.1021784185688939 0 -0.14902926906602759 -0.1045390916949077 0 -0.19298119094755789 -0.095357818724104287 0 -0.1687930352002078 -0.1021784185688939 0 -0.1727391006086805 -0.086974815146220186 0 -0.19298119094755789 -0.095357818724104287 0 -0.18112894721710859 -0.1151187810104322 0 -0.1687930352002078 -0.1021784185688939 0 -0.19298119094755789 -0.095357818724104287 0 -0.1727391006086805 -0.086974815146220186 0 -0.18710832599155541 -0.069169493294640894 0 -0.1727391006086805 -0.086974815146220186 0 -0.18710832599155541 -0.069169493294640894 0 -0.16676419787129551 -0.060183229425125308 0 -0.18710832599155541 -0.069169493294640894 0 -0.16676419787129551 -0.060183229425125308 0 -0.1727391006086805 -0.086974815146220186 0 -0.15082416829960299 -0.085257964416209378 0 -0.16676419787129551 -0.060183229425125308 0 -0.1687930352002078 -0.1021784185688939 0 -0.1727391006086805 -0.086974815146220186 0 -0.15082416829960299 -0.085257964416209378 0 -0.1727391006086805 -0.086974815146220186 0 -0.15082416829960299 -0.085257964416209378 0 -0.15082416829960299 -0.085257964416209378 0 -0.14507196007391221 -0.068686501726111959 0 -0.12890923599052551 -0.08354111368619857 0 -0.15082416829960299 -0.085257964416209378 0 -0.14507196007391221 -0.068686501726111959 0 -0.16676419787129551 -0.060183229425125308 0 -0.14507196007391221 -0.068686501726111959 0 -0.12784166275969169 -0.065397409203157134 0 -0.12890923599052551 -0.08354111368619857 0 -0.15082416829960299 -0.085257964416209378 0 -0.12890923599052551 -0.08354111368619857 0 -0.1244559523629037 -0.1000842215631873 0 -0.12890923599052551 -0.08354111368619857 0 -0.1371346349346631 -0.096969913918606113 0 -0.15082416829960299 -0.085257964416209378 0 -0.12890923599052551 -0.08354111368619857 0 -0.1371346349346631 -0.096969913918606113 0 -0.1371346349346631 -0.096969913918606113 0 -0.13245454895425601 -0.11142717823252769 0 -0.14902926906602759 -0.1045390916949077 0 -0.1244559523629037 -0.1000842215631873 0 -0.1371346349346631 -0.096969913918606113 0 -0.13245454895425601 -0.11142717823252769 0 -0.12835842175950049 -0.13599934284001289 0 -0.13245454895425601 -0.11142717823252769 0 -0.1444055645820771 -0.119989299271274 0 -0.13245454895425601 -0.11142717823252769 0 -0.1444055645820771 -0.119989299271274 0 -0.14902926906602759 -0.1045390916949077 0 -0.1524886220886042 -0.13276328462078951 0 -0.1596969610419974 -0.115217598968132 0 -0.1444055645820771 -0.119989299271274 0 -0.1596969610419974 -0.115217598968132 0 -0.1444055645820771 -0.119989299271274 0 -0.14902926906602759 -0.1045390916949077 0 -0.15082416829960299 -0.085257964416209378 0 -0.1371346349346631 -0.096969913918606113 0 -0.14902926906602759 -0.1045390916949077 0 -0.1687930352002078 -0.1021784185688939 0 -0.15082416829960299 -0.085257964416209378 0 -0.14902926906602759 -0.1045390916949077 0 -0.1522462682033088 -0.030536671647398341 0 -0.13956546447946969 -0.01381685178342865 0 -0.16139484457369621 -0.0072288850416046789 0 -0.1522462682033088 -0.030536671647398341 0 -0.13002286364664609 -0.031316149569472977 0 -0.14385230174742869 -0.0007513362545505406 0 -0.13956546447946969 -0.01381685178342865 0 -0.16139484457369621 -0.0072288850416046789 0 -0.1236901537548759 -0.01489206594046069 0 -0.13956546447946969 -0.01381685178342865 0 -0.1322115625968833 -0.0048588272694234684 0 -0.14385230174742869 -0.0007513362545505406 0 -0.13956546447946969 -0.01381685178342865 0 -0.1322115625968833 -0.0048588272694234684 0 -0.1202061722546995 -0.0013910732862858659 0 -0.1236901537548759 -0.01489206594046069 0 -0.1322115625968833 -0.0048588272694234684 0 -0.1522462682033088 -0.030536671647398341 0 -0.13956546447946969 -0.01381685178342865 0 -0.13002286364664609 -0.031316149569472977 0 -0.1236901537548759 -0.01489206594046069 0 -0.13956546447946969 -0.01381685178342865 0 -0.13002286364664609 -0.031316149569472977 0 -0.13002286364664609 -0.031316149569472977 0 -0.12829464659483969 -0.044786120536291239 0 -0.13518520022511479 -0.039583635768891581 0 -0.1186500533871072 -0.046748107695021912 0 -0.13002286364664609 -0.031316149569472977 0 -0.12829464659483969 -0.044786120536291239 0 -0.12829464659483969 -0.044786120536291239 0 -0.13518520022511479 -0.039583635768891581 0 -0.1369369142125357 -0.047008133403114889 0 -0.13518520022511479 -0.039583635768891581 0 -0.1392621047143994 -0.042556129524621678 0 -0.14336191467497769 -0.037629483116148242 0 -0.1392621047143994 -0.042556129524621678 0 -0.1369369142125357 -0.047008133403114889 0 -0.14075636025241151 -0.048695231997206517 0 -0.13518520022511479 -0.039583635768891581 0 -0.1392621047143994 -0.042556129524621678 0 -0.1369369142125357 -0.047008133403114889 0 -0.13002286364664609 -0.031316149569472977 0 -0.13518520022511479 -0.039583635768891581 0 -0.14336191467497769 -0.037629483116148242 0 -0.1250098080103795 -0.064146542423957634 0 -0.14075636025241151 -0.048695231997206517 0 -0.1250098080103795 -0.064146542423957634 0 -0.12829464659483969 -0.044786120536291239 0 -0.1369369142125357 -0.047008133403114889 0 -0.12784166275969169 -0.065397409203157134 0 -0.1464200697510368 -0.051196965555607002 0 -0.1250098080103795 -0.064146542423957634 0 -0.12784166275969169 -0.065397409203157134 0 -0.14075636025241151 -0.048695231997206517 0 -0.12784166275969169 -0.065397409203157134 0 -0.1464200697510368 -0.051196965555607002 0 -0.14075636025241151 -0.048695231997206517 0 -0.14507196007391221 -0.068686501726111959 0 -0.12784166275969169 -0.065397409203157134 0 -0.1464200697510368 -0.051196965555607002 0 -0.1250098080103795 -0.064146542423957634 0 -0.1369369142125357 -0.047008133403114889 0 -0.14075636025241151 -0.048695231997206517 0 -0.1369369142125357 -0.047008133403114889 0 -0.14075636025241151 -0.048695231997206517 0 -0.14507196007391221 -0.068686501726111959 0 -0.1464200697510368 -0.051196965555607002 0 -0.16676419787129551 -0.060183229425125308 0 -0.1464200697510368 -0.051196965555607002 0 -0.14075636025241151 -0.048695231997206517 0 -0.1464200697510368 -0.051196965555607002 0 -0.14075636025241151 -0.048695231997206517 0 -0.15783106420910831 -0.031940672191056493 0 -0.14075636025241151 -0.048695231997206517 0 -0.15783106420910831 -0.031940672191056493 0 -0.1522462682033088 -0.030536671647398341 0 -0.13002286364664609 -0.031316149569472977 0 -0.14336191467497769 -0.037629483116148242 0 -0.1464200697510368 -0.051196965555607002 0 -0.15783106420910831 -0.031940672191056493 0 -0.1604448712555035 -0.040477079640464063 0 -0.14075636025241151 -0.048695231997206517 0 -0.14336191467497769 -0.037629483116148242 0 -0.15783106420910831 -0.031940672191056493 0 -0.1392621047143994 -0.042556129524621678 0 -0.14075636025241151 -0.048695231997206517 0 -0.14336191467497769 -0.037629483116148242 0 -0.1464200697510368 -0.051196965555607002 0 -0.1604448712555035 -0.040477079640464063 0 -0.1522462682033088 -0.030536671647398341 0 -0.14336191467497769 -0.037629483116148242 0 -0.15783106420910831 -0.031940672191056493 0 -0.15783106420910831 -0.031940672191056493 0 -0.1604448712555035 -0.040477079640464063 0 -0.17446967275997149 -0.02975719372532281 0 -0.1604448712555035 -0.040477079640464063 0 -0.17446967275997149 -0.02975719372532281 0 -0.1604448712555035 -0.040477079640464063 0 -0.17327387193615071 -0.04188020461511538 0 -0.17446967275997149 -0.02975719372532281 0 -0.1464200697510368 -0.051196965555607002 0 -0.16676419787129551 -0.060183229425125308 0 -0.1464200697510368 -0.051196965555607002 0 -0.1604448712555035 -0.040477079640464063 0 -0.16676419787129551 -0.060183229425125308 0 -0.1604448712555035 -0.040477079640464063 0 -0.16676419787129551 -0.060183229425125308 0 -0.17327387193615071 -0.04188020461511538 0 -0.16676419787129551 -0.060183229425125308 0 -0.17327387193615071 -0.04188020461511538 0 -0.18870123393742691 -0.049279629879483228 0 -0.18710832599155541 -0.069169493294640894 0 -0.16676419787129551 -0.060183229425125308 0 -0.18870123393742691 -0.049279629879483228 0 -0.17598938385655671 -0.029703890405183571 0 -0.18870123393742691 -0.049279629879483228 0 -0.17598938385655671 -0.029703890405183571 0 -0.19079847307895539 -0.029184466926863321 0 -0.18870123393742691 -0.049279629879483228 0 -0.17327387193615071 -0.04188020461511538 0 -0.17598938385655671 -0.029703890405183571 0 -0.18870123393742691 -0.049279629879483228 0 -0.17327387193615071 -0.04188020461511538 0 -0.17598938385655671 -0.029703890405183571 0 -0.17446967275997149 -0.02975719372532281 0 -0.18539455334725249 -0.021406738747767069 0 -0.1854614521429454 -0.0092379575340169606 0 -0.19079847307895539 -0.029184466926863321 0 -0.17598938385655671 -0.029703890405183571 0 -0.19079847307895539 -0.029184466926863321 0 -0.18539455334725249 -0.021406738747767069 0 -0.17598938385655671 -0.029703890405183571 0 -0.19079847307895539 -0.029184466926863321 0 -0.18539455334725249 -0.021406738747767069 0 -0.17446967275997149 -0.02975719372532281 0 -0.17524180425740291 -0.0061600029170402653 0 -0.18539455334725249 -0.021406738747767069 0 -0.17446967275997149 -0.02975719372532281 0 -0.18539455334725249 -0.021406738747767069 0 -0.17598938385655671 -0.029703890405183571 0 -0.17446967275997149 -0.02975719372532281 0 -0.17598938385655671 -0.029703890405183571 0 -0.17446967275997149 -0.02975719372532281 0 -0.1522462682033088 -0.030536671647398341 0 -0.17446967275997149 -0.02975719372532281 0 -0.16139484457369621 -0.0072288850416046789 0 -0.17446967275997149 -0.02975719372532281 0 -0.16139484457369621 -0.0072288850416046789 0 -0.1522462682033088 -0.030536671647398341 0 -0.17446967275997149 -0.02975719372532281 0 -0.1522462682033088 -0.030536671647398341 0 -0.15783106420910831 -0.031940672191056493 0 -0.17446967275997149 -0.02975719372532281 0 -0.17446967275997149 -0.02975719372532281 0 -0.16139484457369621 -0.0072288850416046789 0 -0.17524180425740291 -0.0061600029170402653 0 -0.16139484457369621 -0.0072288850416046789 0 -0.17524180425740291 -0.0061600029170402653 0 -0.16490393677323331 0.0078262417282228373 0 -0.17524180425740291 -0.0061600029170402653 0 -0.1854614521429454 -0.0092379575340169606 0 -0.18012443120693261 0.010708551858828731 0 -0.18539455334725249 -0.021406738747767069 0 -0.17524180425740291 -0.0061600029170402653 0 -0.1854614521429454 -0.0092379575340169606 0 -0.1854614521429454 -0.0092379575340169606 0 -0.20542491620194561 -0.011278839017610971 0 -0.19633944426408809 0.00466060732896001 0 -0.1854614521429454 -0.0092379575340169606 0 -0.19079847307895539 -0.029184466926863321 0 -0.1854614521429454 -0.0092379575340169606 0 -0.19079847307895539 -0.029184466926863321 0 -0.20542491620194561 -0.011278839017610971 0 -0.19079847307895539 -0.029184466926863321 0 -0.21861276184950679 -0.028208890751774539 0 -0.20542491620194561 -0.011278839017610971 0 -0.21861276184950679 -0.028208890751774539 0 -0.20542491620194561 -0.011278839017610971 0 -0.22558477193685969 -0.009933186482104249 0 -0.19079847307895539 -0.029184466926863321 0 -0.21861276184950679 -0.028208890751774539 0 -0.20542491620194561 -0.011278839017610971 0 -0.22558477193685969 -0.009933186482104249 0 -0.2149907176199192 0.011062683029353881 0 -0.20141308401829969 -0.068855369353781296 0 -0.19610577854862901 -0.049019918140321958 0 -0.2070838380507114 -0.058748383797045611 0 -0.20141308401829969 -0.068855369353781296 0 -0.18870123393742691 -0.049279629879483228 0 -0.19610577854862901 -0.049019918140321958 0 -0.20141308401829969 -0.068855369353781296 0 -0.18710832599155541 -0.069169493294640894 0 -0.18870123393742691 -0.049279629879483228 0 -0.20141308401829969 -0.068855369353781296 0 -0.18870123393742691 -0.049279629879483228 0 -0.20141308401829969 -0.068855369353781296 0 -0.19610577854862901 -0.049019918140321958 0 -0.19079847307895539 -0.029184466926863321 0 -0.18870123393742691 -0.049279629879483228 0 -0.19610577854862901 -0.049019918140321958 0 -0.19079847307895539 -0.029184466926863321 0 -0.19610577854862901 -0.049019918140321958 0 -0.19079847307895539 -0.029184466926863321 0 -0.21861276184950679 -0.028208890751774539 0 -0.19610577854862901 -0.049019918140321958 0 -0.21861276184950679 -0.028208890751774539 0 -0.19610577854862901 -0.049019918140321958 0 -0.2169497607041678 -0.052249112661681682 0 -0.19610577854862901 -0.049019918140321958 0 -0.2169497607041678 -0.052249112661681682 0 -0.2070838380507114 -0.058748383797045611 0 -0.21478726858614 -0.066781687221112745 0 -0.2169497607041678 -0.052249112661681682 0 -0.2070838380507114 -0.058748383797045611 0 -0.23321003353932079 -0.070797241418383311 0 -0.2169497607041678 -0.052249112661681682 0 -0.23247422093469311 -0.041133899759398941 0 -0.21861276184950679 -0.028208890751774539 0 -0.2169497607041678 -0.052249112661681682 0 -0.23247422093469311 -0.041133899759398941 0 -0.21861276184950679 -0.028208890751774539 0 -0.23247422093469311 -0.041133899759398941 0 -0.2464270506200581 -0.027233314576685139 0 -0.23247422093469311 -0.041133899759398941 0 -0.24828530763826279 -0.051584040575180221 0 -0.2464270506200581 -0.027233314576685139 0 -0.23321003353932079 -0.070797241418383311 0 -0.23247422093469311 -0.041133899759398941 0 -0.24828530763826279 -0.051584040575180221 0 -0.22558477193685969 -0.009933186482104249 0 -0.2464270506200581 -0.027233314576685139 0 -0.24246841339286879 0.0059924289061955363 0 -0.21861276184950679 -0.028208890751774539 0 -0.22558477193685969 -0.009933186482104249 0 -0.2464270506200581 -0.027233314576685139 0 -0.21861276184950679 -0.028208890751774539 0 -0.2464270506200581 -0.027233314576685139 0 -0.2464270506200581 -0.027233314576685139 0 -0.26443112001241381 -0.020350268851713441 0 -0.24246841339286879 0.0059924289061955363 0 -0.26443112001241381 -0.020350268851713441 0 -0.26911410456075963 -0.001652876283316057 0 -0.24246841339286879 0.0059924289061955363 0 -0.26443112001241381 -0.020350268851713441 0 -0.26911410456075963 -0.001652876283316057 0 -0.29575979572865052 -0.0092981814728276511 0 -0.2464270506200581 -0.027233314576685139 0 -0.26443112001241381 -0.020350268851713441 0 -0.26916148591006978 -0.041856245625770991 0 -0.26443112001241381 -0.020350268851713441 0 -0.29575979572865052 -0.0092981814728276511 0 -0.28915675258221801 -0.031754499233899808 0 -0.26911410456075963 -0.001652876283316057 0 -0.29575979572865052 -0.0092981814728276511 0 -0.29575979572865052 -0.0092981814728276511 0 -0.30815371520163692 -0.024326627271317871 0 -0.32240548689654142 -0.01694348666233925 0 -0.29575979572865052 -0.0092981814728276511 0 -0.30815371520163692 -0.024326627271317871 0 -0.28915675258221801 -0.031754499233899808 0 -0.29575979572865052 -0.0092981814728276511 0 -0.32240548689654142 -0.01694348666233925 0 -0.31220577089506368 0.0041333438482760278 0 -0.29575979572865052 -0.0092981814728276511 0 -0.32240548689654142 -0.01694348666233925 0 -0.29368674174058929 -0.05400007974786248 0 -0.31092605907352588 -0.06970903289046676 0 -0.31767223660373028 -0.050895013471995758 0 -0.307937244703966 -0.03791731525926112 0 -0.29368674174058929 -0.05400007974786248 0 -0.31767223660373028 -0.050895013471995758 0 -0.307937244703966 -0.03791731525926112 0 -0.28915675258221801 -0.031754499233899808 0 -0.29368674174058929 -0.05400007974786248 0 -0.30815371520163692 -0.024326627271317871 0 -0.307937244703966 -0.03791731525926112 0 -0.28915675258221801 -0.031754499233899808 0 -0.28915675258221801 -0.031754499233899808 0 -0.29368674174058929 -0.05400007974786248 0 -0.26916148591006978 -0.041856245625770991 0 -0.29368674174058929 -0.05400007974786248 0 -0.26916148591006978 -0.041856245625770991 0 -0.27298194286687721 -0.066215270769284934 0 -0.26443112001241381 -0.020350268851713441 0 -0.28915675258221801 -0.031754499233899808 0 -0.26916148591006978 -0.041856245625770991 0 -0.24828530763826279 -0.051584040575180221 0 -0.2464270506200581 -0.027233314576685139 0 -0.26916148591006978 -0.041856245625770991 0 -0.24828530763826279 -0.051584040575180221 0 -0.26916148591006978 -0.041856245625770991 0 -0.27298194286687721 -0.066215270769284934 0 -0.25531714365595642 -0.074971307581390312 0 -0.2660492144084089 -0.086069020218978678 0 -0.27298194286687721 -0.066215270769284934 0 -0.24828530763826279 -0.051584040575180221 0 -0.25531714365595642 -0.074971307581390312 0 -0.27298194286687721 -0.066215270769284934 0 -0.2493548319983401 -0.096664578098757323 0 -0.25531714365595642 -0.074971307581390312 0 -0.2660492144084089 -0.086069020218978678 0 -0.2660492144084089 -0.086069020218978678 0 -0.26718600271419102 -0.1045408362607104 0 -0.28270815049146319 -0.085513383274093691 0 -0.2660492144084089 -0.086069020218978678 0 -0.27298194286687721 -0.066215270769284934 0 -0.28270815049146319 -0.085513383274093691 0 -0.25163358583954409 -0.1156279226251417 0 -0.26718600271419102 -0.1045408362607104 0 -0.26768967663343662 -0.1295438041957383 0 -0.2493548319983401 -0.096664578098757323 0 -0.26718600271419102 -0.1045408362607104 0 -0.2493548319983401 -0.096664578098757323 0 -0.25163358583954409 -0.1156279226251417 0 -0.26718600271419102 -0.1045408362607104 0 -0.2493548319983401 -0.096664578098757323 0 -0.2660492144084089 -0.086069020218978678 0 -0.26718600271419102 -0.1045408362607104 0 -0.26718600271419102 -0.1045408362607104 0 -0.29154415536684852 -0.098525362238917599 0 -0.28270815049146319 -0.085513383274093691 0 -0.26718600271419102 -0.1045408362607104 0 -0.28757237170446343 -0.1141838164657878 0 -0.26768967663343662 -0.1295438041957383 0 -0.28757237170446343 -0.1141838164657878 0 -0.30498721411298929 -0.1202840138724702 0 -0.28970583444695708 -0.13347190041618109 0 -0.28757237170446343 -0.1141838164657878 0 -0.29154415536684852 -0.098525362238917599 0 -0.30555198596664618 -0.10041061223112829 0 -0.26718600271419102 -0.1045408362607104 0 -0.28757237170446343 -0.1141838164657878 0 -0.29154415536684852 -0.098525362238917599 0 -0.29154415536684852 -0.098525362238917599 0 -0.30555198596664618 -0.10041061223112829 0 -0.29914078127870419 -0.085809323426400685 0 -0.28757237170446343 -0.1141838164657878 0 -0.30555198596664618 -0.10041061223112829 0 -0.30498721411298929 -0.1202840138724702 0 -0.30555198596664618 -0.10041061223112829 0 -0.30498721411298929 -0.1202840138724702 0 -0.32436152526870371 -0.1181215333362038 0 -0.27298194286687721 -0.066215270769284934 0 -0.29151551163064909 -0.071585034373381651 0 -0.28270815049146319 -0.085513383274093691 0 -0.29368674174058929 -0.05400007974786248 0 -0.27298194286687721 -0.066215270769284934 0 -0.29151551163064909 -0.071585034373381651 0 -0.29154415536684852 -0.098525362238917599 0 -0.28270815049146319 -0.085513383274093691 0 -0.29914078127870419 -0.085809323426400685 0 -0.29151551163064909 -0.071585034373381651 0 -0.28270815049146319 -0.085513383274093691 0 -0.29914078127870419 -0.085809323426400685 0 -0.29914078127870419 -0.085809323426400685 0 -0.31092605907352588 -0.06970903289046676 0 -0.31312182642913711 -0.086466541040497405 0 -0.30555198596664618 -0.10041061223112829 0 -0.29914078127870419 -0.085809323426400685 0 -0.31312182642913711 -0.086466541040497405 0 -0.29368674174058929 -0.05400007974786248 0 -0.29151551163064909 -0.071585034373381651 0 -0.31092605907352588 -0.06970903289046676 0 -0.29151551163064909 -0.071585034373381651 0 -0.29914078127870419 -0.085809323426400685 0 -0.31092605907352588 -0.06970903289046676 0 -0.31092605907352588 -0.06970903289046676 0 -0.32680692865918087 -0.078610265667807752 0 -0.33316823361012132 -0.057074368180962447 0 -0.32680692865918087 -0.078610265667807752 0 -0.31312182642913711 -0.086466541040497405 0 -0.32318337716762791 -0.097793470986683576 0 -0.31092605907352588 -0.06970903289046676 0 -0.32680692865918087 -0.078610265667807752 0 -0.31312182642913711 -0.086466541040497405 0 -0.32318337716762791 -0.097793470986683576 0 -0.34693767880672111 -0.079412433265710194 0 -0.32680692865918087 -0.078610265667807752 0 -0.32318337716762791 -0.097793470986683576 0 -0.34693767880672111 -0.079412433265710194 0 -0.32680692865918087 -0.078610265667807752 0 -0.34693767880672111 -0.079412433265710194 0 -0.33316823361012132 -0.057074368180962447 0 -0.30555198596664618 -0.10041061223112829 0 -0.32436152526870371 -0.1181215333362038 0 -0.30555198596664618 -0.10041061223112829 0 -0.32436152526870371 -0.1181215333362038 0 -0.32318337716762791 -0.097793470986683576 0 -0.30555198596664618 -0.10041061223112829 0 -0.31312182642913711 -0.086466541040497405 0 -0.32318337716762791 -0.097793470986683576 0 -0.32436152526870371 -0.1181215333362038 0 -0.32318337716762791 -0.097793470986683576 0 -0.34550783106665151 -0.1066266835324176 0 -0.32318337716762791 -0.097793470986683576 0 -0.34550783106665151 -0.1066266835324176 0 -0.34693767880672111 -0.079412433265710194 0 -0.32436152526870371 -0.1181215333362038 0 -0.34550783106665151 -0.1066266835324176 0 -0.3431710645707613 -0.13583245444127939 0 -0.34550783106665151 -0.1066266835324176 0 -0.36407175406996362 -0.1192137070822267 0 -0.3431710645707613 -0.13583245444127939 0 -0.34550783106665151 -0.1066266835324176 0 -0.36407175406996362 -0.1192137070822267 0 -0.3699018115251459 -0.09154714189869867 0 -0.36407175406996362 -0.1192137070822267 0 -0.3699018115251459 -0.09154714189869867 0 -0.38476283481645401 -0.1116053183811012 0 -0.34693767880672111 -0.079412433265710194 0 -0.37069198044581442 -0.061031395544736737 0 -0.34550783106665151 -0.1066266835324176 0 -0.34693767880672111 -0.079412433265710194 0 -0.3699018115251459 -0.09154714189869867 0 -0.34693767880672111 -0.079412433265710194 0 -0.3699018115251459 -0.09154714189869867 0 -0.37069198044581442 -0.061031395544736737 0 -0.34693767880672111 -0.079412433265710194 0 -0.37069198044581442 -0.061031395544736737 0 -0.3543271896957822 -0.046768459493214343 0 -0.34693767880672111 -0.079412433265710194 0 -0.3543271896957822 -0.046768459493214343 0 -0.33316823361012132 -0.057074368180962447 0 -0.3543271896957822 -0.046768459493214343 0 -0.37225478214321323 -0.031246477462672929 0 -0.34905117806443198 -0.024588791851852001 0 -0.3543271896957822 -0.046768459493214343 0 -0.34905117806443198 -0.024588791851852001 0 -0.3390133124630556 -0.042418702369604849 0 -0.37069198044581442 -0.061031395544736737 0 -0.3543271896957822 -0.046768459493214343 0 -0.37225478214321323 -0.031246477462672929 0 -0.37225478214321323 -0.031246477462672929 0 -0.37060309916080802 -0.017601980780064998 0 -0.34905117806443198 -0.024588791851852001 0 -0.37225478214321323 -0.031246477462672929 0 -0.37060309916080802 -0.017601980780064998 0 -0.37748812974141283 -0.023690756884251148 0 -0.37060309916080802 -0.017601980780064998 0 -0.3601936957097861 -0.012401981263071059 0 -0.34905117806443198 -0.024588791851852001 0 -0.37060309916080802 -0.017601980780064998 0 -0.34905117806443198 -0.024588791851852001 0 -0.37225478214321323 -0.031246477462672929 0 -0.34905117806443198 -0.024588791851852001 0 -0.37234831300326821 -0.0087916223148991474 0 -0.3601936957097861 -0.012401981263071059 0 -0.35020533879899601 -0.001213408582668409 0 -0.37060309916080802 -0.017601980780064998 0 -0.37234831300326821 -0.0087916223148991474 0 -0.3601936957097861 -0.012401981263071059 0 -0.35020533879899601 -0.001213408582668409 0 -0.34905117806443198 -0.024588791851852001 0 -0.33279398811117811 -0.0028726877305683051 0 -0.3601936957097861 -0.012401981263071059 0 -0.35020533879899601 -0.001213408582668409 0 -0.34905117806443198 -0.024588791851852001 0 -0.34905117806443198 -0.024588791851852001 0 -0.3284942113841991 -0.031253053555557041 0 -0.34905117806443198 -0.024588791851852001 0 -0.32240548689654142 -0.01694348666233925 0 -0.3284942113841991 -0.031253053555557041 0 -0.34905117806443198 -0.024588791851852001 0 -0.32240548689654142 -0.01694348666233925 0 -0.34905117806443198 -0.024588791851852001 0 -0.33279398811117811 -0.0028726877305683051 0 -0.32240548689654142 -0.01694348666233925 0 -0.33279398811117811 -0.0028726877305683051 0 -0.32240548689654142 -0.01694348666233925 0 -0.31220577089506368 0.0041333438482760278 0 -0.30815371520163692 -0.024326627271317871 0 -0.32240548689654142 -0.01694348666233925 0 -0.3284942113841991 -0.031253053555557041 0 -0.30815371520163692 -0.024326627271317871 0 -0.307937244703966 -0.03791731525926112 0 -0.3284942113841991 -0.031253053555557041 0 -0.307937244703966 -0.03791731525926112 0 -0.31767223660373028 -0.050895013471995758 0 -0.3284942113841991 -0.031253053555557041 0 -0.307937244703966 -0.03791731525926112 0 -0.3284942113841991 -0.031253053555557041 0 -0.31092605907352588 -0.06970903289046676 0 -0.31767223660373028 -0.050895013471995758 0 -0.33316823361012132 -0.057074368180962447 0 -0.3543271896957822 -0.046768459493214343 0 -0.33316823361012132 -0.057074368180962447 0 -0.3390133124630556 -0.042418702369604849 0 -0.31767223660373028 -0.050895013471995758 0 -0.33316823361012132 -0.057074368180962447 0 -0.3390133124630556 -0.042418702369604849 0 -0.31767223660373028 -0.050895013471995758 0 -0.3284942113841991 -0.031253053555557041 0 -0.3390133124630556 -0.042418702369604849 0 -0.34905117806443198 -0.024588791851852001 0 -0.3284942113841991 -0.031253053555557041 0 -0.3390133124630556 -0.042418702369604849 0 -0.30272258402348412 -0.22486793760747811 0 -0.3189037693904988 -0.24978631432800211 0 -0.30272258402348412 -0.22486793760747811 0 -0.29515909274429147 -0.24885490830203999 0 -0.3189037693904988 -0.24978631432800211 0 -0.30272258402348412 -0.22486793760747811 0 -0.28131091268825592 -0.23286318835533071 0 -0.28274836847481949 -0.2166047067151291 0 -0.28131091268825592 -0.23286318835533071 0 -0.29515909274429147 -0.24885490830203999 0 -0.2793983659123363 -0.24680434812365951 0 -0.30272258402348412 -0.22486793760747811 0 -0.28131091268825592 -0.23286318835533071 0 -0.29515909274429147 -0.24885490830203999 0 -0.27505490634448831 -0.25489516949870428 0 -0.2793983659123363 -0.24680434812365951 0 -0.26644747899960219 -0.24470464689256061 0 -0.28131091268825592 -0.23286318835533071 0 -0.2793983659123363 -0.24680434812365951 0 -0.26644747899960219 -0.24470464689256061 0 -0.27505490634448831 -0.25489516949870428 0 -0.26644747899960219 -0.24470464689256061 0 -0.25322281665070667 -0.2464490270809187 0 -0.26644747899960219 -0.24470464689256061 0 -0.25355252204306261 -0.241290757384552 0 -0.2655731563496494 -0.22221120137014411 0 -0.25355252204306261 -0.241290757384552 0 -0.25322281665070667 -0.2464490270809187 0 -0.25355252204306261 -0.241290757384552 0 -0.2508749388500553 -0.2455407076959211 0 -0.25322281665070667 -0.2464490270809187 0 -0.26644747899960219 -0.24470464689256061 0 -0.25355252204306261 -0.241290757384552 0 -0.25322281665070667 -0.2464490270809187 0 -0.25355252204306261 -0.241290757384552 0 -0.2508749388500553 -0.2455407076959211 0 -0.2508749388500553 -0.2455407076959211 0 -0.25322281665070667 -0.2464490270809187 0 -0.25355252204306261 -0.241290757384552 0 -0.25452081017742878 -0.22614180484510349 0 -0.2655731563496494 -0.22221120137014411 0 -0.25355252204306261 -0.241290757384552 0 -0.2655731563496494 -0.22221120137014411 0 -0.2433660095851525 -0.23044163108109569 0 -0.25355252204306261 -0.241290757384552 0 -0.25452081017742878 -0.22614180484510349 0 -0.25355252204306261 -0.241290757384552 0 -0.25452081017742878 -0.22614180484510349 0 -0.25452081017742878 -0.22614180484510349 0 -0.2655731563496494 -0.22221120137014411 0 -0.25548909831179262 -0.21099285230565479 0 -0.28131091268825592 -0.23286318835533071 0 -0.2655731563496494 -0.22221120137014411 0 -0.28274836847481949 -0.2166047067151291 0 -0.28131091268825592 -0.23286318835533071 0 -0.26644747899960219 -0.24470464689256061 0 -0.2655731563496494 -0.22221120137014411 0 -0.2775937906562399 -0.20313164535573849 0 -0.25548909831179262 -0.21099285230565479 0 -0.26504496065709687 -0.19933387826133461 0 -0.2655731563496494 -0.22221120137014411 0 -0.2775937906562399 -0.20313164535573849 0 -0.2775937906562399 -0.20313164535573849 0 -0.25548909831179262 -0.21099285230565479 0 -0.2655731563496494 -0.22221120137014411 0 -0.2775937906562399 -0.20313164535573849 0 -0.25548909831179262 -0.21099285230565479 0 -0.2655731563496494 -0.22221120137014411 0 -0.2775937906562399 -0.20313164535573849 0 -0.28274836847481949 -0.2166047067151291 0 -0.25452081017742878 -0.22614180484510349 0 -0.25548909831179262 -0.21099285230565479 0 -0.24424586726138789 -0.21499134116475049 0 -0.25452081017742878 -0.22614180484510349 0 -0.25548909831179262 -0.21099285230565479 0 -0.25548909831179262 -0.21099285230565479 0 -0.25679644190605699 -0.1905393474454489 0 -0.25548909831179262 -0.21099285230565479 0 -0.25679644190605699 -0.1905393474454489 0 -0.26504496065709687 -0.19933387826133461 0 -0.24570541750444611 -0.20365384048844229 0 -0.25548909831179262 -0.21099285230565479 0 -0.25679644190605699 -0.1905393474454489 0 -0.25679644190605699 -0.1905393474454489 0 -0.26504496065709687 -0.19933387826133461 0 -0.27030051175429948 -0.1926716679384966 0 -0.2775937906562399 -0.20313164535573849 0 -0.26504496065709687 -0.19933387826133461 0 -0.27030051175429948 -0.1926716679384966 0 -0.2775937906562399 -0.20313164535573849 0 -0.27030051175429948 -0.1926716679384966 0 -0.28301751688469479 -0.1945229242397549 0 -0.2775937906562399 -0.20313164535573849 0 -0.28301751688469479 -0.1945229242397549 0 -0.28301751688469479 -0.1945229242397549 0 -0.28654139865646849 -0.1999495608869544 0 -0.30843764316978589 -0.19216248532566921 0 -0.30272258402348412 -0.22486793760747811 0 -0.30843764316978589 -0.19216248532566921 0 -0.32463151946713459 -0.20301932619843591 0 -0.30272258402348412 -0.22486793760747811 0 -0.28654139865646849 -0.1999495608869544 0 -0.30843764316978589 -0.19216248532566921 0 -0.2775937906562399 -0.20313164535573849 0 -0.28301751688469479 -0.1945229242397549 0 -0.28654139865646849 -0.1999495608869544 0 -0.2775937906562399 -0.20313164535573849 0 -0.28654139865646849 -0.1999495608869544 0 -0.28301751688469479 -0.1945229242397549 0 -0.28654139865646849 -0.1999495608869544 0 -0.2775937906562399 -0.20313164535573849 0 -0.28654139865646849 -0.1999495608869544 0 -0.28274836847481949 -0.2166047067151291 0 -0.30272258402348412 -0.22486793760747811 0 -0.28654139865646849 -0.1999495608869544 0 -0.28274836847481949 -0.2166047067151291 0 -0.30272258402348412 -0.22486793760747811 0 -0.28654139865646849 -0.1999495608869544 0 -0.28654139865646849 -0.1999495608869544 0 -0.30843764316978589 -0.19216248532566921 0 -0.30843764316978589 -0.19216248532566921 0 -0.29916486657054309 -0.16889330645440939 0 -0.31678982650903942 -0.16887502443413871 0 -0.29916486657054309 -0.16889330645440939 0 -0.29773983554729838 -0.15030016443505331 0 -0.31678982650903942 -0.16887502443413871 0 -0.29916486657054309 -0.16889330645440939 0 -0.26960270479759091 -0.173864651459393 0 -0.27922311078667578 -0.1526150713261519 0 -0.29916486657054309 -0.16889330645440939 0 -0.27922311078667578 -0.1526150713261519 0 -0.29773983554729838 -0.15030016443505331 0 -0.28301751688469479 -0.1945229242397549 0 -0.29916486657054309 -0.16889330645440939 0 -0.28301751688469479 -0.1945229242397549 0 -0.30843764316978589 -0.19216248532566921 0 -0.29916486657054309 -0.16889330645440939 0 -0.28301751688469479 -0.1945229242397549 0 -0.29916486657054309 -0.16889330645440939 0 -0.26960270479759091 -0.173864651459393 0 -0.27030051175429948 -0.1926716679384966 0 -0.28301751688469479 -0.1945229242397549 0 -0.26960270479759091 -0.173864651459393 0 -0.28301751688469479 -0.1945229242397549 0 -0.26960270479759091 -0.173864651459393 0 -0.25679644190605699 -0.1905393474454489 0 -0.26960270479759091 -0.173864651459393 0 -0.2581037855003222 -0.17008584258524309 0 -0.24335773859866999 -0.17795020623119681 0 -0.25679644190605699 -0.1905393474454489 0 -0.2581037855003222 -0.17008584258524309 0 -0.25679644190605699 -0.1905393474454489 0 -0.2581037855003222 -0.17008584258524309 0 -0.25679644190605699 -0.1905393474454489 0 -0.27030051175429948 -0.1926716679384966 0 -0.26960270479759091 -0.173864651459393 0 -0.26960270479759091 -0.173864651459393 0 -0.25618789271048981 -0.1532063786790292 0 -0.26960270479759091 -0.173864651459393 0 -0.2581037855003222 -0.17008584258524309 0 -0.25618789271048981 -0.1532063786790292 0 -0.24734168404742271 -0.16275892500173689 0 -0.2581037855003222 -0.17008584258524309 0 -0.25618789271048981 -0.1532063786790292 0 -0.26960270479759091 -0.173864651459393 0 -0.27922311078667578 -0.1526150713261519 0 -0.25618789271048981 -0.1532063786790292 0 -0.27922311078667578 -0.1526150713261519 0 -0.25618789271048981 -0.1532063786790292 0 -0.26768967663343662 -0.1295438041957383 0 -0.24277308062338879 -0.13254810589866539 0 -0.25618789271048981 -0.1532063786790292 0 -0.26768967663343662 -0.1295438041957383 0 -0.24277308062338879 -0.13254810589866539 0 -0.25163358583954409 -0.1156279226251417 0 -0.26768967663343662 -0.1295438041957383 0 -0.27922311078667578 -0.1526150713261519 0 -0.26768967663343662 -0.1295438041957383 0 -0.28970583444695708 -0.13347190041618109 0 -0.28757237170446343 -0.1141838164657878 0 -0.26768967663343662 -0.1295438041957383 0 -0.28970583444695708 -0.13347190041618109 0 -0.27922311078667578 -0.1526150713261519 0 -0.28970583444695708 -0.13347190041618109 0 -0.29773983554729838 -0.15030016443505331 0 -0.29773983554729838 -0.15030016443505331 0 -0.31590323335648468 -0.14329673698787249 0 -0.31678982650903942 -0.16887502443413871 0 -0.28970583444695708 -0.13347190041618109 0 -0.29773983554729838 -0.15030016443505331 0 -0.31590323335648468 -0.14329673698787249 0 -0.30498721411298929 -0.1202840138724702 0 -0.28970583444695708 -0.13347190041618109 0 -0.31590323335648468 -0.14329673698787249 0 -0.32436152526870371 -0.1181215333362038 0 -0.31590323335648468 -0.14329673698787249 0 -0.3431710645707613 -0.13583245444127939 0 -0.30498721411298929 -0.1202840138724702 0 -0.32436152526870371 -0.1181215333362038 0 -0.31590323335648468 -0.14329673698787249 0 -0.31590323335648468 -0.14329673698787249 0 -0.3431710645707613 -0.13583245444127939 0 -0.33692958475123569 -0.16063496577548769 0 -0.32436152526870371 -0.1181215333362038 0 -0.3431710645707613 -0.13583245444127939 0 -0.36407175406996362 -0.1192137070822267 0 -0.3431710645707613 -0.13583245444127939 0 -0.36239168548782219 -0.1358379325636965 0 -0.36407175406996362 -0.1192137070822267 0 -0.36239168548782219 -0.1358379325636965 0 -0.38034331943774508 -0.13476219318492499 0 -0.36239168548782219 -0.1358379325636965 0 -0.36198060387281888 -0.15354337554635489 0 -0.38034331943774508 -0.13476219318492499 0 -0.3431710645707613 -0.13583245444127939 0 -0.36239168548782219 -0.1358379325636965 0 -0.36198060387281888 -0.15354337554635489 0 -0.3431710645707613 -0.13583245444127939 0 -0.36198060387281888 -0.15354337554635489 0 -0.33692958475123569 -0.16063496577548769 0 -0.3431710645707613 -0.13583245444127939 0 -0.36198060387281888 -0.15354337554635489 0 -0.36198060387281888 -0.15354337554635489 0 -0.35223013219642052 -0.1765883342030983 0 -0.33692958475123569 -0.16063496577548769 0 -0.36198060387281888 -0.15354337554635489 0 -0.37409603845439299 -0.17285343742513121 0 -0.35223013219642052 -0.1765883342030983 0 -0.37409603845439299 -0.17285343742513121 0 -0.35223013219642052 -0.1765883342030983 0 -0.36854500663662371 -0.19612424838008691 0 -0.35223013219642052 -0.1765883342030983 0 -0.33033388768310318 -0.18437540976438371 0 -0.34738945254146297 -0.1976552068904622 0 -0.35223013219642052 -0.1765883342030983 0 -0.33033388768310318 -0.18437540976438371 0 -0.33692958475123569 -0.16063496577548769 0 -0.35223013219642052 -0.1765883342030983 0 -0.33033388768310318 -0.18437540976438371 0 -0.31590323335648468 -0.14329673698787249 0 -0.33692958475123569 -0.16063496577548769 0 -0.31678982650903942 -0.16887502443413871 0 -0.33033388768310318 -0.18437540976438371 0 -0.33692958475123569 -0.16063496577548769 0 -0.31678982650903942 -0.16887502443413871 0 -0.30843764316978589 -0.19216248532566921 0 -0.33033388768310318 -0.18437540976438371 0 -0.31678982650903942 -0.16887502443413871 0 -0.30272258402348412 -0.22486793760747811 0 -0.32463151946713459 -0.20301932619843591 0 -0.33666937642156342 -0.21835564333179999 0 -0.30843764316978589 -0.19216248532566921 0 -0.33033388768310318 -0.18437540976438371 0 -0.30843764316978589 -0.19216248532566921 0 -0.33033388768310318 -0.18437540976438371 0 -0.32463151946713459 -0.20301932619843591 0 -0.32463151946713459 -0.20301932619843591 0 -0.33666937642156342 -0.21835564333179999 0 -0.34738945254146297 -0.1976552068904622 0 -0.33033388768310318 -0.18437540976438371 0 -0.32463151946713459 -0.20301932619843591 0 -0.34738945254146297 -0.1976552068904622 0 -0.35223013219642052 -0.1765883342030983 0 -0.34738945254146297 -0.1976552068904622 0 -0.36854500663662371 -0.19612424838008691 0 -0.34738945254146297 -0.1976552068904622 0 -0.36854500663662371 -0.19612424838008691 0 -0.35437291303827501 -0.21439771758715431 0 -0.36854500663662371 -0.19612424838008691 0 -0.37109905220996481 -0.22142029925977541 0 -0.38284834360891501 -0.20796220010544911 0 -0.36854500663662371 -0.19612424838008691 0 -0.35437291303827501 -0.21439771758715431 0 -0.37109905220996481 -0.22142029925977541 0 -0.33666937642156342 -0.21835564333179999 0 -0.34738945254146297 -0.1976552068904622 0 -0.35437291303827501 -0.21439771758715431 0 -0.35437291303827501 -0.21439771758715431 0 -0.37109905220996481 -0.22142029925977541 0 -0.35226490790162379 -0.23807996287696501 0 -0.33666937642156342 -0.21835564333179999 0 -0.35437291303827501 -0.21439771758715431 0 -0.35226490790162379 -0.23807996287696501 0 -0.37109905220996481 -0.22142029925977541 0 -0.35226490790162379 -0.23807996287696501 0 -0.3757374681905486 -0.23954934908495129 0 -0.37082043854602398 -0.25836979014094658 0 -0.35226490790162379 -0.23807996287696501 0 -0.3757374681905486 -0.23954934908495129 0 -0.34533675118298179 -0.25622516502635118 0 -0.3321675445503065 -0.23729941005208791 0 -0.3189037693904988 -0.24978631432800211 0 -0.30272258402348412 -0.22486793760747811 0 -0.33666937642156342 -0.21835564333179999 0 -0.3321675445503065 -0.23729941005208791 0 -0.34533675118298179 -0.25622516502635118 0 -0.35226490790162379 -0.23807996287696501 0 -0.3321675445503065 -0.23729941005208791 0 -0.33666937642156342 -0.21835564333179999 0 -0.35226490790162379 -0.23807996287696501 0 -0.3321675445503065 -0.23729941005208791 0 -0.30272258402348412 -0.22486793760747811 0 -0.3321675445503065 -0.23729941005208791 0 -0.3189037693904988 -0.24978631432800211 0 -0.42084211708157182 -0.25502193243370908 0 -0.41759838376130382 -0.2370670089992965 0 -0.438414761385786 -0.24141568151772891 0 -0.43020033698025878 -0.22931602263184461 0 -0.41759838376130382 -0.2370670089992965 0 -0.438414761385786 -0.24141568151772891 0 -0.43020033698025878 -0.22931602263184461 0 -0.41907175974803662 -0.21744009372223941 0 -0.43730352346701629 -0.2182141574560785 0 -0.43020033698025878 -0.22931602263184461 0 -0.44054181151102662 -0.23091238255623001 0 -0.438414761385786 -0.24141568151772891 0 -0.43020033698025878 -0.22931602263184461 0 -0.41759838376130382 -0.2370670089992965 0 -0.41907175974803662 -0.21744009372223941 0 -0.43020033698025878 -0.22931602263184461 0 -0.43730352346701629 -0.2182141574560785 0 -0.44054181151102662 -0.23091238255623001 0 -0.41759838376130382 -0.2370670089992965 0 -0.39632905889792291 -0.23111015707895 0 -0.41907175974803662 -0.21744009372223941 0 -0.42084211708157182 -0.25502193243370908 0 -0.41759838376130382 -0.2370670089992965 0 -0.40418092522890731 -0.243695377048708 0 -0.40418092522890731 -0.243695377048708 0 -0.38817388339720738 -0.2487665360681196 0 -0.39632905889792291 -0.23111015707895 0 -0.40370709189037229 -0.25715661138904972 0 -0.40418092522890731 -0.243695377048708 0 -0.38817388339720738 -0.2487665360681196 0 -0.41759838376130382 -0.2370670089992965 0 -0.40418092522890731 -0.243695377048708 0 -0.39632905889792291 -0.23111015707895 0 -0.37082043854602398 -0.25836979014094658 0 -0.3757374681905486 -0.23954934908495129 0 -0.38817388339720738 -0.2487665360681196 0 -0.3757374681905486 -0.23954934908495129 0 -0.38817388339720738 -0.2487665360681196 0 -0.39632905889792291 -0.23111015707895 0 -0.37109905220996481 -0.22142029925977541 0 -0.3757374681905486 -0.23954934908495129 0 -0.39632905889792291 -0.23111015707895 0 -0.37109905220996481 -0.22142029925977541 0 -0.39632905889792291 -0.23111015707895 0 -0.38284834360891501 -0.20796220010544911 0 -0.39632905889792291 -0.23111015707895 0 -0.40021803245763943 -0.20698417641777611 0 -0.41907175974803662 -0.21744009372223941 0 -0.39632905889792291 -0.23111015707895 0 -0.40021803245763943 -0.20698417641777611 0 -0.38284834360891501 -0.20796220010544911 0 -0.36854500663662371 -0.19612424838008691 0 -0.38284834360891501 -0.20796220010544911 0 -0.39111542133543381 -0.18628111846452591 0 -0.40021803245763943 -0.20698417641777611 0 -0.41395201983978541 -0.19350146539190549 0 -0.39111542133543381 -0.18628111846452591 0 -0.40021803245763943 -0.20698417641777611 0 -0.38284834360891501 -0.20796220010544911 0 -0.39111542133543381 -0.18628111846452591 0 -0.41395201983978541 -0.19350146539190549 0 -0.41907175974803662 -0.21744009372223941 0 -0.43237431235971502 -0.20250994631475011 0 -0.40021803245763943 -0.20698417641777611 0 -0.41395201983978541 -0.19350146539190549 0 -0.41907175974803662 -0.21744009372223941 0 -0.41907175974803662 -0.21744009372223941 0 -0.43730352346701629 -0.2182141574560785 0 -0.43237431235971502 -0.20250994631475011 0 -0.41395201983978541 -0.19350146539190549 0 -0.43237431235971502 -0.20250994631475011 0 -0.43479754688810779 -0.17770506782786971 0 -0.43237431235971502 -0.20250994631475011 0 -0.43479754688810779 -0.17770506782786971 0 -0.44518903906317842 -0.19173036414397129 0 -0.43479754688810779 -0.17770506782786971 0 -0.41754666589532041 -0.15385115006890801 0 -0.43903825872754421 -0.15631625725093759 0 -0.43479754688810779 -0.17770506782786971 0 -0.40979125094634972 -0.1738865454933371 0 -0.41754666589532041 -0.15385115006890801 0 -0.40979125094634972 -0.1738865454933371 0 -0.39154460077310071 -0.1580939257134765 0 -0.41754666589532041 -0.15385115006890801 0 -0.41395201983978541 -0.19350146539190549 0 -0.43479754688810779 -0.17770506782786971 0 -0.40979125094634972 -0.1738865454933371 0 -0.40979125094634972 -0.1738865454933371 0 -0.39111542133543381 -0.18628111846452591 0 -0.39154460077310071 -0.1580939257134765 0 -0.41395201983978541 -0.19350146539190549 0 -0.40979125094634972 -0.1738865454933371 0 -0.39111542133543381 -0.18628111846452591 0 -0.37409603845439299 -0.17285343742513121 0 -0.36854500663662371 -0.19612424838008691 0 -0.39111542133543381 -0.18628111846452591 0 -0.37409603845439299 -0.17285343742513121 0 -0.39111542133543381 -0.18628111846452591 0 -0.39154460077310071 -0.1580939257134765 0 -0.36198060387281888 -0.15354337554635489 0 -0.37409603845439299 -0.17285343742513121 0 -0.39154460077310071 -0.1580939257134765 0 -0.39154460077310071 -0.1580939257134765 0 -0.40031592050345582 -0.14079580038071771 0 -0.38034331943774508 -0.13476219318492499 0 -0.39154460077310071 -0.1580939257134765 0 -0.40031592050345582 -0.14079580038071771 0 -0.41754666589532041 -0.15385115006890801 0 -0.36198060387281888 -0.15354337554635489 0 -0.39154460077310071 -0.1580939257134765 0 -0.38034331943774508 -0.13476219318492499 0 -0.40031592050345582 -0.14079580038071771 0 -0.38034331943774508 -0.13476219318492499 0 -0.39713938507934837 -0.1257608394569304 0 -0.40031592050345582 -0.14079580038071771 0 -0.39713938507934837 -0.1257608394569304 0 -0.41500563133176399 -0.13151089347934861 0 -0.40031592050345582 -0.14079580038071771 0 -0.41500563133176399 -0.13151089347934861 0 -0.41754666589532041 -0.15385115006890801 0 -0.41500563133176399 -0.13151089347934861 0 -0.41754666589532041 -0.15385115006890801 0 -0.43352412781690358 -0.1373327836030743 0 -0.41754666589532041 -0.15385115006890801 0 -0.43352412781690358 -0.1373327836030743 0 -0.43903825872754421 -0.15631625725093759 0 -0.43352412781690358 -0.1373327836030743 0 -0.42910127587870311 -0.11897468293548991 0 -0.44805124774316729 -0.1197117135153544 0 -0.41500563133176399 -0.13151089347934861 0 -0.43352412781690358 -0.1373327836030743 0 -0.42910127587870311 -0.11897468293548991 0 -0.45230772132170749 -0.14279423483231429 0 -0.44805124774316729 -0.1197117135153544 0 -0.45230772132170749 -0.14279423483231429 0 -0.45632844162157421 -0.13009438170693269 0 -0.44805124774316729 -0.1197117135153544 0 -0.43352412781690358 -0.1373327836030743 0 -0.45230772132170749 -0.14279423483231429 0 -0.44805124774316729 -0.1197117135153544 0 -0.43352412781690358 -0.1373327836030743 0 -0.45230772132170749 -0.14279423483231429 0 -0.43903825872754421 -0.15631625725093759 0 -0.45230772132170749 -0.14279423483231429 0 -0.45656419490025651 -0.16587675614927269 0 -0.43903825872754421 -0.15631625725093759 0 -0.45230772132170749 -0.14279423483231429 0 -0.46371052314751698 -0.1509440525167135 0 -0.45656419490025651 -0.16587675614927269 0 -0.45230772132170749 -0.14279423483231429 0 -0.45656419490025651 -0.16587675614927269 0 -0.45230772132170749 -0.14279423483231429 0 -0.46371052314751698 -0.1509440525167135 0 -0.46727376931232728 -0.13761179742107149 0 -0.46727376931232728 -0.13761179742107149 0 -0.45632844162157421 -0.13009438170693269 0 -0.45640969151903937 -0.11681638729018 0 -0.46727376931232728 -0.13761179742107149 0 -0.45640969151903937 -0.11681638729018 0 -0.45230772132170749 -0.14279423483231429 0 -0.46727376931232728 -0.13761179742107149 0 -0.45632844162157421 -0.13009438170693269 0 -0.47722733922467803 -0.13385425172204321 0 -0.48141633457344279 -0.1233734007712788 0 -0.47028854038926171 -0.1204433481463667 0 -0.46727376931232728 -0.13761179742107149 0 -0.47722733922467803 -0.13385425172204321 0 -0.47028854038926171 -0.1204433481463667 0 -0.47722733922467803 -0.13385425172204321 0 -0.48887595439822318 -0.13376777881079779 0 -0.47828209745013489 -0.15407493346070131 0 -0.47722733922467803 -0.13385425172204321 0 -0.48887595439822318 -0.13376777881079779 0 -0.48141633457344279 -0.1233734007712788 0 -0.4999999999999995 -0.1422731107721048 0 -0.5 -0.1205501909938503 0 -0.49938638750258069 -0.12451489502890351 0 -0.49078284407105738 -0.12533794259366859 0 -0.48887595439822318 -0.13376777881079779 0 -0.48141633457344279 -0.1233734007712788 0 -0.48887595439822318 -0.13376777881079779 0 -0.4999999999999995 -0.1422731107721048 0 -0.49938638750258069 -0.12451489502890351 0 -0.49078284407105738 -0.12533794259366859 0 -0.48887595439822318 -0.13376777881079779 0 -0.49938638750258069 -0.12451489502890351 0 -0.4999999999999995 -0.1422731107721048 0 -0.47828209745013489 -0.15407493346070131 0 -0.5 -0.16534938730330079 0 -0.48887595439822318 -0.13376777881079779 0 -0.4999999999999995 -0.1422731107721048 0 -0.47828209745013489 -0.15407493346070131 0 -0.4999999999999995 -0.1422731107721048 0 -0.47828209745013489 -0.15407493346070131 0 -0.46371052314751698 -0.1509440525167135 0 -0.46727376931232728 -0.13761179742107149 0 -0.47828209745013489 -0.15407493346070131 0 -0.46727376931232728 -0.13761179742107149 0 -0.47722733922467803 -0.13385425172204321 0 -0.47828209745013489 -0.15407493346070131 0 -0.47828209745013489 -0.15407493346070131 0 -0.47970113162857758 -0.17905968690939181 0 -0.45656419490025651 -0.16587675614927269 0 -0.47828209745013489 -0.15407493346070131 0 -0.5 -0.16534938730330079 0 -0.47970113162857758 -0.17905968690939181 0 -0.5 -0.16534938730330079 0 -0.47970113162857758 -0.17905968690939181 0 -0.5 -0.18842566383449699 0 -0.45656419490025651 -0.16587675614927269 0 -0.44518903906317842 -0.19173036414397129 0 -0.46176724625218241 -0.1940924942545865 0 -0.47970113162857758 -0.17905968690939181 0 -0.45656419490025651 -0.16587675614927269 0 -0.46176724625218241 -0.1940924942545865 0 -0.45656419490025651 -0.16587675614927269 0 -0.46176724625218241 -0.1940924942545865 0 -0.46371052314751698 -0.1509440525167135 0 -0.47828209745013489 -0.15407493346070131 0 -0.45656419490025651 -0.16587675614927269 0 -0.47828209745013489 -0.15407493346070131 0 -0.45656419490025651 -0.16587675614927269 0 -0.43479754688810779 -0.17770506782786971 0 -0.45656419490025651 -0.16587675614927269 0 -0.43479754688810779 -0.17770506782786971 0 -0.45656419490025651 -0.16587675614927269 0 -0.43903825872754421 -0.15631625725093759 0 -0.43479754688810779 -0.17770506782786971 0 -0.45656419490025651 -0.16587675614927269 0 -0.44518903906317842 -0.19173036414397129 0 -0.44518903906317842 -0.19173036414397129 0 -0.45135015513980248 -0.20730140331775129 0 -0.46176724625218241 -0.1940924942545865 0 -0.43237431235971502 -0.20250994631475011 0 -0.44518903906317842 -0.19173036414397129 0 -0.45135015513980248 -0.20730140331775129 0 -0.43730352346701629 -0.2182141574560785 0 -0.43237431235971502 -0.20250994631475011 0 -0.45135015513980248 -0.20730140331775129 0 -0.43730352346701629 -0.2182141574560785 0 -0.45135015513980248 -0.20730140331775129 0 -0.45124704254919601 -0.2210397017398309 0 -0.45135015513980248 -0.20730140331775129 0 -0.46176724625218241 -0.1940924942545865 0 -0.46188283805852598 -0.22041832583853391 0 -0.46176724625218241 -0.1940924942545865 0 -0.46697029760411479 -0.22230823235989941 0 -0.46188283805852598 -0.22041832583853391 0 -0.46176724625218241 -0.1940924942545865 0 -0.46697029760411479 -0.22230823235989941 0 -0.45135015513980248 -0.20730140331775129 0 -0.46188283805852598 -0.22041832583853391 0 -0.45124704254919601 -0.2210397017398309 0 -0.47970113162857758 -0.17905968690939181 0 -0.46176724625218241 -0.1940924942545865 0 -0.48159325116890039 -0.20653888645399121 0 -0.47970113162857758 -0.17905968690939181 0 -0.5 -0.18842566383449699 0 -0.48159325116890039 -0.20653888645399121 0 -0.5 -0.18842566383449699 0 -0.5 -0.211501940365693 0 -0.48159325116890039 -0.20653888645399121 0 -0.5 -0.211501940365693 0 -0.48159325116890039 -0.20653888645399121 0 -0.48348514880205629 -0.22844322462839639 0 -0.46176724625218241 -0.1940924942545865 0 -0.48159325116890039 -0.20653888645399121 0 -0.46697029760411479 -0.22230823235989941 0 -0.48348514880205629 -0.22844322462839639 0 -0.46697029760411479 -0.22230823235989941 0 -0.48159325116890039 -0.20653888645399121 0 -0.48348514880205629 -0.22844322462839639 0 -0.46697029760411479 -0.22230823235989941 0 -0.48348514880205629 -0.22844322462839639 0 -0.46997178167243697 -0.23858504430554439 0 -0.46697029760411479 -0.22230823235989941 0 -0.5 -0.211501940365693 0 -0.48348514880205629 -0.22844322462839639 0 -0.49999999999999939 -0.23457821689688901 0 -0.48348514880205629 -0.22844322462839639 0 -0.49999999999999939 -0.23457821689688901 0 -0.5 -0.26182123415195058 0 -0.49999999999999939 -0.23457821689688901 0 -0.48386395273398258 -0.24618543112483249 0 -0.48348514880205629 -0.22844322462839639 0 -0.49999999999999939 -0.23457821689688901 0 -0.48386395273398258 -0.24618543112483249 0 -0.48348514880205629 -0.22844322462839639 0 -0.48386395273398258 -0.24618543112483249 0 -0.46997178167243697 -0.23858504430554439 0 -0.46862277139851172 -0.25111975325190861 0 -0.48386395273398258 -0.24618543112483249 0 -0.46997178167243697 -0.23858504430554439 0 -0.46862277139851172 -0.25111975325190861 0 -0.46997178167243697 -0.23858504430554439 0 -0.45580677800631703 -0.24459137081616669 0 -0.45580677800631703 -0.24459137081616669 0 -0.46107643237415791 -0.23038154450964471 0 -0.45097299908684169 -0.2320773254540241 0 -0.46997178167243697 -0.23858504430554439 0 -0.45580677800631703 -0.24459137081616669 0 -0.46107643237415791 -0.23038154450964471 0 -0.46997178167243697 -0.23858504430554439 0 -0.46697029760411479 -0.22230823235989941 0 -0.46997178167243697 -0.23858504430554439 0 -0.46107643237415791 -0.23038154450964471 0 -0.46697029760411479 -0.22230823235989941 0 -0.46107643237415791 -0.23038154450964471 0 -0.46697029760411479 -0.22230823235989941 0 -0.46188283805852598 -0.22041832583853391 0 -0.46697029760411479 -0.22230823235989941 0 -0.46188283805852598 -0.22041832583853391 0 -0.46188283805852598 -0.22041832583853391 0 -0.45629482801718041 -0.22597922438550841 0 -0.45124704254919601 -0.2210397017398309 0 -0.46107643237415791 -0.23038154450964471 0 -0.46188283805852598 -0.22041832583853391 0 -0.45629482801718041 -0.22597922438550841 0 -0.46107643237415791 -0.23038154450964471 0 -0.45629482801718041 -0.22597922438550841 0 -0.45097299908684169 -0.2320773254540241 0 -0.45097299908684169 -0.2320773254540241 0 -0.45124704254919601 -0.2210397017398309 0 -0.44054181151102662 -0.23091238255623001 0 -0.45629482801718041 -0.22597922438550841 0 -0.45097299908684169 -0.2320773254540241 0 -0.45124704254919601 -0.2210397017398309 0 -0.43730352346701629 -0.2182141574560785 0 -0.45124704254919601 -0.2210397017398309 0 -0.44054181151102662 -0.23091238255623001 0 -0.45097299908684169 -0.2320773254540241 0 -0.44054181151102662 -0.23091238255623001 0 -0.438414761385786 -0.24141568151772891 0 -0.44193441075943318 -0.2576287881938828 0 -0.45580677800631703 -0.24459137081616669 0 -0.438414761385786 -0.24141568151772891 0 -0.45580677800631703 -0.24459137081616669 0 -0.45097299908684169 -0.2320773254540241 0 -0.438414761385786 -0.24141568151772891 0 -0.41866199030077439 -0.044561848684318672 0 -0.39545838622199397 -0.037904163073494992 0 -0.41866199030077439 -0.044561848684318672 0 -0.40477991004974317 -0.017989547032679899 0 -0.41866199030077439 -0.044561848684318672 0 -0.40590588926554028 -0.063347285052433311 0 -0.43066414376258522 -0.067535699612234962 0 -0.41866199030077439 -0.044561848684318672 0 -0.40185710851231438 -0.04876547094552678 0 -0.40590588926554028 -0.063347285052433311 0 -0.43506109861085779 -0.04926715683622674 0 -0.43066414376258522 -0.067535699612234962 0 -0.4388636979176368 -0.069888353688186661 0 -0.41866199030077439 -0.044561848684318672 0 -0.43506109861085779 -0.04926715683622674 0 -0.43066414376258522 -0.067535699612234962 0 -0.41866199030077439 -0.044561848684318672 0 -0.43066414376258522 -0.067535699612234962 0 -0.43506109861085779 -0.04926715683622674 0 -0.4388636979176368 -0.069888353688186661 0 -0.41866199030077439 -0.044561848684318672 0 -0.43506109861085779 -0.04926715683622674 0 -0.43506109861085779 -0.04926715683622674 0 -0.43116263738949001 -0.02812610836371018 0 -0.41866199030077439 -0.044561848684318672 0 -0.43506109861085779 -0.04926715683622674 0 -0.43116263738949001 -0.02812610836371018 0 -0.43116263738949001 -0.02812610836371018 0 -0.42726417616810791 -0.0069850598911961048 0 -0.43116263738949001 -0.02812610836371018 0 -0.42726417616810791 -0.0069850598911961048 0 -0.41911513105233472 -0.02025818452167891 0 -0.41866199030077439 -0.044561848684318672 0 -0.43116263738949001 -0.02812610836371018 0 -0.41911513105233472 -0.02025818452167891 0 -0.43116263738949001 -0.02812610836371018 0 -0.42726417616810791 -0.0069850598911961048 0 -0.4428814844609712 -0.006384570977073482 0 -0.42726417616810791 -0.0069850598911961048 0 -0.41370694135355929 -0.0036283586364891408 0 -0.41911513105233472 -0.02025818452167891 0 -0.41370694135355929 -0.0036283586364891408 0 -0.41911513105233472 -0.02025818452167891 0 -0.40477991004974317 -0.017989547032679899 0 -0.42726417616810791 -0.0069850598911961048 0 -0.41370694135355929 -0.0036283586364891408 0 -0.41687364766546708 0.0090755064088398427 0 -0.41866199030077439 -0.044561848684318672 0 -0.40477991004974317 -0.017989547032679899 0 -0.39800301613841937 -0.027678612237333752 0 -0.41866199030077439 -0.044561848684318672 0 -0.41911513105233472 -0.02025818452167891 0 -0.40477991004974317 -0.017989547032679899 0 -0.40477991004974317 -0.017989547032679899 0 -0.39557396404270578 -0.020029638015535929 0 -0.39800301613841937 -0.027678612237333752 0 -0.40477991004974317 -0.017989547032679899 0 -0.39557396404270578 -0.020029638015535929 0 -0.39215502025718357 -0.01061516970827708 0 -0.39557396404270578 -0.020029638015535929 0 -0.39215502025718357 -0.01061516970827708 0 -0.38735790972547701 -0.023835223083852969 0 -0.39800301613841937 -0.027678612237333752 0 -0.38735790972547701 -0.023835223083852969 0 -0.38826852355727592 -0.03016611896433866 0 -0.39557396404270578 -0.020029638015535929 0 -0.39800301613841937 -0.027678612237333752 0 -0.38735790972547701 -0.023835223083852969 0 -0.41370694135355929 -0.0036283586364891408 0 -0.39215502025718357 -0.01061516970827708 0 -0.4047903848229874 0.001850858661261689 0 -0.41370694135355929 -0.0036283586364891408 0 -0.40477991004974317 -0.017989547032679899 0 -0.39215502025718357 -0.01061516970827708 0 -0.41370694135355929 -0.0036283586364891408 0 -0.39215502025718357 -0.01061516970827708 0 -0.39215502025718357 -0.01061516970827708 0 -0.39443802076266532 0.0026833730188719671 0 -0.4047903848229874 0.001850858661261689 0 -0.37060309916080802 -0.017601980780064998 0 -0.39215502025718357 -0.01061516970827708 0 -0.38261115783081873 -0.0060693452942621982 0 -0.37060309916080802 -0.017601980780064998 0 -0.39215502025718357 -0.01061516970827708 0 -0.39215502025718357 -0.01061516970827708 0 -0.38261115783081873 -0.0060693452942621982 0 -0.39443802076266532 0.0026833730188719671 0 -0.37060309916080802 -0.017601980780064998 0 -0.37234831300326821 -0.0087916223148991474 0 -0.38261115783081873 -0.0060693452942621982 0 -0.37234831300326821 -0.0087916223148991474 0 -0.38261115783081873 -0.0060693452942621982 0 -0.3835113359701684 0.0039786733130582766 0 -0.37060309916080802 -0.017601980780064998 0 -0.39215502025718357 -0.01061516970827708 0 -0.37748812974141283 -0.023690756884251148 0 -0.37225478214321323 -0.031246477462672929 0 -0.38735790972547701 -0.023835223083852969 0 -0.38826852355727592 -0.03016611896433866 0 -0.39215502025718357 -0.01061516970827708 0 -0.38735790972547701 -0.023835223083852969 0 -0.37748812974141283 -0.023690756884251148 0 -0.37225478214321323 -0.031246477462672929 0 -0.38735790972547701 -0.023835223083852969 0 -0.37748812974141283 -0.023690756884251148 0 -0.37225478214321323 -0.031246477462672929 0 -0.38826852355727592 -0.03016611896433866 0 -0.39545838622199397 -0.037904163073494992 0 -0.37069198044581442 -0.061031395544736737 0 -0.37225478214321323 -0.031246477462672929 0 -0.3944462820849074 -0.04265035782376346 0 -0.37225478214321323 -0.031246477462672929 0 -0.39545838622199397 -0.037904163073494992 0 -0.37225478214321323 -0.031246477462672929 0 -0.39545838622199397 -0.037904163073494992 0 -0.3944462820849074 -0.04265035782376346 0 -0.41866199030077439 -0.044561848684318672 0 -0.39545838622199397 -0.037904163073494992 0 -0.40185710851231438 -0.04876547094552678 0 -0.41866199030077439 -0.044561848684318672 0 -0.39800301613841937 -0.027678612237333752 0 -0.39545838622199397 -0.037904163073494992 0 -0.39800301613841937 -0.027678612237333752 0 -0.38826852355727592 -0.03016611896433866 0 -0.39545838622199397 -0.037904163073494992 0 -0.39545838622199397 -0.037904163073494992 0 -0.3944462820849074 -0.04265035782376346 0 -0.40185710851231438 -0.04876547094552678 0 -0.40185710851231438 -0.04876547094552678 0 -0.39231553621698873 -0.058020893201014202 0 -0.40590588926554028 -0.063347285052433311 0 -0.3944462820849074 -0.04265035782376346 0 -0.40185710851231438 -0.04876547094552678 0 -0.39231553621698873 -0.058020893201014202 0 -0.37069198044581442 -0.061031395544736737 0 -0.3944462820849074 -0.04265035782376346 0 -0.39231553621698873 -0.058020893201014202 0 -0.37069198044581442 -0.061031395544736737 0 -0.3944462820849074 -0.04265035782376346 0 -0.3699018115251459 -0.09154714189869867 0 -0.37069198044581442 -0.061031395544736737 0 -0.38864593988563317 -0.074540002705139177 0 -0.37069198044581442 -0.061031395544736737 0 -0.39231553621698873 -0.058020893201014202 0 -0.38864593988563317 -0.074540002705139177 0 -0.3699018115251459 -0.09154714189869867 0 -0.38864593988563317 -0.074540002705139177 0 -0.38804191434013618 -0.092426527889794219 0 -0.38864593988563317 -0.074540002705139177 0 -0.38804191434013618 -0.092426527889794219 0 -0.40492494705126097 -0.085825319001119588 0 -0.38864593988563317 -0.074540002705139177 0 -0.40492494705126097 -0.085825319001119588 0 -0.40590588926554028 -0.063347285052433311 0 -0.39231553621698873 -0.058020893201014202 0 -0.38864593988563317 -0.074540002705139177 0 -0.40590588926554028 -0.063347285052433311 0 -0.36407175406996362 -0.1192137070822267 0 -0.38034331943774508 -0.13476219318492499 0 -0.38476283481645401 -0.1116053183811012 0 -0.38034331943774508 -0.13476219318492499 0 -0.39713938507934837 -0.1257608394569304 0 -0.38476283481645401 -0.1116053183811012 0 -0.3699018115251459 -0.09154714189869867 0 -0.38804191434013618 -0.092426527889794219 0 -0.38476283481645401 -0.1116053183811012 0 -0.38804191434013618 -0.092426527889794219 0 -0.40492494705126097 -0.085825319001119588 0 -0.41123649603156559 -0.1078966811982297 0 -0.38804191434013618 -0.092426527889794219 0 -0.38476283481645401 -0.1116053183811012 0 -0.41123649603156559 -0.1078966811982297 0 -0.39713938507934837 -0.1257608394569304 0 -0.38476283481645401 -0.1116053183811012 0 -0.41123649603156559 -0.1078966811982297 0 -0.39713938507934837 -0.1257608394569304 0 -0.41500563133176399 -0.13151089347934861 0 -0.41123649603156559 -0.1078966811982297 0 -0.41500563133176399 -0.13151089347934861 0 -0.41123649603156559 -0.1078966811982297 0 -0.42910127587870311 -0.11897468293548991 0 -0.40492494705126097 -0.085825319001119588 0 -0.41916290916228321 -0.09553155946629649 0 -0.41123649603156559 -0.1078966811982297 0 -0.41916290916228321 -0.09553155946629649 0 -0.41123649603156559 -0.1078966811982297 0 -0.43293461013463469 -0.10040184803550919 0 -0.41123649603156559 -0.1078966811982297 0 -0.43293461013463469 -0.10040184803550919 0 -0.42910127587870311 -0.11897468293548991 0 -0.43293461013463469 -0.10040184803550919 0 -0.42910127587870311 -0.11897468293548991 0 -0.44805124774316729 -0.1197117135153544 0 -0.40492494705126097 -0.085825319001119588 0 -0.40590588926554028 -0.063347285052433311 0 -0.41641981697628649 -0.075022973145643448 0 -0.40590588926554028 -0.063347285052433311 0 -0.41641981697628649 -0.075022973145643448 0 -0.43066414376258522 -0.067535699612234962 0 -0.40492494705126097 -0.085825319001119588 0 -0.41641981697628649 -0.075022973145643448 0 -0.4264963411789256 -0.084335119287592908 0 -0.40492494705126097 -0.085825319001119588 0 -0.41916290916228321 -0.09553155946629649 0 -0.4264963411789256 -0.084335119287592908 0 -0.4264963411789256 -0.084335119287592908 0 -0.43066414376258522 -0.067535699612234962 0 -0.44266629722439921 -0.090509550540149558 0 -0.43293461013463469 -0.10040184803550919 0 -0.4264963411789256 -0.084335119287592908 0 -0.44266629722439921 -0.090509550540149558 0 -0.43066414376258522 -0.067535699612234962 0 -0.44266629722439921 -0.090509550540149558 0 -0.41916290916228321 -0.09553155946629649 0 -0.43293461013463469 -0.10040184803550919 0 -0.4264963411789256 -0.084335119287592908 0 -0.43066414376258522 -0.067535699612234962 0 -0.4388636979176368 -0.069888353688186661 0 -0.44266629722439921 -0.090509550540149558 0 -0.41641981697628649 -0.075022973145643448 0 -0.4264963411789256 -0.084335119287592908 0 -0.43066414376258522 -0.067535699612234962 0 -0.4388636979176368 -0.069888353688186661 0 -0.45333455763328362 -0.075518591454099837 0 -0.45773806860588362 -0.055773738155282651 0 -0.44266629722439921 -0.090509550540149558 0 -0.46065424848921588 -0.090772467194441139 0 -0.44554561372575008 -0.096020977159289284 0 -0.4388636979176368 -0.069888353688186661 0 -0.44266629722439921 -0.090509550540149558 0 -0.44266629722439921 -0.090509550540149558 0 -0.46065424848921588 -0.090772467194441139 0 -0.45333455763328362 -0.075518591454099837 0 -0.4388636979176368 -0.069888353688186661 0 -0.44266629722439921 -0.090509550540149558 0 -0.45333455763328362 -0.075518591454099837 0 -0.44266629722439921 -0.090509550540149558 0 -0.44379477416462643 -0.096629192198394664 0 -0.44266629722439921 -0.090509550540149558 0 -0.44554561372575008 -0.096020977159289284 0 -0.46065424848921588 -0.090772467194441139 0 -0.44554561372575008 -0.096020977159289284 0 -0.46065424848921588 -0.090772467194441139 0 -0.45333455763328362 -0.075518591454099837 0 -0.46675047592928143 -0.070648847692438593 0 -0.46065424848921588 -0.090772467194441139 0 -0.46675047592928143 -0.070648847692438593 0 -0.47576288325268179 -0.085523957229593009 0 -0.46065424848921588 -0.090772467194441139 0 -0.47576288325268179 -0.085523957229593009 0 -0.46065424848921588 -0.090772467194441139 0 -0.46818215177698203 -0.099953751655522838 0 -0.47576288325268179 -0.085523957229593009 0 -0.45333455763328362 -0.075518591454099837 0 -0.46675047592928143 -0.070648847692438593 0 -0.45773806860588362 -0.055773738155282651 0 -0.46675047592928143 -0.070648847692438593 0 -0.45773806860588362 -0.055773738155282651 0 -0.44805124774316729 -0.1197117135153544 0 -0.44379477416462643 -0.096629192198394664 0 -0.45640969151903937 -0.11681638729018 0 -0.44379477416462643 -0.096629192198394664 0 -0.44554561372575008 -0.096020977159289284 0 -0.45640969151903937 -0.11681638729018 0 -0.44805124774316729 -0.1197117135153544 0 -0.44379477416462643 -0.096629192198394664 0 -0.44554561372575008 -0.096020977159289284 0 -0.45640969151903937 -0.11681638729018 0 -0.43293461013463469 -0.10040184803550919 0 -0.44805124774316729 -0.1197117135153544 0 -0.44379477416462643 -0.096629192198394664 0 -0.43293461013463469 -0.10040184803550919 0 -0.44266629722439921 -0.090509550540149558 0 -0.44379477416462643 -0.096629192198394664 0 -0.43293461013463469 -0.10040184803550919 0 -0.44379477416462643 -0.096629192198394664 0 -0.44266629722439921 -0.090509550540149558 0 -0.44379477416462643 -0.096629192198394664 0 -0.44554561372575008 -0.096020977159289284 0 -0.44379477416462643 -0.096629192198394664 0 -0.44554561372575008 -0.096020977159289284 0 -0.44554561372575008 -0.096020977159289284 0 -0.4584779852015074 -0.10248795000985481 0 -0.45640969151903937 -0.11681638729018 0 -0.46065424848921588 -0.090772467194441139 0 -0.44554561372575008 -0.096020977159289284 0 -0.4584779852015074 -0.10248795000985481 0 -0.46065424848921588 -0.090772467194441139 0 -0.46818215177698203 -0.099953751655522838 0 -0.4584779852015074 -0.10248795000985481 0 -0.46818215177698203 -0.099953751655522838 0 -0.46359116758184998 -0.1097757465931173 0 -0.47217490095005349 -0.1085291706666472 0 -0.46818215177698203 -0.099953751655522838 0 -0.4584779852015074 -0.10248795000985481 0 -0.46359116758184998 -0.1097757465931173 0 -0.46727376931232728 -0.13761179742107149 0 -0.45640969151903937 -0.11681638729018 0 -0.47028854038926171 -0.1204433481463667 0 -0.4584779852015074 -0.10248795000985481 0 -0.45640969151903937 -0.11681638729018 0 -0.46359116758184998 -0.1097757465931173 0 -0.46359116758184998 -0.1097757465931173 0 -0.47028854038926171 -0.1204433481463667 0 -0.47217490095005349 -0.1085291706666472 0 -0.45640969151903937 -0.11681638729018 0 -0.46359116758184998 -0.1097757465931173 0 -0.47028854038926171 -0.1204433481463667 0 -0.45632844162157421 -0.13009438170693269 0 -0.44805124774316729 -0.1197117135153544 0 -0.45640969151903937 -0.11681638729018 0 -0.48141633457344279 -0.1233734007712788 0 -0.48041033756040291 -0.1128397634480607 0 -0.48800153806961899 -0.1181950100342378 0 -0.48141633457344279 -0.1233734007712788 0 -0.47028854038926171 -0.1204433481463667 0 -0.48041033756040291 -0.1128397634480607 0 -0.47028854038926171 -0.1204433481463667 0 -0.48041033756040291 -0.1128397634480607 0 -0.47217490095005349 -0.1085291706666472 0 -0.47682098178355009 -0.10237321382581439 0 -0.48757463537763068 -0.1050194261292486 0 -0.47576288325268179 -0.085523957229593009 0 -0.48757463537763068 -0.1050194261292486 0 -0.47576288325268179 -0.085523957229593009 0 -0.48965710939763751 -0.091401291768867493 0 -0.48757463537763068 -0.1050194261292486 0 -0.47576288325268179 -0.085523957229593009 0 -0.46818215177698203 -0.099953751655522838 0 -0.47682098178355009 -0.10237321382581439 0 -0.47576288325268179 -0.085523957229593009 0 -0.48041033756040291 -0.1128397634480607 0 -0.47682098178355009 -0.10237321382581439 0 -0.48757463537763068 -0.1050194261292486 0 -0.48041033756040291 -0.1128397634480607 0 -0.47682098178355009 -0.10237321382581439 0 -0.47217490095005349 -0.1085291706666472 0 -0.46818215177698203 -0.099953751655522838 0 -0.47682098178355009 -0.10237321382581439 0 -0.47217490095005349 -0.1085291706666472 0 -0.5 -0.098827271215595869 0 -0.48757463537763068 -0.1050194261292486 0 -0.5 -0.1205501909938503 0 -0.5 -0.098827271215595869 0 -0.48757463537763068 -0.1050194261292486 0 -0.48965710939763751 -0.091401291768867493 0 -0.48757463537763068 -0.1050194261292486 0 -0.5 -0.1205501909938503 0 -0.49938638750258069 -0.12451489502890351 0 -0.48757463537763068 -0.1050194261292486 0 -0.49938638750258069 -0.12451489502890351 0 -0.48800153806961899 -0.1181950100342378 0 -0.48757463537763068 -0.1050194261292486 0 -0.49938638750258069 -0.12451489502890351 0 -0.48041033756040291 -0.1128397634480607 0 -0.48757463537763068 -0.1050194261292486 0 -0.48800153806961899 -0.1181950100342378 0 -0.49078284407105738 -0.12533794259366859 0 -0.49938638750258069 -0.12451489502890351 0 -0.48800153806961899 -0.1181950100342378 0 -0.49078284407105738 -0.12533794259366859 0 -0.48141633457344279 -0.1233734007712788 0 -0.48800153806961899 -0.1181950100342378 0 -0.47879529358951112 -0.071050435846298318 0 -0.4890785850583505 -0.064766104371877103 0 -0.47340832683211742 -0.060269921263578698 0 -0.4890785850583505 -0.064766104371877103 0 -0.47340832683211742 -0.060269921263578698 0 -0.46675047592928143 -0.070648847692438593 0 -0.47879529358951112 -0.071050435846298318 0 -0.47340832683211742 -0.060269921263578698 0 -0.46675047592928143 -0.070648847692438593 0 -0.47576288325268179 -0.085523957229593009 0 -0.46675047592928143 -0.070648847692438593 0 -0.47879529358951112 -0.071050435846298318 0 -0.47576288325268179 -0.085523957229593009 0 -0.5 -0.098827271215595869 0 -0.48965710939763751 -0.091401291768867493 0 -0.4999999999999995 -0.077104351437341373 0 -0.47576288325268179 -0.085523957229593009 0 -0.4999999999999995 -0.077104351437341373 0 -0.47576288325268179 -0.085523957229593009 0 -0.48965710939763751 -0.091401291768867493 0 -0.4999999999999995 -0.077104351437341373 0 -0.47879529358951112 -0.071050435846298318 0 -0.47576288325268179 -0.085523957229593009 0 -0.4999999999999995 -0.077104351437341373 0 -0.47879529358951112 -0.071050435846298318 0 -0.4890785850583505 -0.064766104371877103 0 -0.4999999999999995 -0.077104351437341373 0 -0.4890785850583505 -0.064766104371877103 0 -0.4999999999999995 -0.077104351437341373 0 -0.5 -0.04737260108718544 0 -0.4890785850583505 -0.064766104371877103 0 -0.5 -0.04737260108718544 0 -0.48191302348946008 -0.047465690093857232 0 -0.5 -0.04737260108718544 0 -0.48191302348946008 -0.047465690093857232 0 -0.48295223640682527 -0.028582091006471119 0 -0.48191302348946008 -0.047465690093857232 0 -0.46519966385357669 -0.046866083698397072 0 -0.46239725397521558 -0.026925130535465362 0 -0.48191302348946008 -0.047465690093857232 0 -0.46239725397521558 -0.026925130535465362 0 -0.48295223640682527 -0.028582091006471119 0 -0.48191302348946008 -0.047465690093857232 0 -0.46239725397521558 -0.026925130535465362 0 -0.4890785850583505 -0.064766104371877103 0 -0.48191302348946008 -0.047465690093857232 0 -0.47340832683211742 -0.060269921263578698 0 -0.48191302348946008 -0.047465690093857232 0 -0.47340832683211742 -0.060269921263578698 0 -0.46519966385357669 -0.046866083698397072 0 -0.47340832683211742 -0.060269921263578698 0 -0.45773806860588362 -0.055773738155282651 0 -0.47340832683211742 -0.060269921263578698 0 -0.45773806860588362 -0.055773738155282651 0 -0.46519966385357669 -0.046866083698397072 0 -0.46675047592928143 -0.070648847692438593 0 -0.47340832683211742 -0.060269921263578698 0 -0.45773806860588362 -0.055773738155282651 0 -0.45773806860588362 -0.055773738155282651 0 -0.46519966385357669 -0.046866083698397072 0 -0.45054164636520821 -0.043895938443800443 0 -0.45773806860588362 -0.055773738155282651 0 -0.45054164636520821 -0.043895938443800443 0 -0.46519966385357669 -0.046866083698397072 0 -0.45054164636520821 -0.043895938443800443 0 -0.46239725397521558 -0.026925130535465362 0 -0.45054164636520821 -0.043895938443800443 0 -0.44674575554772128 -0.026332937080012369 0 -0.46239725397521558 -0.026925130535465362 0 -0.43506109861085779 -0.04926715683622674 0 -0.43116263738949001 -0.02812610836371018 0 -0.45054164636520821 -0.043895938443800443 0 -0.43116263738949001 -0.02812610836371018 0 -0.45054164636520821 -0.043895938443800443 0 -0.44674575554772128 -0.026332937080012369 0 -0.43506109861085779 -0.04926715683622674 0 -0.45773806860588362 -0.055773738155282651 0 -0.45054164636520821 -0.043895938443800443 0 -0.43506109861085779 -0.04926715683622674 0 -0.45773806860588362 -0.055773738155282651 0 -0.43506109861085779 -0.04926715683622674 0 -0.4388636979176368 -0.069888353688186661 0 -0.45773806860588362 -0.055773738155282651 0 -0.43116263738949001 -0.02812610836371018 0 -0.4428814844609712 -0.006384570977073482 0 -0.44674575554772128 -0.026332937080012369 0 -0.4428814844609712 -0.006384570977073482 0 -0.46239725397521558 -0.026925130535465362 0 -0.4428814844609712 -0.006384570977073482 0 -0.44674575554772128 -0.026332937080012369 0 -0.46239725397521558 -0.026925130535465362 0 -0.46239725397521558 -0.026925130535465362 0 -0.4618838428039273 -0.0081219354806253141 0 -0.47656437854189487 -0.015641256527086159 0 -0.4428814844609712 -0.006384570977073482 0 -0.46239725397521558 -0.026925130535465362 0 -0.4618838428039273 -0.0081219354806253141 0 -0.4428814844609712 -0.006384570977073482 0 -0.4618838428039273 -0.0081219354806253141 0 -0.45612254401637492 0.0052493762405696528 0 -0.47656437854189487 -0.015641256527086159 0 -0.5 -0.017640850737029479 0 -0.47558855952350609 0.0030637251241605028 0 -0.4618838428039273 -0.0081219354806253141 0 -0.47656437854189487 -0.015641256527086159 0 -0.47558855952350609 0.0030637251241605028 0 -0.46239725397521558 -0.026925130535465362 0 -0.48295223640682527 -0.028582091006471119 0 -0.47656437854189487 -0.015641256527086159 0 -0.5 -0.04737260108718544 0 -0.48295223640682527 -0.028582091006471119 0 -0.5 -0.017640850737029479 0 -0.48295223640682527 -0.028582091006471119 0 -0.47656437854189487 -0.015641256527086159 0 -0.5 -0.017640850737029479 0 -0.5 -0.017640850737029479 0 -0.5 0.01209089961312654 0 -0.47558855952350609 0.0030637251241605028 0 -0.5 0.01209089961312654 0 -0.48256324184523808 0.026881014629463691 0 -0.47558855952350609 0.0030637251241605028 0 -0.5 0.01209089961312654 0 -0.48256324184523808 0.026881014629463691 0 -0.5 0.041822649963282277 0 -0.48256324184523808 0.026881014629463691 0 -0.47558855952350609 0.0030637251241605028 0 -0.46055349077129559 0.026151799891477999 0 -0.5 0.041822649963282277 0 -0.47667415893138898 0.051275998555271159 0 -0.5 0.071554400313438071 0 -0.48256324184523808 0.026881014629463691 0 -0.5 0.041822649963282277 0 -0.47667415893138898 0.051275998555271159 0 -0.48256324184523808 0.026881014629463691 0 -0.47667415893138898 0.051275998555271159 0 -0.46055349077129559 0.026151799891477999 0 -0.47667415893138898 0.051275998555271159 0 -0.45534041848951662 0.049782147055605547 0 -0.45958333490812198 0.073838052493855999 0 -0.47667415893138898 0.051275998555271159 0 -0.45534041848951662 0.049782147055605547 0 -0.46055349077129559 0.026151799891477999 0 -0.45534041848951662 0.049782147055605547 0 -0.43855874398431782 0.03628014025517607 0 -0.46055349077129559 0.026151799891477999 0 -0.45534041848951662 0.049782147055605547 0 -0.43855874398431782 0.03628014025517607 0 -0.44133236385245822 0.061364744082246507 0 -0.45534041848951662 0.049782147055605547 0 -0.44133236385245822 0.061364744082246507 0 -0.45958333490812198 0.073838052493855999 0 -0.4618838428039273 -0.0081219354806253141 0 -0.47558855952350609 0.0030637251241605028 0 -0.45612254401637492 0.0052493762405696528 0 -0.45612254401637492 0.0052493762405696528 0 -0.46055349077129559 0.026151799891477999 0 -0.44428792666468497 0.015174584194545759 0 -0.47558855952350609 0.0030637251241605028 0 -0.45612254401637492 0.0052493762405696528 0 -0.46055349077129559 0.026151799891477999 0 -0.43855874398431782 0.03628014025517607 0 -0.46055349077129559 0.026151799891477999 0 -0.44428792666468497 0.015174584194545759 0 -0.4428814844609712 -0.006384570977073482 0 -0.45612254401637492 0.0052493762405696528 0 -0.44428792666468497 0.015174584194545759 0 -0.42726417616810791 -0.0069850598911961048 0 -0.4428814844609712 -0.006384570977073482 0 -0.42336571494672631 0.014155988581318051 0 -0.4428814844609712 -0.006384570977073482 0 -0.44428792666468497 0.015174584194545759 0 -0.42336571494672631 0.014155988581318051 0 -0.42726417616810791 -0.0069850598911961048 0 -0.42336571494672631 0.014155988581318051 0 -0.4428814844609712 -0.006384570977073482 0 -0.42336571494672631 0.014155988581318051 0 -0.42726417616810791 -0.0069850598911961048 0 -0.42336571494672631 0.014155988581318051 0 -0.41687364766546708 0.0090755064088398427 0 -0.42336571494672631 0.014155988581318051 0 -0.41419359455657762 0.01520100414092977 0 -0.41687364766546708 0.0090755064088398427 0 -0.41419359455657762 0.01520100414092977 0 -0.41687364766546708 0.0090755064088398427 0 -0.40677829407606142 0.01173894222336285 0 -0.41687364766546708 0.0090755064088398427 0 -0.40677829407606142 0.01173894222336285 0 -0.4047903848229874 0.001850858661261689 0 -0.41370694135355929 -0.0036283586364891408 0 -0.41687364766546708 0.0090755064088398427 0 -0.4047903848229874 0.001850858661261689 0 -0.42336571494672631 0.014155988581318051 0 -0.41916701492157898 0.036925208463850473 0 -0.42336571494672631 0.014155988581318051 0 -0.41084298769389982 0.024690272413000359 0 -0.41916701492157898 0.036925208463850473 0 -0.41084298769389982 0.024690272413000359 0 -0.41916701492157898 0.036925208463850473 0 -0.40016902249820019 0.0312630212882134 0 -0.41419359455657762 0.01520100414092977 0 -0.40677829407606142 0.01173894222336285 0 -0.41084298769389982 0.024690272413000359 0 -0.42336571494672631 0.014155988581318051 0 -0.41419359455657762 0.01520100414092977 0 -0.41084298769389982 0.024690272413000359 0 -0.43855874398431782 0.03628014025517607 0 -0.44428792666468497 0.015174584194545759 0 -0.42336571494672631 0.014155988581318051 0 -0.43855874398431782 0.03628014025517607 0 -0.42336571494672631 0.014155988581318051 0 -0.41916701492157898 0.036925208463850473 0 -0.43855874398431782 0.03628014025517607 0 -0.42817385713466599 0.051636241490618739 0 -0.41916701492157898 0.036925208463850473 0 -0.43855874398431782 0.03628014025517607 0 -0.44133236385245822 0.061364744082246507 0 -0.42817385713466599 0.051636241490618739 0 -0.44133236385245822 0.061364744082246507 0 -0.42817385713466599 0.051636241490618739 0 -0.42684284801854322 0.063916686305437745 0 -0.42817385713466599 0.051636241490618739 0 -0.41496831489643232 0.059694428346382923 0 -0.42684284801854322 0.063916686305437745 0 -0.42817385713466599 0.051636241490618739 0 -0.41496831489643232 0.059694428346382923 0 -0.41916701492157898 0.036925208463850473 0 -0.41496831489643232 0.059694428346382923 0 -0.41916701492157898 0.036925208463850473 0 -0.39301517292949822 0.048723734955538688 0 -0.41496831489643232 0.059694428346382923 0 -0.41916701492157898 0.036925208463850473 0 -0.40016902249820019 0.0312630212882134 0 -0.39301517292949822 0.048723734955538688 0 -0.38240450937626502 0.029914745057972311 0 -0.39301517292949822 0.048723734955538688 0 -0.38240450937626502 0.029914745057972311 0 -0.35931706765858429 0.048506611347341362 0 -0.39301517292949822 0.048723734955538688 0 -0.37757191483638303 0.068620722861141834 0 -0.35931706765858429 0.048506611347341362 0 -0.41916701492157898 0.036925208463850473 0 -0.40016902249820019 0.0312630212882134 0 -0.39301517292949822 0.048723734955538688 0 -0.41496831489643232 0.059694428346382923 0 -0.39301517292949822 0.048723734955538688 0 -0.39717994556026243 0.06877621708943453 0 -0.39301517292949822 0.048723734955538688 0 -0.37757191483638303 0.068620722861141834 0 -0.39717994556026243 0.06877621708943453 0 -0.38240450937626502 0.029914745057972311 0 -0.3817909908117797 0.017453014609489219 0 -0.36583269033092619 0.0198574945162211 0 -0.38240450937626502 0.029914745057972311 0 -0.3817909908117797 0.017453014609489219 0 -0.39541542756975911 0.016061145550705161 0 -0.3817909908117797 0.017453014609489219 0 -0.3835113359701684 0.0039786733130582766 0 -0.36583269033092619 0.0198574945162211 0 -0.38261115783081873 -0.0060693452942621982 0 -0.3835113359701684 0.0039786733130582766 0 -0.39443802076266532 0.0026833730188719671 0 -0.3817909908117797 0.017453014609489219 0 -0.3835113359701684 0.0039786733130582766 0 -0.39541542756975911 0.016061145550705161 0 -0.3835113359701684 0.0039786733130582766 0 -0.39443802076266532 0.0026833730188719671 0 -0.39541542756975911 0.016061145550705161 0 -0.40677829407606142 0.01173894222336285 0 -0.39443802076266532 0.0026833730188719671 0 -0.4047903848229874 0.001850858661261689 0 -0.40677829407606142 0.01173894222336285 0 -0.39443802076266532 0.0026833730188719671 0 -0.39541542756975911 0.016061145550705161 0 -0.40677829407606142 0.01173894222336285 0 -0.41084298769389982 0.024690272413000359 0 -0.39541542756975911 0.016061145550705161 0 -0.40016902249820019 0.0312630212882134 0 -0.38240450937626502 0.029914745057972311 0 -0.39541542756975911 0.016061145550705161 0 -0.41084298769389982 0.024690272413000359 0 -0.40016902249820019 0.0312630212882134 0 -0.39541542756975911 0.016061145550705161 0 -0.38646812399680042 0.1127295516178168 0 -0.40657091484614488 0.1052328681114492 0 -0.39552099345768871 0.096972691415696741 0 -0.38646812399680042 0.1127295516178168 0 -0.40657091484614488 0.1052328681114492 0 -0.39552099345768871 0.096972691415696741 0 -0.41076961487128549 0.082463648228915415 0 -0.40657091484614488 0.1052328681114492 0 -0.40657091484614488 0.1052328681114492 0 -0.40281515321082589 0.1256000679563154 0 -0.38646812399680042 0.1127295516178168 0 -0.40657091484614488 0.1052328681114492 0 -0.40281515321082589 0.1256000679563154 0 -0.38646812399680042 0.1127295516178168 0 -0.38053137272319187 0.13205202790225989 0 -0.35893294113859819 0.12299790454077671 0 -0.38646812399680042 0.1127295516178168 0 -0.38422160330650568 0.1000588380651099 0 -0.36871044727512381 0.1062777808590276 0 -0.39552099345768871 0.096972691415696741 0 -0.38422160330650568 0.1000588380651099 0 -0.38957471026771301 0.084378551055193776 0 -0.39552099345768871 0.096972691415696741 0 -0.38646812399680042 0.1127295516178168 0 -0.38422160330650568 0.1000588380651099 0 -0.38646812399680042 0.1127295516178168 0 -0.38422160330650568 0.1000588380651099 0 -0.38957471026771301 0.084378551055193776 0 -0.37757191483638303 0.068620722861141834 0 -0.36764374561981439 0.089797765061852802 0 -0.38422160330650568 0.1000588380651099 0 -0.38957471026771301 0.084378551055193776 0 -0.36764374561981439 0.089797765061852802 0 -0.38957471026771301 0.084378551055193776 0 -0.37757191483638303 0.068620722861141834 0 -0.39717994556026243 0.06877621708943453 0 -0.38957471026771301 0.084378551055193776 0 -0.39717994556026243 0.06877621708943453 0 -0.41076961487128549 0.082463648228915415 0 -0.39552099345768871 0.096972691415696741 0 -0.38957471026771301 0.084378551055193776 0 -0.41076961487128549 0.082463648228915415 0 -0.41898859886201217 0.073595494369754488 0 -0.41908765009337012 0.101304942348922 0 -0.41076961487128549 0.082463648228915415 0 -0.41510523193806048 0.091806330342157752 0 -0.41898859886201217 0.073595494369754488 0 -0.41898859886201217 0.073595494369754488 0 -0.42449203454001649 0.091182452464015268 0 -0.41908765009337012 0.101304942348922 0 -0.41076961487128549 0.082463648228915415 0 -0.41510523193806048 0.091806330342157752 0 -0.40657091484614488 0.1052328681114492 0 -0.41510523193806048 0.091806330342157752 0 -0.41898859886201217 0.073595494369754488 0 -0.41908765009337012 0.101304942348922 0 -0.41496831489643232 0.059694428346382923 0 -0.39717994556026243 0.06877621708943453 0 -0.41076961487128549 0.082463648228915415 0 -0.41496831489643232 0.059694428346382923 0 -0.41076961487128549 0.082463648228915415 0 -0.41496831489643232 0.059694428346382923 0 -0.41076961487128549 0.082463648228915415 0 -0.41898859886201217 0.073595494369754488 0 -0.41496831489643232 0.059694428346382923 0 -0.41898859886201217 0.073595494369754488 0 -0.42684284801854322 0.063916686305437745 0 -0.41898859886201217 0.073595494369754488 0 -0.43393180175084162 0.075157465443856875 0 -0.42897186564040252 0.085577102559681636 0 -0.41898859886201217 0.073595494369754488 0 -0.42684284801854322 0.063916686305437745 0 -0.43393180175084162 0.075157465443856875 0 -0.44133236385245822 0.061364744082246507 0 -0.42684284801854322 0.063916686305437745 0 -0.43393180175084162 0.075157465443856875 0 -0.41898859886201217 0.073595494369754488 0 -0.42449203454001649 0.091182452464015268 0 -0.42897186564040252 0.085577102559681636 0 -0.42449203454001649 0.091182452464015268 0 -0.42897186564040252 0.085577102559681636 0 -0.43079469189485081 0.093599825416205179 0 -0.43393180175084162 0.075157465443856875 0 -0.42897186564040252 0.085577102559681636 0 -0.44032854807989008 0.089102872907630748 0 -0.42897186564040252 0.085577102559681636 0 -0.43079469189485081 0.093599825416205179 0 -0.44032854807989008 0.089102872907630748 0 -0.43079469189485081 0.093599825416205179 0 -0.43423788427135579 0.10144282522375569 0 -0.42594312694258929 0.10069387392594251 0 -0.43079469189485081 0.093599825416205179 0 -0.43423788427135579 0.10144282522375569 0 -0.44032854807989008 0.089102872907630748 0 -0.43423788427135579 0.10144282522375569 0 -0.42784787528918011 0.1073367765367476 0 -0.43373420393449258 0.1095624139848085 0 -0.43423788427135579 0.10144282522375569 0 -0.43373420393449258 0.1095624139848085 0 -0.43970567471523042 0.1078575364231921 0 -0.43423788427135579 0.10144282522375569 0 -0.42784787528918011 0.1073367765367476 0 -0.42594312694258929 0.10069387392594251 0 -0.42461979206897538 0.1060803389634367 0 -0.41908765009337012 0.101304942348922 0 -0.42560051595076231 0.11498576304213499 0 -0.42784787528918011 0.1073367765367476 0 -0.42461979206897538 0.1060803389634367 0 -0.42594312694258929 0.10069387392594251 0 -0.42461979206897538 0.1060803389634367 0 -0.42594312694258929 0.10069387392594251 0 -0.41908765009337012 0.101304942348922 0 -0.42449203454001649 0.091182452464015268 0 -0.42594312694258929 0.10069387392594251 0 -0.41908765009337012 0.101304942348922 0 -0.42449203454001649 0.091182452464015268 0 -0.43079469189485081 0.093599825416205179 0 -0.42594312694258929 0.10069387392594251 0 -0.41908765009337012 0.101304942348922 0 -0.41317823996504321 0.107872365549414 0 -0.41315533249306913 0.1169769366383997 0 -0.41510523193806048 0.091806330342157752 0 -0.41531314267732039 0.098115740619400843 0 -0.41908765009337012 0.101304942348922 0 -0.41076961487128549 0.082463648228915415 0 -0.40657091484614488 0.1052328681114492 0 -0.41531314267732039 0.098115740619400843 0 -0.41908765009337012 0.101304942348922 0 -0.41495858088163429 0.10210496024552029 0 -0.41908765009337012 0.101304942348922 0 -0.41495858088163429 0.10210496024552029 0 -0.41317823996504321 0.107872365549414 0 -0.41495858088163429 0.10210496024552029 0 -0.40657091484614488 0.1052328681114492 0 -0.41531314267732039 0.098115740619400843 0 -0.41495858088163429 0.10210496024552029 0 -0.40657091484614488 0.1052328681114492 0 -0.41495858088163429 0.10210496024552029 0 -0.40657091484614488 0.1052328681114492 0 -0.41317823996504321 0.107872365549414 0 -0.41510523193806048 0.091806330342157752 0 -0.41531314267732039 0.098115740619400843 0 -0.40657091484614488 0.1052328681114492 0 -0.40657091484614488 0.1052328681114492 0 -0.41315533249306913 0.1169769366383997 0 -0.40281515321082589 0.1256000679563154 0 -0.41908765009337012 0.101304942348922 0 -0.42560051595076231 0.11498576304213499 0 -0.41918670132472818 0.12901439032808951 0 -0.41908765009337012 0.101304942348922 0 -0.41315533249306913 0.1169769366383997 0 -0.41918670132472818 0.12901439032808951 0 -0.41315533249306913 0.1169769366383997 0 -0.41918670132472818 0.12901439032808951 0 -0.40281515321082589 0.1256000679563154 0 -0.41908765009337012 0.101304942348922 0 -0.41918670132472818 0.12901439032808951 0 -0.40657091484614488 0.1052328681114492 0 -0.41317823996504321 0.107872365549414 0 -0.41315533249306913 0.1169769366383997 0 -0.42560051595076231 0.11498576304213499 0 -0.4323279603822347 0.1151998836243342 0 -0.43010994510705269 0.1231095695537998 0 -0.42560051595076231 0.11498576304213499 0 -0.43010994510705269 0.1231095695537998 0 -0.41918670132472818 0.12901439032808951 0 -0.42784787528918011 0.1073367765367476 0 -0.42461979206897538 0.1060803389634367 0 -0.42560051595076231 0.11498576304213499 0 -0.42560051595076231 0.11498576304213499 0 -0.42987763888916741 0.1117712092970063 0 -0.4323279603822347 0.1151998836243342 0 -0.42784787528918011 0.1073367765367476 0 -0.42560051595076231 0.11498576304213499 0 -0.42987763888916741 0.1117712092970063 0 -0.42784787528918011 0.1073367765367476 0 -0.42987763888916741 0.1117712092970063 0 -0.43373420393449258 0.1095624139848085 0 -0.42987763888916741 0.1117712092970063 0 -0.4323279603822347 0.1151998836243342 0 -0.43373420393449258 0.1095624139848085 0 -0.4323279603822347 0.1151998836243342 0 -0.4373948155335769 0.1194168204072472 0 -0.43877285996521742 0.1139230837748047 0 -0.43373420393449258 0.1095624139848085 0 -0.43877285996521742 0.1139230837748047 0 -0.43970567471523042 0.1078575364231921 0 -0.4323279603822347 0.1151998836243342 0 -0.43373420393449258 0.1095624139848085 0 -0.43877285996521742 0.1139230837748047 0 -0.4323279603822347 0.1151998836243342 0 -0.43010994510705269 0.1231095695537998 0 -0.4373948155335769 0.1194168204072472 0 -0.43010994510705269 0.1231095695537998 0 -0.4373948155335769 0.1194168204072472 0 -0.43689285812780609 0.12614763336064519 0 -0.44207921939748718 0.1210607609110787 0 -0.44316713108207378 0.12575878762755729 0 -0.43689285812780609 0.12614763336064519 0 -0.4373948155335769 0.1194168204072472 0 -0.44207921939748718 0.1210607609110787 0 -0.43689285812780609 0.12614763336064519 0 -0.4373948155335769 0.1194168204072472 0 -0.44207921939748718 0.1210607609110787 0 -0.44384396603514559 0.1165324518628863 0 -0.44207921939748718 0.1210607609110787 0 -0.44630280009431222 0.1212389905043718 0 -0.44384396603514559 0.1165324518628863 0 -0.44207921939748718 0.1210607609110787 0 -0.44630280009431222 0.1212389905043718 0 -0.44316713108207378 0.12575878762755729 0 -0.44630280009431222 0.1212389905043718 0 -0.4508721897039859 0.1206324510699303 0 -0.44853780707601287 0.126935419352384 0 -0.44630280009431222 0.1212389905043718 0 -0.44316713108207378 0.12575878762755729 0 -0.44853780707601287 0.126935419352384 0 -0.44630280009431222 0.1212389905043718 0 -0.4508721897039859 0.1206324510699303 0 -0.44795154461647452 0.11687896875788389 0 -0.44630280009431222 0.1212389905043718 0 -0.44795154461647452 0.11687896875788389 0 -0.44384396603514559 0.1165324518628863 0 -0.4508721897039859 0.1206324510699303 0 -0.45067971535627538 0.1165140210449241 0 -0.45368561646966588 0.1186504754974979 0 -0.4508721897039859 0.1206324510699303 0 -0.45067971535627538 0.1165140210449241 0 -0.44795154461647452 0.11687896875788389 0 -0.4508721897039859 0.1206324510699303 0 -0.45368561646966588 0.1186504754974979 0 -0.45460446545408872 0.12545601790255009 0 -0.4508721897039859 0.1206324510699303 0 -0.44853780707601287 0.126935419352384 0 -0.45460446545408872 0.12545601790255009 0 -0.44633746787624068 0.1114133183808113 0 -0.44835411113007911 0.1025914873322647 0 -0.45455175811500992 0.1149948915184969 0 -0.44835411113007911 0.1025914873322647 0 -0.4563796741802687 0.1160801017568982 0 -0.45455175811500992 0.1149948915184969 0 -0.45067971535627538 0.1165140210449241 0 -0.44633746787624068 0.1114133183808113 0 -0.45455175811500992 0.1149948915184969 0 -0.45067971535627538 0.1165140210449241 0 -0.45368561646966588 0.1186504754974979 0 -0.45455175811500992 0.1149948915184969 0 -0.44795154461647452 0.11687896875788389 0 -0.44633746787624068 0.1114133183808113 0 -0.44384396603514559 0.1165324518628863 0 -0.45067971535627538 0.1165140210449241 0 -0.44795154461647452 0.11687896875788389 0 -0.44633746787624068 0.1114133183808113 0 -0.44633746787624068 0.1114133183808113 0 -0.43877285996521742 0.1139230837748047 0 -0.43970567471523042 0.1078575364231921 0 -0.44633746787624068 0.1114133183808113 0 -0.44384396603514559 0.1165324518628863 0 -0.43877285996521742 0.1139230837748047 0 -0.4373948155335769 0.1194168204072472 0 -0.44384396603514559 0.1165324518628863 0 -0.43877285996521742 0.1139230837748047 0 -0.43423788427135579 0.10144282522375569 0 -0.43970567471523042 0.1078575364231921 0 -0.44835411113007911 0.1025914873322647 0 -0.44633746787624068 0.1114133183808113 0 -0.43970567471523042 0.1078575364231921 0 -0.44835411113007911 0.1025914873322647 0 -0.44835411113007911 0.1025914873322647 0 -0.44032854807989008 0.089102872907630748 0 -0.43423788427135579 0.10144282522375569 0 -0.44835411113007911 0.1025914873322647 0 -0.44032854807989008 0.089102872907630748 0 -0.44835411113007911 0.1025914873322647 0 -0.44032854807989008 0.089102872907630748 0 -0.4549142510499089 0.089845513564118809 0 -0.44835411113007911 0.1025914873322647 0 -0.4563796741802687 0.1160801017568982 0 -0.46128830259219278 0.10305762788703619 0 -0.4549142510499089 0.089845513564118809 0 -0.47305555660541487 0.092898002000487173 0 -0.44835411113007911 0.1025914873322647 0 -0.46128830259219278 0.10305762788703619 0 -0.4563796741802687 0.1160801017568982 0 -0.44835411113007911 0.1025914873322647 0 -0.46128830259219278 0.10305762788703619 0 -0.4549142510499089 0.089845513564118809 0 -0.4563796741802687 0.1160801017568982 0 -0.47818983709013452 0.12902851472881191 0 -0.46128830259219278 0.10305762788703619 0 -0.4563796741802687 0.1160801017568982 0 -0.47197510773799711 0.1144460766541225 0 -0.45368561646966588 0.1186504754974979 0 -0.4563796741802687 0.1160801017568982 0 -0.45460446545408872 0.12545601790255009 0 -0.4563796741802687 0.1160801017568982 0 -0.45862052098610351 0.12928071259428839 0 -0.45460446545408872 0.12545601790255009 0 -0.45368561646966588 0.1186504754974979 0 -0.4563796741802687 0.1160801017568982 0 -0.45455175811500992 0.1149948915184969 0 -0.4563796741802687 0.1160801017568982 0 -0.45455175811500992 0.1149948915184969 0 -0.44133236385245822 0.061364744082246507 0 -0.43393180175084162 0.075157465443856875 0 -0.44601805992824423 0.077861729698341792 0 -0.44133236385245822 0.061364744082246507 0 -0.44601805992824423 0.077861729698341792 0 -0.45958333490812198 0.073838052493855999 0 -0.44601805992824423 0.077861729698341792 0 -0.44032854807989008 0.089102872907630748 0 -0.4549142510499089 0.089845513564118809 0 -0.43393180175084162 0.075157465443856875 0 -0.44601805992824423 0.077861729698341792 0 -0.44032854807989008 0.089102872907630748 0 -0.44601805992824423 0.077861729698341792 0 -0.4549142510499089 0.089845513564118809 0 -0.45958333490812198 0.073838052493855999 0 -0.4549142510499089 0.089845513564118809 0 -0.45958333490812198 0.073838052493855999 0 -0.47305555660541487 0.092898002000487173 0 -0.45958333490812198 0.073838052493855999 0 -0.47305555660541487 0.092898002000487173 0 -0.47667415893138898 0.051275998555271159 0 -0.45958333490812198 0.073838052493855999 0 -0.47973743794388718 0.075503087606999558 0 -0.47973743794388718 0.075503087606999558 0 -0.47305555660541487 0.092898002000487173 0 -0.48937413927451018 0.08794898467194541 0 -0.45958333490812198 0.073838052493855999 0 -0.47973743794388718 0.075503087606999558 0 -0.47305555660541487 0.092898002000487173 0 -0.47973743794388718 0.075503087606999558 0 -0.48937413927451018 0.08794898467194541 0 -0.5 0.071554400313438071 0 -0.48937413927451018 0.08794898467194541 0 -0.5 0.071554400313438071 0 -0.5 0.10128615066359389 0 -0.47667415893138898 0.051275998555271159 0 -0.47973743794388718 0.075503087606999558 0 -0.5 0.071554400313438071 0 -0.4563796741802687 0.1160801017568982 0 -0.47197510773799711 0.1144460766541225 0 -0.47818983709013452 0.12902851472881191 0 -0.4803828942852697 0.1195281185139916 0 -0.47197510773799711 0.1144460766541225 0 -0.48652777830270783 0.1119579515071184 0 -0.4803828942852697 0.1195281185139916 0 -0.47197510773799711 0.1144460766541225 0 -0.47818983709013452 0.12902851472881191 0 -0.47305555660541487 0.092898002000487173 0 -0.47197510773799711 0.1144460766541225 0 -0.48652777830270783 0.1119579515071184 0 -0.47305555660541487 0.092898002000487173 0 -0.48652777830270783 0.1119579515071184 0 -0.47305555660541487 0.092898002000487173 0 -0.48937413927451018 0.08794898467194541 0 -0.48652777830270783 0.1119579515071184 0 -0.46128830259219278 0.10305762788703619 0 -0.47305555660541487 0.092898002000487173 0 -0.47197510773799711 0.1144460766541225 0 -0.48937413927451018 0.08794898467194541 0 -0.5 0.10128615066359389 0 -0.48652777830270783 0.1119579515071184 0 -0.5 0.10128615066359389 0 -0.48652777830270783 0.1119579515071184 0 -0.50000000000000033 0.1310179010137498 0 -0.48652777830270783 0.1119579515071184 0 -0.50000000000000033 0.1310179010137498 0 -0.4803828942852697 0.1195281185139916 0 -0.48652777830270783 0.1119579515071184 0 -0.50000000000000033 0.1310179010137498 0 -0.47818983709013452 0.12902851472881191 0 -0.5 0.14197692770072631 0 -0.50000000000000033 0.1310179010137498 0 -0.47818983709013452 0.12902851472881191 0 -0.5 0.14197692770072631 0 -0.4803828942852697 0.1195281185139916 0 -0.50000000000000033 0.1310179010137498 0 -0.47818983709013452 0.12902851472881191 0 -0.47818983709013452 0.12902851472881191 0 -0.48278716513819903 0.14208835680902579 0 -0.5 0.14197692770072631 0 -0.47818983709013452 0.12902851472881191 0 -0.48278716513819903 0.14208835680902579 0 -0.46716769491441501 0.13421159622998011 0 -0.4779557156485621 0.15234309070306151 0 -0.46716769491441501 0.13421159622998011 0 -0.48278716513819903 0.14208835680902579 0 -0.4779557156485621 0.15234309070306151 0 -0.46716769491441501 0.13421159622998011 0 -0.48278716513819903 0.14208835680902579 0 -0.4779557156485621 0.15234309070306151 0 -0.49062257803788351 0.15288165468254919 0 -0.49062257803788351 0.15288165468254919 0 -0.5 0.14197692770072631 0 -0.5 0.16497891114968419 0 -0.48278716513819903 0.14208835680902579 0 -0.49062257803788351 0.15288165468254919 0 -0.5 0.14197692770072631 0 -0.4915527864202579 0.16436799353574369 0 -0.48874373638270918 0.170474585176143 0 -0.4890669171771399 0.1801743907055311 0 -0.49062257803788351 0.15288165468254919 0 -0.5 0.16497891114968419 0 -0.4915527864202579 0.16436799353574369 0 -0.4779557156485621 0.15234309070306151 0 -0.4915527864202579 0.16436799353574369 0 -0.48874373638270918 0.170474585176143 0 -0.4779557156485621 0.15234309070306151 0 -0.49062257803788351 0.15288165468254919 0 -0.4915527864202579 0.16436799353574369 0 -0.4915527864202579 0.16436799353574369 0 -0.4890669171771399 0.1801743907055311 0 -0.49349322035732701 0.1888114337927744 0 -0.5 0.16497891114968419 0 -0.4915527864202579 0.16436799353574369 0 -0.49349322035732701 0.1888114337927744 0 -0.5 0.16497891114968419 0 -0.5 0.18798089459864209 0 -0.49349322035732701 0.1888114337927744 0 -0.4915527864202579 0.16436799353574369 0 -0.49349322035732701 0.1888114337927744 0 -0.48874373638270918 0.170474585176143 0 -0.4890669171771399 0.1801743907055311 0 -0.48040695792352589 0.17411047085559839 0 -0.48685907935334333 0.18632528565321821 0 -0.4890669171771399 0.1801743907055311 0 -0.47864401683678831 0.18451995397460411 0 -0.48685907935334333 0.18632528565321821 0 -0.4890669171771399 0.1801743907055311 0 -0.49349322035732701 0.1888114337927744 0 -0.47864401683678831 0.18451995397460411 0 -0.46718969750729422 0.17102386018011381 0 -0.46380645759857042 0.18997601921967749 0 -0.48685907935334333 0.18632528565321821 0 -0.47864401683678831 0.18451995397460411 0 -0.48386531881060862 0.19134448535934681 0 -0.4890669171771399 0.1801743907055311 0 -0.47864401683678831 0.18451995397460411 0 -0.48040695792352589 0.17411047085559839 0 -0.47864401683678831 0.18451995397460411 0 -0.48040695792352589 0.17411047085559839 0 -0.46718969750729422 0.17102386018011381 0 -0.4779557156485621 0.15234309070306151 0 -0.47839042171369778 0.16435956424159981 0 -0.46718969750729422 0.17102386018011381 0 -0.4779557156485621 0.15234309070306151 0 -0.48874373638270918 0.170474585176143 0 -0.4779557156485621 0.15234309070306151 0 -0.48874373638270918 0.170474585176143 0 -0.47839042171369778 0.16435956424159981 0 -0.48874373638270918 0.170474585176143 0 -0.48040695792352589 0.17411047085559839 0 -0.47839042171369778 0.16435956424159981 0 -0.48040695792352589 0.17411047085559839 0 -0.47839042171369778 0.16435956424159981 0 -0.46718969750729422 0.17102386018011381 0 -0.4779557156485621 0.15234309070306151 0 -0.46718969750729422 0.17102386018011381 0 -0.4598394170568007 0.15529091956654539 0 -0.46718969750729422 0.17102386018011381 0 -0.4487055359767691 0.16183926363054471 0 -0.4598394170568007 0.15529091956654539 0 -0.46718969750729422 0.17102386018011381 0 -0.44555294637186649 0.18088567833939029 0 -0.4487055359767691 0.16183926363054471 0 -0.46718969750729422 0.17102386018011381 0 -0.44555294637186649 0.18088567833939029 0 -0.46380645759857042 0.18997601921967749 0 -0.44555294637186649 0.18088567833939029 0 -0.4487055359767691 0.16183926363054471 0 -0.43639240517518108 0.16309866252337321 0 -0.4487055359767691 0.16183926363054471 0 -0.43675619376457819 0.15288297657035449 0 -0.43639240517518108 0.16309866252337321 0 -0.4487055359767691 0.16183926363054471 0 -0.44775757943863609 0.14598121808440279 0 -0.4598394170568007 0.15529091956654539 0 -0.4487055359767691 0.16183926363054471 0 -0.44775757943863609 0.14598121808440279 0 -0.43675619376457819 0.15288297657035449 0 -0.44775757943863609 0.14598121808440279 0 -0.4365924999045796 0.14238575007386339 0 -0.43675619376457819 0.15288297657035449 0 -0.44775757943863609 0.14598121808440279 0 -0.44182628391051909 0.13367794701657831 0 -0.4365924999045796 0.14238575007386339 0 -0.44182628391051909 0.13367794701657831 0 -0.44316713108207378 0.12575878762755729 0 -0.43689285812780609 0.12614763336064519 0 -0.44182628391051909 0.13367794701657831 0 -0.44316713108207378 0.12575878762755729 0 -0.44853780707601287 0.126935419352384 0 -0.44182628391051909 0.13367794701657831 0 -0.44853780707601287 0.126935419352384 0 -0.45162277416778301 0.13394561853917189 0 -0.44853780707601287 0.126935419352384 0 -0.45162277416778301 0.13394561853917189 0 -0.45460446545408872 0.12545601790255009 0 -0.44775757943863609 0.14598121808440279 0 -0.44182628391051909 0.13367794701657831 0 -0.45162277416778301 0.13394561853917189 0 -0.4563796741802687 0.1160801017568982 0 -0.45862052098610351 0.12928071259428839 0 -0.46716769491441501 0.13421159622998011 0 -0.4563796741802687 0.1160801017568982 0 -0.46716769491441501 0.13421159622998011 0 -0.4563796741802687 0.1160801017568982 0 -0.47818983709013452 0.12902851472881191 0 -0.46716769491441501 0.13421159622998011 0 -0.44775757943863609 0.14598121808440279 0 -0.45162277416778301 0.13394561853917189 0 -0.46049395036871682 0.14184219261957501 0 -0.45162277416778301 0.13394561853917189 0 -0.45862052098610351 0.12928071259428839 0 -0.46049395036871682 0.14184219261957501 0 -0.45162277416778301 0.13394561853917189 0 -0.45862052098610351 0.12928071259428839 0 -0.45460446545408872 0.12545601790255009 0 -0.45862052098610351 0.12928071259428839 0 -0.46716769491441501 0.13421159622998011 0 -0.46049395036871682 0.14184219261957501 0 -0.4779557156485621 0.15234309070306151 0 -0.46716769491441501 0.13421159622998011 0 -0.46049395036871682 0.14184219261957501 0 -0.4779557156485621 0.15234309070306151 0 -0.4598394170568007 0.15529091956654539 0 -0.46049395036871682 0.14184219261957501 0 -0.44775757943863609 0.14598121808440279 0 -0.4598394170568007 0.15529091956654539 0 -0.46049395036871682 0.14184219261957501 0 -0.47629615006491649 0.2478843387537821 0 -0.47281610506703448 0.23402855751392709 0 -0.4658519837927762 0.2455768727623254 0 -0.47629615006491649 0.2478843387537821 0 -0.47281610506703448 0.23402855751392709 0 -0.47629615006491649 0.2478843387537821 0 -0.48598638690746082 0.23853909322228439 0 -0.47281610506703448 0.23402855751392709 0 -0.47629615006491649 0.2478843387537821 0 -0.48841709285439311 0.24662095380897969 0 -0.48598638690746082 0.23853909322228439 0 -0.49787418098167152 0.24399792957799829 0 -0.5 0.23899084541410151 0 -0.50000000000000222 0.26699881278060311 0 -0.48841709285439311 0.24662095380897969 0 -0.49787418098167152 0.24399792957799829 0 -0.48598638690746082 0.23853909322228439 0 -0.48841709285439311 0.24662095380897969 0 -0.49787418098167152 0.24399792957799829 0 -0.48897239074030763 0.2564193422591956 0 -0.49787418098167152 0.24399792957799829 0 -0.49665391763803379 0.22862640181390159 0 -0.49787418098167152 0.24399792957799829 0 -0.48598638690746082 0.23853909322228439 0 -0.49665391763803379 0.22862640181390159 0 -0.49787418098167152 0.24399792957799829 0 -0.5 0.23899084541410151 0 -0.49665391763803379 0.22862640181390159 0 -0.48598638690746082 0.23853909322228439 0 -0.49665391763803379 0.22862640181390159 0 -0.47069059299828919 0.22556584215676029 0 -0.49665391763803379 0.22862640181390159 0 -0.47069059299828919 0.22556584215676029 0 -0.49543365429439301 0.2132548740498052 0 -0.5 0.23899084541410151 0 -0.49665391763803379 0.22862640181390159 0 -0.49999999999999828 0.21098287804759999 0 -0.49665391763803379 0.22862640181390159 0 -0.49543365429439301 0.2132548740498052 0 -0.47069059299828919 0.22556584215676029 0 -0.49543365429439301 0.2132548740498052 0 -0.47281610506703448 0.23402855751392709 0 -0.47069059299828919 0.22556584215676029 0 -0.48598638690746082 0.23853909322228439 0 -0.47281610506703448 0.23402855751392709 0 -0.47069059299828919 0.22556584215676029 0 -0.47069059299828919 0.22556584215676029 0 -0.46943823894779529 0.22057960095325779 0 -0.47069059299828919 0.22556584215676029 0 -0.46943823894779529 0.22057960095325779 0 -0.47661545233390129 0.21666984010552071 0 -0.47069059299828919 0.22556584215676029 0 -0.47661545233390129 0.21666984010552071 0 -0.49543365429439301 0.2132548740498052 0 -0.47494639861095111 0.20679710584685329 0 -0.47661545233390129 0.21666984010552071 0 -0.46803569328442501 0.2123039644019491 0 -0.47494639861095111 0.20679710584685329 0 -0.46372908499136301 0.20520946827777481 0 -0.46803569328442501 0.2123039644019491 0 -0.47494639861095111 0.20679710584685329 0 -0.48360377944293448 0.20926359717399251 0 -0.47661545233390129 0.21666984010552071 0 -0.47494639861095111 0.20679710584685329 0 -0.48360377944293448 0.20926359717399251 0 -0.48344438052181171 0.20024987152595761 0 -0.49665391763803379 0.22862640181390159 0 -0.49543365429439301 0.2132548740498052 0 -0.49999999999999828 0.21098287804759999 0 -0.49543365429439301 0.2132548740498052 0 -0.49999999999999828 0.21098287804759999 0 -0.49349322035732701 0.1888114337927744 0 -0.48360377944293448 0.20926359717399251 0 -0.47661545233390129 0.21666984010552071 0 -0.49543365429439301 0.2132548740498052 0 -0.49543365429439301 0.2132548740498052 0 -0.49999999999999828 0.21098287804759999 0 -0.48360377944293448 0.20926359717399251 0 -0.48899375865411637 0.20289494413563219 0 -0.48344438052181171 0.20024987152595761 0 -0.48360377944293448 0.20926359717399251 0 -0.49543365429439301 0.2132548740498052 0 -0.48899375865411637 0.20289494413563219 0 -0.48899375865411637 0.20289494413563219 0 -0.49349322035732701 0.1888114337927744 0 -0.48344438052181171 0.20024987152595761 0 -0.49543365429439301 0.2132548740498052 0 -0.49349322035732701 0.1888114337927744 0 -0.49543365429439301 0.2132548740498052 0 -0.48899375865411637 0.20289494413563219 0 -0.49349322035732701 0.1888114337927744 0 -0.49999999999999828 0.21098287804759999 0 -0.5 0.18798089459864209 0 -0.49349322035732701 0.1888114337927744 0 -0.48685907935334333 0.18632528565321821 0 -0.49349322035732701 0.1888114337927744 0 -0.48386531881060862 0.19134448535934681 0 -0.49349322035732701 0.1888114337927744 0 -0.48386531881060862 0.19134448535934681 0 -0.48344438052181171 0.20024987152595761 0 -0.47864401683678831 0.18451995397460411 0 -0.48386531881060862 0.19134448535934681 0 -0.47571185816796852 0.19657128566613929 0 -0.47494639861095111 0.20679710584685329 0 -0.48344438052181171 0.20024987152595761 0 -0.47571185816796852 0.19657128566613929 0 -0.48386531881060862 0.19134448535934681 0 -0.48344438052181171 0.20024987152595761 0 -0.47571185816796852 0.19657128566613929 0 -0.47494639861095111 0.20679710584685329 0 -0.47571185816796852 0.19657128566613929 0 -0.46372908499136301 0.20520946827777481 0 -0.47864401683678831 0.18451995397460411 0 -0.47571185816796852 0.19657128566613929 0 -0.46380645759857042 0.18997601921967749 0 -0.47571185816796852 0.19657128566613929 0 -0.46380645759857042 0.18997601921967749 0 -0.46372908499136301 0.20520946827777481 0 -0.46380645759857042 0.18997601921967749 0 -0.44979714405691867 0.19933076062224481 0 -0.46372908499136301 0.20520946827777481 0 -0.44555294637186649 0.18088567833939029 0 -0.44150650676840802 0.1930489062391241 0 -0.44979714405691867 0.19933076062224481 0 -0.44555294637186649 0.18088567833939029 0 -0.46380645759857042 0.18997601921967749 0 -0.44979714405691867 0.19933076062224481 0 -0.44555294637186649 0.18088567833939029 0 -0.44150650676840802 0.1930489062391241 0 -0.42956963719865637 0.19461408431637889 0 -0.44150650676840802 0.1930489062391241 0 -0.43804268774445348 0.20153637732199989 0 -0.44979714405691867 0.19933076062224481 0 -0.44979714405691867 0.19933076062224481 0 -0.45155566105388029 0.21044188327123431 0 -0.4412849429372257 0.2103903294979311 0 -0.43804268774445348 0.20153637732199989 0 -0.4412849429372257 0.2103903294979311 0 -0.43429483594806823 0.20822480300924751 0 -0.43804268774445348 0.20153637732199989 0 -0.44979714405691867 0.19933076062224481 0 -0.4412849429372257 0.2103903294979311 0 -0.4412849429372257 0.2103903294979311 0 -0.43955599288865471 0.21760006461171111 0 -0.43492965323446497 0.2156752264435445 0 -0.4412849429372257 0.2103903294979311 0 -0.43955599288865471 0.21760006461171111 0 -0.44611529608240941 0.21673941458057311 0 -0.45155566105388029 0.21044188327123431 0 -0.4412849429372257 0.2103903294979311 0 -0.44611529608240941 0.21673941458057311 0 -0.45155566105388029 0.21044188327123431 0 -0.44611529608240941 0.21673941458057311 0 -0.45685183720148481 0.22053944337764761 0 -0.47661545233390129 0.21666984010552071 0 -0.46803569328442501 0.2123039644019491 0 -0.45685183720148481 0.22053944337764761 0 -0.47661545233390129 0.21666984010552071 0 -0.45685183720148481 0.22053944337764761 0 -0.45155566105388029 0.21044188327123431 0 -0.46372908499136301 0.20520946827777481 0 -0.45685183720148481 0.22053944337764761 0 -0.44979714405691867 0.19933076062224481 0 -0.45155566105388029 0.21044188327123431 0 -0.46372908499136301 0.20520946827777481 0 -0.46372908499136301 0.20520946827777481 0 -0.46803569328442501 0.2123039644019491 0 -0.45685183720148481 0.22053944337764761 0 -0.46943823894779529 0.22057960095325779 0 -0.47661545233390129 0.21666984010552071 0 -0.45685183720148481 0.22053944337764761 0 -0.47281610506703448 0.23402855751392709 0 -0.47069059299828919 0.22556584215676029 0 -0.45576695537378997 0.23299113301452501 0 -0.47069059299828919 0.22556584215676029 0 -0.45576695537378997 0.23299113301452501 0 -0.45685183720148481 0.22053944337764761 0 -0.47069059299828919 0.22556584215676029 0 -0.46943823894779529 0.22057960095325779 0 -0.45685183720148481 0.22053944337764761 0 -0.47069059299828919 0.22556584215676029 0 -0.45576695537378997 0.23299113301452501 0 -0.44611529608240941 0.21673941458057311 0 -0.45685183720148481 0.22053944337764761 0 -0.43708822206906861 0.2244090466497756 0 -0.45685183720148481 0.22053944337764761 0 -0.44541712558147101 0.23089934193745129 0 -0.43708822206906861 0.2244090466497756 0 -0.45685183720148481 0.22053944337764761 0 -0.43708822206906861 0.2244090466497756 0 -0.43955599288865471 0.21760006461171111 0 -0.44611529608240941 0.21673941458057311 0 -0.43708822206906861 0.2244090466497756 0 -0.44541712558147101 0.23089934193745129 0 -0.43502445191539252 0.2355562235122263 0 -0.43708822206906861 0.2244090466497756 0 -0.45576695537378997 0.23299113301452501 0 -0.45685183720148481 0.22053944337764761 0 -0.44541712558147101 0.23089934193745129 0 -0.45576695537378997 0.23299113301452501 0 -0.44084331774928992 0.2404164238722879 0 -0.45158548375051172 0.24376199779042901 0 -0.43899620435493392 0.25049371640310392 0 -0.4306740611460208 0.25341526749683402 0 -0.45576695537378997 0.23299113301452501 0 -0.44084331774928992 0.2404164238722879 0 -0.45158548375051172 0.24376199779042901 0 -0.45158548375051172 0.24376199779042901 0 -0.4306740611460208 0.25341526749683402 0 -0.44084331774928992 0.2404164238722879 0 -0.45158548375051172 0.24376199779042901 0 -0.4306740611460208 0.25341526749683402 0 -0.45576695537378997 0.23299113301452501 0 -0.44541712558147101 0.23089934193745129 0 -0.44084331774928992 0.2404164238722879 0 -0.44541712558147101 0.23089934193745129 0 -0.44084331774928992 0.2404164238722879 0 -0.43502445191539252 0.2355562235122263 0 -0.45158548375051172 0.24376199779042901 0 -0.4658519837927762 0.2455768727623254 0 -0.46302939500067403 0.25655242642106652 0 -0.47281610506703448 0.23402855751392709 0 -0.45158548375051172 0.24376199779042901 0 -0.47281610506703448 0.23402855751392709 0 -0.45576695537378997 0.23299113301452501 0 -0.45158548375051172 0.24376199779042901 0 -0.47281610506703448 0.23402855751392709 0 -0.45158548375051172 0.24376199779042901 0 -0.4658519837927762 0.2455768727623254 0 -0.42104706409746379 0.2390772188211733 0 -0.40500590612585757 0.25374539099256938 0 -0.42104706409746379 0.2390772188211733 0 -0.41817555763870717 0.25149437126127672 0 -0.40500590612585757 0.25374539099256938 0 -0.41068707279771799 0.23575114591695109 0 -0.42104706409746379 0.2390772188211733 0 -0.40500590612585757 0.25374539099256938 0 -0.42104706409746379 0.2390772188211733 0 -0.42515580324046509 0.24674148596493159 0 -0.41817555763870717 0.25149437126127672 0 -0.42515580324046509 0.24674148596493159 0 -0.43072653007966871 0.24297908628044271 0 -0.4306740611460208 0.25341526749683402 0 -0.42104706409746379 0.2390772188211733 0 -0.42515580324046509 0.24674148596493159 0 -0.43072653007966871 0.24297908628044271 0 -0.44084331774928992 0.2404164238722879 0 -0.43072653007966871 0.24297908628044271 0 -0.4306740611460208 0.25341526749683402 0 -0.44084331774928992 0.2404164238722879 0 -0.43072653007966871 0.24297908628044271 0 -0.43502445191539252 0.2355562235122263 0 -0.42104706409746379 0.2390772188211733 0 -0.43072653007966871 0.24297908628044271 0 -0.43502445191539252 0.2355562235122263 0 -0.43708822206906861 0.2244090466497756 0 -0.41966133039860959 0.2278211327777018 0 -0.42104706409746379 0.2390772188211733 0 -0.43708822206906861 0.2244090466497756 0 -0.43708822206906861 0.2244090466497756 0 -0.42929685593910588 0.22025333504771141 0 -0.41966133039860959 0.2278211327777018 0 -0.42104706409746379 0.2390772188211733 0 -0.43502445191539252 0.2355562235122263 0 -0.43708822206906861 0.2244090466497756 0 -0.42104706409746379 0.2390772188211733 0 -0.43708822206906861 0.2244090466497756 0 -0.41966133039860959 0.2278211327777018 0 -0.43566450378760102 0.22031697156300359 0 -0.43708822206906861 0.2244090466497756 0 -0.42929685593910588 0.22025333504771141 0 -0.43955599288865471 0.21760006461171111 0 -0.43566450378760102 0.22031697156300359 0 -0.43708822206906861 0.2244090466497756 0 -0.42929685593910588 0.22025333504771141 0 -0.41966133039860959 0.2278211327777018 0 -0.42275843684684772 0.2158371122432034 0 -0.41068707279771799 0.23575114591695109 0 -0.41966133039860959 0.2278211327777018 0 -0.40223443872815101 0.23123321890562951 0 -0.41966133039860959 0.2278211327777018 0 -0.40223443872815101 0.23123321890562951 0 -0.41966133039860959 0.2278211327777018 0 -0.40908755260766239 0.22100021840069439 0 -0.42275843684684772 0.2158371122432034 0 -0.41966133039860959 0.2278211327777018 0 -0.40908755260766239 0.22100021840069439 0 -0.40223443872815101 0.23123321890562951 0 -0.41068707279771799 0.23575114591695109 0 -0.42104706409746379 0.2390772188211733 0 -0.41966133039860959 0.2278211327777018 0 -0.41068707279771799 0.23575114591695109 0 -0.40223443872815101 0.23123321890562951 0 -0.41232592194027068 0.2115834689880535 0 -0.42356526107340098 0.20386170815337429 0 -0.40234717264000441 0.20228976698401191 0 -0.40908755260766239 0.22100021840069439 0 -0.41232592194027068 0.2115834689880535 0 -0.4015698625078824 0.2141331020738251 0 -0.41232592194027068 0.2115834689880535 0 -0.42275843684684772 0.2158371122432034 0 -0.42356526107340098 0.20386170815337429 0 -0.40908755260766239 0.22100021840069439 0 -0.41232592194027068 0.2115834689880535 0 -0.42275843684684772 0.2158371122432034 0 -0.42929685593910588 0.22025333504771141 0 -0.42275843684684772 0.2158371122432034 0 -0.43492965323446497 0.2156752264435445 0 -0.42275843684684772 0.2158371122432034 0 -0.43492965323446497 0.2156752264435445 0 -0.42356526107340098 0.20386170815337429 0 -0.43566450378760102 0.22031697156300359 0 -0.42929685593910588 0.22025333504771141 0 -0.43492965323446497 0.2156752264435445 0 -0.4412849429372257 0.2103903294979311 0 -0.43492965323446497 0.2156752264435445 0 -0.43429483594806823 0.20822480300924751 0 -0.43955599288865471 0.21760006461171111 0 -0.43566450378760102 0.22031697156300359 0 -0.43492965323446497 0.2156752264435445 0 -0.43492965323446497 0.2156752264435445 0 -0.43429483594806823 0.20822480300924751 0 -0.42356526107340098 0.20386170815337429 0 -0.43429483594806823 0.20822480300924751 0 -0.42356526107340098 0.20386170815337429 0 -0.4315525871472683 0.20275180940221579 0 -0.43804268774445348 0.20153637732199989 0 -0.43429483594806823 0.20822480300924751 0 -0.4315525871472683 0.20275180940221579 0 -0.43492965323446497 0.2156752264435445 0 -0.42356526107340098 0.20386170815337429 0 -0.42356526107340098 0.20386170815337429 0 -0.4315525871472683 0.20275180940221579 0 -0.42956963719865637 0.19461408431637889 0 -0.43804268774445348 0.20153637732199989 0 -0.4315525871472683 0.20275180940221579 0 -0.42956963719865637 0.19461408431637889 0 -0.44150650676840802 0.1930489062391241 0 -0.43804268774445348 0.20153637732199989 0 -0.42956963719865637 0.19461408431637889 0 -0.42356526107340098 0.20386170815337429 0 -0.41072992410537179 0.19051911262487459 0 -0.40037697830718538 0.19117757552183701 0 -0.42356526107340098 0.20386170815337429 0 -0.40037697830718538 0.19117757552183701 0 -0.42356526107340098 0.20386170815337429 0 -0.42956963719865637 0.19461408431637889 0 -0.41072992410537179 0.19051911262487459 0 -0.42356526107340098 0.20386170815337429 0 -0.40037697830718538 0.19117757552183701 0 -0.40234717264000441 0.20228976698401191 0 -0.42956963719865637 0.19461408431637889 0 -0.41072992410537179 0.19051911262487459 0 -0.42093319497179732 0.17954477445026751 0 -0.42356526107340098 0.20386170815337429 0 -0.41072992410537179 0.19051911262487459 0 -0.40037697830718538 0.19117757552183701 0 -0.40234717264000441 0.20228976698401191 0 -0.40037697830718538 0.19117757552183701 0 -0.40234717264000441 0.20228976698401191 0 -0.38882341907838353 0.2014761412865069 0 -0.40037697830718538 0.19117757552183701 0 -0.39160711009559568 0.18638040392106789 0 -0.40037697830718538 0.19117757552183701 0 -0.38882341907838353 0.2014761412865069 0 -0.39160711009559568 0.18638040392106789 0 -0.38882341907838353 0.2014761412865069 0 -0.39160711009559568 0.18638040392106789 0 -0.37975518887972293 0.1920491471638649 0 -0.38882341907838353 0.2014761412865069 0 -0.39160711009559568 0.18638040392106789 0 -0.37975518887972293 0.1920491471638649 0 -0.38882341907838353 0.2014761412865069 0 -0.37587744574151488 0.20316387018270499 0 -0.38603972806115489 0.2165718786519428 0 -0.38503169470496418 0.22203836423053169 0 -0.3685569663477633 0.2132326334209026 0 -0.38882341907838353 0.2014761412865069 0 -0.38603972806115489 0.2165718786519428 0 -0.39433046747901679 0.21055200308166591 0 -0.38503169470496418 0.22203836423053169 0 -0.3685569663477633 0.2132326334209026 0 -0.38882341907838353 0.2014761412865069 0 -0.37587744574151488 0.20316387018270499 0 -0.38603972806115489 0.2165718786519428 0 -0.38882341907838353 0.2014761412865069 0 -0.38603972806115489 0.2165718786519428 0 -0.37587744574151488 0.20316387018270499 0 -0.38603972806115489 0.2165718786519428 0 -0.3685569663477633 0.2132326334209026 0 -0.38603972806115489 0.2165718786519428 0 -0.39338491715463442 0.21803673195123141 0 -0.39433046747901679 0.21055200308166591 0 -0.39338491715463442 0.21803673195123141 0 -0.39433046747901679 0.21055200308166591 0 -0.4015698625078824 0.2141331020738251 0 -0.39338491715463442 0.21803673195123141 0 -0.4015698625078824 0.2141331020738251 0 -0.39920330362103751 0.22189691034044429 0 -0.40234717264000441 0.20228976698401191 0 -0.38882341907838353 0.2014761412865069 0 -0.39433046747901679 0.21055200308166591 0 -0.40234717264000441 0.20228976698401191 0 -0.39433046747901679 0.21055200308166591 0 -0.4015698625078824 0.2141331020738251 0 -0.41232592194027068 0.2115834689880535 0 -0.40234717264000441 0.20228976698401191 0 -0.4015698625078824 0.2141331020738251 0 -0.40908755260766239 0.22100021840069439 0 -0.39920330362103751 0.22189691034044429 0 -0.40223443872815101 0.23123321890562951 0 -0.40908755260766239 0.22100021840069439 0 -0.4015698625078824 0.2141331020738251 0 -0.39920330362103751 0.22189691034044429 0 -0.40223443872815101 0.23123321890562951 0 -0.39025250915385329 0.22482888591003311 0 -0.40223443872815101 0.23123321890562951 0 -0.39431150895317207 0.23278448342766289 0 -0.39025250915385329 0.22482888591003311 0 -0.39431150895317207 0.23278448342766289 0 -0.39025250915385329 0.22482888591003311 0 -0.40223443872815101 0.23123321890562951 0 -0.39431150895317207 0.23278448342766289 0 -0.39338491715463442 0.21803673195123141 0 -0.39920330362103751 0.22189691034044429 0 -0.39025250915385329 0.22482888591003311 0 -0.39920330362103751 0.22189691034044429 0 -0.40223443872815101 0.23123321890562951 0 -0.39025250915385329 0.22482888591003311 0 -0.38603972806115489 0.2165718786519428 0 -0.39338491715463442 0.21803673195123141 0 -0.39025250915385329 0.22482888591003311 0 -0.38603972806115489 0.2165718786519428 0 -0.39025250915385329 0.22482888591003311 0 -0.38503169470496418 0.22203836423053169 0 -0.38603972806115489 0.2165718786519428 0 -0.39025250915385329 0.22482888591003311 0 -0.39025250915385329 0.22482888591003311 0 -0.38503169470496418 0.22203836423053169 0 -0.38603972806115489 0.2165718786519428 0 -0.38503169470496418 0.22203836423053169 0 -0.38503169470496418 0.22203836423053169 0 -0.3777163753321473 0.23171787584784331 0 -0.37040556869753138 0.22524089717934381 0 -0.38503169470496418 0.22203836423053169 0 -0.3777163753321473 0.23171787584784331 0 -0.38262826086220197 0.23507199685769231 0 -0.3777163753321473 0.23171787584784331 0 -0.38262826086220197 0.23507199685769231 0 -0.38055441221964109 0.2354780446095826 0 -0.39431150895317207 0.23278448342766289 0 -0.39025250915385329 0.22482888591003311 0 -0.38262826086220197 0.23507199685769231 0 -0.39431150895317207 0.23278448342766289 0 -0.38262826086220197 0.23507199685769231 0 -0.39025250915385329 0.22482888591003311 0 -0.38503169470496418 0.22203836423053169 0 -0.38262826086220197 0.23507199685769231 0 -0.38503169470496418 0.22203836423053169 0 -0.38262826086220197 0.23507199685769231 0 -0.39055515001529401 0.24883944245046349 0 -0.38262826086220197 0.23507199685769231 0 -0.37854439823410713 0.25721846257136233 0 -0.39431150895317207 0.23278448342766289 0 -0.39055515001529401 0.24883944245046349 0 -0.38262826086220197 0.23507199685769231 0 -0.38262826086220197 0.23507199685769231 0 -0.37854439823410713 0.25721846257136233 0 -0.38262826086220197 0.23507199685769231 0 -0.37669790113006468 0.24100998145162181 0 -0.37854439823410713 0.25721846257136233 0 -0.37669790113006468 0.24100998145162181 0 -0.37078201995590132 0.24581343246118609 0 -0.37854439823410713 0.25721846257136233 0 -0.38262826086220197 0.23507199685769231 0 -0.38055441221964109 0.2354780446095826 0 -0.38262826086220197 0.23507199685769231 0 -0.38055441221964109 0.2354780446095826 0 -0.37669790113006468 0.24100998145162181 0 -0.3777163753321473 0.23171787584784331 0 -0.37629831393202401 0.23638846909382299 0 -0.37157334738145698 0.2358788921940386 0 -0.38055441221964109 0.2354780446095826 0 -0.37669790113006468 0.24100998145162181 0 -0.37629831393202401 0.23638846909382299 0 -0.3777163753321473 0.23171787584784331 0 -0.38055441221964109 0.2354780446095826 0 -0.37629831393202401 0.23638846909382299 0 -0.41068707279771799 0.23575114591695109 0 -0.40223443872815101 0.23123321890562951 0 -0.40500590612585757 0.25374539099256938 0 -0.39431150895317207 0.23278448342766289 0 -0.39055515001529401 0.24883944245046349 0 -0.40500590612585757 0.25374539099256938 0 -0.39431150895317207 0.23278448342766289 0 -0.40500590612585757 0.25374539099256938 0 -0.40223443872815101 0.23123321890562951 0 -0.39431150895317207 0.23278448342766289 0 -0.40500590612585757 0.25374539099256938 0 -0.42230616897368961 0.1634264730702866 0 -0.39905939157551312 0.1459672678011826 0 -0.41008674966678837 0.1393263910982111 0 -0.41928575255608619 0.15672383830725689 0 -0.39905939157551312 0.1459672678011826 0 -0.42230616897368961 0.1634264730702866 0 -0.41928575255608619 0.15672383830725689 0 -0.39905939157551312 0.1459672678011826 0 -0.41918670132472818 0.12901439032808951 0 -0.41928575255608619 0.15672383830725689 0 -0.41008674966678837 0.1393263910982111 0 -0.41918670132472818 0.12901439032808951 0 -0.41928575255608619 0.15672383830725689 0 -0.41008674966678837 0.1393263910982111 0 -0.41918670132472818 0.12901439032808951 0 -0.40281515321082589 0.1256000679563154 0 -0.41918670132472818 0.12901439032808951 0 -0.43066376206712381 0.1332934689512176 0 -0.42808625596810118 0.14522220200369129 0 -0.43010994510705269 0.1231095695537998 0 -0.41918670132472818 0.12901439032808951 0 -0.43066376206712381 0.1332934689512176 0 -0.43010994510705269 0.1231095695537998 0 -0.43689285812780609 0.12614763336064519 0 -0.43066376206712381 0.1332934689512176 0 -0.44182628391051909 0.13367794701657831 0 -0.43689285812780609 0.12614763336064519 0 -0.43066376206712381 0.1332934689512176 0 -0.43066376206712381 0.1332934689512176 0 -0.4365924999045796 0.14238575007386339 0 -0.42808625596810118 0.14522220200369129 0 -0.44182628391051909 0.13367794701657831 0 -0.43066376206712381 0.1332934689512176 0 -0.4365924999045796 0.14238575007386339 0 -0.41918670132472818 0.12901439032808951 0 -0.42808625596810118 0.14522220200369129 0 -0.41928575255608619 0.15672383830725689 0 -0.4365924999045796 0.14238575007386339 0 -0.42808625596810118 0.14522220200369129 0 -0.43675619376457819 0.15288297657035449 0 -0.42808625596810118 0.14522220200369129 0 -0.42864118078900199 0.15645892100628961 0 -0.41928575255608619 0.15672383830725689 0 -0.42808625596810118 0.14522220200369129 0 -0.43675619376457819 0.15288297657035449 0 -0.42864118078900199 0.15645892100628961 0 -0.43675619376457819 0.15288297657035449 0 -0.43639240517518108 0.16309866252337321 0 -0.42864118078900199 0.15645892100628961 0 -0.44555294637186649 0.18088567833939029 0 -0.43639240517518108 0.16309866252337321 0 -0.42230616897368961 0.1634264730702866 0 -0.43639240517518108 0.16309866252337321 0 -0.42230616897368961 0.1634264730702866 0 -0.42864118078900199 0.15645892100628961 0 -0.42230616897368961 0.1634264730702866 0 -0.42864118078900199 0.15645892100628961 0 -0.41928575255608619 0.15672383830725689 0 -0.44555294637186649 0.18088567833939029 0 -0.42230616897368961 0.1634264730702866 0 -0.42093319497179732 0.17954477445026751 0 -0.44555294637186649 0.18088567833939029 0 -0.42956963719865637 0.19461408431637889 0 -0.42093319497179732 0.17954477445026751 0 -0.44555294637186649 0.18088567833939029 0 -0.42230616897368961 0.1634264730702866 0 -0.42093319497179732 0.17954477445026751 0 -0.40928719448745798 0.17887004778960031 0 -0.40759107173532089 0.16823978698688399 0 -0.41072992410537179 0.19051911262487459 0 -0.42093319497179732 0.17954477445026751 0 -0.40928719448745798 0.17887004778960031 0 -0.42230616897368961 0.1634264730702866 0 -0.40759107173532089 0.16823978698688399 0 -0.39905939157551312 0.1459672678011826 0 -0.42230616897368961 0.1634264730702866 0 -0.42093319497179732 0.17954477445026751 0 -0.40759107173532089 0.16823978698688399 0 -0.40759107173532089 0.16823978698688399 0 -0.39564452421424201 0.16448582481948071 0 -0.39905939157551312 0.1459672678011826 0 -0.40759107173532089 0.16823978698688399 0 -0.39564452421424201 0.16448582481948071 0 -0.39789458713734271 0.1771765170963748 0 -0.39564452421424201 0.16448582481948071 0 -0.39404269844270179 0.17317239994687589 0 -0.39789458713734271 0.1771765170963748 0 -0.39564452421424201 0.16448582481948071 0 -0.39789458713734271 0.1771765170963748 0 -0.39564452421424201 0.16448582481948071 0 -0.39404269844270179 0.17317239994687589 0 -0.40037697830718538 0.19117757552183701 0 -0.39789458713734271 0.1771765170963748 0 -0.41072992410537179 0.19051911262487459 0 -0.40928719448745798 0.17887004778960031 0 -0.39789458713734271 0.1771765170963748 0 -0.41072992410537179 0.19051911262487459 0 -0.39789458713734271 0.1771765170963748 0 -0.41072992410537179 0.19051911262487459 0 -0.40037697830718538 0.19117757552183701 0 -0.39789458713734271 0.1771765170963748 0 -0.40928719448745798 0.17887004778960031 0 -0.40759107173532089 0.16823978698688399 0 -0.39789458713734271 0.1771765170963748 0 -0.39404269844270179 0.17317239994687589 0 -0.39789458713734271 0.1771765170963748 0 -0.39160711009559568 0.18638040392106789 0 -0.39404269844270179 0.17317239994687589 0 -0.39789458713734271 0.1771765170963748 0 -0.40037697830718538 0.19117757552183701 0 -0.39789458713734271 0.1771765170963748 0 -0.39160711009559568 0.18638040392106789 0 -0.39404269844270179 0.17317239994687589 0 -0.39160711009559568 0.18638040392106789 0 -0.39404269844270179 0.17317239994687589 0 -0.39160711009559568 0.18638040392106789 0 -0.37304750855702901 0.17622818825778211 0 -0.37975518887972293 0.1920491471638649 0 -0.39160711009559568 0.18638040392106789 0 -0.37304750855702901 0.17622818825778211 0 -0.39160711009559568 0.18638040392106789 0 -0.37304750855702901 0.17622818825778211 0 -0.39404269844270179 0.17317239994687589 0 -0.3769838370145453 0.15543936428293989 0 -0.37304750855702901 0.17622818825778211 0 -0.39564452421424201 0.16448582481948071 0 -0.39404269844270179 0.17317239994687589 0 -0.3769838370145453 0.15543936428293989 0 -0.39404269844270179 0.17317239994687589 0 -0.3769838370145453 0.15543936428293989 0 -0.3769838370145453 0.15543936428293989 0 -0.39133223810544032 0.14016388455071879 0 -0.38053137272319187 0.13205202790225989 0 -0.39564452421424201 0.16448582481948071 0 -0.3769838370145453 0.15543936428293989 0 -0.39133223810544032 0.14016388455071879 0 -0.39564452421424201 0.16448582481948071 0 -0.39133223810544032 0.14016388455071879 0 -0.39564452421424201 0.16448582481948071 0 -0.39905939157551312 0.1459672678011826 0 -0.39564452421424201 0.16448582481948071 0 -0.39905939157551312 0.1459672678011826 0 -0.39133223810544032 0.14016388455071879 0 -0.39905939157551312 0.1459672678011826 0 -0.39133223810544032 0.14016388455071879 0 -0.41008674966678837 0.1393263910982111 0 -0.39905939157551312 0.1459672678011826 0 -0.40281515321082589 0.1256000679563154 0 -0.39905939157551312 0.1459672678011826 0 -0.40281515321082589 0.1256000679563154 0 -0.39905939157551312 0.1459672678011826 0 -0.40281515321082589 0.1256000679563154 0 -0.39133223810544032 0.14016388455071879 0 -0.38646812399680042 0.1127295516178168 0 -0.40281515321082589 0.1256000679563154 0 -0.39133223810544032 0.14016388455071879 0 -0.38646812399680042 0.1127295516178168 0 -0.39133223810544032 0.14016388455071879 0 -0.38053137272319187 0.13205202790225989 0 -0.38646812399680042 0.1127295516178168 0 -0.39133223810544032 0.14016388455071879 0 -0.39133223810544032 0.14016388455071879 0 -0.38053137272319187 0.13205202790225989 0 -0.38053137272319187 0.13205202790225989 0 -0.35992497558638531 0.13770632861900761 0 -0.35893294113859819 0.12299790454077671 0 -0.35992497558638531 0.13770632861900761 0 -0.3476098717528246 0.13925514821425211 0 -0.35893294113859819 0.12299790454077671 0 -0.3476098717528246 0.13925514821425211 0 -0.33139775828039592 0.13326625746373691 0 -0.35893294113859819 0.12299790454077671 0 -0.33139775828039592 0.13326625746373691 0 -0.35893294113859819 0.12299790454077671 0 -0.35992497558638531 0.13770632861900761 0 -0.35004920584469568 0.14998824426259769 0 -0.3630804176151915 0.156881213726108 0 -0.3476098717528246 0.13925514821425211 0 -0.35004920584469568 0.14998824426259769 0 -0.33838508353887031 0.1479800402766803 0 -0.35992497558638531 0.13770632861900761 0 -0.3476098717528246 0.13925514821425211 0 -0.35004920584469568 0.14998824426259769 0 -0.35004920584469568 0.14998824426259769 0 -0.3630804176151915 0.156881213726108 0 -0.35135553037002099 0.15879114913029191 0 -0.3769838370145453 0.15543936428293989 0 -0.35992497558638531 0.13770632861900761 0 -0.3769838370145453 0.15543936428293989 0 -0.38053137272319187 0.13205202790225989 0 -0.35992497558638531 0.13770632861900761 0 -0.3769838370145453 0.15543936428293989 0 -0.35992497558638531 0.13770632861900761 0 -0.3630804176151915 0.156881213726108 0 -0.37304750855702901 0.17622818825778211 0 -0.3544879070184585 0.16607597259450299 0 -0.3630804176151915 0.156881213726108 0 -0.37304750855702901 0.17622818825778211 0 -0.3544879070184585 0.16607597259450299 0 -0.3769838370145453 0.15543936428293989 0 -0.3630804176151915 0.156881213726108 0 -0.37304750855702901 0.17622818825778211 0 -0.37975518887972293 0.1920491471638649 0 -0.37304750855702901 0.17622818825778211 0 -0.36835592130087069 0.19290030483377951 0 -0.37304750855702901 0.17622818825778211 0 -0.36075310353810203 0.17995360094167101 0 -0.3544879070184585 0.16607597259450299 0 -0.37304750855702901 0.17622818825778211 0 -0.36075310353810203 0.17995360094167101 0 -0.36835592130087069 0.19290030483377951 0 -0.36075310353810203 0.17995360094167101 0 -0.35069393037041657 0.17196334877936639 0 -0.35053445214227957 0.18773885996660819 0 -0.35069393037041657 0.17196334877936639 0 -0.35053445214227957 0.18773885996660819 0 -0.35069393037041657 0.17196334877936639 0 -0.33967165835226781 0.17974048382078031 0 -0.35053445214227957 0.18773885996660819 0 -0.36075310353810203 0.17995360094167101 0 -0.35069393037041657 0.17196334877936639 0 -0.3544879070184585 0.16607597259450299 0 -0.35069393037041657 0.17196334877936639 0 -0.34182353278960848 0.17053324817353011 0 -0.33967165835226781 0.17974048382078031 0 -0.3630804176151915 0.156881213726108 0 -0.3544879070184585 0.16607597259450299 0 -0.35135553037002099 0.15879114913029191 0 -0.35069393037041657 0.17196334877936639 0 -0.34780795653470081 0.16595750268248349 0 -0.34182353278960848 0.17053324817353011 0 -0.35069393037041657 0.17196334877936639 0 -0.3544879070184585 0.16607597259450299 0 -0.34780795653470081 0.16595750268248349 0 -0.34780795653470081 0.16595750268248349 0 -0.35135553037002099 0.15879114913029191 0 -0.33989064737378272 0.16074895648008181 0 -0.35004920584469568 0.14998824426259769 0 -0.35135553037002099 0.15879114913029191 0 -0.33989064737378272 0.16074895648008181 0 -0.3544879070184585 0.16607597259450299 0 -0.34780795653470081 0.16595750268248349 0 -0.35135553037002099 0.15879114913029191 0 -0.33989064737378272 0.16074895648008181 0 -0.32947700181444212 0.1709062725956495 0 -0.32297793444265288 0.15664159496273289 0 -0.34780795653470081 0.16595750268248349 0 -0.33989064737378272 0.16074895648008181 0 -0.34182353278960848 0.17053324817353011 0 -0.33989064737378272 0.16074895648008181 0 -0.34182353278960848 0.17053324817353011 0 -0.32947700181444212 0.1709062725956495 0 -0.33967165835226781 0.17974048382078031 0 -0.35053445214227957 0.18773885996660819 0 -0.33423481439656982 0.1948874671554835 0 -0.34182353278960848 0.17053324817353011 0 -0.32947700181444212 0.1709062725956495 0 -0.33967165835226781 0.17974048382078031 0 -0.32947700181444212 0.1709062725956495 0 -0.33967165835226781 0.17974048382078031 0 -0.33036953236056898 0.18294869668225769 0 -0.33967165835226781 0.17974048382078031 0 -0.33036953236056898 0.18294869668225769 0 -0.33423481439656982 0.1948874671554835 0 -0.32947700181444212 0.1709062725956495 0 -0.33036953236056898 0.18294869668225769 0 -0.31809465487899619 0.18626056315711739 0 -0.32947700181444212 0.1709062725956495 0 -0.31809465487899619 0.18626056315711739 0 -0.32947700181444212 0.1709062725956495 0 -0.31481514568442859 0.17585930971539779 0 -0.31809465487899619 0.18626056315711739 0 -0.31481514568442859 0.17585930971539779 0 -0.32297793444265288 0.15664159496273289 0 -0.30370960770145378 0.16545653538897859 0 -0.32947700181444212 0.1709062725956495 0 -0.31481514568442859 0.17585930971539779 0 -0.32297793444265288 0.15664159496273289 0 -0.32297793444265288 0.15664159496273289 0 -0.33139775828039592 0.13326625746373691 0 -0.3038625754221938 0.14353461038669699 0 -0.33139775828039592 0.13326625746373691 0 -0.3038625754221938 0.14353461038669699 0 -0.33139775828039592 0.13326625746373691 0 -0.3038625754221938 0.14353461038669699 0 -0.31287988719591181 0.11965209392468271 0 -0.3476098717528246 0.13925514821425211 0 -0.33139775828039592 0.13326625746373691 0 -0.33838508353887031 0.1479800402766803 0 -0.32297793444265288 0.15664159496273289 0 -0.33139775828039592 0.13326625746373691 0 -0.33838508353887031 0.1479800402766803 0 -0.33989064737378272 0.16074895648008181 0 -0.32297793444265288 0.15664159496273289 0 -0.33838508353887031 0.1479800402766803 0 -0.35004920584469568 0.14998824426259769 0 -0.33989064737378272 0.16074895648008181 0 -0.33838508353887031 0.1479800402766803 0 -0.35012283822171397 0.2284555150521588 0 -0.33788826208597628 0.23607468144311461 0 -0.34989489909296101 0.25100314627216369 0 -0.35734042182420028 0.23598597314557951 0 -0.35012283822171397 0.2284555150521588 0 -0.34989489909296101 0.25100314627216369 0 -0.35012283822171397 0.2284555150521588 0 -0.34989489909296101 0.25100314627216369 0 -0.35845360129371379 0.2450999366119414 0 -0.34989489909296101 0.25100314627216369 0 -0.36336612378465621 0.25358064875581338 0 -0.35734042182420028 0.23598597314557951 0 -0.35845360129371379 0.2450999366119414 0 -0.34989489909296101 0.25100314627216369 0 -0.37078201995590132 0.24581343246118609 0 -0.36411667010408361 0.241206173559291 0 -0.36336612378465621 0.25358064875581338 0 -0.35845360129371379 0.2450999366119414 0 -0.36411667010408361 0.241206173559291 0 -0.36336612378465621 0.25358064875581338 0 -0.37078201995590132 0.24581343246118609 0 -0.37157334738145698 0.2358788921940386 0 -0.36411667010408361 0.241206173559291 0 -0.37669790113006468 0.24100998145162181 0 -0.37078201995590132 0.24581343246118609 0 -0.37157334738145698 0.2358788921940386 0 -0.37669790113006468 0.24100998145162181 0 -0.37629831393202401 0.23638846909382299 0 -0.37157334738145698 0.2358788921940386 0 -0.35734042182420028 0.23598597314557951 0 -0.35845360129371379 0.2450999366119414 0 -0.36411667010408361 0.241206173559291 0 -0.37157334738145698 0.2358788921940386 0 -0.36411667010408361 0.241206173559291 0 -0.36508783138926498 0.23290739955470441 0 -0.35734042182420028 0.23598597314557951 0 -0.36411667010408361 0.241206173559291 0 -0.36508783138926498 0.23290739955470441 0 -0.38503169470496418 0.22203836423053169 0 -0.37040556869753138 0.22524089717934381 0 -0.3685569663477633 0.2132326334209026 0 -0.36508783138926498 0.23290739955470441 0 -0.37040556869753138 0.22524089717934381 0 -0.35636669084346478 0.21724366782321769 0 -0.35734042182420028 0.23598597314557951 0 -0.36508783138926498 0.23290739955470441 0 -0.35636669084346478 0.21724366782321769 0 -0.3777163753321473 0.23171787584784331 0 -0.37157334738145698 0.2358788921940386 0 -0.37040556869753138 0.22524089717934381 0 -0.37157334738145698 0.2358788921940386 0 -0.36508783138926498 0.23290739955470441 0 -0.37040556869753138 0.22524089717934381 0 -0.35734042182420028 0.23598597314557951 0 -0.35012283822171397 0.2284555150521588 0 -0.35636669084346478 0.21724366782321769 0 -0.35012283822171397 0.2284555150521588 0 -0.35035077735046821 0.2059078838321538 0 -0.33444721517097598 0.2195107786296106 0 -0.35012283822171397 0.2284555150521588 0 -0.35035077735046821 0.2059078838321538 0 -0.35208223799057509 0.20442690261124949 0 -0.35636669084346478 0.21724366782321769 0 -0.3685569663477633 0.2132326334209026 0 -0.35012283822171397 0.2284555150521588 0 -0.35035077735046821 0.2059078838321538 0 -0.35636669084346478 0.21724366782321769 0 -0.35035077735046821 0.2059078838321538 0 -0.35037497391414341 0.2035143711538499 0 -0.33941882644493931 0.2046004916123495 0 -0.35035077735046821 0.2059078838321538 0 -0.35208223799057509 0.20442690261124949 0 -0.35035077735046821 0.2059078838321538 0 -0.35037497391414341 0.2035143711538499 0 -0.35035077735046821 0.2059078838321538 0 -0.35037497391414341 0.2035143711538499 0 -0.35208223799057509 0.20442690261124949 0 -0.35037497391414341 0.2035143711538499 0 -0.35208223799057509 0.20442690261124949 0 -0.35035077735046821 0.2059078838321538 0 -0.35208223799057509 0.20442690261124949 0 -0.35636669084346478 0.21724366782321769 0 -0.35208223799057509 0.20442690261124949 0 -0.3685569663477633 0.2132326334209026 0 -0.35208223799057509 0.20442690261124949 0 -0.3685569663477633 0.2132326334209026 0 -0.36364265170829829 0.20356998014253219 0 -0.37040556869753138 0.22524089717934381 0 -0.35636669084346478 0.21724366782321769 0 -0.3685569663477633 0.2132326334209026 0 -0.37587744574151488 0.20316387018270499 0 -0.3685569663477633 0.2132326334209026 0 -0.36364265170829829 0.20356998014253219 0 -0.36364265170829829 0.20356998014253219 0 -0.36835592130087069 0.19290030483377951 0 -0.35774430759780101 0.1952476724779737 0 -0.37587744574151488 0.20316387018270499 0 -0.36364265170829829 0.20356998014253219 0 -0.36835592130087069 0.19290030483377951 0 -0.37975518887972293 0.1920491471638649 0 -0.37587744574151488 0.20316387018270499 0 -0.36835592130087069 0.19290030483377951 0 -0.36075310353810203 0.17995360094167101 0 -0.36835592130087069 0.19290030483377951 0 -0.35774430759780101 0.1952476724779737 0 -0.36075310353810203 0.17995360094167101 0 -0.35774430759780101 0.1952476724779737 0 -0.35053445214227957 0.18773885996660819 0 -0.35037497391414341 0.2035143711538499 0 -0.35774430759780101 0.1952476724779737 0 -0.35053445214227957 0.18773885996660819 0 -0.35037497391414341 0.2035143711538499 0 -0.35053445214227957 0.18773885996660819 0 -0.35037497391414341 0.2035143711538499 0 -0.35053445214227957 0.18773885996660819 0 -0.33423481439656982 0.1948874671554835 0 -0.35208223799057509 0.20442690261124949 0 -0.36364265170829829 0.20356998014253219 0 -0.35774430759780101 0.1952476724779737 0 -0.35037497391414341 0.2035143711538499 0 -0.35208223799057509 0.20442690261124949 0 -0.35774430759780101 0.1952476724779737 0 -0.35037497391414341 0.2035143711538499 0 -0.33423481439656982 0.1948874671554835 0 -0.33941882644493931 0.2046004916123495 0 -0.35037497391414341 0.2035143711538499 0 -0.33423481439656982 0.1948874671554835 0 -0.33423481439656982 0.1948874671554835 0 -0.32373853527697571 0.19920741288639141 0 -0.33941882644493931 0.2046004916123495 0 -0.31809465487899619 0.18626056315711739 0 -0.33423481439656982 0.1948874671554835 0 -0.31809465487899619 0.18626056315711739 0 -0.33423481439656982 0.1948874671554835 0 -0.32373853527697571 0.19920741288639141 0 -0.33036953236056898 0.18294869668225769 0 -0.31809465487899619 0.18626056315711739 0 -0.33423481439656982 0.1948874671554835 0 -0.31809465487899619 0.18626056315711739 0 -0.32373853527697571 0.19920741288639141 0 -0.3088410995731673 0.1987432064729508 0 -0.31809465487899619 0.18626056315711739 0 -0.3088410995731673 0.1987432064729508 0 -0.32373853527697571 0.19920741288639141 0 -0.31810328109120423 0.21154533603405451 0 -0.33941882644493931 0.2046004916123495 0 -0.32373853527697571 0.19920741288639141 0 -0.31810328109120423 0.21154533603405451 0 -0.3088410995731673 0.1987432064729508 0 -0.31810328109120423 0.21154533603405451 0 -0.3088410995731673 0.1987432064729508 0 -0.35035077735046821 0.2059078838321538 0 -0.33444721517097598 0.2195107786296106 0 -0.31810328109120423 0.21154533603405451 0 -0.33941882644493931 0.2046004916123495 0 -0.33444721517097598 0.2195107786296106 0 -0.35035077735046821 0.2059078838321538 0 -0.33941882644493931 0.2046004916123495 0 -0.33444721517097598 0.2195107786296106 0 -0.33444721517097598 0.2195107786296106 0 -0.3185436529914818 0.23311367342706479 0 -0.33788826208597628 0.23607468144311461 0 -0.35012283822171397 0.2284555150521588 0 -0.33444721517097598 0.2195107786296106 0 -0.33788826208597628 0.23607468144311461 0 -0.33444721517097598 0.2195107786296106 0 -0.3185436529914818 0.23311367342706479 0 -0.31810328109120423 0.21154533603405451 0 -0.33444721517097598 0.2195107786296106 0 -0.3185436529914818 0.23311367342706479 0 -0.3185436529914818 0.23311367342706479 0 -0.32714872946648349 0.25575788971183272 0 -0.3146771263887132 0.25412527527456191 0 -0.3185436529914818 0.23311367342706479 0 -0.34036057209867399 0.25017915505989352 0 -0.3185436529914818 0.23311367342706479 0 -0.34036057209867399 0.25017915505989352 0 -0.32714872946648349 0.25575788971183272 0 -0.3185436529914818 0.23311367342706479 0 -0.33788826208597628 0.23607468144311461 0 -0.34036057209867399 0.25017915505989352 0 -0.33788826208597628 0.23607468144311461 0 -0.34989489909296101 0.25100314627216369 0 -0.34036057209867399 0.25017915505989352 0 -0.30326642638636181 0.246180840641613 0 -0.2799566251425421 0.23770710518719329 0 -0.28798919978124021 0.25924800785615942 0 -0.3185436529914818 0.23311367342706479 0 -0.30326642638636181 0.246180840641613 0 -0.3146771263887132 0.25412527527456191 0 -0.3185436529914818 0.23311367342706479 0 -0.30326642638636181 0.246180840641613 0 -0.3185436529914818 0.23311367342706479 0 -0.30326642638636181 0.246180840641613 0 -0.29627475985911311 0.21569465175554889 0 -0.3185436529914818 0.23311367342706479 0 -0.29627475985911311 0.21569465175554889 0 -0.31810328109120423 0.21154533603405451 0 -0.3185436529914818 0.23311367342706479 0 -0.29627475985911311 0.21569465175554889 0 -0.29627475985911311 0.21569465175554889 0 -0.27425868031089251 0.21943239706333531 0 -0.2799566251425421 0.23770710518719329 0 -0.30326642638636181 0.246180840641613 0 -0.29627475985911311 0.21569465175554889 0 -0.2799566251425421 0.23770710518719329 0 -0.29627475985911311 0.21569465175554889 0 -0.2799566251425421 0.23770710518719329 0 -0.29627475985911311 0.21569465175554889 0 -0.28016036789301058 0.2030897620013819 0 -0.27425868031089251 0.21943239706333531 0 -0.29627475985911311 0.21569465175554889 0 -0.29234294579460979 0.1969618701408874 0 -0.28016036789301058 0.2030897620013819 0 -0.29627475985911311 0.21569465175554889 0 -0.28016036789301058 0.2030897620013819 0 -0.29627475985911311 0.21569465175554889 0 -0.3088410995731673 0.1987432064729508 0 -0.31810328109120423 0.21154533603405451 0 -0.29627475985911311 0.21569465175554889 0 -0.3088410995731673 0.1987432064729508 0 -0.29627475985911311 0.21569465175554889 0 -0.3088410995731673 0.1987432064729508 0 -0.29234294579460979 0.1969618701408874 0 -0.3088410995731673 0.1987432064729508 0 -0.29631493311766138 0.1814296172763834 0 -0.31809465487899619 0.18626056315711739 0 -0.3088410995731673 0.1987432064729508 0 -0.29631493311766138 0.1814296172763834 0 -0.3088410995731673 0.1987432064729508 0 -0.29234294579460979 0.1969618701408874 0 -0.29631493311766138 0.1814296172763834 0 -0.29234294579460979 0.1969618701408874 0 -0.27303497833899099 0.18843907771663229 0 -0.29631493311766138 0.1814296172763834 0 -0.29234294579460979 0.1969618701408874 0 -0.27303497833899099 0.18843907771663229 0 -0.28016036789301058 0.2030897620013819 0 -0.27303497833899099 0.18843907771663229 0 -0.28016036789301058 0.2030897620013819 0 -0.26438291228714172 0.2041431122599518 0 -0.27303497833899099 0.18843907771663229 0 -0.249755023560321 0.19544853815688309 0 -0.27303497833899099 0.18843907771663229 0 -0.26438291228714172 0.2041431122599518 0 -0.249755023560321 0.19544853815688309 0 -0.26438291228714172 0.2041431122599518 0 -0.2476151157830245 0.2135097841317026 0 -0.249755023560321 0.19544853815688309 0 -0.26438291228714172 0.2041431122599518 0 -0.2598900939039398 0.21943374432431739 0 -0.2476151157830245 0.2135097841317026 0 -0.28016036789301058 0.2030897620013819 0 -0.26438291228714172 0.2041431122599518 0 -0.27425868031089251 0.21943239706333531 0 -0.26438291228714172 0.2041431122599518 0 -0.27425868031089251 0.21943239706333531 0 -0.2598900939039398 0.21943374432431739 0 -0.27425868031089251 0.21943239706333531 0 -0.26418435545811059 0.23630805054698401 0 -0.2799566251425421 0.23770710518719329 0 -0.27425868031089251 0.21943239706333531 0 -0.2598900939039398 0.21943374432431739 0 -0.26418435545811059 0.23630805054698401 0 -0.2598900939039398 0.21943374432431739 0 -0.25025753539417261 0.23272492963053659 0 -0.26418435545811059 0.23630805054698401 0 -0.2598900939039398 0.21943374432431739 0 -0.25025753539417261 0.23272492963053659 0 -0.2476151157830245 0.2135097841317026 0 -0.26418435545811059 0.23630805054698401 0 -0.25541758599954478 0.24830747332655551 0 -0.2636384904259732 0.25971955861883939 0 -0.25025753539417261 0.23272492963053659 0 -0.26418435545811059 0.23630805054698401 0 -0.25541758599954478 0.24830747332655551 0 -0.2799566251425421 0.23770710518719329 0 -0.2636384904259732 0.25971955861883939 0 -0.26418435545811059 0.23630805054698401 0 -0.2799566251425421 0.23770710518719329 0 -0.2636384904259732 0.25971955861883939 0 -0.3038625754221938 0.14353461038669699 0 -0.27632739256399141 0.15380296330965629 0 -0.3038625754221938 0.14353461038669699 0 -0.27632739256399141 0.15380296330965629 0 -0.28096279708106148 0.1373815748561826 0 -0.3038625754221938 0.14353461038669699 0 -0.28632116284082743 0.16761629029301911 0 -0.27632739256399141 0.15380296330965629 0 -0.3038625754221938 0.14353461038669699 0 -0.28096279708106148 0.1373815748561826 0 -0.28781269428134681 0.1249592425916641 0 -0.3038625754221938 0.14353461038669699 0 -0.28781269428134681 0.1249592425916641 0 -0.31287988719591181 0.11965209392468271 0 -0.32297793444265288 0.15664159496273289 0 -0.3038625754221938 0.14353461038669699 0 -0.30370960770145378 0.16545653538897859 0 -0.3038625754221938 0.14353461038669699 0 -0.30370960770145378 0.16545653538897859 0 -0.28632116284082743 0.16761629029301911 0 -0.31481514568442859 0.17585930971539779 0 -0.30370960770145378 0.16545653538897859 0 -0.29631493311766138 0.1814296172763834 0 -0.31481514568442859 0.17585930971539779 0 -0.31809465487899619 0.18626056315711739 0 -0.29631493311766138 0.1814296172763834 0 -0.31481514568442859 0.17585930971539779 0 -0.29631493311766138 0.1814296172763834 0 -0.27303497833899099 0.18843907771663229 0 -0.29631493311766138 0.1814296172763834 0 -0.28632116284082743 0.16761629029301911 0 -0.27303497833899099 0.18843907771663229 0 -0.29631493311766138 0.1814296172763834 0 -0.29631493311766138 0.1814296172763834 0 -0.28632116284082743 0.16761629029301911 0 -0.30370960770145378 0.16545653538897859 0 -0.29631493311766138 0.1814296172763834 0 -0.28632116284082743 0.16761629029301911 0 -0.28632116284082743 0.16761629029301911 0 -0.27632739256399141 0.15380296330965629 0 -0.26751522277164402 0.17213574994254441 0 -0.25053511496792102 0.16342135627284449 0 -0.249755023560321 0.19544853815688309 0 -0.28632116284082743 0.16761629029301911 0 -0.26751522277164402 0.17213574994254441 0 -0.27632739256399141 0.15380296330965629 0 -0.27303497833899099 0.18843907771663229 0 -0.28632116284082743 0.16761629029301911 0 -0.26751522277164402 0.17213574994254441 0 -0.27303497833899099 0.18843907771663229 0 -0.26751522277164402 0.17213574994254441 0 -0.249755023560321 0.19544853815688309 0 -0.26751522277164402 0.17213574994254441 0 -0.25053511496792102 0.16342135627284449 0 -0.27632739256399141 0.15380296330965629 0 -0.25053511496792102 0.16342135627284449 0 -0.27632739256399141 0.15380296330965629 0 -0.25053511496792102 0.16342135627284449 0 -0.27632739256399141 0.15380296330965629 0 -0.26577858065787829 0.13922246124598731 0 -0.25053511496792102 0.16342135627284449 0 -0.26577858065787829 0.13922246124598731 0 -0.24579287854133169 0.14255149029060371 0 -0.27632739256399141 0.15380296330965629 0 -0.28096279708106148 0.1373815748561826 0 -0.26577858065787829 0.13922246124598731 0 -0.27632739256399141 0.15380296330965629 0 -0.26577858065787829 0.13922246124598731 0 -0.28096279708106148 0.1373815748561826 0 -0.26577858065787829 0.13922246124598731 0 -0.27169127658329101 0.1209891299246476 0 -0.28096279708106148 0.1373815748561826 0 -0.27169127658329101 0.1209891299246476 0 -0.28781269428134681 0.1249592425916641 0 -0.26577858065787829 0.13922246124598731 0 -0.25522976875176268 0.1246419591823202 0 -0.24579287854133169 0.14255149029060371 0 -0.26577858065787829 0.13922246124598731 0 -0.25522976875176268 0.1246419591823202 0 -0.26577858065787829 0.13922246124598731 0 -0.25522976875176268 0.1246419591823202 0 -0.27169127658329101 0.1209891299246476 0 -0.25522976875176268 0.1246419591823202 0 -0.26188637151409061 0.1032241870613356 0 -0.27169127658329101 0.1209891299246476 0 -0.25522976875176268 0.1246419591823202 0 -0.26188637151409061 0.1032241870613356 0 -0.24538069525023401 0.11002628242505789 0 -0.26188637151409061 0.1032241870613356 0 -0.27946210600648891 0.1023440126626841 0 -0.27249905516176892 0.08454279991324945 0 -0.26188637151409061 0.1032241870613356 0 -0.27946210600648891 0.1023440126626841 0 -0.27169127658329101 0.1209891299246476 0 -0.27946210600648891 0.1023440126626841 0 -0.27169127658329101 0.1209891299246476 0 -0.28781269428134681 0.1249592425916641 0 -0.27946210600648891 0.1023440126626841 0 -0.28781269428134681 0.1249592425916641 0 -0.2978123935533401 0.1080125314182447 0 -0.27946210600648891 0.1023440126626841 0 -0.2978123935533401 0.1080125314182447 0 -0.29585545606206132 0.093495897246520174 0 -0.2978123935533401 0.1080125314182447 0 -0.31239249524439888 0.099876283522818035 0 -0.29585545606206132 0.093495897246520174 0 -0.2978123935533401 0.1080125314182447 0 -0.31239249524439888 0.099876283522818035 0 -0.31287988719591181 0.11965209392468271 0 -0.28781269428134681 0.1249592425916641 0 -0.2978123935533401 0.1080125314182447 0 -0.31287988719591181 0.11965209392468271 0 -0.30653625631905229 0.080508276141624299 0 -0.29472339446238238 0.052562213778984693 0 -0.32339719743621342 0.06770659700594063 0 -0.31239249524439888 0.099876283522818035 0 -0.30653625631905229 0.080508276141624299 0 -0.29585545606206132 0.093495897246520174 0 -0.30653625631905229 0.080508276141624299 0 -0.29585545606206132 0.093495897246520174 0 -0.28709275023443559 0.077453113220834396 0 -0.27946210600648891 0.1023440126626841 0 -0.29585545606206132 0.093495897246520174 0 -0.28709275023443559 0.077453113220834396 0 -0.27946210600648891 0.1023440126626841 0 -0.28709275023443559 0.077453113220834396 0 -0.28709275023443559 0.077453113220834396 0 -0.27700210385642571 0.06074459946498955 0 -0.29472339446238238 0.052562213778984693 0 -0.30653625631905229 0.080508276141624299 0 -0.28709275023443559 0.077453113220834396 0 -0.29472339446238238 0.052562213778984693 0 -0.28709275023443559 0.077453113220834396 0 -0.29472339446238238 0.052562213778984693 0 -0.28709275023443559 0.077453113220834396 0 -0.27249905516176892 0.08454279991324945 0 -0.27700210385642571 0.06074459946498955 0 -0.27249905516176892 0.08454279991324945 0 -0.25705194419740379 0.078948087156403529 0 -0.27700210385642571 0.06074459946498955 0 -0.27946210600648891 0.1023440126626841 0 -0.28709275023443559 0.077453113220834396 0 -0.27249905516176892 0.08454279991324945 0 -0.26188637151409061 0.1032241870613356 0 -0.27249905516176892 0.08454279991324945 0 -0.25705194419740379 0.078948087156403529 0 -0.26188637151409061 0.1032241870613356 0 -0.25705194419740379 0.078948087156403529 0 -0.23785667181636741 0.093488795269061634 0 -0.25705194419740379 0.078948087156403529 0 -0.2583402395750603 0.055023550802444948 0 -0.2377951598790477 0.073523087065822029 0 -0.25705194419740379 0.078948087156403529 0 -0.2583402395750603 0.055023550802444948 0 -0.27700210385642571 0.06074459946498955 0 -0.2583402395750603 0.055023550802444948 0 -0.27700210385642571 0.06074459946498955 0 -0.27237897217998402 0.02895047227626546 0 -0.2583402395750603 0.055023550802444948 0 -0.27237897217998402 0.02895047227626546 0 -0.24959440881251921 0.034531036724415987 0 -0.26911410456075963 -0.001652876283316057 0 -0.24246841339286879 0.0059924289061955363 0 -0.26911410456075963 -0.001652876283316057 0 -0.27237897217998402 0.02895047227626546 0 -0.24246841339286879 0.0059924289061955363 0 -0.27237897217998402 0.02895047227626546 0 -0.24246841339286879 0.0059924289061955363 0 -0.24959440881251921 0.034531036724415987 0 -0.26911410456075963 -0.001652876283316057 0 -0.27237897217998402 0.02895047227626546 0 -0.28784125318407361 0.011192846177326479 0 -0.26911410456075963 -0.001652876283316057 0 -0.29575979572865052 -0.0092981814728276511 0 -0.28784125318407361 0.011192846177326479 0 -0.27237897217998402 0.02895047227626546 0 -0.28784125318407361 0.011192846177326479 0 -0.30235403869032912 0.02767131433713509 0 -0.28784125318407361 0.011192846177326479 0 -0.30235403869032912 0.02767131433713509 0 -0.31220577089506368 0.0041333438482760278 0 -0.29575979572865052 -0.0092981814728276511 0 -0.28784125318407361 0.011192846177326479 0 -0.31220577089506368 0.0041333438482760278 0 -0.27700210385642571 0.06074459946498955 0 -0.27237897217998402 0.02895047227626546 0 -0.29472339446238238 0.052562213778984693 0 -0.27237897217998402 0.02895047227626546 0 -0.30235403869032912 0.02767131433713509 0 -0.29472339446238238 0.052562213778984693 0 -0.30235403869032912 0.02767131433713509 0 -0.29472339446238238 0.052562213778984693 0 -0.30235403869032912 0.02767131433713509 0 -0.29472339446238238 0.052562213778984693 0 -0.32407074596383217 0.041794797620281071 0 -0.29472339446238238 0.052562213778984693 0 -0.32407074596383217 0.041794797620281071 0 -0.32339719743621342 0.06770659700594063 0 -0.32407074596383217 0.041794797620281071 0 -0.34053594616662658 0.055506660756184122 0 -0.34518493738004258 0.033599816580460212 0 -0.32407074596383217 0.041794797620281071 0 -0.34053594616662658 0.055506660756184122 0 -0.32339719743621342 0.06770659700594063 0 -0.30235403869032912 0.02767131433713509 0 -0.31220577089506368 0.0041333438482760278 0 -0.33296733866997158 0.01461668874912944 0 -0.33279398811117811 -0.0028726877305683051 0 -0.31220577089506368 0.0041333438482760278 0 -0.33296733866997158 0.01461668874912944 0 -0.30235403869032912 0.02767131433713509 0 -0.32407074596383217 0.041794797620281071 0 -0.33296733866997158 0.01461668874912944 0 -0.32407074596383217 0.041794797620281071 0 -0.33296733866997158 0.01461668874912944 0 -0.34518493738004258 0.033599816580460212 0 -0.35020533879899601 -0.001213408582668409 0 -0.33279398811117811 -0.0028726877305683051 0 -0.33296733866997158 0.01461668874912944 0 -0.33296733866997158 0.01461668874912944 0 -0.36583269033092619 0.0198574945162211 0 -0.34518493738004258 0.033599816580460212 0 -0.35020533879899601 -0.001213408582668409 0 -0.33296733866997158 0.01461668874912944 0 -0.36583269033092619 0.0198574945162211 0 -0.37234831300326821 -0.0087916223148991474 0 -0.36583269033092619 0.0198574945162211 0 -0.37234831300326821 -0.0087916223148991474 0 -0.35020533879899601 -0.001213408582668409 0 -0.36583269033092619 0.0198574945162211 0 -0.37234831300326821 -0.0087916223148991474 0 -0.3835113359701684 0.0039786733130582766 0 -0.36583269033092619 0.0198574945162211 0 -0.34053594616662658 0.055506660756184122 0 -0.35931706765858429 0.048506611347341362 0 -0.35280144498624227 0.077155728178461599 0 -0.36583269033092619 0.0198574945162211 0 -0.35931706765858429 0.048506611347341362 0 -0.34518493738004258 0.033599816580460212 0 -0.34053594616662658 0.055506660756184122 0 -0.35931706765858429 0.048506611347341362 0 -0.34518493738004258 0.033599816580460212 0 -0.38240450937626502 0.029914745057972311 0 -0.36583269033092619 0.0198574945162211 0 -0.35931706765858429 0.048506611347341362 0 -0.36583269033092619 0.0198574945162211 0 -0.35931706765858429 0.048506611347341362 0 -0.37757191483638303 0.068620722861141834 0 -0.35931706765858429 0.048506611347341362 0 -0.35280144498624227 0.077155728178461599 0 -0.35931706765858429 0.048506611347341362 0 -0.35280144498624227 0.077155728178461599 0 -0.35280144498624227 0.077155728178461599 0 -0.34628582231390043 0.1058048450095819 0 -0.35280144498624227 0.077155728178461599 0 -0.34628582231390043 0.1058048450095819 0 -0.33259793107682339 0.088251273775914019 0 -0.35280144498624227 0.077155728178461599 0 -0.36764374561981439 0.089797765061852802 0 -0.34628582231390043 0.1058048450095819 0 -0.37757191483638303 0.068620722861141834 0 -0.35280144498624227 0.077155728178461599 0 -0.36764374561981439 0.089797765061852802 0 -0.36764374561981439 0.089797765061852802 0 -0.36871044727512381 0.1062777808590276 0 -0.34628582231390043 0.1058048450095819 0 -0.38422160330650568 0.1000588380651099 0 -0.36764374561981439 0.089797765061852802 0 -0.36871044727512381 0.1062777808590276 0 -0.38646812399680042 0.1127295516178168 0 -0.35893294113859819 0.12299790454077671 0 -0.38646812399680042 0.1127295516178168 0 -0.36871044727512381 0.1062777808590276 0 -0.35893294113859819 0.12299790454077671 0 -0.36871044727512381 0.1062777808590276 0 -0.35893294113859819 0.12299790454077671 0 -0.34628582231390043 0.1058048450095819 0 -0.33139775828039592 0.13326625746373691 0 -0.35893294113859819 0.12299790454077671 0 -0.34628582231390043 0.1058048450095819 0 -0.34628582231390043 0.1058048450095819 0 -0.32711077882228612 0.10937015073934669 0 -0.33259793107682339 0.088251273775914019 0 -0.33139775828039592 0.13326625746373691 0 -0.34628582231390043 0.1058048450095819 0 -0.32711077882228612 0.10937015073934669 0 -0.33139775828039592 0.13326625746373691 0 -0.31287988719591181 0.11965209392468271 0 -0.32711077882228612 0.10937015073934669 0 -0.31239249524439888 0.099876283522818035 0 -0.31287988719591181 0.11965209392468271 0 -0.32711077882228612 0.10937015073934669 0 -0.31239249524439888 0.099876283522818035 0 -0.32711077882228612 0.10937015073934669 0 -0.33259793107682339 0.088251273775914019 0 -0.31239249524439888 0.099876283522818035 0 -0.30653625631905229 0.080508276141624299 0 -0.33259793107682339 0.088251273775914019 0 -0.30653625631905229 0.080508276141624299 0 -0.32339719743621342 0.06770659700594063 0 -0.33259793107682339 0.088251273775914019 0 -0.34053594616662658 0.055506660756184122 0 -0.35280144498624227 0.077155728178461599 0 -0.32339719743621342 0.06770659700594063 0 -0.35280144498624227 0.077155728178461599 0 -0.32339719743621342 0.06770659700594063 0 -0.33259793107682339 0.088251273775914019 0 -0.39828069678528571 0.4706079374869741 0 -0.40501336456917142 0.48224734707830352 0 -0.38910086235208419 0.48421988731752902 0 -0.39828069678528571 0.4706079374869741 0 -0.38910086235208419 0.48421988731752902 0 -0.38476522884820918 0.47261297031105298 0 -0.3982967521651648 0.49500498310034341 0 -0.38484983308279591 0.5 0 -0.38910086235208419 0.48421988731752902 0 -0.3982967521651648 0.49500498310034341 0 -0.38484983308279591 0.5 0 -0.4103873061677602 0.5 0 -0.38910086235208419 0.48421988731752902 0 -0.40884900705801902 0.49580004508384451 0 -0.40501336456917142 0.48224734707830352 0 -0.38910086235208419 0.48421988731752902 0 -0.40884900705801902 0.49580004508384451 0 -0.3982967521651648 0.49500498310034341 0 -0.38910086235208419 0.48421988731752902 0 -0.40884900705801902 0.49580004508384451 0 -0.3982967521651648 0.49500498310034341 0 -0.40884900705801902 0.49580004508384451 0 -0.4103873061677602 0.5 0 -0.38484983308279591 0.5 0 -0.38910086235208419 0.48421988731752902 0 -0.37401948013283348 0.49006754973603561 0 -0.38910086235208419 0.48421988731752902 0 -0.37440925376156559 0.48330126246033778 0 -0.37401948013283348 0.49006754973603561 0 -0.38910086235208419 0.48421988731752902 0 -0.3698126641665343 0.47460123811809918 0 -0.37440925376156559 0.48330126246033778 0 -0.38910086235208419 0.48421988731752902 0 -0.36935271764615102 0.47263972955121092 0 -0.38910086235208419 0.48421988731752902 0 -0.38476522884820918 0.47261297031105298 0 -0.36935271764615102 0.47263972955121092 0 -0.38910086235208419 0.48421988731752902 0 -0.3698126641665343 0.47460123811809918 0 -0.36935271764615102 0.47263972955121092 0 -0.39828069678528571 0.4706079374869741 0 -0.38476522884820918 0.47261297031105298 0 -0.38731134310245868 0.46380596189005913 0 -0.38476522884820918 0.47261297031105298 0 -0.37834873548077258 0.46767211073475068 0 -0.36935271764615102 0.47263972955121092 0 -0.37834873548077258 0.46767211073475068 0 -0.37574930311598798 0.45840260136003491 0 -0.38731134310245868 0.46380596189005913 0 -0.37574930311598798 0.45840260136003491 0 -0.38731134310245868 0.46380596189005913 0 -0.38941621130493259 0.45006527832757132 0 -0.38731134310245868 0.46380596189005913 0 -0.38941621130493259 0.45006527832757132 0 -0.39496404878789498 0.45943735894707888 0 -0.38476522884820918 0.47261297031105298 0 -0.37834873548077258 0.46767211073475068 0 -0.38731134310245868 0.46380596189005913 0 -0.37771733629218529 0.44462342228227159 0 -0.38941621130493259 0.45006527832757132 0 -0.38820029760289948 0.43263361939958178 0 -0.37574930311598798 0.45840260136003491 0 -0.37771733629218529 0.44462342228227159 0 -0.38941621130493259 0.45006527832757132 0 -0.38941621130493259 0.45006527832757132 0 -0.40492140984324732 0.45584551302715498 0 -0.38820029760289948 0.43263361939958178 0 -0.40492140984324732 0.45584551302715498 0 -0.38820029760289948 0.43263361939958178 0 -0.40492140984324732 0.45584551302715498 0 -0.40305780089605492 0.43546253415985248 0 -0.38820029760289948 0.43263361939958178 0 -0.39828069678528571 0.4706079374869741 0 -0.40492140984324732 0.45584551302715498 0 -0.41551584539049652 0.47475236147610161 0 -0.39828069678528571 0.4706079374869741 0 -0.38731134310245868 0.46380596189005913 0 -0.39496404878789498 0.45943735894707888 0 -0.38941621130493259 0.45006527832757132 0 -0.39496404878789498 0.45943735894707888 0 -0.40492140984324732 0.45584551302715498 0 -0.39828069678528571 0.4706079374869741 0 -0.39496404878789498 0.45943735894707888 0 -0.40492140984324732 0.45584551302715498 0 -0.40492140984324732 0.45584551302715498 0 -0.41163559720621801 0.44791924212336931 0 -0.41551584539049652 0.47475236147610161 0 -0.41163559720621801 0.44791924212336931 0 -0.41551584539049652 0.47475236147610161 0 -0.41163559720621801 0.44791924212336931 0 -0.42977858162172777 0.45899276003394579 0 -0.41551584539049652 0.47475236147610161 0 -0.40492140984324732 0.45584551302715498 0 -0.41163559720621801 0.44791924212336931 0 -0.40305780089605492 0.43546253415985248 0 -0.41163559720621801 0.44791924212336931 0 -0.42636890051550058 0.44635810553037292 0 -0.42445280966069721 0.43362407249031992 0 -0.42636890051550058 0.44635810553037292 0 -0.42977858162172777 0.45899276003394579 0 -0.44319469397070488 0.44250644413690943 0 -0.41163559720621801 0.44791924212336931 0 -0.42636890051550058 0.44635810553037292 0 -0.42977858162172777 0.45899276003394579 0 -0.42636890051550058 0.44635810553037292 0 -0.44319469397070488 0.44250644413690943 0 -0.42445280966069721 0.43362407249031992 0 -0.43578510626710698 0.47954231669161068 0 -0.41551584539049652 0.47475236147610161 0 -0.41996374256601299 0.48932520454643758 0 -0.42977858162172777 0.45899276003394579 0 -0.43578510626710698 0.47954231669161068 0 -0.41551584539049652 0.47475236147610161 0 -0.39828069678528571 0.4706079374869741 0 -0.40501336456917142 0.48224734707830352 0 -0.41551584539049652 0.47475236147610161 0 -0.41551584539049652 0.47475236147610161 0 -0.41233548989592489 0.48553123954617178 0 -0.41996374256601299 0.48932520454643758 0 -0.40501336456917142 0.48224734707830352 0 -0.41551584539049652 0.47475236147610161 0 -0.41233548989592489 0.48553123954617178 0 -0.40884900705801902 0.49580004508384451 0 -0.4103873061677602 0.5 0 -0.41996374256601299 0.48932520454643758 0 -0.40884900705801902 0.49580004508384451 0 -0.41233548989592489 0.48553123954617178 0 -0.41996374256601299 0.48932520454643758 0 -0.40501336456917142 0.48224734707830352 0 -0.40884900705801902 0.49580004508384451 0 -0.41233548989592489 0.48553123954617178 0 -0.4103873061677602 0.5 0 -0.41996374256601299 0.48932520454643758 0 -0.43592477925272438 0.5 0 -0.43578510626710698 0.47954231669161068 0 -0.41996374256601299 0.48932520454643758 0 -0.43592477925272438 0.5 0 -0.43592477925272438 0.5 0 -0.45874574109545468 0.48887150955139658 0 -0.46146225233768878 0.5 0 -0.43578510626710698 0.47954231669161068 0 -0.43592477925272438 0.5 0 -0.45874574109545468 0.48887150955139658 0 -0.43578510626710698 0.47954231669161068 0 -0.45874574109545468 0.48887150955139658 0 -0.45097021753307981 0.465688976844153 0 -0.46844314882074389 0.46966576299919077 0 -0.46761487102348032 0.48045002514015778 0 -0.45097021753307981 0.465688976844153 0 -0.45874574109545468 0.48887150955139658 0 -0.45097021753307981 0.465688976844153 0 -0.46761487102348032 0.48045002514015778 0 -0.45874574109545468 0.48887150955139658 0 -0.45097021753307981 0.465688976844153 0 -0.46761487102348032 0.48045002514015778 0 -0.45874574109545468 0.48887150955139658 0 -0.47423098888017101 0.49098729667541807 0 -0.45874574109545468 0.48887150955139658 0 -0.46146225233768878 0.5 0 -0.47423098888017101 0.49098729667541807 0 -0.48498333663732007 0.47462556797065242 0 -0.5 0.5 0 -0.5 0.44299242297310659 0 -0.46146225233768878 0.5 0 -0.47423098888017101 0.49098729667541807 0 -0.48699972542265302 0.50000000000000089 0 -0.47423098888017101 0.49098729667541807 0 -0.48498333663732007 0.47462556797065242 0 -0.48699972542265302 0.50000000000000089 0 -0.46761487102348032 0.48045002514015778 0 -0.47423098888017101 0.49098729667541807 0 -0.48498333663732007 0.47462556797065242 0 -0.46844314882074389 0.46966576299919077 0 -0.46761487102348032 0.48045002514015778 0 -0.48498333663732007 0.47462556797065242 0 -0.48498333663732007 0.47462556797065242 0 -0.48699972542265302 0.50000000000000089 0 -0.48498333663732007 0.47462556797065242 0 -0.5 0.5 0 -0.48699972542265302 0.50000000000000089 0 -0.48498333663732007 0.47462556797065242 0 -0.5 0.44299242297310659 0 -0.48296694785198718 0.44925113594130378 0 -0.5 0.44299242297310659 0 -0.48296694785198718 0.44925113594130378 0 -0.47570757823494669 0.43061368821580348 0 -0.48498333663732007 0.47462556797065242 0 -0.48296694785198718 0.44925113594130378 0 -0.46844314882074389 0.46966576299919077 0 -0.48498333663732007 0.47462556797065242 0 -0.48296694785198718 0.44925113594130378 0 -0.46844314882074389 0.46966576299919077 0 -0.48296694785198718 0.44925113594130378 0 -0.46194143314993152 0.44106151223116569 0 -0.48296694785198718 0.44925113594130378 0 -0.46194143314993152 0.44106151223116569 0 -0.47570757823494669 0.43061368821580348 0 -0.46844314882074389 0.46966576299919077 0 -0.46194143314993152 0.44106151223116569 0 -0.45097021753307981 0.465688976844153 0 -0.46844314882074389 0.46966576299919077 0 -0.46194143314993152 0.44106151223116569 0 -0.42977858162172777 0.45899276003394579 0 -0.43578510626710698 0.47954231669161068 0 -0.45097021753307981 0.465688976844153 0 -0.45097021753307981 0.465688976844153 0 -0.44319469397070488 0.44250644413690943 0 -0.42977858162172777 0.45899276003394579 0 -0.45097021753307981 0.465688976844153 0 -0.44319469397070488 0.44250644413690943 0 -0.46194143314993152 0.44106151223116569 0 -0.45097021753307981 0.465688976844153 0 -0.44319469397070488 0.44250644413690943 0 -0.46194143314993152 0.44106151223116569 0 -0.44319469397070488 0.44250644413690943 0 -0.44899875375202142 0.42883728231522039 0 -0.44319469397070488 0.44250644413690943 0 -0.44899875375202142 0.42883728231522039 0 -0.43541917040832989 0.4193239114296658 0 -0.44319469397070488 0.44250644413690943 0 -0.43541917040832989 0.4193239114296658 0 -0.45543971747911899 0.41245726146314071 0 -0.44291247330363948 0.40033925917204471 0 -0.43541917040832989 0.4193239114296658 0 -0.44899875375202142 0.42883728231522039 0 -0.45543971747911899 0.41245726146314071 0 -0.43541917040832989 0.4193239114296658 0 -0.45543971747911899 0.41245726146314071 0 -0.46691833734817112 0.42334957203933582 0 -0.47458462052868727 0.40926582624723312 0 -0.46194143314993152 0.44106151223116569 0 -0.45543971747911899 0.41245726146314071 0 -0.46194143314993152 0.44106151223116569 0 -0.46691833734817112 0.42334957203933582 0 -0.47570757823494669 0.43061368821580348 0 -0.46194143314993152 0.44106151223116569 0 -0.45543971747911899 0.41245726146314071 0 -0.46691833734817112 0.42334957203933582 0 -0.46194143314993152 0.44106151223116569 0 -0.44899875375202142 0.42883728231522039 0 -0.45543971747911899 0.41245726146314071 0 -0.5 0.44299242297310659 0 -0.48649999594636828 0.41934251027245512 0 -0.5 0.40089270601441263 0 -0.46691833734817112 0.42334957203933582 0 -0.47570757823494669 0.43061368821580348 0 -0.47458462052868727 0.40926582624723312 0 -0.47570757823494669 0.43061368821580348 0 -0.47458462052868727 0.40926582624723312 0 -0.47570757823494669 0.43061368821580348 0 -0.47458462052868727 0.40926582624723312 0 -0.48649999594636828 0.41934251027245512 0 -0.47458462052868727 0.40926582624723312 0 -0.48649999594636828 0.41934251027245512 0 -0.48508244389942812 0.40187621141134477 0 -0.48649999594636828 0.41934251027245512 0 -0.5 0.40089270601441263 0 -0.48508244389942812 0.40187621141134477 0 -0.5 0.44299242297310659 0 -0.47570757823494669 0.43061368821580348 0 -0.48649999594636828 0.41934251027245512 0 -0.48741743793152348 0.38520302155702613 0 -0.5 0.40089270601441263 0 -0.50000000000000033 0.36979998871513903 0 -0.48741743793152348 0.38520302155702613 0 -0.5 0.40089270601441263 0 -0.48508244389942812 0.40187621141134477 0 -0.47458462052868727 0.40926582624723312 0 -0.47346166282242941 0.38791796427866249 0 -0.46274982547022703 0.39572473348500481 0 -0.48741743793152348 0.38520302155702613 0 -0.48508244389942812 0.40187621141134477 0 -0.47691016509056089 0.39467699296559677 0 -0.47458462052868727 0.40926582624723312 0 -0.47346166282242941 0.38791796427866249 0 -0.47458462052868727 0.40926582624723312 0 -0.47691016509056089 0.39467699296559677 0 -0.47346166282242941 0.38791796427866249 0 -0.47458462052868727 0.40926582624723312 0 -0.48508244389942812 0.40187621141134477 0 -0.47691016509056089 0.39467699296559677 0 -0.47691016509056089 0.39467699296559677 0 -0.47346166282242941 0.38791796427866249 0 -0.47346166282242941 0.38791796427866249 0 -0.47213812155023283 0.36275693084789168 0 -0.48741743793152348 0.38520302155702613 0 -0.47346166282242941 0.38791796427866249 0 -0.47213812155023283 0.36275693084789168 0 -0.48741743793152348 0.38520302155702613 0 -0.47691016509056089 0.39467699296559677 0 -0.47346166282242941 0.38791796427866249 0 -0.47346166282242941 0.38791796427866249 0 -0.46619057819478549 0.37366671380463229 0 -0.47346166282242941 0.38791796427866249 0 -0.46102369098690682 0.38324974476157952 0 -0.46619057819478549 0.37366671380463229 0 -0.47346166282242941 0.38791796427866249 0 -0.46102369098690682 0.38324974476157952 0 -0.46274982547022703 0.39572473348500481 0 -0.46102369098690682 0.38324974476157952 0 -0.46274982547022703 0.39572473348500481 0 -0.44893800180830662 0.38385301069511552 0 -0.46102369098690682 0.38324974476157952 0 -0.44893800180830662 0.38385301069511552 0 -0.4555016101389267 0.37108673850380403 0 -0.46102369098690682 0.38324974476157952 0 -0.4555016101389267 0.37108673850380403 0 -0.46619057819478549 0.37366671380463229 0 -0.45543971747911899 0.41245726146314071 0 -0.47458462052868727 0.40926582624723312 0 -0.46274982547022703 0.39572473348500481 0 -0.45543971747911899 0.41245726146314071 0 -0.46274982547022703 0.39572473348500481 0 -0.44893800180830662 0.38385301069511552 0 -0.43847174729134297 0.39089403088048102 0 -0.44291247330363948 0.40033925917204471 0 -0.44893800180830662 0.38385301069511552 0 -0.45543971747911899 0.41245726146314071 0 -0.44893800180830662 0.38385301069511552 0 -0.45543971747911899 0.41245726146314071 0 -0.44291247330363948 0.40033925917204471 0 -0.44893800180830662 0.38385301069511552 0 -0.43847174729134297 0.39089403088048102 0 -0.44893800180830662 0.38385301069511552 0 -0.43439286720747078 0.38324247493234148 0 -0.44893800180830662 0.38385301069511552 0 -0.43439286720747078 0.38324247493234148 0 -0.43707286105705451 0.36966267102709849 0 -0.43439286720747078 0.38324247493234148 0 -0.42599047513377791 0.37749749513149261 0 -0.43707286105705451 0.36966267102709849 0 -0.43847174729134297 0.39089403088048102 0 -0.43439286720747078 0.38324247493234148 0 -0.42764364684595502 0.39614137872242222 0 -0.43439286720747078 0.38324247493234148 0 -0.42088334197633342 0.38866708759163038 0 -0.42764364684595502 0.39614137872242222 0 -0.43439286720747078 0.38324247493234148 0 -0.42599047513377791 0.37749749513149261 0 -0.42088334197633342 0.38866708759163038 0 -0.42599047513377791 0.37749749513149261 0 -0.41410107475487118 0.3796638319587235 0 -0.42088334197633342 0.38866708759163038 0 -0.41410107475487118 0.3796638319587235 0 -0.40135499975577532 0.37682572302249723 0 -0.40387510083766093 0.39425300341790509 0 -0.41410107475487118 0.3796638319587235 0 -0.42088334197633342 0.38866708759163038 0 -0.40387510083766093 0.39425300341790509 0 -0.41410107475487118 0.3796638319587235 0 -0.42088334197633342 0.38866708759163038 0 -0.41410107475487118 0.3796638319587235 0 -0.40387510083766093 0.39425300341790509 0 -0.42088334197633342 0.38866708759163038 0 -0.41799834781121581 0.39734656931901252 0 -0.40387510083766093 0.39425300341790509 0 -0.42764364684595502 0.39614137872242222 0 -0.42202869916830132 0.41530706063830458 0 -0.41487251990458451 0.40635981777847741 0 -0.41799834781121581 0.39734656931901252 0 -0.41487251990458451 0.40635981777847741 0 -0.40387510083766093 0.39425300341790509 0 -0.41799834781121581 0.39734656931901252 0 -0.42764364684595502 0.39614137872242222 0 -0.41487251990458451 0.40635981777847741 0 -0.44291247330363948 0.40033925917204471 0 -0.42764364684595502 0.39614137872242222 0 -0.43541917040832989 0.4193239114296658 0 -0.42088334197633342 0.38866708759163038 0 -0.41799834781121581 0.39734656931901252 0 -0.42764364684595502 0.39614137872242222 0 -0.43847174729134297 0.39089403088048102 0 -0.44291247330363948 0.40033925917204471 0 -0.42764364684595502 0.39614137872242222 0 -0.42764364684595502 0.39614137872242222 0 -0.43541917040832989 0.4193239114296658 0 -0.42202869916830132 0.41530706063830458 0 -0.42764364684595502 0.39614137872242222 0 -0.43541917040832989 0.4193239114296658 0 -0.44319469397070488 0.44250644413690943 0 -0.43541917040832989 0.4193239114296658 0 -0.42445280966069721 0.43362407249031992 0 -0.43541917040832989 0.4193239114296658 0 -0.42202869916830132 0.41530706063830458 0 -0.42445280966069721 0.43362407249031992 0 -0.41163559720621801 0.44791924212336931 0 -0.40775534902193961 0.42108612277063728 0 -0.42202869916830132 0.41530706063830458 0 -0.42445280966069721 0.43362407249031992 0 -0.40775534902193961 0.42108612277063728 0 -0.41163559720621801 0.44791924212336931 0 -0.42445280966069721 0.43362407249031992 0 -0.40775534902193961 0.42108612277063728 0 -0.41163559720621801 0.44791924212336931 0 -0.40775534902193961 0.42108612277063728 0 -0.40305780089605492 0.43546253415985248 0 -0.41487251990458451 0.40635981777847741 0 -0.40775534902193961 0.42108612277063728 0 -0.40387510083766093 0.39425300341790509 0 -0.42202869916830132 0.41530706063830458 0 -0.41487251990458451 0.40635981777847741 0 -0.40775534902193961 0.42108612277063728 0 -0.40775534902193961 0.42108612277063728 0 -0.3912622268112283 0.41224751262108389 0 -0.40387510083766093 0.39425300341790509 0 -0.40775534902193961 0.42108612277063728 0 -0.40387510083766093 0.39425300341790509 0 -0.40775534902193961 0.42108612277063728 0 -0.40305780089605492 0.43546253415985248 0 -0.38820029760289948 0.43263361939958178 0 -0.40775534902193961 0.42108612277063728 0 -0.3912622268112283 0.41224751262108389 0 -0.38820029760289948 0.43263361939958178 0 -0.38820029760289948 0.43263361939958178 0 -0.37147918536255192 0.40942172577200869 0 -0.37156533459105412 0.43367234415356171 0 -0.37771733629218529 0.44462342228227159 0 -0.38820029760289948 0.43263361939958178 0 -0.37156533459105412 0.43367234415356171 0 -0.3912622268112283 0.41224751262108389 0 -0.38820029760289948 0.43263361939958178 0 -0.37147918536255192 0.40942172577200869 0 -0.38820029760289948 0.43263361939958178 0 -0.37147918536255192 0.40942172577200869 0 -0.3912622268112283 0.41224751262108389 0 -0.38662426441232378 0.39614158585308901 0 -0.37147918536255192 0.40942172577200869 0 -0.38662426441232378 0.39614158585308901 0 -0.37150512957606591 0.39095904218024619 0 -0.37147918536255192 0.40942172577200869 0 -0.38662426441232378 0.39614158585308901 0 -0.37825311405019779 0.38249388649354787 0 -0.37150512957606591 0.39095904218024619 0 -0.37825311405019779 0.38249388649354787 0 -0.39152378239297247 0.38412890433952029 0 -0.38751143290890439 0.3709303229105626 0 -0.38662426441232378 0.39614158585308901 0 -0.37825311405019779 0.38249388649354787 0 -0.39152378239297247 0.38412890433952029 0 -0.39152378239297247 0.38412890433952029 0 -0.40135499975577532 0.37682572302249723 0 -0.40387510083766093 0.39425300341790509 0 -0.40135499975577532 0.37682572302249723 0 -0.40387510083766093 0.39425300341790509 0 -0.39152378239297247 0.38412890433952029 0 -0.40135499975577532 0.37682572302249723 0 -0.38751143290890439 0.3709303229105626 0 -0.3912622268112283 0.41224751262108389 0 -0.38662426441232378 0.39614158585308901 0 -0.40387510083766093 0.39425300341790509 0 -0.38662426441232378 0.39614158585308901 0 -0.39152378239297247 0.38412890433952029 0 -0.40387510083766093 0.39425300341790509 0 -0.3912622268112283 0.41224751262108389 0 -0.40387510083766093 0.39425300341790509 0 -0.39883489867388711 0.35939844262708981 0 -0.38471778892273689 0.34065840426865301 0 -0.39990642908078428 0.34934461145125928 0 -0.39854884121673417 0.35742026661229648 0 -0.38471778892273689 0.34065840426865301 0 -0.39854884121673417 0.35742026661229648 0 -0.39883489867388711 0.35939844262708981 0 -0.38471778892273689 0.34065840426865301 0 -0.40407368271588467 0.34555127896492732 0 -0.39990642908078428 0.34934461145125928 0 -0.38471778892273689 0.34065840426865301 0 -0.39990642908078428 0.34934461145125928 0 -0.40288181681269858 0.35508281482239079 0 -0.39854884121673417 0.35742026661229648 0 -0.40288181681269858 0.35508281482239079 0 -0.39883489867388711 0.35939844262708981 0 -0.4114092387531339 0.35543027253731752 0 -0.39990642908078428 0.34934461145125928 0 -0.40288181681269858 0.35508281482239079 0 -0.4114092387531339 0.35543027253731752 0 -0.40288181681269858 0.35508281482239079 0 -0.39854884121673417 0.35742026661229648 0 -0.39883489867388711 0.35939844262708981 0 -0.39854884121673417 0.35742026661229648 0 -0.39883489867388711 0.35939844262708981 0 -0.41410107475487118 0.3796638319587235 0 -0.40135499975577532 0.37682572302249723 0 -0.39883489867388711 0.35939844262708981 0 -0.40135499975577532 0.37682572302249723 0 -0.39883489867388711 0.35939844262708981 0 -0.38751143290890439 0.3709303229105626 0 -0.40135499975577532 0.37682572302249723 0 -0.39883489867388711 0.35939844262708981 0 -0.37825311405019779 0.38249388649354787 0 -0.38751143290890439 0.3709303229105626 0 -0.37181299918487631 0.36866137828311552 0 -0.39883489867388711 0.35939844262708981 0 -0.38751143290890439 0.3709303229105626 0 -0.38094717128672573 0.35246886593446941 0 -0.38751143290890439 0.3709303229105626 0 -0.38094717128672573 0.35246886593446941 0 -0.37181299918487631 0.36866137828311552 0 -0.39883489867388711 0.35939844262708981 0 -0.38094717128672573 0.35246886593446941 0 -0.38471778892273689 0.34065840426865301 0 -0.38094717128672573 0.35246886593446941 0 -0.38471778892273689 0.34065840426865301 0 -0.36981540343905073 0.34664709977874592 0 -0.38471778892273689 0.34065840426865301 0 -0.36739764409551767 0.31766643323788191 0 -0.38471778892273689 0.34065840426865301 0 -0.3789799740766982 0.31700090293891692 0 -0.38872410507530419 0.32075760497093009 0 -0.38471778892273689 0.34065840426865301 0 -0.3789799740766982 0.31700090293891692 0 -0.36739764409551767 0.31766643323788191 0 -0.3789799740766982 0.31700090293891692 0 -0.38872410507530419 0.32075760497093009 0 -0.38036730211669201 0.30923322958644472 0 -0.3789799740766982 0.31700090293891692 0 -0.38036730211669201 0.30923322958644472 0 -0.37201298923312492 0.31436500150164193 0 -0.38872410507530419 0.32075760497093009 0 -0.39171239750559289 0.30993667011010378 0 -0.38036730211669201 0.30923322958644472 0 -0.38872410507530419 0.32075760497093009 0 -0.40008551487724092 0.316718943225203 0 -0.39171239750559289 0.30993667011010378 0 -0.38872410507530419 0.32075760497093009 0 -0.40008551487724092 0.316718943225203 0 -0.40000231341095288 0.3305195943731154 0 -0.40008551487724092 0.316718943225203 0 -0.40000231341095288 0.3305195943731154 0 -0.40842970533124973 0.32451873623921418 0 -0.40008551487724092 0.316718943225203 0 -0.40932471410816751 0.31421163784175998 0 -0.40842970533124973 0.32451873623921418 0 -0.40407368271588467 0.34555127896492732 0 -0.38471778892273689 0.34065840426865301 0 -0.40000231341095288 0.3305195943731154 0 -0.38471778892273689 0.34065840426865301 0 -0.38872410507530419 0.32075760497093009 0 -0.40000231341095288 0.3305195943731154 0 -0.40407368271588467 0.34555127896492732 0 -0.38471778892273689 0.34065840426865301 0 -0.40407368271588467 0.34555127896492732 0 -0.40000231341095288 0.3305195943731154 0 -0.41404916446917561 0.33448933476752102 0 -0.40407368271588467 0.34555127896492732 0 -0.41404916446917561 0.33448933476752102 0 -0.41926613785780181 0.34215703872660369 0 -0.40000231341095288 0.3305195943731154 0 -0.41404916446917561 0.33448933476752102 0 -0.40842970533124973 0.32451873623921418 0 -0.41404916446917561 0.33448933476752102 0 -0.41926613785780181 0.34215703872660369 0 -0.4275009672324977 0.33789111789852722 0 -0.40932471410816751 0.31421163784175998 0 -0.40842970533124973 0.32451873623921418 0 -0.41788728320736562 0.31956206236859502 0 -0.41404916446917561 0.33448933476752102 0 -0.40842970533124973 0.32451873623921418 0 -0.41788728320736562 0.31956206236859502 0 -0.41404916446917561 0.33448933476752102 0 -0.41788728320736562 0.31956206236859502 0 -0.4265253058968046 0.32636831231079089 0 -0.40932471410816751 0.31421163784175998 0 -0.41788728320736562 0.31956206236859502 0 -0.41597596467543302 0.30485613586339261 0 -0.43624406287739148 0.32800611876720109 0 -0.4430907311965242 0.32839125321759199 0 -0.43108395639560099 0.30485809910979261 0 -0.4265253058968046 0.32636831231079089 0 -0.43624406287739148 0.32800611876720109 0 -0.43108395639560099 0.30485809910979261 0 -0.41788728320736562 0.31956206236859502 0 -0.4265253058968046 0.32636831231079089 0 -0.43108395639560099 0.30485809910979261 0 -0.4430907311965242 0.32839125321759199 0 -0.43108395639560099 0.30485809910979261 0 -0.41926613785780181 0.34215703872660369 0 -0.4275009672324977 0.33789111789852722 0 -0.42827821530730409 0.34501295732435272 0 -0.4275009672324977 0.33789111789852722 0 -0.4328756479860193 0.34399947163824679 0 -0.42827821530730409 0.34501295732435272 0 -0.4265253058968046 0.32636831231079089 0 -0.4275009672324977 0.33789111789852722 0 -0.43165131703714832 0.33310101840572609 0 -0.41404916446917561 0.33448933476752102 0 -0.4265253058968046 0.32636831231079089 0 -0.4275009672324977 0.33789111789852722 0 -0.43624406287739148 0.32800611876720109 0 -0.43165131703714832 0.33310101840572609 0 -0.43515879748326292 0.33965512857057262 0 -0.4265253058968046 0.32636831231079089 0 -0.43624406287739148 0.32800611876720109 0 -0.43165131703714832 0.33310101840572609 0 -0.4275009672324977 0.33789111789852722 0 -0.43165131703714832 0.33310101840572609 0 -0.43515879748326292 0.33965512857057262 0 -0.4275009672324977 0.33789111789852722 0 -0.43515879748326292 0.33965512857057262 0 -0.4328756479860193 0.34399947163824679 0 -0.43515879748326292 0.33965512857057262 0 -0.436857886085048 0.34719719112351621 0 -0.4328756479860193 0.34399947163824679 0 -0.43290338659145061 0.35283898833661642 0 -0.4234295765090329 0.35044415366120002 0 -0.42350223067316028 0.36625141014766949 0 -0.436857886085048 0.34719719112351621 0 -0.43422819502500859 0.35094891336241091 0 -0.4328756479860193 0.34399947163824679 0 -0.43422819502500859 0.35094891336241091 0 -0.43290338659145061 0.35283898833661642 0 -0.4234295765090329 0.35044415366120002 0 -0.436857886085048 0.34719719112351621 0 -0.43422819502500859 0.35094891336241091 0 -0.43422819502500859 0.35094891336241091 0 -0.4328756479860193 0.34399947163824679 0 -0.42827821530730409 0.34501295732435272 0 -0.43422819502500859 0.35094891336241091 0 -0.43290338659145061 0.35283898833661642 0 -0.44243628613749431 0.35524875992709032 0 -0.43290338659145061 0.35283898833661642 0 -0.43545160144475048 0.36082892049651583 0 -0.44243628613749431 0.35524875992709032 0 -0.43422819502500859 0.35094891336241091 0 -0.43290338659145061 0.35283898833661642 0 -0.43290338659145061 0.35283898833661642 0 -0.4234295765090329 0.35044415366120002 0 -0.41926613785780181 0.34215703872660369 0 -0.4234295765090329 0.35044415366120002 0 -0.42827821530730409 0.34501295732435272 0 -0.43422819502500859 0.35094891336241091 0 -0.4234295765090329 0.35044415366120002 0 -0.43422819502500859 0.35094891336241091 0 -0.4234295765090329 0.35044415366120002 0 -0.42827821530730409 0.34501295732435272 0 -0.39990642908078428 0.34934461145125928 0 -0.4234295765090329 0.35044415366120002 0 -0.4114092387531339 0.35543027253731752 0 -0.40407368271588467 0.34555127896492732 0 -0.39990642908078428 0.34934461145125928 0 -0.4234295765090329 0.35044415366120002 0 -0.40407368271588467 0.34555127896492732 0 -0.4234295765090329 0.35044415366120002 0 -0.39990642908078428 0.34934461145125928 0 -0.4234295765090329 0.35044415366120002 0 -0.4234295765090329 0.35044415366120002 0 -0.4114092387531339 0.35543027253731752 0 -0.42350223067316028 0.36625141014766949 0 -0.40407368271588467 0.34555127896492732 0 -0.41926613785780181 0.34215703872660369 0 -0.4234295765090329 0.35044415366120002 0 -0.41410107475487118 0.3796638319587235 0 -0.39883489867388711 0.35939844262708981 0 -0.4114092387531339 0.35543027253731752 0 -0.41410107475487118 0.3796638319587235 0 -0.4114092387531339 0.35543027253731752 0 -0.42350223067316028 0.36625141014766949 0 -0.41410107475487118 0.3796638319587235 0 -0.39883489867388711 0.35939844262708981 0 -0.41410107475487118 0.3796638319587235 0 -0.42350223067316028 0.36625141014766949 0 -0.42599047513377791 0.37749749513149261 0 -0.41410107475487118 0.3796638319587235 0 -0.42350223067316028 0.36625141014766949 0 -0.42599047513377791 0.37749749513149261 0 -0.42350223067316028 0.36625141014766949 0 -0.43707286105705451 0.36966267102709849 0 -0.43290338659145061 0.35283898833661642 0 -0.42350223067316028 0.36625141014766949 0 -0.42350223067316028 0.36625141014766949 0 -0.43545160144475048 0.36082892049651583 0 -0.43707286105705451 0.36966267102709849 0 -0.43290338659145061 0.35283898833661642 0 -0.42350223067316028 0.36625141014766949 0 -0.43545160144475048 0.36082892049651583 0 -0.44893800180830662 0.38385301069511552 0 -0.44243628613749431 0.35524875992709032 0 -0.44893800180830662 0.38385301069511552 0 -0.43707286105705451 0.36966267102709849 0 -0.44243628613749431 0.35524875992709032 0 -0.44893800180830662 0.38385301069511552 0 -0.44243628613749431 0.35524875992709032 0 -0.4555016101389267 0.37108673850380403 0 -0.44243628613749431 0.35524875992709032 0 -0.4555016101389267 0.37108673850380403 0 -0.45891949356714112 0.35941546333060248 0 -0.43545160144475048 0.36082892049651583 0 -0.43707286105705451 0.36966267102709849 0 -0.44243628613749431 0.35524875992709032 0 -0.44243628613749431 0.35524875992709032 0 -0.45509750599744719 0.35192440732539149 0 -0.45891949356714112 0.35941546333060248 0 -0.44153658454729328 0.35129052932987259 0 -0.45509750599744719 0.35192440732539149 0 -0.4430907311965242 0.32839125321759199 0 -0.44243628613749431 0.35524875992709032 0 -0.45891949356714112 0.35941546333060248 0 -0.43515879748326292 0.33965512857057262 0 -0.436857886085048 0.34719719112351621 0 -0.44153658454729328 0.35129052932987259 0 -0.43422819502500859 0.35094891336241091 0 -0.44153658454729328 0.35129052932987259 0 -0.436857886085048 0.34719719112351621 0 -0.43422819502500859 0.35094891336241091 0 -0.44153658454729328 0.35129052932987259 0 -0.43422819502500859 0.35094891336241091 0 -0.44153658454729328 0.35129052932987259 0 -0.44243628613749431 0.35524875992709032 0 -0.43290338659145061 0.35283898833661642 0 -0.44243628613749431 0.35524875992709032 0 -0.44153658454729328 0.35129052932987259 0 -0.44243628613749431 0.35524875992709032 0 -0.44153658454729328 0.35129052932987259 0 -0.45509750599744719 0.35192440732539149 0 -0.44153658454729328 0.35129052932987259 0 -0.44243628613749431 0.35524875992709032 0 -0.45509750599744719 0.35192440732539149 0 -0.45509750599744719 0.35192440732539149 0 -0.45891949356714112 0.35941546333060248 0 -0.47160889870860001 0.35269619916516171 0 -0.45509750599744719 0.35192440732539149 0 -0.47160889870860001 0.35269619916516171 0 -0.45509750599744719 0.35192440732539149 0 -0.47160889870860001 0.35269619916516171 0 -0.47080234399227638 0.33736328087424872 0 -0.45509750599744719 0.35192440732539149 0 -0.45891949356714112 0.35941546333060248 0 -0.45891949356714112 0.35941546333060248 0 -0.47213812155023283 0.36275693084789168 0 -0.47160889870860001 0.35269619916516171 0 -0.4555016101389267 0.37108673850380403 0 -0.45891949356714112 0.35941546333060248 0 -0.46619057819478549 0.37366671380463229 0 -0.45891949356714112 0.35941546333060248 0 -0.47213812155023283 0.36275693084789168 0 -0.45891949356714112 0.35941546333060248 0 -0.46619057819478549 0.37366671380463229 0 -0.45891949356714112 0.35941546333060248 0 -0.46619057819478549 0.37366671380463229 0 -0.47213812155023283 0.36275693084789168 0 -0.47346166282242941 0.38791796427866249 0 -0.46619057819478549 0.37366671380463229 0 -0.47213812155023283 0.36275693084789168 0 -0.47213812155023283 0.36275693084789168 0 -0.47160889870860001 0.35269619916516171 0 -0.499999999999997 0.35402328408659239 0 -0.47213812155023283 0.36275693084789168 0 -0.47160889870860001 0.35269619916516171 0 -0.47160889870860001 0.35269619916516171 0 -0.47080234399227638 0.33736328087424872 0 -0.47160889870860001 0.35269619916516171 0 -0.48420269381187292 0.34318526817094508 0 -0.47080234399227638 0.33736328087424872 0 -0.47160889870860001 0.35269619916516171 0 -0.499999999999997 0.35402328408659239 0 -0.48420269381187292 0.34318526817094508 0 -0.47160889870860001 0.35269619916516171 0 -0.499999999999997 0.35402328408659239 0 -0.499999999999997 0.35402328408659239 0 -0.49377275718577812 0.33925592717700548 0 -0.48420269381187292 0.34318526817094508 0 -0.47213812155023283 0.36275693084789168 0 -0.50000000000000033 0.36979998871513903 0 -0.47213812155023283 0.36275693084789168 0 -0.499999999999997 0.35402328408659239 0 -0.50000000000000033 0.36979998871513903 0 -0.48741743793152348 0.38520302155702613 0 -0.47213812155023283 0.36275693084789168 0 -0.50000000000000033 0.36979998871513903 0 -0.49653022308392369 0.32844619629103211 0 -0.500000000000001 0.33314737519772741 0 -0.5 0.3110978543920192 0 -0.49653022308392369 0.32844619629103211 0 -0.48329350345725891 0.31051184817361371 0 -0.4892159651077338 0.29932451582091801 0 -0.49653022308392369 0.32844619629103211 0 -0.48165638102038238 0.32433443643725812 0 -0.48329350345725891 0.31051184817361371 0 -0.49653022308392369 0.32844619629103211 0 -0.4892159651077338 0.29932451582091801 0 -0.5 0.3110978543920192 0 -0.49653022308392369 0.32844619629103211 0 -0.4892159651077338 0.29932451582091801 0 -0.49653022308392369 0.32844619629103211 0 -0.48329350345725891 0.31051184817361371 0 -0.499999999999997 0.35402328408659239 0 -0.500000000000001 0.33314737519772741 0 -0.49377275718577812 0.33925592717700548 0 -0.49653022308392369 0.32844619629103211 0 -0.49747879812369372 0.33222294292753929 0 -0.48718229399332508 0.33370076550222372 0 -0.49653022308392369 0.32844619629103211 0 -0.500000000000001 0.33314737519772741 0 -0.49747879812369372 0.33222294292753929 0 -0.49747879812369372 0.33222294292753929 0 -0.49377275718577812 0.33925592717700548 0 -0.48718229399332508 0.33370076550222372 0 -0.49653022308392369 0.32844619629103211 0 -0.500000000000001 0.33314737519772741 0 -0.49653022308392369 0.32844619629103211 0 -0.49747879812369372 0.33222294292753929 0 -0.500000000000001 0.33314737519772741 0 -0.49747879812369372 0.33222294292753929 0 -0.49377275718577812 0.33925592717700548 0 -0.49377275718577812 0.33925592717700548 0 -0.48718229399332508 0.33370076550222372 0 -0.48420269381187292 0.34318526817094508 0 -0.49653022308392369 0.32844619629103211 0 -0.48718229399332508 0.33370076550222372 0 -0.48165638102038238 0.32433443643725812 0 -0.48718229399332508 0.33370076550222372 0 -0.47080234399227638 0.33736328087424872 0 -0.48165638102038238 0.32433443643725812 0 -0.48718229399332508 0.33370076550222372 0 -0.48420269381187292 0.34318526817094508 0 -0.47080234399227638 0.33736328087424872 0 -0.47080234399227638 0.33736328087424872 0 -0.46999578927595048 0.32203036258333589 0 -0.47080234399227638 0.33736328087424872 0 -0.46999578927595048 0.32203036258333589 0 -0.48165638102038238 0.32433443643725812 0 -0.46999578927595048 0.32203036258333589 0 -0.48165638102038238 0.32433443643725812 0 -0.48329350345725891 0.31051184817361371 0 -0.46999578927595048 0.32203036258333589 0 -0.46918308745691278 0.30794019848596671 0 -0.48329350345725891 0.31051184817361371 0 -0.46999578927595048 0.32203036258333589 0 -0.4545685913069557 0.30909350293973492 0 -0.46918308745691278 0.30794019848596671 0 -0.46999578927595048 0.32203036258333589 0 -0.45871099235383078 0.3297605613880607 0 -0.4545685913069557 0.30909350293973492 0 -0.45509750599744719 0.35192440732539149 0 -0.47080234399227638 0.33736328087424872 0 -0.45871099235383078 0.3297605613880607 0 -0.47080234399227638 0.33736328087424872 0 -0.46999578927595048 0.32203036258333589 0 -0.45871099235383078 0.3297605613880607 0 -0.45509750599744719 0.35192440732539149 0 -0.45871099235383078 0.3297605613880607 0 -0.4430907311965242 0.32839125321759199 0 -0.43624406287739148 0.32800611876720109 0 -0.43515879748326292 0.33965512857057262 0 -0.44153658454729328 0.35129052932987259 0 -0.43624406287739148 0.32800611876720109 0 -0.44153658454729328 0.35129052932987259 0 -0.45509750599744719 0.35192440732539149 0 -0.4430907311965242 0.32839125321759199 0 -0.43624406287739148 0.32800611876720109 0 -0.44153658454729328 0.35129052932987259 0 -0.4430907311965242 0.32839125321759199 0 -0.45871099235383078 0.3297605613880607 0 -0.4430907311965242 0.32839125321759199 0 -0.4545685913069557 0.30909350293973492 0 -0.4430907311965242 0.32839125321759199 0 -0.4545685913069557 0.30909350293973492 0 -0.43108395639560099 0.30485809910979261 0 -0.45009560372727703 0.29183126050297581 0 -0.4545685913069557 0.30909350293973492 0 -0.43108395639560099 0.30485809910979261 0 -0.45009560372727703 0.29183126050297581 0 -0.43794862289930409 0.27798404847038122 0 -0.43108395639560099 0.30485809910979261 0 -0.45009560372727703 0.29183126050297581 0 -0.4568200642039304 0.27464315193877592 0 -0.43794862289930409 0.27798404847038122 0 -0.47005678383059363 0.29257750005619548 0 -0.4568200642039304 0.27464315193877592 0 -0.45009560372727703 0.29183126050297581 0 -0.47005678383059363 0.29257750005619548 0 -0.4568200642039304 0.27464315193877592 0 -0.4545685913069557 0.30909350293973492 0 -0.46918308745691278 0.30794019848596671 0 -0.47005678383059363 0.29257750005619548 0 -0.45009560372727703 0.29183126050297581 0 -0.4545685913069557 0.30909350293973492 0 -0.47005678383059363 0.29257750005619548 0 -0.48329350345725891 0.31051184817361371 0 -0.47005678383059363 0.29257750005619548 0 -0.4892159651077338 0.29932451582091801 0 -0.46918308745691278 0.30794019848596671 0 -0.48329350345725891 0.31051184817361371 0 -0.47005678383059363 0.29257750005619548 0 -0.48329350345725891 0.31051184817361371 0 -0.47005678383059363 0.29257750005619548 0 -0.47005678383059363 0.29257750005619548 0 -0.4892159651077338 0.29932451582091801 0 -0.48190170713154579 0.27020283535080342 0 -0.49277941805982051 0.28139362438465892 0 -0.5 0.28904833358631121 0 -0.4892159651077338 0.29932451582091801 0 -0.49277941805982051 0.28139362438465892 0 -0.4892159651077338 0.29932451582091801 0 -0.48190170713154579 0.27020283535080342 0 -0.4892159651077338 0.29932451582091801 0 -0.48190170713154579 0.27020283535080342 0 -0.5 0.28904833358631121 0 -0.4892159651077338 0.29932451582091801 0 -0.5 0.3110978543920192 0 -0.49787418098167152 0.24399792957799829 0 -0.48897239074030763 0.2564193422591956 0 -0.50000000000000222 0.26699881278060311 0 -0.48897239074030763 0.2564193422591956 0 -0.50000000000000222 0.26699881278060311 0 -0.48190170713154579 0.27020283535080342 0 -0.47629615006491649 0.2478843387537821 0 -0.48841709285439311 0.24662095380897969 0 -0.48897239074030763 0.2564193422591956 0 -0.49277941805982051 0.28139362438465892 0 -0.50000000000000222 0.26699881278060311 0 -0.48190170713154579 0.27020283535080342 0 -0.50000000000000222 0.26699881278060311 0 -0.48190170713154579 0.27020283535080342 0 -0.49277941805982051 0.28139362438465892 0 -0.5 0.28904833358631121 0 -0.50000000000000222 0.26699881278060311 0 -0.48190170713154579 0.27020283535080342 0 -0.4568200642039304 0.27464315193877592 0 -0.47005678383059363 0.29257750005619548 0 -0.48190170713154579 0.27020283535080342 0 -0.4568200642039304 0.27464315193877592 0 -0.47629615006491649 0.2478843387537821 0 -0.48897239074030763 0.2564193422591956 0 -0.48190170713154579 0.27020283535080342 0 -0.47629615006491649 0.2478843387537821 0 -0.48190170713154579 0.27020283535080342 0 -0.46302939500067403 0.25655242642106652 0 -0.47629615006491649 0.2478843387537821 0 -0.48190170713154579 0.27020283535080342 0 -0.46302939500067403 0.25655242642106652 0 -0.4568200642039304 0.27464315193877592 0 -0.45260778682751229 0.25636282313834352 0 -0.47629615006491649 0.2478843387537821 0 -0.4658519837927762 0.2455768727623254 0 -0.46302939500067403 0.25655242642106652 0 -0.45158548375051172 0.24376199779042901 0 -0.46302939500067403 0.25655242642106652 0 -0.45260778682751229 0.25636282313834352 0 -0.48190170713154579 0.27020283535080342 0 -0.46302939500067403 0.25655242642106652 0 -0.4568200642039304 0.27464315193877592 0 -0.4568200642039304 0.27464315193877592 0 -0.43794862289930409 0.27798404847038122 0 -0.4568200642039304 0.27464315193877592 0 -0.43794862289930409 0.27798404847038122 0 -0.43835256334596751 0.26490954731505711 0 -0.4568200642039304 0.27464315193877592 0 -0.43835256334596751 0.26490954731505711 0 -0.43899620435493392 0.25049371640310392 0 -0.4568200642039304 0.27464315193877592 0 -0.45260778682751229 0.25636282313834352 0 -0.43899620435493392 0.25049371640310392 0 -0.4568200642039304 0.27464315193877592 0 -0.43899620435493392 0.25049371640310392 0 -0.45158548375051172 0.24376199779042901 0 -0.45260778682751229 0.25636282313834352 0 -0.43899620435493392 0.25049371640310392 0 -0.43835256334596751 0.26490954731505711 0 -0.43899620435493392 0.25049371640310392 0 -0.4306740611460208 0.25341526749683402 0 -0.4306740611460208 0.25341526749683402 0 -0.40976263854152972 0.26306853720323847 0 -0.42732386412564799 0.26801155226619161 0 -0.43835256334596751 0.26490954731505711 0 -0.4306740611460208 0.25341526749683402 0 -0.42732386412564799 0.26801155226619161 0 -0.42515580324046509 0.24674148596493159 0 -0.4306740611460208 0.25341526749683402 0 -0.41817555763870717 0.25149437126127672 0 -0.4306740611460208 0.25341526749683402 0 -0.40976263854152972 0.26306853720323847 0 -0.4306740611460208 0.25341526749683402 0 -0.41817555763870717 0.25149437126127672 0 -0.40976263854152972 0.26306853720323847 0 -0.40976263854152972 0.26306853720323847 0 -0.40500590612585757 0.25374539099256938 0 -0.41817555763870717 0.25149437126127672 0 -0.40976263854152972 0.26306853720323847 0 -0.40500590612585757 0.25374539099256938 0 -0.40976263854152972 0.26306853720323847 0 -0.41907718159467899 0.28132494500199251 0 -0.4048332651353771 0.27496814356333332 0 -0.40976263854152972 0.26306853720323847 0 -0.41907718159467899 0.28132494500199251 0 -0.40976263854152972 0.26306853720323847 0 -0.42732386412564799 0.26801155226619161 0 -0.41907718159467899 0.28132494500199251 0 -0.41907718159467899 0.28132494500199251 0 -0.39582919829632368 0.28544064053973522 0 -0.4048332651353771 0.27496814356333332 0 -0.43794862289930409 0.27798404847038122 0 -0.42732386412564799 0.26801155226619161 0 -0.41907718159467899 0.28132494500199251 0 -0.43794862289930409 0.27798404847038122 0 -0.41907718159467899 0.28132494500199251 0 -0.43794862289930409 0.27798404847038122 0 -0.43835256334596751 0.26490954731505711 0 -0.42732386412564799 0.26801155226619161 0 -0.43794862289930409 0.27798404847038122 0 -0.43108395639560099 0.30485809910979261 0 -0.41907718159467899 0.28132494500199251 0 -0.43108395639560099 0.30485809910979261 0 -0.41907718159467899 0.28132494500199251 0 -0.43108395639560099 0.30485809910979261 0 -0.41597596467543302 0.30485613586339261 0 -0.41907718159467899 0.28132494500199251 0 -0.41788728320736562 0.31956206236859502 0 -0.43108395639560099 0.30485809910979261 0 -0.41597596467543302 0.30485613586339261 0 -0.40932471410816751 0.31421163784175998 0 -0.41597596467543302 0.30485613586339261 0 -0.40076827369315782 0.30324555847724849 0 -0.41597596467543302 0.30485613586339261 0 -0.41907718159467899 0.28132494500199251 0 -0.40076827369315782 0.30324555847724849 0 -0.41907718159467899 0.28132494500199251 0 -0.39582919829632368 0.28544064053973522 0 -0.41907718159467899 0.28132494500199251 0 -0.39582919829632368 0.28544064053973522 0 -0.40076827369315782 0.30324555847724849 0 -0.39582919829632368 0.28544064053973522 0 -0.40076827369315782 0.30324555847724849 0 -0.38861679176556979 0.29972801429069262 0 -0.40008551487724092 0.316718943225203 0 -0.40932471410816751 0.31421163784175998 0 -0.40076827369315782 0.30324555847724849 0 -0.40076827369315782 0.30324555847724849 0 -0.39171239750559289 0.30993667011010378 0 -0.38861679176556979 0.29972801429069262 0 -0.40008551487724092 0.316718943225203 0 -0.40076827369315782 0.30324555847724849 0 -0.39171239750559289 0.30993667011010378 0 -0.38861679176556979 0.29972801429069262 0 -0.38036730211669201 0.30923322958644472 0 -0.37258121499797048 0.28955633607748982 0 -0.39171239750559289 0.30993667011010378 0 -0.38861679176556979 0.29972801429069262 0 -0.38036730211669201 0.30923322958644472 0 -0.39582919829632368 0.28544064053973522 0 -0.38623169342075198 0.27954834944792101 0 -0.37258121499797048 0.28955633607748982 0 -0.39582919829632368 0.28544064053973522 0 -0.37258121499797048 0.28955633607748982 0 -0.39582919829632368 0.28544064053973522 0 -0.38861679176556979 0.29972801429069262 0 -0.37258121499797048 0.28955633607748982 0 -0.38623169342075198 0.27954834944792101 0 -0.37388689175314582 0.2822008841328485 0 -0.37258121499797048 0.28955633607748982 0 -0.37956544567642408 0.27700836581349381 0 -0.37854439823410713 0.25721846257136233 0 -0.37446053560602738 0.27936492828503512 0 -0.37956544567642408 0.27700836581349381 0 -0.37446053560602738 0.27936492828503512 0 -0.37388689175314582 0.2822008841328485 0 -0.37956544567642408 0.27700836581349381 0 -0.38623169342075198 0.27954834944792101 0 -0.37388689175314582 0.2822008841328485 0 -0.37956544567642408 0.27700836581349381 0 -0.37854439823410713 0.25721846257136233 0 -0.39228567590114161 0.26537687840303231 0 -0.37956544567642408 0.27700836581349381 0 -0.37388689175314582 0.2822008841328485 0 -0.37854439823410713 0.25721846257136233 0 -0.37446053560602738 0.27936492828503512 0 -0.37956544567642408 0.27700836581349381 0 -0.37446053560602738 0.27936492828503512 0 -0.37956544567642408 0.27700836581349381 0 -0.39466404210897682 0.27003845150836597 0 -0.37956544567642408 0.27700836581349381 0 -0.38623169342075198 0.27954834944792101 0 -0.39466404210897682 0.27003845150836597 0 -0.37956544567642408 0.27700836581349381 0 -0.39228567590114161 0.26537687840303231 0 -0.39466404210897682 0.27003845150836597 0 -0.37956544567642408 0.27700836581349381 0 -0.39228567590114161 0.26537687840303231 0 -0.39055515001529401 0.24883944245046349 0 -0.37854439823410713 0.25721846257136233 0 -0.39228567590114161 0.26537687840303231 0 -0.39055515001529401 0.24883944245046349 0 -0.39228567590114161 0.26537687840303231 0 -0.40500590612585757 0.25374539099256938 0 -0.40976263854152972 0.26306853720323847 0 -0.39228567590114161 0.26537687840303231 0 -0.40500590612585757 0.25374539099256938 0 -0.39228567590114161 0.26537687840303231 0 -0.40500590612585757 0.25374539099256938 0 -0.40976263854152972 0.26306853720323847 0 -0.39466404210897682 0.27003845150836597 0 -0.40976263854152972 0.26306853720323847 0 -0.4048332651353771 0.27496814356333332 0 -0.39466404210897682 0.27003845150836597 0 -0.40976263854152972 0.26306853720323847 0 -0.39228567590114161 0.26537687840303231 0 -0.39466404210897682 0.27003845150836597 0 -0.39582919829632368 0.28544064053973522 0 -0.4048332651353771 0.27496814356333332 0 -0.39466404210897682 0.27003845150836597 0 -0.39582919829632368 0.28544064053973522 0 -0.38623169342075198 0.27954834944792101 0 -0.39466404210897682 0.27003845150836597 0 -0.35376510334227462 0.2788378370136107 0 -0.34720703070558351 0.26929897502718908 0 -0.36217749120586612 0.26724463669272269 0 -0.34591407613091529 0.27811150765073961 0 -0.34720703070558351 0.26929897502718908 0 -0.33866698758971159 0.27767964397491729 0 -0.35376510334227462 0.2788378370136107 0 -0.34591407613091529 0.27811150765073961 0 -0.34401718288609162 0.28662957458724098 0 -0.35376510334227462 0.2788378370136107 0 -0.34591407613091529 0.27811150765073961 0 -0.34720703070558351 0.26929897502718908 0 -0.34720703070558351 0.26929897502718908 0 -0.36217749120586612 0.26724463669272269 0 -0.34036057209867399 0.25017915505989352 0 -0.36217749120586612 0.26724463669272269 0 -0.34036057209867399 0.25017915505989352 0 -0.34989489909296101 0.25100314627216369 0 -0.36217749120586612 0.26724463669272269 0 -0.34036057209867399 0.25017915505989352 0 -0.34989489909296101 0.25100314627216369 0 -0.36336612378465621 0.25358064875581338 0 -0.36217749120586612 0.26724463669272269 0 -0.37854439823410713 0.25721846257136233 0 -0.36336612378465621 0.25358064875581338 0 -0.36217749120586612 0.26724463669272269 0 -0.37078201995590132 0.24581343246118609 0 -0.37854439823410713 0.25721846257136233 0 -0.36336612378465621 0.25358064875581338 0 -0.35376510334227462 0.2788378370136107 0 -0.36217749120586612 0.26724463669272269 0 -0.37446053560602738 0.27936492828503512 0 -0.37854439823410713 0.25721846257136233 0 -0.36217749120586612 0.26724463669272269 0 -0.37446053560602738 0.27936492828503512 0 -0.37446053560602738 0.27936492828503512 0 -0.37388689175314582 0.2822008841328485 0 -0.37388689175314582 0.2822008841328485 0 -0.37258121499797048 0.28955633607748982 0 -0.36384291333833918 0.29110331710747089 0 -0.37446053560602738 0.27936492828503512 0 -0.36384291333833918 0.29110331710747089 0 -0.34781173286551509 0.29166672549283879 0 -0.37446053560602738 0.27936492828503512 0 -0.34781173286551509 0.29166672549283879 0 -0.37446053560602738 0.27936492828503512 0 -0.37388689175314582 0.2822008841328485 0 -0.36384291333833918 0.29110331710747089 0 -0.37388689175314582 0.2822008841328485 0 -0.37258121499797048 0.28955633607748982 0 -0.37258121499797048 0.28955633607748982 0 -0.36384291333833918 0.29110331710747089 0 -0.36384291333833918 0.29110331710747089 0 -0.36071756537627642 0.30879882976649392 0 -0.36834018418721021 0.31255511247981083 0 -0.37258121499797048 0.28955633607748982 0 -0.36384291333833918 0.29110331710747089 0 -0.36834018418721021 0.31255511247981083 0 -0.38036730211669201 0.30923322958644472 0 -0.37258121499797048 0.28955633607748982 0 -0.36834018418721021 0.31255511247981083 0 -0.37258121499797048 0.28955633607748982 0 -0.36834018418721021 0.31255511247981083 0 -0.38036730211669201 0.30923322958644472 0 -0.37201298923312492 0.31436500150164193 0 -0.36834018418721021 0.31255511247981083 0 -0.36071756537627642 0.30879882976649392 0 -0.36834018418721021 0.31255511247981083 0 -0.36384291333833918 0.29110331710747089 0 -0.36071756537627642 0.30879882976649392 0 -0.34781173286551509 0.29166672549283879 0 -0.36071756537627642 0.30879882976649392 0 -0.34781173286551509 0.29166672549283879 0 -0.33652478204295783 0.29687708265092749 0 -0.36071756537627642 0.30879882976649392 0 -0.33855201040882832 0.31060348800560028 0 -0.33652478204295783 0.29687708265092749 0 -0.36071756537627642 0.30879882976649392 0 -0.33652478204295783 0.29687708265092749 0 -0.36071756537627642 0.30879882976649392 0 -0.34781173286551509 0.29166672549283879 0 -0.35376510334227462 0.2788378370136107 0 -0.37446053560602738 0.27936492828503512 0 -0.34781173286551509 0.29166672549283879 0 -0.34781173286551509 0.29166672549283879 0 -0.34401718288609162 0.28662957458724098 0 -0.35376510334227462 0.2788378370136107 0 -0.34781173286551509 0.29166672549283879 0 -0.34401718288609162 0.28662957458724098 0 -0.33652478204295783 0.29687708265092749 0 -0.33256651446871183 0.29870432440233552 0 -0.31643795825089011 0.2869786749189811 0 -0.34401718288609162 0.28662957458724098 0 -0.33792037189204638 0.2880823587369134 0 -0.33866698758971159 0.27767964397491729 0 -0.34781173286551509 0.29166672549283879 0 -0.34401718288609162 0.28662957458724098 0 -0.33792037189204638 0.2880823587369134 0 -0.34781173286551509 0.29166672549283879 0 -0.33652478204295783 0.29687708265092749 0 -0.34781173286551509 0.29166672549283879 0 -0.33792037189204638 0.2880823587369134 0 -0.33652478204295783 0.29687708265092749 0 -0.33792037189204638 0.2880823587369134 0 -0.33018890995475481 0.28374990321900811 0 -0.33652478204295783 0.29687708265092749 0 -0.33792037189204638 0.2880823587369134 0 -0.33018890995475481 0.28374990321900811 0 -0.33866698758971159 0.27767964397491729 0 -0.33855201040882832 0.31060348800560028 0 -0.33652478204295783 0.29687708265092749 0 -0.33256651446871183 0.29870432440233552 0 -0.33652478204295783 0.29687708265092749 0 -0.33256651446871183 0.29870432440233552 0 -0.33855201040882832 0.31060348800560028 0 -0.32582005946553999 0.30506367367950382 0 -0.32517590408882519 0.31442875956934929 0 -0.33855201040882832 0.31060348800560028 0 -0.33256651446871183 0.29870432440233552 0 -0.32582005946553999 0.30506367367950382 0 -0.32582005946553999 0.30506367367950382 0 -0.31168586343648819 0.30408805895238372 0 -0.32517590408882519 0.31442875956934929 0 -0.33256651446871183 0.29870432440233552 0 -0.32582005946553999 0.30506367367950382 0 -0.32112000492484649 0.29749373746785041 0 -0.32582005946553999 0.30506367367950382 0 -0.32112000492484649 0.29749373746785041 0 -0.31168586343648819 0.30408805895238372 0 -0.32112000492484649 0.29749373746785041 0 -0.31643795825089011 0.2869786749189811 0 -0.31168586343648819 0.30408805895238372 0 -0.33652478204295783 0.29687708265092749 0 -0.31643795825089011 0.2869786749189811 0 -0.33018890995475481 0.28374990321900811 0 -0.33652478204295783 0.29687708265092749 0 -0.31643795825089011 0.2869786749189811 0 -0.33256651446871183 0.29870432440233552 0 -0.32112000492484649 0.29749373746785041 0 -0.31643795825089011 0.2869786749189811 0 -0.33018890995475481 0.28374990321900811 0 -0.31643795825089011 0.2869786749189811 0 -0.32150202317671678 0.27623644789870261 0 -0.31643795825089011 0.2869786749189811 0 -0.32150202317671678 0.27623644789870261 0 -0.31195960136287282 0.26962291925888948 0 -0.32150202317671678 0.27623644789870261 0 -0.32136175601247208 0.26388073200316392 0 -0.31195960136287282 0.26962291925888948 0 -0.32150202317671678 0.27623644789870261 0 -0.33025331396849827 0.2696375314384109 0 -0.32136175601247208 0.26388073200316392 0 -0.33018890995475481 0.28374990321900811 0 -0.32150202317671678 0.27623644789870261 0 -0.33025331396849827 0.2696375314384109 0 -0.33018890995475481 0.28374990321900811 0 -0.33025331396849827 0.2696375314384109 0 -0.33866698758971159 0.27767964397491729 0 -0.33025331396849827 0.2696375314384109 0 -0.33866698758971159 0.27767964397491729 0 -0.33755054413503771 0.26429633844938788 0 -0.34720703070558351 0.26929897502718908 0 -0.33866698758971159 0.27767964397491729 0 -0.33755054413503771 0.26429633844938788 0 -0.34591407613091529 0.27811150765073961 0 -0.34401718288609162 0.28662957458724098 0 -0.33866698758971159 0.27767964397491729 0 -0.34720703070558351 0.26929897502718908 0 -0.34036057209867399 0.25017915505989352 0 -0.33755054413503771 0.26429633844938788 0 -0.33025331396849827 0.2696375314384109 0 -0.33755054413503771 0.26429633844938788 0 -0.32714872946648349 0.25575788971183272 0 -0.34036057209867399 0.25017915505989352 0 -0.33755054413503771 0.26429633844938788 0 -0.32714872946648349 0.25575788971183272 0 -0.32714872946648349 0.25575788971183272 0 -0.32136175601247208 0.26388073200316392 0 -0.3146771263887132 0.25412527527456191 0 -0.33025331396849827 0.2696375314384109 0 -0.32714872946648349 0.25575788971183272 0 -0.32136175601247208 0.26388073200316392 0 -0.32136175601247208 0.26388073200316392 0 -0.3146771263887132 0.25412527527456191 0 -0.31195960136287282 0.26962291925888948 0 -0.30326642638636181 0.246180840641613 0 -0.3146771263887132 0.25412527527456191 0 -0.30217922777833112 0.26042229248340337 0 -0.3146771263887132 0.25412527527456191 0 -0.30217922777833112 0.26042229248340337 0 -0.31195960136287282 0.26962291925888948 0 -0.30326642638636181 0.246180840641613 0 -0.30217922777833112 0.26042229248340337 0 -0.28798919978124021 0.25924800785615942 0 -0.30217922777833112 0.26042229248340337 0 -0.31195960136287282 0.26962291925888948 0 -0.29635113445882399 0.27708026718703171 0 -0.31643795825089011 0.2869786749189811 0 -0.31195960136287282 0.26962291925888948 0 -0.29635113445882399 0.27708026718703171 0 -0.29635113445882399 0.27708026718703171 0 -0.28798919978124021 0.25924800785615942 0 -0.27271197317612289 0.2723151750707109 0 -0.29635113445882399 0.27708026718703171 0 -0.27271197317612289 0.2723151750707109 0 -0.2870878225687607 0.29227142451820382 0 -0.30217922777833112 0.26042229248340337 0 -0.29635113445882399 0.27708026718703171 0 -0.28798919978124021 0.25924800785615942 0 -0.30326642638636181 0.246180840641613 0 -0.28798919978124021 0.25924800785615942 0 -0.2799566251425421 0.23770710518719329 0 -0.28798919978124021 0.25924800785615942 0 -0.2636384904259732 0.25971955861883939 0 -0.28798919978124021 0.25924800785615942 0 -0.27271197317612289 0.2723151750707109 0 -0.2636384904259732 0.25971955861883939 0 -0.28798919978124021 0.25924800785615942 0 -0.27271197317612289 0.2723151750707109 0 -0.27271197317612289 0.2723151750707109 0 -0.26321505039580179 0.28043823832044718 0 -0.2636384904259732 0.25971955861883939 0 -0.27271197317612289 0.2723151750707109 0 -0.26321505039580179 0.28043823832044718 0 -0.2713254725344702 0.28930206205472031 0 -0.27271197317612289 0.2723151750707109 0 -0.26321505039580179 0.28043823832044718 0 -0.27271197317612289 0.2723151750707109 0 -0.2636384904259732 0.25971955861883939 0 -0.25184004474946392 0.27563514826990748 0 -0.2636384904259732 0.25971955861883939 0 -0.26321505039580179 0.28043823832044718 0 -0.25184004474946392 0.27563514826990748 0 -0.2636384904259732 0.25971955861883939 0 -0.25184004474946392 0.27563514826990748 0 -0.2636384904259732 0.25971955861883939 0 -0.24338505276019021 0.2512427650456508 0 -0.25541758599954478 0.24830747332655551 0 -0.2636384904259732 0.25971955861883939 0 -0.24338505276019021 0.2512427650456508 0 -0.25541758599954478 0.24830747332655551 0 -0.2636384904259732 0.25971955861883939 0 -0.26378214128226979 0.31008771729646872 0 -0.25781109301586341 0.29286143278318932 0 -0.24755542725455071 0.30598585151241481 0 -0.26378214128226979 0.31008771729646872 0 -0.25781109301586341 0.29286143278318932 0 -0.26378214128226979 0.31008771729646872 0 -0.24755542725455071 0.30598585151241481 0 -0.26378214128226979 0.31008771729646872 0 -0.25781109301586341 0.29286143278318932 0 -0.27232503468516012 0.30079957346050262 0 -0.25184004474946392 0.27563514826990748 0 -0.25781109301586341 0.29286143278318932 0 -0.26321505039580179 0.28043823832044718 0 -0.25184004474946392 0.27563514826990748 0 -0.25781109301586341 0.29286143278318932 0 -0.25184004474946392 0.27563514826990748 0 -0.25781109301586341 0.29286143278318932 0 -0.24707134328444269 0.28966663642370971 0 -0.25781109301586341 0.29286143278318932 0 -0.24707134328444269 0.28966663642370971 0 -0.24755542725455071 0.30598585151241481 0 -0.26321505039580179 0.28043823832044718 0 -0.25781109301586341 0.29286143278318932 0 -0.2713254725344702 0.28930206205472031 0 -0.27271197317612289 0.2723151750707109 0 -0.2713254725344702 0.28930206205472031 0 -0.2870878225687607 0.29227142451820382 0 -0.25781109301586341 0.29286143278318932 0 -0.2713254725344702 0.28930206205472031 0 -0.27232503468516012 0.30079957346050262 0 -0.27271197317612289 0.2723151750707109 0 -0.2870878225687607 0.29227142451820382 0 -0.2713254725344702 0.28930206205472031 0 -0.27232503468516012 0.30079957346050262 0 -0.2870878225687607 0.29227142451820382 0 -0.27232503468516012 0.30079957346050262 0 -0.2870878225687607 0.29227142451820382 0 -0.27910289682756961 0.31396057059564642 0 -0.26378214128226979 0.31008771729646872 0 -0.27232503468516012 0.30079957346050262 0 -0.27910289682756961 0.31396057059564642 0 -0.26378214128226979 0.31008771729646872 0 -0.27910289682756961 0.31396057059564642 0 -0.2870878225687607 0.29227142451820382 0 -0.30146367196139823 0.31222767396569662 0 -0.30061834607446419 0.3002089775617226 0 -0.2870878225687607 0.29227142451820382 0 -0.30146367196139823 0.31222767396569662 0 -0.2870878225687607 0.29227142451820382 0 -0.2944236523728696 0.31783342389482339 0 -0.27910289682756961 0.31396057059564642 0 -0.2870878225687607 0.29227142451820382 0 -0.30146367196139823 0.31222767396569662 0 -0.2944236523728696 0.31783342389482339 0 -0.2870878225687607 0.29227142451820382 0 -0.30223602633121027 0.29224875281060619 0 -0.30061834607446419 0.3002089775617226 0 -0.29635113445882399 0.27708026718703171 0 -0.2870878225687607 0.29227142451820382 0 -0.30223602633121027 0.29224875281060619 0 -0.31643795825089011 0.2869786749189811 0 -0.29635113445882399 0.27708026718703171 0 -0.31643795825089011 0.2869786749189811 0 -0.30223602633121027 0.29224875281060619 0 -0.31168586343648819 0.30408805895238372 0 -0.31643795825089011 0.2869786749189811 0 -0.29635113445882399 0.27708026718703171 0 -0.30223602633121027 0.29224875281060619 0 -0.30146367196139823 0.31222767396569662 0 -0.30061834607446419 0.3002089775617226 0 -0.31168586343648819 0.30408805895238372 0 -0.30223602633121027 0.29224875281060619 0 -0.30061834607446419 0.3002089775617226 0 -0.31168586343648819 0.30408805895238372 0 -0.30146367196139823 0.31222767396569662 0 -0.31168586343648819 0.30408805895238372 0 -0.30146367196139823 0.31222767396569662 0 -0.31168586343648819 0.30408805895238372 0 -0.30796833827232051 0.3212573138796907 0 -0.30146367196139823 0.31222767396569662 0 -0.30796833827232051 0.3212573138796907 0 -0.30796833827232051 0.3212573138796907 0 -0.29526624734337731 0.33037810690054331 0 -0.2944236523728696 0.31783342389482339 0 -0.30146367196139823 0.31222767396569662 0 -0.30796833827232051 0.3212573138796907 0 -0.2944236523728696 0.31783342389482339 0 -0.30796833827232051 0.3212573138796907 0 -0.2944236523728696 0.31783342389482339 0 -0.30146367196139823 0.31222767396569662 0 -0.2944236523728696 0.31783342389482339 0 -0.30796833827232051 0.3212573138796907 0 -0.30601439834957289 0.33602243128278808 0 -0.32133308448475872 0.33980997132159502 0 -0.30601439834957289 0.33602243128278808 0 -0.30806961983531678 0.34833765359770102 0 -0.32133308448475872 0.33980997132159502 0 -0.30796833827232051 0.3212573138796907 0 -0.30601439834957289 0.33602243128278808 0 -0.29526624734337731 0.33037810690054331 0 -0.30601439834957289 0.33602243128278808 0 -0.29541069820075277 0.34149808184634101 0 -0.30806961983531678 0.34833765359770102 0 -0.30601439834957289 0.33602243128278808 0 -0.29541069820075277 0.34149808184634101 0 -0.29526624734337731 0.33037810690054331 0 -0.29541069820075277 0.34149808184634101 0 -0.29526624734337731 0.33037810690054331 0 -0.27251414952137082 0.33527928359907672 0 -0.2944236523728696 0.31783342389482339 0 -0.27910289682756961 0.31396057059564642 0 -0.27251414952137082 0.33527928359907672 0 -0.29526624734337731 0.33037810690054331 0 -0.2944236523728696 0.31783342389482339 0 -0.27251414952137082 0.33527928359907672 0 -0.2944236523728696 0.31783342389482339 0 -0.27251414952137082 0.33527928359907672 0 -0.2944236523728696 0.31783342389482339 0 -0.27910289682756961 0.31396057059564642 0 -0.26378214128226979 0.31008771729646872 0 -0.27910289682756961 0.31396057059564642 0 -0.27251414952137082 0.33527928359907672 0 -0.26378214128226979 0.31008771729646872 0 -0.27251414952137082 0.33527928359907672 0 -0.27251414952137082 0.33527928359907672 0 -0.25150935396912888 0.32630300467706058 0 -0.25081067524157202 0.35256108912185141 0 -0.26378214128226979 0.31008771729646872 0 -0.27251414952137082 0.33527928359907672 0 -0.25150935396912888 0.32630300467706058 0 -0.26378214128226979 0.31008771729646872 0 -0.25150935396912888 0.32630300467706058 0 -0.24755542725455071 0.30598585151241481 0 -0.26558713847812748 0.37381560635463829 0 -0.25081067524157202 0.35256108912185141 0 -0.2480546724397408 0.37115926237380031 0 -0.27251414952137082 0.33527928359907672 0 -0.25081067524157202 0.35256108912185141 0 -0.27251414952137082 0.33527928359907672 0 -0.25081067524157202 0.35256108912185141 0 -0.28127773455105809 0.36056194793911439 0 -0.27251414952137082 0.33527928359907672 0 -0.28127773455105809 0.36056194793911439 0 -0.26558713847812748 0.37381560635463829 0 -0.25081067524157202 0.35256108912185141 0 -0.28127773455105809 0.36056194793911439 0 -0.26558713847812748 0.37381560635463829 0 -0.28127773455105809 0.36056194793911439 0 -0.29004131958074192 0.38584461227915329 0 -0.28127773455105809 0.36056194793911439 0 -0.30446893160160682 0.36221483421293471 0 -0.29965293341540239 0.37549375058018208 0 -0.28127773455105809 0.36056194793911439 0 -0.29004131958074192 0.38584461227915329 0 -0.28127773455105809 0.36056194793911439 0 -0.29965293341540239 0.37549375058018208 0 -0.29004131958074192 0.38584461227915329 0 -0.28127773455105809 0.36056194793911439 0 -0.2973067460471836 0.35315312939902271 0 -0.30446893160160682 0.36221483421293471 0 -0.29541069820075277 0.34149808184634101 0 -0.27251414952137082 0.33527928359907672 0 -0.28127773455105809 0.36056194793911439 0 -0.29541069820075277 0.34149808184634101 0 -0.28127773455105809 0.36056194793911439 0 -0.2973067460471836 0.35315312939902271 0 -0.29541069820075277 0.34149808184634101 0 -0.2973067460471836 0.35315312939902271 0 -0.30806961983531678 0.34833765359770102 0 -0.2973067460471836 0.35315312939902271 0 -0.30806961983531678 0.34833765359770102 0 -0.30446893160160682 0.36221483421293471 0 -0.30806961983531678 0.34833765359770102 0 -0.30446893160160682 0.36221483421293471 0 -0.31958338114940438 0.36028873148821461 0 -0.30446893160160682 0.36221483421293471 0 -0.31958338114940438 0.36028873148821461 0 -0.30446893160160682 0.36221483421293471 0 -0.31376390798865877 0.37563677908924248 0 -0.29965293341540239 0.37549375058018208 0 -0.30446893160160682 0.36221483421293471 0 -0.31958338114940438 0.36028873148821461 0 -0.31376390798865877 0.37563677908924248 0 -0.31958338114940438 0.36028873148821461 0 -0.32883348760874809 0.37270412238666389 0 -0.33469783069720221 0.35836262876349539 0 -0.31958338114940438 0.36028873148821461 0 -0.32883348760874809 0.37270412238666389 0 -0.31376390798865877 0.37563677908924248 0 -0.32883348760874809 0.37270412238666389 0 -0.33469783069720221 0.35836262876349539 0 -0.34472795190970312 0.37228623045396558 0 -0.33469783069720221 0.35836262876349539 0 -0.34472795190970312 0.37228623045396558 0 -0.33469783069720221 0.35836262876349539 0 -0.32133308448475872 0.33980997132159502 0 -0.34739844239535911 0.3425133571479731 0 -0.30806961983531678 0.34833765359770102 0 -0.31958338114940438 0.36028873148821461 0 -0.32133308448475872 0.33980997132159502 0 -0.31958338114940438 0.36028873148821461 0 -0.33469783069720221 0.35836262876349539 0 -0.32133308448475872 0.33980997132159502 0 -0.33469783069720221 0.35836262876349539 0 -0.32133308448475872 0.33980997132159502 0 -0.31958338114940438 0.36028873148821461 0 -0.33469783069720221 0.35836262876349539 0 -0.30796833827232051 0.3212573138796907 0 -0.32133308448475872 0.33980997132159502 0 -0.33604322139992249 0.32835421608031962 0 -0.30796833827232051 0.3212573138796907 0 -0.32133308448475872 0.33980997132159502 0 -0.30796833827232051 0.3212573138796907 0 -0.33604322139992249 0.32835421608031962 0 -0.31168586343648819 0.30408805895238372 0 -0.30796833827232051 0.3212573138796907 0 -0.32517590408882519 0.31442875956934929 0 -0.30796833827232051 0.3212573138796907 0 -0.32517590408882519 0.31442875956934929 0 -0.33604322139992249 0.32835421608031962 0 -0.33855201040882832 0.31060348800560028 0 -0.32517590408882519 0.31442875956934929 0 -0.33604322139992249 0.32835421608031962 0 -0.33855201040882832 0.31060348800560028 0 -0.33604322139992249 0.32835421608031962 0 -0.35319150088181522 0.32062380914620647 0 -0.32133308448475872 0.33980997132159502 0 -0.33604322139992249 0.32835421608031962 0 -0.34739844239535911 0.3425133571479731 0 -0.33604322139992249 0.32835421608031962 0 -0.34739844239535911 0.3425133571479731 0 -0.3641181045275268 0.33545111828093888 0 -0.33604322139992249 0.32835421608031962 0 -0.3641181045275268 0.33545111828093888 0 -0.33604322139992249 0.32835421608031962 0 -0.35319150088181522 0.32062380914620647 0 -0.3641181045275268 0.33545111828093888 0 -0.36071756537627642 0.30879882976649392 0 -0.33855201040882832 0.31060348800560028 0 -0.35319150088181522 0.32062380914620647 0 -0.36739764409551767 0.31766643323788191 0 -0.3641181045275268 0.33545111828093888 0 -0.35319150088181522 0.32062380914620647 0 -0.36739764409551767 0.31766643323788191 0 -0.3641181045275268 0.33545111828093888 0 -0.36071756537627642 0.30879882976649392 0 -0.36739764409551767 0.31766643323788191 0 -0.36071756537627642 0.30879882976649392 0 -0.36739764409551767 0.31766643323788191 0 -0.36834018418721021 0.31255511247981083 0 -0.36071756537627642 0.30879882976649392 0 -0.35319150088181522 0.32062380914620647 0 -0.36739764409551767 0.31766643323788191 0 -0.3789799740766982 0.31700090293891692 0 -0.36739764409551767 0.31766643323788191 0 -0.37201298923312492 0.31436500150164193 0 -0.36739764409551767 0.31766643323788191 0 -0.36834018418721021 0.31255511247981083 0 -0.37201298923312492 0.31436500150164193 0 -0.36834018418721021 0.31255511247981083 0 -0.36739764409551767 0.31766643323788191 0 -0.37201298923312492 0.31436500150164193 0 -0.36834018418721021 0.31255511247981083 0 -0.38471778892273689 0.34065840426865301 0 -0.3641181045275268 0.33545111828093888 0 -0.36981540343905073 0.34664709977874592 0 -0.38471778892273689 0.34065840426865301 0 -0.3641181045275268 0.33545111828093888 0 -0.38471778892273689 0.34065840426865301 0 -0.36739764409551767 0.31766643323788191 0 -0.3641181045275268 0.33545111828093888 0 -0.3641181045275268 0.33545111828093888 0 -0.36049948502015888 0.35507460715631661 0 -0.38094717128672573 0.35246886593446941 0 -0.36981540343905073 0.34664709977874592 0 -0.36049948502015888 0.35507460715631661 0 -0.38094717128672573 0.35246886593446941 0 -0.36049948502015888 0.35507460715631661 0 -0.38094717128672573 0.35246886593446941 0 -0.36049948502015888 0.35507460715631661 0 -0.37181299918487631 0.36866137828311552 0 -0.3641181045275268 0.33545111828093888 0 -0.36981540343905073 0.34664709977874592 0 -0.36049948502015888 0.35507460715631661 0 -0.37181299918487631 0.36866137828311552 0 -0.35762877907118451 0.37064221965037503 0 -0.36641101093304501 0.38052818063815202 0 -0.36049948502015888 0.35507460715631661 0 -0.37181299918487631 0.36866137828311552 0 -0.35762877907118451 0.37064221965037503 0 -0.36049948502015888 0.35507460715631661 0 -0.35762877907118451 0.37064221965037503 0 -0.34472795190970312 0.37228623045396558 0 -0.33469783069720221 0.35836262876349539 0 -0.36049948502015888 0.35507460715631661 0 -0.34472795190970312 0.37228623045396558 0 -0.36049948502015888 0.35507460715631661 0 -0.35762877907118451 0.37064221965037503 0 -0.33469783069720221 0.35836262876349539 0 -0.36049948502015888 0.35507460715631661 0 -0.33469783069720221 0.35836262876349539 0 -0.34739844239535911 0.3425133571479731 0 -0.36049948502015888 0.35507460715631661 0 -0.34739844239535911 0.3425133571479731 0 -0.3641181045275268 0.33545111828093888 0 -0.36049948502015888 0.35507460715631661 0 -0.35226116924585499 0.39975034540940241 0 -0.35475807312220781 0.38620983214443311 0 -0.35226116924585499 0.39975034540940241 0 -0.34986759722736249 0.3895426107887488 0 -0.35475807312220781 0.38620983214443311 0 -0.35226116924585499 0.39975034540940241 0 -0.34986759722736249 0.3895426107887488 0 -0.33700423851925559 0.39649732904706347 0 -0.35226116924585499 0.39975034540940241 0 -0.34986759722736249 0.3895426107887488 0 -0.34472795190970312 0.37228623045396558 0 -0.34986759722736249 0.3895426107887488 0 -0.33671449047893282 0.38391511960929497 0 -0.34472795190970312 0.37228623045396558 0 -0.34986759722736249 0.3895426107887488 0 -0.35475807312220781 0.38620983214443311 0 -0.34472795190970312 0.37228623045396558 0 -0.35475807312220781 0.38620983214443311 0 -0.35762877907118451 0.37064221965037503 0 -0.35475807312220781 0.38620983214443311 0 -0.35762877907118451 0.37064221965037503 0 -0.34472795190970312 0.37228623045396558 0 -0.35475807312220781 0.38620983214443311 0 -0.35475807312220781 0.38620983214443311 0 -0.36641101093304501 0.38052818063815202 0 -0.37150512957606591 0.39095904218024619 0 -0.35762877907118451 0.37064221965037503 0 -0.35475807312220781 0.38620983214443311 0 -0.36641101093304501 0.38052818063815202 0 -0.37825311405019779 0.38249388649354787 0 -0.37181299918487631 0.36866137828311552 0 -0.36641101093304501 0.38052818063815202 0 -0.37825311405019779 0.38249388649354787 0 -0.36641101093304501 0.38052818063815202 0 -0.37150512957606591 0.39095904218024619 0 -0.35226116924585499 0.39975034540940241 0 -0.35475807312220781 0.38620983214443311 0 -0.37147918536255192 0.40942172577200869 0 -0.35475807312220781 0.38620983214443311 0 -0.37147918536255192 0.40942172577200869 0 -0.35475807312220781 0.38620983214443311 0 -0.37150512957606591 0.39095904218024619 0 -0.37147918536255192 0.40942172577200869 0 -0.35226116924585499 0.39975034540940241 0 -0.37147918536255192 0.40942172577200869 0 -0.35795835204595011 0.42404680679000611 0 -0.37156533459105412 0.43367234415356171 0 -0.35795835204595011 0.42404680679000611 0 -0.36365553484605262 0.44834326817060799 0 -0.37147918536255192 0.40942172577200869 0 -0.37156533459105412 0.43367234415356171 0 -0.35795835204595011 0.42404680679000611 0 -0.35795835204595011 0.42404680679000611 0 -0.36365553484605262 0.44834326817060799 0 -0.34703036928684777 0.42811656202764647 0 -0.35795835204595011 0.42404680679000611 0 -0.36365553484605262 0.44834326817060799 0 -0.35226116924585499 0.39975034540940241 0 -0.34703036928684777 0.42811656202764647 0 -0.35226116924585499 0.39975034540940241 0 -0.34703036928684777 0.42811656202764647 0 -0.35795835204595011 0.42404680679000611 0 -0.35226116924585499 0.39975034540940241 0 -0.34703036928684777 0.42811656202764647 0 -0.33460065715142362 0.41338100170771941 0 -0.35226116924585499 0.39975034540940241 0 -0.35795835204595011 0.42404680679000611 0 -0.34703036928684777 0.42811656202764647 0 -0.32429072454512942 0.43023794992874781 0 -0.32468402948396868 0.44644635980256298 0 -0.34703036928684777 0.42811656202764647 0 -0.33460065715142362 0.41338100170771941 0 -0.32429072454512942 0.43023794992874781 0 -0.32429072454512942 0.43023794992874781 0 -0.32047979403029953 0.41793885952453352 0 -0.30756848964011108 0.43640994095923052 0 -0.33460065715142362 0.41338100170771941 0 -0.32429072454512942 0.43023794992874781 0 -0.32047979403029953 0.41793885952453352 0 -0.32047979403029953 0.41793885952453352 0 -0.32175136786347341 0.40300179943405651 0 -0.29880490461042558 0.41112727661919218 0 -0.33460065715142362 0.41338100170771941 0 -0.32047979403029953 0.41793885952453352 0 -0.32175136786347341 0.40300179943405651 0 -0.32175136786347341 0.40300179943405651 0 -0.32377569084731839 0.38801965307185848 0 -0.30718786431747802 0.39288945982576212 0 -0.32175136786347341 0.40300179943405651 0 -0.33700423851925559 0.39649732904706347 0 -0.32377569084731839 0.38801965307185848 0 -0.35226116924585499 0.39975034540940241 0 -0.33460065715142362 0.41338100170771941 0 -0.33700423851925559 0.39649732904706347 0 -0.33460065715142362 0.41338100170771941 0 -0.32175136786347341 0.40300179943405651 0 -0.33700423851925559 0.39649732904706347 0 -0.32883348760874809 0.37270412238666389 0 -0.34472795190970312 0.37228623045396558 0 -0.33671449047893282 0.38391511960929497 0 -0.34986759722736249 0.3895426107887488 0 -0.33700423851925559 0.39649732904706347 0 -0.33671449047893282 0.38391511960929497 0 -0.33700423851925559 0.39649732904706347 0 -0.33671449047893282 0.38391511960929497 0 -0.32377569084731839 0.38801965307185848 0 -0.32883348760874809 0.37270412238666389 0 -0.33671449047893282 0.38391511960929497 0 -0.32377569084731839 0.38801965307185848 0 -0.32883348760874809 0.37270412238666389 0 -0.32377569084731839 0.38801965307185848 0 -0.31376390798865877 0.37563677908924248 0 -0.32377569084731839 0.38801965307185848 0 -0.31376390798865877 0.37563677908924248 0 -0.30718786431747802 0.39288945982576212 0 -0.29965293341540239 0.37549375058018208 0 -0.30718786431747802 0.39288945982576212 0 -0.29004131958074192 0.38584461227915329 0 -0.31376390798865877 0.37563677908924248 0 -0.29965293341540239 0.37549375058018208 0 -0.30718786431747802 0.39288945982576212 0 -0.32175136786347341 0.40300179943405651 0 -0.30718786431747802 0.39288945982576212 0 -0.29880490461042558 0.41112727661919218 0 -0.30718786431747802 0.39288945982576212 0 -0.29004131958074192 0.38584461227915329 0 -0.29880490461042558 0.41112727661919218 0 -0.28246164030540749 0.40445576446377929 0 -0.29004131958074192 0.38584461227915329 0 -0.29880490461042558 0.41112727661919218 0 -0.29004131958074192 0.38584461227915329 0 -0.29880490461042558 0.41112727661919218 0 -0.26558713847812748 0.37381560635463829 0 -0.29004131958074192 0.38584461227915329 0 -0.26990595781985532 0.39115324257370382 0 -0.28246164030540749 0.40445576446377929 0 -0.29004131958074192 0.38584461227915329 0 -0.26990595781985532 0.39115324257370382 0 -0.28246164030540749 0.40445576446377929 0 -0.26745886824147508 0.40295354508644349 0 -0.26990595781985532 0.39115324257370382 0 -0.26745886824147508 0.40295354508644349 0 -0.26990595781985532 0.39115324257370382 0 -0.25796391924935858 0.39800706273040232 0 -0.26990595781985532 0.39115324257370382 0 -0.25796391924935858 0.39800706273040232 0 -0.25158981473514702 0.38430681601032102 0 -0.25796391924935858 0.39800706273040232 0 -0.25158981473514702 0.38430681601032102 0 -0.2465337738171213 0.4064297105025968 0 -0.26745886824147508 0.40295354508644349 0 -0.25796391924935858 0.39800706273040232 0 -0.25433118163319451 0.40519199947894607 0 -0.25796391924935858 0.39800706273040232 0 -0.25433118163319451 0.40519199947894607 0 -0.2465337738171213 0.4064297105025968 0 -0.26558713847812748 0.37381560635463829 0 -0.26990595781985532 0.39115324257370382 0 -0.25158981473514702 0.38430681601032102 0 -0.26558713847812748 0.37381560635463829 0 -0.25158981473514702 0.38430681601032102 0 -0.2480546724397408 0.37115926237380031 0 -0.25259824932708658 0.41945491575618221 0 -0.27409320698459932 0.4346651173971911 0 -0.25333115244358229 0.44040945367818302 0 -0.25433118163319451 0.40519199947894607 0 -0.25259824932708658 0.41945491575618221 0 -0.27207695096883361 0.4155979799723738 0 -0.26745886824147508 0.40295354508644349 0 -0.25433118163319451 0.40519199947894607 0 -0.27207695096883361 0.4155979799723738 0 -0.25433118163319451 0.40519199947894607 0 -0.27207695096883361 0.4155979799723738 0 -0.25433118163319451 0.40519199947894607 0 -0.25259824932708658 0.41945491575618221 0 -0.2465337738171213 0.4064297105025968 0 -0.27207695096883361 0.4155979799723738 0 -0.28982272030447259 0.42600396046580158 0 -0.28246164030540749 0.40445576446377929 0 -0.26745886824147508 0.40295354508644349 0 -0.27207695096883361 0.4155979799723738 0 -0.27207695096883361 0.4155979799723738 0 -0.27409320698459932 0.4346651173971911 0 -0.28982272030447259 0.42600396046580158 0 -0.25259824932708658 0.41945491575618221 0 -0.27207695096883361 0.4155979799723738 0 -0.27409320698459932 0.4346651173971911 0 -0.27409320698459932 0.4346651173971911 0 -0.28982272030447259 0.42600396046580158 0 -0.29426010315065432 0.43769240885989441 0 -0.28246164030540749 0.40445576446377929 0 -0.27207695096883361 0.4155979799723738 0 -0.28982272030447259 0.42600396046580158 0 -0.28246164030540749 0.40445576446377929 0 -0.28982272030447259 0.42600396046580158 0 -0.29880490461042558 0.41112727661919218 0 -0.32047979403029953 0.41793885952453352 0 -0.29880490461042558 0.41112727661919218 0 -0.30756848964011108 0.43640994095923052 0 -0.28982272030447259 0.42600396046580158 0 -0.30756848964011108 0.43640994095923052 0 -0.28982272030447259 0.42600396046580158 0 -0.29880490461042558 0.41112727661919218 0 -0.30756848964011108 0.43640994095923052 0 -0.29880490461042558 0.41112727661919218 0 -0.30756848964011108 0.43640994095923052 0 -0.28982272030447259 0.42600396046580158 0 -0.30756848964011108 0.43640994095923052 0 -0.29426010315065432 0.43769240885989441 0 -0.30756848964011108 0.43640994095923052 0 -0.31491577553729372 0.45760662730615598 0 -0.30070282520561192 0.44504825281554489 0 -0.31062110137050458 0.45629003579658739 0 -0.28969900316653202 0.45006303123283598 0 -0.30756848964011108 0.43640994095923052 0 -0.31062110137050458 0.45629003579658739 0 -0.31491577553729372 0.45760662730615598 0 -0.30756848964011108 0.43640994095923052 0 -0.30070282520561192 0.44504825281554489 0 -0.31062110137050458 0.45629003579658739 0 -0.30756848964011108 0.43640994095923052 0 -0.30070282520561192 0.44504825281554489 0 -0.29426010315065432 0.43769240885989441 0 -0.31062110137050458 0.45629003579658739 0 -0.28969900316653202 0.45006303123283598 0 -0.29063924486405129 0.47039710747135199 0 -0.31062110137050458 0.45629003579658739 0 -0.29063924486405129 0.47039710747135199 0 -0.30700648351556892 0.47106561290792709 0 -0.31062110137050458 0.45629003579658739 0 -0.29063924486405129 0.47039710747135199 0 -0.31062110137050458 0.45629003579658739 0 -0.30700648351556892 0.47106561290792709 0 -0.31491577553729372 0.45760662730615598 0 -0.28969900316653202 0.45006303123283598 0 -0.27241650689153979 0.46863659627809778 0 -0.29063924486405129 0.47039710747135199 0 -0.27409320698459932 0.4346651173971911 0 -0.29426010315065432 0.43769240885989441 0 -0.28969900316653202 0.45006303123283598 0 -0.30070282520561192 0.44504825281554489 0 -0.29426010315065432 0.43769240885989441 0 -0.28969900316653202 0.45006303123283598 0 -0.27409320698459932 0.4346651173971911 0 -0.28969900316653202 0.45006303123283598 0 -0.26554679583095442 0.45277415297600621 0 -0.28969900316653202 0.45006303123283598 0 -0.27241650689153979 0.46863659627809778 0 -0.26554679583095442 0.45277415297600621 0 -0.27241650689153979 0.46863659627809778 0 -0.2569211326107973 0.46479367291306029 0 -0.26554679583095442 0.45277415297600621 0 -0.2569211326107973 0.46479367291306029 0 -0.26554679583095442 0.45277415297600621 0 -0.24984923763868849 0.45633443145769798 0 -0.27409320698459932 0.4346651173971911 0 -0.26554679583095442 0.45277415297600621 0 -0.25333115244358229 0.44040945367818302 0 -0.26554679583095442 0.45277415297600621 0 -0.25333115244358229 0.44040945367818302 0 -0.24984923763868849 0.45633443145769798 0 -0.25381414164408989 0.479486243032479 0 -0.27065738835759767 0.48450417914611621 0 -0.24870844842941681 0.49999999999999878 0 -0.27065738835759767 0.48450417914611621 0 -0.24870844842941681 0.49999999999999878 0 -0.2733153257480897 0.5 0 -0.27065738835759767 0.48450417914611621 0 -0.24870844842941681 0.49999999999999878 0 -0.25381414164408989 0.479486243032479 0 -0.27065738835759767 0.48450417914611621 0 -0.27241650689153979 0.46863659627809778 0 -0.2569211326107973 0.46479367291306029 0 -0.25381414164408989 0.479486243032479 0 -0.2569211326107973 0.46479367291306029 0 -0.25381414164408989 0.479486243032479 0 -0.24263633984611299 0.46942721424246181 0 -0.27241650689153979 0.46863659627809778 0 -0.27065738835759767 0.48450417914611621 0 -0.29063924486405129 0.47039710747135199 0 -0.27065738835759767 0.48450417914611621 0 -0.29063924486405129 0.47039710747135199 0 -0.27241650689153979 0.46863659627809778 0 -0.25381414164408989 0.479486243032479 0 -0.27065738835759767 0.48450417914611621 0 -0.2733153257480897 0.5 0 -0.27065738835759767 0.48450417914611621 0 -0.29659323437151691 0.49223098031245899 0 -0.27065738835759767 0.48450417914611621 0 -0.29659323437151691 0.49223098031245899 0 -0.2733153257480897 0.5 0 -0.29659323437151691 0.49223098031245899 0 -0.29792220306676259 0.5 0 -0.27065738835759767 0.48450417914611621 0 -0.29659323437151691 0.49223098031245899 0 -0.29063924486405129 0.47039710747135199 0 -0.29659323437151691 0.49223098031245899 0 -0.29063924486405129 0.47039710747135199 0 -0.30700648351556892 0.47106561290792709 0 -0.29659323437151691 0.49223098031245899 0 -0.30700648351556892 0.47106561290792709 0 -0.32226306143447803 0.47880331365308099 0 -0.29659323437151691 0.49223098031245899 0 -0.3225290803854356 0.49995778147880282 0 -0.29659323437151691 0.49223098031245899 0 -0.29792220306676259 0.5 0 -0.3225290803854356 0.49995778147880282 0 -0.3225290803854356 0.49995778147880282 0 -0.32961034733166411 0.50000000000000544 0 -0.32226306143447803 0.47880331365308099 0 -0.32961034733166411 0.50000000000000544 0 -0.32226306143447803 0.47880331365308099 0 -0.29659323437151691 0.49223098031245899 0 -0.3225290803854356 0.49995778147880282 0 -0.32226306143447803 0.47880331365308099 0 -0.33377488691286711 0.50000000000000522 0 -0.33778722812035078 0.47824138932294719 0 -0.32961034733166411 0.50000000000000544 0 -0.33778722812035078 0.47824138932294719 0 -0.32226306143447803 0.47880331365308099 0 -0.33377488691286711 0.50000000000000522 0 -0.33778722812035078 0.47824138932294719 0 -0.35205910045523131 0.48378718647392022 0 -0.33377488691286711 0.50000000000000522 0 -0.32961034733166411 0.50000000000000544 0 -0.33778722812035078 0.47824138932294719 0 -0.33778722812035078 0.47824138932294719 0 -0.32226306143447803 0.47880331365308099 0 -0.32867802903946219 0.4647080132274663 0 -0.30700648351556892 0.47106561290792709 0 -0.32226306143447803 0.47880331365308099 0 -0.31491577553729372 0.45760662730615598 0 -0.32226306143447803 0.47880331365308099 0 -0.31491577553729372 0.45760662730615598 0 -0.31491577553729372 0.45760662730615598 0 -0.32468402948396868 0.44644635980256298 0 -0.32867802903946219 0.4647080132274663 0 -0.32226306143447803 0.47880331365308099 0 -0.31491577553729372 0.45760662730615598 0 -0.32867802903946219 0.4647080132274663 0 -0.30756848964011108 0.43640994095923052 0 -0.31491577553729372 0.45760662730615598 0 -0.32468402948396868 0.44644635980256298 0 -0.32429072454512942 0.43023794992874781 0 -0.30756848964011108 0.43640994095923052 0 -0.32468402948396868 0.44644635980256298 0 -0.30756848964011108 0.43640994095923052 0 -0.32468402948396868 0.44644635980256298 0 -0.34703036928684777 0.42811656202764647 0 -0.32468402948396868 0.44644635980256298 0 -0.34179956932783062 0.45648277864588849 0 -0.32468402948396868 0.44644635980256298 0 -0.34179956932783062 0.45648277864588849 0 -0.33778722812035078 0.47824138932294719 0 -0.32867802903946219 0.4647080132274663 0 -0.34179956932783062 0.45648277864588849 0 -0.32468402948396868 0.44644635980256298 0 -0.32867802903946219 0.4647080132274663 0 -0.34179956932783062 0.45648277864588849 0 -0.33778722812035078 0.47824138932294719 0 -0.34179956932783062 0.45648277864588849 0 -0.33778722812035078 0.47824138932294719 0 -0.34179956932783062 0.45648277864588849 0 -0.35557614348698757 0.46456125409855509 0 -0.34179956932783062 0.45648277864588849 0 -0.35557614348698757 0.46456125409855509 0 -0.36365553484605262 0.44834326817060799 0 -0.34179956932783062 0.45648277864588849 0 -0.35557614348698757 0.46456125409855509 0 -0.34703036928684777 0.42811656202764647 0 -0.34179956932783062 0.45648277864588849 0 -0.36365553484605262 0.44834326817060799 0 -0.34703036928684777 0.42811656202764647 0 -0.34179956932783062 0.45648277864588849 0 -0.37574930311598798 0.45840260136003491 0 -0.37771733629218529 0.44462342228227159 0 -0.36365553484605262 0.44834326817060799 0 -0.37771733629218529 0.44462342228227159 0 -0.37156533459105412 0.43367234415356171 0 -0.36365553484605262 0.44834326817060799 0 -0.36365553484605262 0.44834326817060799 0 -0.36935271764615102 0.47263972955121092 0 -0.35557614348698757 0.46456125409855509 0 -0.36365553484605262 0.44834326817060799 0 -0.36935271764615102 0.47263972955121092 0 -0.37574930311598798 0.45840260136003491 0 -0.36365553484605262 0.44834326817060799 0 -0.36935271764615102 0.47263972955121092 0 -0.35557614348698757 0.46456125409855509 0 -0.36935271764615102 0.47263972955121092 0 -0.37834873548077258 0.46767211073475068 0 -0.37574930311598798 0.45840260136003491 0 -0.36935271764615102 0.47263972955121092 0 -0.3698126641665343 0.47460123811809918 0 -0.36935271764615102 0.47263972955121092 0 -0.35557614348698757 0.46456125409855509 0 -0.36935271764615102 0.47263972955121092 0 -0.36230092682994269 0.47598115658229512 0 -0.3698126641665343 0.47460123811809918 0 -0.36935271764615102 0.47263972955121092 0 -0.36230092682994269 0.47598115658229512 0 -0.3698126641665343 0.47460123811809918 0 -0.36230092682994269 0.47598115658229512 0 -0.36470400839481071 0.48431637466968741 0 -0.36230092682994269 0.47598115658229512 0 -0.36470400839481071 0.48431637466968741 0 -0.35205910045523131 0.48378718647392022 0 -0.3698126641665343 0.47460123811809918 0 -0.36470400839481071 0.48431637466968741 0 -0.37440925376156559 0.48330126246033778 0 -0.38484983308279591 0.5 0 -0.37401948013283348 0.49006754973603561 0 -0.3593123599978314 0.5 0 -0.36470400839481071 0.48431637466968741 0 -0.37440925376156559 0.48330126246033778 0 -0.37401948013283348 0.49006754973603561 0 -0.36470400839481071 0.48431637466968741 0 -0.37401948013283348 0.49006754973603561 0 -0.3593123599978314 0.5 0 -0.33377488691286711 0.50000000000000522 0 -0.3593123599978314 0.5 0 -0.35205910045523131 0.48378718647392022 0 -0.36470400839481071 0.48431637466968741 0 -0.3593123599978314 0.5 0 -0.35205910045523131 0.48378718647392022 0 -0.35557614348698757 0.46456125409855509 0 -0.36230092682994269 0.47598115658229512 0 -0.35205910045523131 0.48378718647392022 0 -0.33778722812035078 0.47824138932294719 0 -0.35557614348698757 0.46456125409855509 0 -0.35205910045523131 0.48378718647392022 0 -0.13820783728696809 0.48264453070264879 0 -0.14199379246180929 0.46216909372876769 0 -0.15836400100807471 0.47901202939611609 0 -0.14962354248004131 0.5 0 -0.13820783728696809 0.48264453070264879 0 -0.15836400100807471 0.47901202939611609 0 -0.14962354248004131 0.5 0 -0.13820783728696809 0.48264453070264879 0 -0.12029679558512429 0.5 0 -0.13820783728696809 0.48264453070264879 0 -0.1207610548997911 0.47204153038836028 0 -0.12029679558512429 0.5 0 -0.13820783728696809 0.48264453070264879 0 -0.14199379246180929 0.46216909372876769 0 -0.1207610548997911 0.47204153038836028 0 -0.12516841094691289 0.4495105975028017 0 -0.14199379246180929 0.46216909372876769 0 -0.1207610548997911 0.47204153038836028 0 -0.12516841094691289 0.4495105975028017 0 -0.14680948991105469 0.44241132777146569 0 -0.13115928916177991 0.43005933000412738 0 -0.12516841094691289 0.4495105975028017 0 -0.14680948991105469 0.44241132777146569 0 -0.14199379246180929 0.46216909372876769 0 -0.14680948991105469 0.44241132777146569 0 -0.14199379246180929 0.46216909372876769 0 -0.16504949182898079 0.45446426552226321 0 -0.14199379246180929 0.46216909372876769 0 -0.16504949182898079 0.45446426552226321 0 -0.15836400100807471 0.47901202939611609 0 -0.16504949182898079 0.45446426552226321 0 -0.17869058373050831 0.47151051333684169 0 -0.15836400100807471 0.47901202939611609 0 -0.14680948991105469 0.44241132777146569 0 -0.16504949182898079 0.45446426552226321 0 -0.16335396365929619 0.43039924576104199 0 -0.16504949182898079 0.45446426552226321 0 -0.1807310376681541 0.43692252717452251 0 -0.16335396365929619 0.43039924576104199 0 -0.18262750892454399 0.45319689895540738 0 -0.1956070203039719 0.44447237049598509 0 -0.1807310376681541 0.43692252717452251 0 -0.16504949182898079 0.45446426552226321 0 -0.18262750892454399 0.45319689895540738 0 -0.1807310376681541 0.43692252717452251 0 -0.16504949182898079 0.45446426552226321 0 -0.18262750892454399 0.45319689895540738 0 -0.17869058373050831 0.47151051333684169 0 -0.18262750892454399 0.45319689895540738 0 -0.17869058373050831 0.47151051333684169 0 -0.19358268682927879 0.4615421021294252 0 -0.17869058373050831 0.47151051333684169 0 -0.15836400100807471 0.47901202939611609 0 -0.17895028937495791 0.5 0 -0.17869058373050831 0.47151051333684169 0 -0.17895028937495791 0.5 0 -0.19769051186747311 0.48124452908984239 0 -0.14962354248004131 0.5 0 -0.15836400100807471 0.47901202939611609 0 -0.17895028937495791 0.5 0 -0.17895028937495791 0.5 0 -0.19769051186747311 0.48124452908984239 0 -0.20827703626987459 0.5 0 -0.19769051186747311 0.48124452908984239 0 -0.21247416894616089 0.46717024805442608 0 -0.19358268682927879 0.4615421021294252 0 -0.17869058373050831 0.47151051333684169 0 -0.19769051186747311 0.48124452908984239 0 -0.19358268682927879 0.4615421021294252 0 -0.19769051186747311 0.48124452908984239 0 -0.21522493999333861 0.48120638219243222 0 -0.21247416894616089 0.46717024805442608 0 -0.21522493999333861 0.48120638219243222 0 -0.20827703626987459 0.5 0 -0.22945574449784709 0.48115526096626182 0 -0.19769051186747311 0.48124452908984239 0 -0.21522493999333861 0.48120638219243222 0 -0.20827703626987459 0.5 0 -0.22514890428408821 0.49999999999999911 0 -0.22945574449784709 0.48115526096626182 0 -0.22514890428408821 0.49999999999999911 0 -0.22945574449784709 0.48115526096626182 0 -0.2408142637458254 0.48741444349690738 0 -0.20827703626987459 0.5 0 -0.22514890428408821 0.49999999999999911 0 -0.22945574449784709 0.48115526096626182 0 -0.20827703626987459 0.5 0 -0.22945574449784709 0.48115526096626182 0 -0.23136565106304399 0.47279839397942369 0 -0.21247416894616089 0.46717024805442608 0 -0.21522493999333861 0.48120638219243222 0 -0.23136565106304399 0.47279839397942369 0 -0.22945574449784709 0.48115526096626182 0 -0.21522493999333861 0.48120638219243222 0 -0.23136565106304399 0.47279839397942369 0 -0.21247416894616089 0.46717024805442608 0 -0.23136565106304399 0.47279839397942369 0 -0.22945574449784709 0.48115526096626182 0 -0.23697089493058221 0.47446830691884162 0 -0.23136565106304399 0.47279839397942369 0 -0.23697089493058221 0.47446830691884162 0 -0.23136565106304399 0.47279839397942369 0 -0.22945574449784709 0.48115526096626182 0 -0.22945574449784709 0.48115526096626182 0 -0.23697089493058221 0.47446830691884162 0 -0.25381414164408989 0.479486243032479 0 -0.23697089493058221 0.47446830691884162 0 -0.22945574449784709 0.48115526096626182 0 -0.23697089493058221 0.47446830691884162 0 -0.2408142637458254 0.48741444349690738 0 -0.25381414164408989 0.479486243032479 0 -0.23697089493058221 0.47446830691884162 0 -0.24263633984611299 0.46942721424246181 0 -0.25381414164408989 0.479486243032479 0 -0.23697089493058221 0.47446830691884162 0 -0.2408142637458254 0.48741444349690738 0 -0.23136565106304399 0.47279839397942369 0 -0.23697089493058221 0.47446830691884162 0 -0.24263633984611299 0.46942721424246181 0 -0.23697089493058221 0.47446830691884162 0 -0.24263633984611299 0.46942721424246181 0 -0.25381414164408989 0.479486243032479 0 -0.24870844842941681 0.49999999999999878 0 -0.2408142637458254 0.48741444349690738 0 -0.22514890428408821 0.49999999999999911 0 -0.24870844842941681 0.49999999999999878 0 -0.2408142637458254 0.48741444349690738 0 -0.25333115244358229 0.44040945367818302 0 -0.23642169198106991 0.45067549948714808 0 -0.24984923763868849 0.45633443145769798 0 -0.25333115244358229 0.44040945367818302 0 -0.23642169198106991 0.45067549948714808 0 -0.24147773289909549 0.42855260499487252 0 -0.23642169198106991 0.45067549948714808 0 -0.24147773289909549 0.42855260499487252 0 -0.24263633984611299 0.46942721424246181 0 -0.23642169198106991 0.45067549948714808 0 -0.24984923763868849 0.45633443145769798 0 -0.23136565106304399 0.47279839397942369 0 -0.24263633984611299 0.46942721424246181 0 -0.23642169198106991 0.45067549948714808 0 -0.2569211326107973 0.46479367291306029 0 -0.24263633984611299 0.46942721424246181 0 -0.24984923763868849 0.45633443145769798 0 -0.23136565106304399 0.47279839397942369 0 -0.2237857313861239 0.45927832396201829 0 -0.21247416894616089 0.46717024805442608 0 -0.23136565106304399 0.47279839397942369 0 -0.23642169198106991 0.45067549948714808 0 -0.2237857313861239 0.45927832396201829 0 -0.23136565106304399 0.47279839397942369 0 -0.23642169198106991 0.45067549948714808 0 -0.23642169198106991 0.45067549948714808 0 -0.21296477718831211 0.44579348771927357 0 -0.221842765274608 0.42965226790896122 0 -0.23642169198106991 0.45067549948714808 0 -0.2237857313861239 0.45927832396201829 0 -0.21296477718831211 0.44579348771927357 0 -0.21296477718831211 0.44579348771927357 0 -0.21247416894616089 0.46717024805442608 0 -0.19358268682927879 0.4615421021294252 0 -0.2237857313861239 0.45927832396201829 0 -0.21296477718831211 0.44579348771927357 0 -0.21247416894616089 0.46717024805442608 0 -0.21247416894616089 0.46717024805442608 0 -0.19358268682927879 0.4615421021294252 0 -0.21296477718831211 0.44579348771927357 0 -0.19358268682927879 0.4615421021294252 0 -0.1956070203039719 0.44447237049598509 0 -0.18262750892454399 0.45319689895540738 0 -0.19358268682927879 0.4615421021294252 0 -0.1956070203039719 0.44447237049598509 0 -0.21296477718831211 0.44579348771927357 0 -0.1956070203039719 0.44447237049598509 0 -0.1993507047282593 0.42613253535429207 0 -0.1956070203039719 0.44447237049598509 0 -0.1993507047282593 0.42613253535429207 0 -0.1807310376681541 0.43692252717452251 0 -0.1993507047282593 0.42613253535429207 0 -0.20848665040798681 0.4109848850885115 0 -0.19174226163675731 0.40334829702492969 0 -0.1993507047282593 0.42613253535429207 0 -0.19174226163675731 0.40334829702492969 0 -0.17840671711275599 0.41649038130278632 0 -0.20848665040798681 0.4109848850885115 0 -0.221842765274608 0.42965226790896122 0 -0.22583910587125769 0.41472502282125978 0 -0.20848665040798681 0.4109848850885115 0 -0.22583910587125769 0.41472502282125978 0 -0.2209238404184849 0.40160143201148207 0 -0.21296477718831211 0.44579348771927357 0 -0.1993507047282593 0.42613253535429207 0 -0.221842765274608 0.42965226790896122 0 -0.1993507047282593 0.42613253535429207 0 -0.20848665040798681 0.4109848850885115 0 -0.221842765274608 0.42965226790896122 0 -0.23642169198106991 0.45067549948714808 0 -0.221842765274608 0.42965226790896122 0 -0.24147773289909549 0.42855260499487252 0 -0.221842765274608 0.42965226790896122 0 -0.22583910587125769 0.41472502282125978 0 -0.24147773289909549 0.42855260499487252 0 -0.22583910587125769 0.41472502282125978 0 -0.24147773289909549 0.42855260499487252 0 -0.23423533906553379 0.4057918665213876 0 -0.22583910587125769 0.41472502282125978 0 -0.23423533906553379 0.4057918665213876 0 -0.2209238404184849 0.40160143201148207 0 -0.2465337738171213 0.4064297105025968 0 -0.24147773289909549 0.42855260499487252 0 -0.25259824932708658 0.41945491575618221 0 -0.2465337738171213 0.4064297105025968 0 -0.24147773289909549 0.42855260499487252 0 -0.2465337738171213 0.4064297105025968 0 -0.24147773289909549 0.42855260499487252 0 -0.23423533906553379 0.4057918665213876 0 -0.25259824932708658 0.41945491575618221 0 -0.25333115244358229 0.44040945367818302 0 -0.24147773289909549 0.42855260499487252 0 -0.23949321978078261 0.38065657007779258 0 -0.23993003901176729 0.3931288928375794 0 -0.22865438006567021 0.38938068545884869 0 -0.25158981473514702 0.38430681601032102 0 -0.23949321978078261 0.38065657007779258 0 -0.2480546724397408 0.37115926237380031 0 -0.25158981473514702 0.38430681601032102 0 -0.23949321978078261 0.38065657007779258 0 -0.23993003901176729 0.3931288928375794 0 -0.25158981473514702 0.38430681601032102 0 -0.2465337738171213 0.4064297105025968 0 -0.23993003901176729 0.3931288928375794 0 -0.25158981473514702 0.38430681601032102 0 -0.2465337738171213 0.4064297105025968 0 -0.2465337738171213 0.4064297105025968 0 -0.23993003901176729 0.3931288928375794 0 -0.23423533906553379 0.4057918665213876 0 -0.23993003901176729 0.3931288928375794 0 -0.23423533906553379 0.4057918665213876 0 -0.22865438006567021 0.38938068545884869 0 -0.2209238404184849 0.40160143201148207 0 -0.22865438006567021 0.38938068545884869 0 -0.20740372668197599 0.3871247001674028 0 -0.23423533906553379 0.4057918665213876 0 -0.2209238404184849 0.40160143201148207 0 -0.22865438006567021 0.38938068545884869 0 -0.23949321978078261 0.38065657007779258 0 -0.22865438006567021 0.38938068545884869 0 -0.22910720096177389 0.36984289464462711 0 -0.22865438006567021 0.38938068545884869 0 -0.20740372668197599 0.3871247001674028 0 -0.22910720096177389 0.36984289464462711 0 -0.20740372668197599 0.3871247001674028 0 -0.22910720096177389 0.36984289464462711 0 -0.20848665040798681 0.4109848850885115 0 -0.2209238404184849 0.40160143201148207 0 -0.20740372668197599 0.3871247001674028 0 -0.20848665040798681 0.4109848850885115 0 -0.20740372668197599 0.3871247001674028 0 -0.19174226163675731 0.40334829702492969 0 -0.20740372668197599 0.3871247001674028 0 -0.19174226163675731 0.40334829702492969 0 -0.18539092126453741 0.38224774035812698 0 -0.20740372668197599 0.3871247001674028 0 -0.18539092126453741 0.38224774035812698 0 -0.19568439231324569 0.36295196832706977 0 -0.18539092126453741 0.38224774035812698 0 -0.16922158813326341 0.37982293467441108 0 -0.17141484962502829 0.39710953987845887 0 -0.18539092126453741 0.38224774035812698 0 -0.16922158813326341 0.37982293467441108 0 -0.17484448275996931 0.36426856049585798 0 -0.16922158813326341 0.37982293467441108 0 -0.17141484962502829 0.39710953987845887 0 -0.15413197797536829 0.3856426389175126 0 -0.16922158813326341 0.37982293467441108 0 -0.15413197797536829 0.3856426389175126 0 -0.154004573206693 0.36558515266464831 0 -0.17141484962502829 0.39710953987845887 0 -0.15699887084931841 0.4016284515504347 0 -0.162844008436758 0.4130073774385068 0 -0.17141484962502829 0.39710953987845887 0 -0.15699887084931841 0.4016284515504347 0 -0.15413197797536829 0.3856426389175126 0 -0.19174226163675731 0.40334829702492969 0 -0.18539092126453741 0.38224774035812698 0 -0.17141484962502829 0.39710953987845887 0 -0.19174226163675731 0.40334829702492969 0 -0.17141484962502829 0.39710953987845887 0 -0.17840671711275599 0.41649038130278632 0 -0.1993507047282593 0.42613253535429207 0 -0.17840671711275599 0.41649038130278632 0 -0.1807310376681541 0.43692252717452251 0 -0.17840671711275599 0.41649038130278632 0 -0.1807310376681541 0.43692252717452251 0 -0.16335396365929619 0.43039924576104199 0 -0.16335396365929619 0.43039924576104199 0 -0.162844008436758 0.4130073774385068 0 -0.1482089051277046 0.42346419669852869 0 -0.17141484962502829 0.39710953987845887 0 -0.17840671711275599 0.41649038130278632 0 -0.162844008436758 0.4130073774385068 0 -0.17840671711275599 0.41649038130278632 0 -0.16335396365929619 0.43039924576104199 0 -0.162844008436758 0.4130073774385068 0 -0.15699887084931841 0.4016284515504347 0 -0.162844008436758 0.4130073774385068 0 -0.1472452939192834 0.40913622176126069 0 -0.162844008436758 0.4130073774385068 0 -0.1472452939192834 0.40913622176126069 0 -0.1482089051277046 0.42346419669852869 0 -0.1472452939192834 0.40913622176126069 0 -0.1482089051277046 0.42346419669852869 0 -0.13602001213434489 0.41601227370225691 0 -0.14680948991105469 0.44241132777146569 0 -0.16335396365929619 0.43039924576104199 0 -0.1482089051277046 0.42346419669852869 0 -0.14680948991105469 0.44241132777146569 0 -0.1482089051277046 0.42346419669852869 0 -0.13115928916177991 0.43005933000412738 0 -0.1482089051277046 0.42346419669852869 0 -0.13115928916177991 0.43005933000412738 0 -0.13602001213434489 0.41601227370225691 0 -0.13602001213434489 0.41601227370225691 0 -0.13679528796964099 0.40454670363436401 0 -0.11669128449331551 0.41285491641300348 0 -0.13115928916177991 0.43005933000412738 0 -0.13602001213434489 0.41601227370225691 0 -0.11669128449331551 0.41285491641300348 0 -0.1472452939192834 0.40913622176126069 0 -0.13602001213434489 0.41601227370225691 0 -0.13679528796964099 0.40454670363436401 0 -0.13534792885000471 0.38922003453882631 0 -0.12489821836988629 0.38504933412521658 0 -0.11669128449331551 0.41285491641300348 0 -0.13679528796964099 0.40454670363436401 0 -0.13534792885000471 0.38922003453882631 0 -0.11669128449331551 0.41285491641300348 0 -0.13534792885000471 0.38922003453882631 0 -0.11669128449331551 0.41285491641300348 0 -0.13679528796964099 0.40454670363436401 0 -0.13534792885000471 0.38922003453882631 0 -0.1464695902775342 0.39691604661442859 0 -0.13534792885000471 0.38922003453882631 0 -0.13445114630382329 0.36682046938555041 0 -0.12489821836988629 0.38504933412521658 0 -0.13534792885000471 0.38922003453882631 0 -0.15413197797536829 0.3856426389175126 0 -0.154004573206693 0.36558515266464831 0 -0.13534792885000471 0.38922003453882631 0 -0.15413197797536829 0.3856426389175126 0 -0.1464695902775342 0.39691604661442859 0 -0.13534792885000471 0.38922003453882631 0 -0.154004573206693 0.36558515266464831 0 -0.15699887084931841 0.4016284515504347 0 -0.15413197797536829 0.3856426389175126 0 -0.1464695902775342 0.39691604661442859 0 -0.15699887084931841 0.4016284515504347 0 -0.1472452939192834 0.40913622176126069 0 -0.1464695902775342 0.39691604661442859 0 -0.1472452939192834 0.40913622176126069 0 -0.13679528796964099 0.40454670363436401 0 -0.1464695902775342 0.39691604661442859 0 -0.14933934793225229 0.34692139600595012 0 -0.154004573206693 0.36558515266464831 0 -0.133105152246457 0.35724375183742962 0 -0.14933934793225229 0.34692139600595012 0 -0.133105152246457 0.35724375183742962 0 -0.14131208612302781 0.32943816954964261 0 -0.154004573206693 0.36558515266464831 0 -0.13445114630382329 0.36682046938555041 0 -0.13534792885000471 0.38922003453882631 0 -0.154004573206693 0.36558515266464831 0 -0.13445114630382329 0.36682046938555041 0 -0.154004573206693 0.36558515266464831 0 -0.13445114630382329 0.36682046938555041 0 -0.133105152246457 0.35724375183742962 0 -0.13445114630382329 0.36682046938555041 0 -0.133105152246457 0.35724375183742962 0 -0.12489821836988629 0.38504933412521658 0 -0.133105152246457 0.35724375183742962 0 -0.12489821836988629 0.38504933412521658 0 -0.133105152246457 0.35724375183742962 0 -0.14131208612302781 0.32943816954964261 0 -0.1157197670586784 0.33804709743087502 0 -0.133105152246457 0.35724375183742962 0 -0.14131208612302781 0.32943816954964261 0 -0.14131208612302781 0.32943816954964261 0 -0.12634938830538101 0.31244775242356221 0 -0.1157197670586784 0.33804709743087502 0 -0.14131208612302781 0.32943816954964261 0 -0.14951901999959841 0.30163258726185571 0 -0.12634938830538101 0.31244775242356221 0 -0.14131208612302781 0.32943816954964261 0 -0.14951901999959841 0.30163258726185571 0 -0.14131208612302781 0.32943816954964261 0 -0.16180539016356299 0.32472147862110229 0 -0.14951901999959841 0.30163258726185571 0 -0.14933934793225229 0.34692139600595012 0 -0.14131208612302781 0.32943816954964261 0 -0.16180539016356299 0.32472147862110229 0 -0.14933934793225229 0.34692139600595012 0 -0.16180539016356299 0.32472147862110229 0 -0.16937638338846969 0.34611161225231468 0 -0.16180539016356299 0.32472147862110229 0 -0.1847481935702453 0.32663807183998028 0 -0.1765373099677843 0.29758703481687121 0 -0.1847481935702453 0.32663807183998028 0 -0.18703654364796671 0.34729763828389232 0 -0.16937638338846969 0.34611161225231468 0 -0.1847481935702453 0.32663807183998028 0 -0.16937638338846969 0.34611161225231468 0 -0.16180539016356299 0.32472147862110229 0 -0.1847481935702453 0.32663807183998028 0 -0.16937638338846969 0.34611161225231468 0 -0.18703654364796671 0.34729763828389232 0 -0.17484448275996931 0.36426856049585798 0 -0.19568439231324569 0.36295196832706977 0 -0.18703654364796671 0.34729763828389232 0 -0.16937638338846969 0.34611161225231468 0 -0.17484448275996931 0.36426856049585798 0 -0.154004573206693 0.36558515266464831 0 -0.16937638338846969 0.34611161225231468 0 -0.14933934793225229 0.34692139600595012 0 -0.154004573206693 0.36558515266464831 0 -0.16937638338846969 0.34611161225231468 0 -0.154004573206693 0.36558515266464831 0 -0.16937638338846969 0.34611161225231468 0 -0.17484448275996931 0.36426856049585798 0 -0.154004573206693 0.36558515266464831 0 -0.17484448275996931 0.36426856049585798 0 -0.16922158813326341 0.37982293467441108 0 -0.154004573206693 0.36558515266464831 0 -0.17484448275996931 0.36426856049585798 0 -0.17484448275996931 0.36426856049585798 0 -0.19568439231324569 0.36295196832706977 0 -0.18539092126453741 0.38224774035812698 0 -0.17484448275996931 0.36426856049585798 0 -0.19568439231324569 0.36295196832706977 0 -0.18703654364796671 0.34729763828389232 0 -0.19568439231324569 0.36295196832706977 0 -0.204646018817213 0.34294342690114171 0 -0.21839608741634339 0.34655692439710761 0 -0.21652430186652219 0.36163537615828162 0 -0.204646018817213 0.34294342690114171 0 -0.19568439231324569 0.36295196832706977 0 -0.21652430186652219 0.36163537615828162 0 -0.204646018817213 0.34294342690114171 0 -0.20740372668197599 0.3871247001674028 0 -0.19568439231324569 0.36295196832706977 0 -0.21652430186652219 0.36163537615828162 0 -0.20740372668197599 0.3871247001674028 0 -0.21652430186652219 0.36163537615828162 0 -0.22910720096177389 0.36984289464462711 0 -0.19568439231324569 0.36295196832706977 0 -0.21652430186652219 0.36163537615828162 0 -0.21652430186652219 0.36163537615828162 0 -0.22910720096177389 0.36984289464462711 0 -0.23053511718252709 0.3487809867133812 0 -0.21839608741634339 0.34655692439710761 0 -0.21652430186652219 0.36163537615828162 0 -0.23053511718252709 0.3487809867133812 0 -0.25081067524157202 0.35256108912185141 0 -0.22910720096177389 0.36984289464462711 0 -0.23053511718252709 0.3487809867133812 0 -0.25081067524157202 0.35256108912185141 0 -0.23053511718252709 0.3487809867133812 0 -0.23758106668090601 0.33531779375075282 0 -0.23949321978078261 0.38065657007779258 0 -0.22910720096177389 0.36984289464462711 0 -0.2480546724397408 0.37115926237380031 0 -0.25081067524157202 0.35256108912185141 0 -0.22910720096177389 0.36984289464462711 0 -0.2480546724397408 0.37115926237380031 0 -0.25081067524157202 0.35256108912185141 0 -0.22910720096177389 0.36984289464462711 0 -0.25150935396912888 0.32630300467706058 0 -0.2369093166351682 0.32060908327358489 0 -0.24755542725455071 0.30598585151241481 0 -0.25150935396912888 0.32630300467706058 0 -0.2369093166351682 0.32060908327358489 0 -0.23758106668090601 0.33531779375075282 0 -0.25150935396912888 0.32630300467706058 0 -0.25081067524157202 0.35256108912185141 0 -0.23758106668090601 0.33531779375075282 0 -0.2369093166351682 0.32060908327358489 0 -0.23758106668090601 0.33531779375075282 0 -0.2234722807959732 0.3310024154658342 0 -0.23053511718252709 0.3487809867133812 0 -0.23758106668090601 0.33531779375075282 0 -0.2234722807959732 0.3310024154658342 0 -0.21839608741634339 0.34655692439710761 0 -0.23053511718252709 0.3487809867133812 0 -0.2234722807959732 0.3310024154658342 0 -0.2369093166351682 0.32060908327358489 0 -0.2234722807959732 0.3310024154658342 0 -0.22462176007741241 0.30848193194543289 0 -0.2234722807959732 0.3310024154658342 0 -0.20724210782116351 0.3238079026991959 0 -0.22462176007741241 0.30848193194543289 0 -0.20724210782116351 0.3238079026991959 0 -0.20012000375202099 0.30716453142764588 0 -0.22462176007741241 0.30848193194543289 0 -0.2234722807959732 0.3310024154658342 0 -0.20724210782116351 0.3238079026991959 0 -0.204646018817213 0.34294342690114171 0 -0.21839608741634339 0.34655692439710761 0 -0.2234722807959732 0.3310024154658342 0 -0.204646018817213 0.34294342690114171 0 -0.1847481935702453 0.32663807183998028 0 -0.20724210782116351 0.3238079026991959 0 -0.204646018817213 0.34294342690114171 0 -0.1847481935702453 0.32663807183998028 0 -0.18703654364796671 0.34729763828389232 0 -0.204646018817213 0.34294342690114171 0 -0.1847481935702453 0.32663807183998028 0 -0.20012000375202099 0.30716453142764588 0 -0.1847481935702453 0.32663807183998028 0 -0.20724210782116351 0.3238079026991959 0 -0.20012000375202099 0.30716453142764588 0 -0.20012000375202099 0.30716453142764588 0 -0.1971227640276092 0.28703109664682741 0 -0.1765373099677843 0.29758703481687121 0 -0.20012000375202099 0.30716453142764588 0 -0.1971227640276092 0.28703109664682741 0 -0.21549181393379671 0.28769099101531143 0 -0.20012000375202099 0.30716453142764588 0 -0.21549181393379671 0.28769099101531143 0 -0.20012000375202099 0.30716453142764588 0 -0.21549181393379671 0.28769099101531143 0 -0.22462176007741241 0.30848193194543289 0 -0.21549181393379671 0.28769099101531143 0 -0.22462176007741241 0.30848193194543289 0 -0.2363657679859677 0.29314318164274888 0 -0.21549181393379671 0.28769099101531143 0 -0.2363657679859677 0.29314318164274888 0 -0.24222133453992581 0.28011813986434392 0 -0.2363657679859677 0.29314318164274888 0 -0.24707134328444269 0.28966663642370971 0 -0.24755542725455071 0.30598585151241481 0 -0.2363657679859677 0.29314318164274888 0 -0.24707134328444269 0.28966663642370971 0 -0.24222133453992581 0.28011813986434392 0 -0.25184004474946392 0.27563514826990748 0 -0.24707134328444269 0.28966663642370971 0 -0.24222133453992581 0.28011813986434392 0 -0.22462176007741241 0.30848193194543289 0 -0.2363657679859677 0.29314318164274888 0 -0.24755542725455071 0.30598585151241481 0 -0.2369093166351682 0.32060908327358489 0 -0.22462176007741241 0.30848193194543289 0 -0.24755542725455071 0.30598585151241481 0 -0.25184004474946392 0.27563514826990748 0 -0.24338505276019021 0.2512427650456508 0 -0.2308636241155724 0.26821745060297691 0 -0.25184004474946392 0.27563514826990748 0 -0.24338505276019021 0.2512427650456508 0 -0.25184004474946392 0.27563514826990748 0 -0.24222133453992581 0.28011813986434392 0 -0.2308636241155724 0.26821745060297691 0 -0.21549181393379671 0.28769099101531143 0 -0.2308636241155724 0.26821745060297691 0 -0.21549181393379671 0.28769099101531143 0 -0.24222133453992581 0.28011813986434392 0 -0.2308636241155724 0.26821745060297691 0 -0.24338505276019021 0.2512427650456508 0 -0.2308636241155724 0.26821745060297691 0 -0.2236563306449528 0.2495190359932952 0 -0.2308636241155724 0.26821745060297691 0 -0.20960446598299651 0.26829989049260811 0 -0.2236563306449528 0.2495190359932952 0 -0.20960446598299651 0.26829989049260811 0 -0.2236563306449528 0.2495190359932952 0 -0.20455644492525299 0.24848876851732821 0 -0.1971227640276092 0.28703109664682741 0 -0.21549181393379671 0.28769099101531143 0 -0.20960446598299651 0.26829989049260811 0 -0.21549181393379671 0.28769099101531143 0 -0.2308636241155724 0.26821745060297691 0 -0.20960446598299651 0.26829989049260811 0 -0.1971227640276092 0.28703109664682741 0 -0.20960446598299651 0.26829989049260811 0 -0.18614839561170071 0.266793386232271 0 -0.20960446598299651 0.26829989049260811 0 -0.18614839561170071 0.266793386232271 0 -0.20455644492525299 0.24848876851732821 0 -0.18614839561170071 0.266793386232271 0 -0.20455644492525299 0.24848876851732821 0 -0.1866445730272448 0.23657667660611509 0 -0.15772595387616911 0.2738270049740687 0 -0.16593288775273979 0.24602142268628169 0 -0.15772595387616911 0.2738270049740687 0 -0.16593288775273979 0.24602142268628169 0 -0.15452019481184001 0.2499777617130321 0 -0.15772595387616911 0.2738270049740687 0 -0.18614839561170071 0.266793386232271 0 -0.16593288775273979 0.24602142268628169 0 -0.15772595387616911 0.2738270049740687 0 -0.18614839561170071 0.266793386232271 0 -0.1765373099677843 0.29758703481687121 0 -0.1971227640276092 0.28703109664682741 0 -0.18614839561170071 0.266793386232271 0 -0.1765373099677843 0.29758703481687121 0 -0.1847481935702453 0.32663807183998028 0 -0.20012000375202099 0.30716453142764588 0 -0.1765373099677843 0.29758703481687121 0 -0.16180539016356299 0.32472147862110229 0 -0.1765373099677843 0.29758703481687121 0 -0.14951901999959841 0.30163258726185571 0 -0.15772595387616911 0.2738270049740687 0 -0.1765373099677843 0.29758703481687121 0 -0.14951901999959841 0.30163258726185571 0 -0.15772595387616911 0.2738270049740687 0 -0.14951901999959841 0.30163258726185571 0 -0.1359635751527129 0.28525615170074259 0 -0.15772595387616911 0.2738270049740687 0 -0.14951901999959841 0.30163258726185571 0 -0.14951901999959841 0.30163258726185571 0 -0.12634938830538101 0.31244775242356221 0 -0.1359635751527129 0.28525615170074259 0 -0.12634938830538101 0.31244775242356221 0 -0.1359635751527129 0.28525615170074259 0 -0.11367602196556489 0.29632709865559298 0 -0.1359635751527129 0.28525615170074259 0 -0.12916530505006499 0.26572700739779009 0 -0.1407083309834119 0.27137979847069921 0 -0.1359635751527129 0.28525615170074259 0 -0.12916530505006499 0.26572700739779009 0 -0.1167278627745047 0.27621312166198508 0 -0.12916530505006499 0.26572700739779009 0 -0.12256057738715639 0.25314703781829762 0 -0.13158174630476269 0.24952230106181231 0 -0.12916530505006499 0.26572700739779009 0 -0.14204412767972491 0.25911492691102972 0 -0.13158174630476269 0.24952230106181231 0 -0.14204412767972491 0.25911492691102972 0 -0.13158174630476269 0.24952230106181231 0 -0.13959886824920911 0.24402894089934959 0 -0.12916530505006499 0.26572700739779009 0 -0.14204412767972491 0.25911492691102972 0 -0.1407083309834119 0.27137979847069921 0 -0.15772595387616911 0.2738270049740687 0 -0.14204412767972491 0.25911492691102972 0 -0.15452019481184001 0.2499777617130321 0 -0.14204412767972491 0.25911492691102972 0 -0.13959886824920911 0.24402894089934959 0 -0.15452019481184001 0.2499777617130321 0 -0.15772595387616911 0.2738270049740687 0 -0.1359635751527129 0.28525615170074259 0 -0.1407083309834119 0.27137979847069921 0 -0.15772595387616911 0.2738270049740687 0 -0.14204412767972491 0.25911492691102972 0 -0.1407083309834119 0.27137979847069921 0 -0.10521388484154311 0.26865956611111891 0 -0.1167278627745047 0.27621312166198508 0 -0.1013635680665509 0.28129993579760099 0 -0.10521388484154311 0.26865956611111891 0 -0.1013635680665509 0.28129993579760099 0 -0.093050787187442419 0.26875452281758683 0 -0.10521388484154311 0.26865956611111891 0 -0.10120816956893711 0.25531151265741342 0 -0.093050787187442419 0.26875452281758683 0 -0.10120816956893711 0.25531151265741342 0 -0.11462926346470829 0.26143145044874638 0 -0.11186130183636819 0.24999957395857081 0 -0.10521388484154311 0.26865956611111891 0 -0.10120816956893711 0.25531151265741342 0 -0.11462926346470829 0.26143145044874638 0 -0.11462926346470829 0.26143145044874638 0 -0.12256057738715639 0.25314703781829762 0 -0.11186130183636819 0.24999957395857081 0 -0.12916530505006499 0.26572700739779009 0 -0.11462926346470829 0.26143145044874638 0 -0.12256057738715639 0.25314703781829762 0 -0.12916530505006499 0.26572700739779009 0 -0.11462926346470829 0.26143145044874638 0 -0.1167278627745047 0.27621312166198508 0 -0.10521388484154311 0.26865956611111891 0 -0.11462926346470829 0.26143145044874638 0 -0.1167278627745047 0.27621312166198508 0 -0.1359635751527129 0.28525615170074259 0 -0.1167278627745047 0.27621312166198508 0 -0.11367602196556489 0.29632709865559298 0 -0.1167278627745047 0.27621312166198508 0 -0.11367602196556489 0.29632709865559298 0 -0.1013635680665509 0.28129993579760099 0 -0.12634938830538101 0.31244775242356221 0 -0.11367602196556489 0.29632709865559298 0 -0.1035302545734969 0.31624112245816582 0 -0.11367602196556489 0.29632709865559298 0 -0.093449172404039937 0.29702708491883267 0 -0.1035302545734969 0.31624112245816582 0 -0.11367602196556489 0.29632709865559298 0 -0.1013635680665509 0.28129993579760099 0 -0.093449172404039937 0.29702708491883267 0 -0.1013635680665509 0.28129993579760099 0 -0.093449172404039937 0.29702708491883267 0 -0.086063679226210457 0.28081822062048961 0 -0.093449172404039937 0.29702708491883267 0 -0.072911247988002081 0.29309125937377623 0 -0.086063679226210457 0.28081822062048961 0 -0.093449172404039937 0.29702708491883267 0 -0.072911247988002081 0.29309125937377623 0 -0.081858418987438786 0.31448739141401127 0 -0.093449172404039937 0.29702708491883267 0 -0.081858418987438786 0.31448739141401127 0 -0.1035302545734969 0.31624112245816582 0 -0.072911247988002081 0.29309125937377623 0 -0.081858418987438786 0.31448739141401127 0 -0.065463073829539947 0.30515557417389122 0 -0.072911247988002081 0.29309125937377623 0 -0.081858418987438786 0.31448739141401127 0 -0.072911247988002081 0.29309125937377623 0 -0.063964076988565738 0.27169512733354101 0 -0.072911247988002081 0.29309125937377623 0 -0.063964076988565738 0.27169512733354101 0 -0.060399798077116922 0.29171607377341852 0 -0.072911247988002081 0.29309125937377623 0 -0.074726041093520199 0.27751355895393742 0 -0.086063679226210457 0.28081822062048961 0 -0.065463073829539947 0.30515557417389122 0 -0.072911247988002081 0.29309125937377623 0 -0.060399798077116922 0.29171607377341852 0 -0.072911247988002081 0.29309125937377623 0 -0.063964076988565738 0.27169512733354101 0 -0.074726041093520199 0.27751355895393742 0 -0.063964076988565738 0.27169512733354101 0 -0.069739189502551729 0.26634192840476412 0 -0.071999823114502703 0.27108200265128463 0 -0.063964076988565738 0.27169512733354101 0 -0.071999823114502703 0.27108200265128463 0 -0.074726041093520199 0.27751355895393742 0 -0.062706457884081149 0.2686876756577477 0 -0.069739189502551729 0.26634192840476412 0 -0.064881249777268793 0.26349265971140501 0 -0.062706457884081149 0.2686876756577477 0 -0.063964076988565738 0.27169512733354101 0 -0.069739189502551729 0.26634192840476412 0 -0.062706457884081149 0.2686876756577477 0 -0.063964076988565738 0.27169512733354101 0 -0.063964076988565738 0.27169512733354101 0 -0.069739189502551729 0.26634192840476412 0 -0.071999823114502703 0.27108200265128463 0 -0.074726041093520199 0.27751355895393742 0 -0.079569984873373134 0.26877739591289579 0 -0.069739189502551729 0.26634192840476412 0 -0.071999823114502703 0.27108200265128463 0 -0.079569984873373134 0.26877739591289579 0 -0.074726041093520199 0.27751355895393742 0 -0.079569984873373134 0.26877739591289579 0 -0.086063679226210457 0.28081822062048961 0 -0.079569984873373134 0.26877739591289579 0 -0.093050787187442419 0.26875452281758683 0 -0.086063679226210457 0.28081822062048961 0 -0.1013635680665509 0.28129993579760099 0 -0.093050787187442419 0.26875452281758683 0 -0.086063679226210457 0.28081822062048961 0 -0.086510550050873436 0.25607580188373752 0 -0.07656571295879723 0.25916245166237628 0 -0.073364677054707741 0.24172195263804999 0 -0.10120816956893711 0.25531151265741342 0 -0.086510550050873436 0.25607580188373752 0 -0.092343926260290629 0.24400901516315271 0 -0.079569984873373134 0.26877739591289579 0 -0.093050787187442419 0.26875452281758683 0 -0.086510550050873436 0.25607580188373752 0 -0.10120816956893711 0.25531151265741342 0 -0.093050787187442419 0.26875452281758683 0 -0.086510550050873436 0.25607580188373752 0 -0.079569984873373134 0.26877739591289579 0 -0.086510550050873436 0.25607580188373752 0 -0.07656571295879723 0.25916245166237628 0 -0.07656571295879723 0.25916245166237628 0 -0.06736922799367713 0.25725327827486499 0 -0.073364677054707741 0.24172195263804999 0 -0.06736922799367713 0.25725327827486499 0 -0.051186381084281467 0.25697912835200742 0 -0.073364677054707741 0.24172195263804999 0 -0.069739189502551729 0.26634192840476412 0 -0.07656571295879723 0.25916245166237628 0 -0.06736922799367713 0.25725327827486499 0 -0.069739189502551729 0.26634192840476412 0 -0.079569984873373134 0.26877739591289579 0 -0.07656571295879723 0.25916245166237628 0 -0.069739189502551729 0.26634192840476412 0 -0.064881249777268793 0.26349265971140501 0 -0.06736922799367713 0.25725327827486499 0 -0.064881249777268793 0.26349265971140501 0 -0.06736922799367713 0.25725327827486499 0 -0.059395664993268593 0.26221740678002858 0 -0.06736922799367713 0.25725327827486499 0 -0.059395664993268593 0.26221740678002858 0 -0.051186381084281467 0.25697912835200742 0 -0.051186381084281467 0.25697912835200742 0 -0.050787047904808619 0.25499776799183832 0 -0.073364677054707741 0.24172195263804999 0 -0.062706457884081149 0.2686876756577477 0 -0.064881249777268793 0.26349265971140501 0 -0.059395664993268593 0.26221740678002858 0 -0.059395664993268593 0.26221740678002858 0 -0.05214389530321855 0.26173000009325093 0 -0.056132354551729137 0.267826554035417 0 -0.05214389530321855 0.26173000009325093 0 -0.051186381084281467 0.25697912835200742 0 -0.05214389530321855 0.26173000009325093 0 -0.051186381084281467 0.25697912835200742 0 -0.039254354261309958 0.26518756014967532 0 -0.059395664993268593 0.26221740678002858 0 -0.05214389530321855 0.26173000009325093 0 -0.051186381084281467 0.25697912835200742 0 -0.051186381084281467 0.25697912835200742 0 -0.050787047904808619 0.25499776799183832 0 -0.039254354261309958 0.26518756014967532 0 -0.051186381084281467 0.25697912835200742 0 -0.050787047904808619 0.25499776799183832 0 -0.063964076988565738 0.27169512733354101 0 -0.051458395637668172 0.27432328406125478 0 -0.048126354135213718 0.28637579040418071 0 -0.063964076988565738 0.27169512733354101 0 -0.048126354135213718 0.28637579040418071 0 -0.062706457884081149 0.2686876756577477 0 -0.063964076988565738 0.27169512733354101 0 -0.056132354551729137 0.267826554035417 0 -0.063964076988565738 0.27169512733354101 0 -0.056132354551729137 0.267826554035417 0 -0.051458395637668172 0.27432328406125478 0 -0.062706457884081149 0.2686876756577477 0 -0.059395664993268593 0.26221740678002858 0 -0.056132354551729137 0.267826554035417 0 -0.05214389530321855 0.26173000009325093 0 -0.056132354551729137 0.267826554035417 0 -0.047988380000449707 0.26894738275422447 0 -0.056132354551729137 0.267826554035417 0 -0.047988380000449707 0.26894738275422447 0 -0.051458395637668172 0.27432328406125478 0 -0.047988380000449707 0.26894738275422447 0 -0.051458395637668172 0.27432328406125478 0 -0.043743154875616141 0.27598066394556792 0 -0.051458395637668172 0.27432328406125478 0 -0.043743154875616141 0.27598066394556792 0 -0.048126354135213718 0.28637579040418071 0 -0.043743154875616141 0.27598066394556792 0 -0.039254354261309958 0.26518756014967532 0 -0.0340178256105177 0.28312538951640759 0 -0.047988380000449707 0.26894738275422447 0 -0.043743154875616141 0.27598066394556792 0 -0.039254354261309958 0.26518756014967532 0 -0.039254354261309958 0.26518756014967532 0 -0.026338222651062022 0.27407298984116008 0 -0.050787047904808619 0.25499776799183832 0 -0.039254354261309958 0.26518756014967532 0 -0.035591639146344299 0.24566544933220499 0 -0.039254354261309958 0.26518756014967532 0 -0.024023074354920858 0.25913543755824808 0 -0.035591639146344299 0.24566544933220499 0 -0.050787047904808619 0.25499776799183832 0 -0.039254354261309958 0.26518756014967532 0 -0.051186381084281467 0.25697912835200742 0 -0.039254354261309958 0.26518756014967532 0 -0.05214389530321855 0.26173000009325093 0 -0.047988380000449707 0.26894738275422447 0 -0.039254354261309958 0.26518756014967532 0 -0.039254354261309958 0.26518756014967532 0 -0.01799077433701185 0.28397514496359078 0 -0.039254354261309958 0.26518756014967532 0 -0.024023074354920858 0.25913543755824808 0 -0.026338222651062022 0.27407298984116008 0 -0.039254354261309958 0.26518756014967532 0 -0.01799077433701185 0.28397514496359078 0 -0.0340178256105177 0.28312538951640759 0 -0.039254354261309958 0.26518756014967532 0 -0.026338222651062022 0.27407298984116008 0 -0.01799077433701185 0.28397514496359078 0 -0.026338222651062022 0.27407298984116008 0 -0.01342209104081396 0.28295841953264478 0 -0.026338222651062022 0.27407298984116008 0 -0.01342209104081396 0.28295841953264478 0 -0.01799077433701185 0.28397514496359078 0 -0.026338222651062022 0.27407298984116008 0 -0.0119776340112673 0.27270923888796778 0 -0.01342209104081396 0.28295841953264478 0 -0.024023074354920858 0.25913543755824808 0 -0.026338222651062022 0.27407298984116008 0 -0.0119776340112673 0.27270923888796778 0 -0.0119776340112673 0.27270923888796778 0 -0.0041687012673470867 0.2876309262329893 0 0.0063279935655279028 0.28150809192884529 0 -0.0119776340112673 0.27270923888796778 0 -0.0047099749423644751 0.25880076386517242 0 0.0063279935655279028 0.28150809192884529 0 -0.0119776340112673 0.27270923888796778 0 -0.0041687012673470867 0.2876309262329893 0 -0.01342209104081396 0.28295841953264478 0 -0.024023074354920858 0.25913543755824808 0 -0.0119776340112673 0.27270923888796778 0 -0.0047099749423644751 0.25880076386517242 0 -0.024023074354920858 0.25913543755824808 0 -0.0047099749423644751 0.25880076386517242 0 -0.015747943450256891 0.2360934358014993 0 -0.01645090842850791 0.31573711654545827 0 0.0018947413267401891 0.29603879189989118 0 -0.01645090842850791 0.31573711654545827 0 0.0040457971871854818 0.31382622979778668 0 0.0018947413267401891 0.29603879189989118 0 -0.01322730633663048 0.29741749454034161 0 -0.01645090842850791 0.31573711654545827 0 0.0018947413267401891 0.29603879189989118 0 -0.01322730633663048 0.29741749454034161 0 -0.0041687012673470867 0.2876309262329893 0 0.0018947413267401891 0.29603879189989118 0 -0.0041687012673470867 0.2876309262329893 0 -0.01342209104081396 0.28295841953264478 0 -0.014403723691439871 0.28978682660767641 0 -0.01342209104081396 0.28295841953264478 0 -0.014403723691439871 0.28978682660767641 0 -0.01799077433701185 0.28397514496359078 0 -0.01322730633663048 0.29741749454034161 0 -0.0041687012673470867 0.2876309262329893 0 -0.014403723691439871 0.28978682660767641 0 -0.01322730633663048 0.29741749454034161 0 -0.024106499083780309 0.29201445593035702 0 -0.032288631281860901 0.30105645347481957 0 -0.024106499083780309 0.29201445593035702 0 -0.032288631281860901 0.30105645347481957 0 -0.0340178256105177 0.28312538951640759 0 -0.01322730633663048 0.29741749454034161 0 -0.014403723691439871 0.28978682660767641 0 -0.024106499083780309 0.29201445593035702 0 -0.01799077433701185 0.28397514496359078 0 -0.024106499083780309 0.29201445593035702 0 -0.0340178256105177 0.28312538951640759 0 -0.014403723691439871 0.28978682660767641 0 -0.01799077433701185 0.28397514496359078 0 -0.024106499083780309 0.29201445593035702 0 -0.01322730633663048 0.29741749454034161 0 -0.032288631281860901 0.30105645347481957 0 -0.01645090842850791 0.31573711654545827 0 -0.032288631281860901 0.30105645347481957 0 -0.01645090842850791 0.31573711654545827 0 -0.032288631281860901 0.30105645347481957 0 -0.04094553049029967 0.31731275277064308 0 -0.01645090842850791 0.31573711654545827 0 -0.032288631281860901 0.30105645347481957 0 -0.051534237444263123 0.30226261758170331 0 -0.04094553049029967 0.31731275277064308 0 -0.032288631281860901 0.30105645347481957 0 -0.0340178256105177 0.28312538951640759 0 -0.048126354135213718 0.28637579040418071 0 -0.032288631281860901 0.30105645347481957 0 -0.048126354135213718 0.28637579040418071 0 -0.032288631281860901 0.30105645347481957 0 -0.048126354135213718 0.28637579040418071 0 -0.051534237444263123 0.30226261758170331 0 -0.043743154875616141 0.27598066394556792 0 -0.0340178256105177 0.28312538951640759 0 -0.048126354135213718 0.28637579040418071 0 -0.063964076988565738 0.27169512733354101 0 -0.048126354135213718 0.28637579040418071 0 -0.060399798077116922 0.29171607377341852 0 -0.048126354135213718 0.28637579040418071 0 -0.060399798077116922 0.29171607377341852 0 -0.051534237444263123 0.30226261758170331 0 -0.065463073829539947 0.30515557417389122 0 -0.051534237444263123 0.30226261758170331 0 -0.060631908069385843 0.3184853463883357 0 -0.065463073829539947 0.30515557417389122 0 -0.060399798077116922 0.29171607377341852 0 -0.051534237444263123 0.30226261758170331 0 -0.060631908069385843 0.3184853463883357 0 -0.053511048601191262 0.33318462431042412 0 -0.07255121919907824 0.32929496760630261 0 -0.060631908069385843 0.3184853463883357 0 -0.053511048601191262 0.33318462431042412 0 -0.04094553049029967 0.31731275277064308 0 -0.051534237444263123 0.30226261758170331 0 -0.060631908069385843 0.3184853463883357 0 -0.04094553049029967 0.31731275277064308 0 -0.060631908069385843 0.3184853463883357 0 -0.053511048601191262 0.33318462431042412 0 -0.053511048601191262 0.33318462431042412 0 -0.046390189132993663 0.34788390223251098 0 -0.07095682951195019 0.34612476998706659 0 -0.053511048601191262 0.33318462431042412 0 -0.046390189132993663 0.34788390223251098 0 -0.053511048601191262 0.33318462431042412 0 -0.031420548780750381 0.33181050938898499 0 -0.046390189132993663 0.34788390223251098 0 -0.031420548780750381 0.33181050938898499 0 -0.02813744613144626 0.34987570033001592 0 -0.046390189132993663 0.34788390223251098 0 -0.031420548780750381 0.33181050938898499 0 -0.046390189132993663 0.34788390223251098 0 -0.053511048601191262 0.33318462431042412 0 -0.031420548780750381 0.33181050938898499 0 -0.04094553049029967 0.31731275277064308 0 -0.031420548780750381 0.33181050938898499 0 -0.04094553049029967 0.31731275277064308 0 -0.01645090842850791 0.31573711654545827 0 -0.031420548780750381 0.33181050938898499 0 -0.01645090842850791 0.31573711654545827 0 -0.031420548780750381 0.33181050938898499 0 -0.014760131845934591 0.33988459958961881 0 -0.02813744613144626 0.34987570033001592 0 -0.031420548780750381 0.33181050938898499 0 -0.01645090842850791 0.31573711654545827 0 -0.014760131845934591 0.33988459958961881 0 -0.014760131845934591 0.33988459958961881 0 -0.00194009678120214 0.32918780883551219 0 0.0041153052395316329 0.34739948802827242 0 -0.01645090842850791 0.31573711654545827 0 -0.014760131845934591 0.33988459958961881 0 -0.00194009678120214 0.32918780883551219 0 -0.01645090842850791 0.31573711654545827 0 -0.00194009678120214 0.32918780883551219 0 0.0040457971871854818 0.31382622979778668 0 -0.01645090842850791 0.31573711654545827 0 -0.00194009678120214 0.32918780883551219 0 -0.015852015901626389 0.37372462600530471 0 0.00037264731633979142 0.38217558503673832 0 0.005774776065040307 0.3645300477706111 0 -0.01087147683341114 0.35612199450665177 0 -0.015852015901626389 0.37372462600530471 0 0.005774776065040307 0.3645300477706111 0 -0.014760131845934591 0.33988459958961881 0 -0.01087147683341114 0.35612199450665177 0 0.0041153052395316329 0.34739948802827242 0 -0.01087147683341114 0.35612199450665177 0 0.0041153052395316329 0.34739948802827242 0 0.005774776065040307 0.3645300477706111 0 -0.014760131845934591 0.33988459958961881 0 -0.01087147683341114 0.35612199450665177 0 -0.02813744613144626 0.34987570033001592 0 -0.01087147683341114 0.35612199450665177 0 -0.02813744613144626 0.34987570033001592 0 -0.02285855075109872 0.36196771770762531 0 -0.02285855075109872 0.36196771770762531 0 -0.015852015901626389 0.37372462600530471 0 -0.03657326413791108 0.36814854998852897 0 -0.02813744613144626 0.34987570033001592 0 -0.02285855075109872 0.36196771770762531 0 -0.03657326413791108 0.36814854998852897 0 -0.01087147683341114 0.35612199450665177 0 -0.02285855075109872 0.36196771770762531 0 -0.015852015901626389 0.37372462600530471 0 -0.02813744613144626 0.34987570033001592 0 -0.03657326413791108 0.36814854998852897 0 -0.046390189132993663 0.34788390223251098 0 -0.03657326413791108 0.36814854998852897 0 -0.046390189132993663 0.34788390223251098 0 -0.046390189132993663 0.34788390223251098 0 -0.062544361299902207 0.36522916565841668 0 -0.046390189132993663 0.34788390223251098 0 -0.062544361299902207 0.36522916565841668 0 -0.07095682951195019 0.34612476998706659 0 -0.03657326413791108 0.36814854998852897 0 -0.062544361299902207 0.36522916565841668 0 -0.0437682588446748 0.38471104712025489 0 -0.03657326413791108 0.36814854998852897 0 -0.046390189132993663 0.34788390223251098 0 -0.062544361299902207 0.36522916565841668 0 -0.062544361299902207 0.36522916565841668 0 -0.081655190734918143 0.36362573609919441 0 -0.078698533466811688 0.38257442908432171 0 -0.062544361299902207 0.36522916565841668 0 -0.078698533466811688 0.38257442908432171 0 -0.081655190734918143 0.36362573609919441 0 -0.093826568502452551 0.37246991762324599 0 -0.078698533466811688 0.38257442908432171 0 -0.081655190734918143 0.36362573609919441 0 -0.093826568502452551 0.37246991762324599 0 -0.099752760986312347 0.35727965549448171 0 -0.081655190734918143 0.36362573609919441 0 -0.085792592805014056 0.35072842125874731 0 -0.099752760986312347 0.35727965549448171 0 -0.081655190734918143 0.36362573609919441 0 -0.085792592805014056 0.35072842125874731 0 -0.07095682951195019 0.34612476998706659 0 -0.085792592805014056 0.35072842125874731 0 -0.07095682951195019 0.34612476998706659 0 -0.090805589986875546 0.33588352345424638 0 -0.085792592805014056 0.35072842125874731 0 -0.090805589986875546 0.33588352345424638 0 -0.099752760986312347 0.35727965549448171 0 -0.062544361299902207 0.36522916565841668 0 -0.081655190734918143 0.36362573609919441 0 -0.07095682951195019 0.34612476998706659 0 -0.07095682951195019 0.34612476998706659 0 -0.07255121919907824 0.32929496760630261 0 -0.090805589986875546 0.33588352345424638 0 -0.053511048601191262 0.33318462431042412 0 -0.07095682951195019 0.34612476998706659 0 -0.07255121919907824 0.32929496760630261 0 -0.060631908069385843 0.3184853463883357 0 -0.07255121919907824 0.32929496760630261 0 -0.081858418987438786 0.31448739141401127 0 -0.065463073829539947 0.30515557417389122 0 -0.060631908069385843 0.3184853463883357 0 -0.081858418987438786 0.31448739141401127 0 -0.081858418987438786 0.31448739141401127 0 -0.090805589986875546 0.33588352345424638 0 -0.081858418987438786 0.31448739141401127 0 -0.090805589986875546 0.33588352345424638 0 -0.1035302545734969 0.31624112245816582 0 -0.07255121919907824 0.32929496760630261 0 -0.081858418987438786 0.31448739141401127 0 -0.090805589986875546 0.33588352345424638 0 -0.090805589986875546 0.33588352345424638 0 -0.1157197670586784 0.33804709743087502 0 -0.099752760986312347 0.35727965549448171 0 -0.090805589986875546 0.33588352345424638 0 -0.1035302545734969 0.31624112245816582 0 -0.1157197670586784 0.33804709743087502 0 -0.12634938830538101 0.31244775242356221 0 -0.1035302545734969 0.31624112245816582 0 -0.1157197670586784 0.33804709743087502 0 -0.133105152246457 0.35724375183742962 0 -0.1157197670586784 0.33804709743087502 0 -0.1148767948118867 0.35407642262420741 0 -0.1157197670586784 0.33804709743087502 0 -0.1148767948118867 0.35407642262420741 0 -0.099752760986312347 0.35727965549448171 0 -0.133105152246457 0.35724375183742962 0 -0.1126294939057787 0.36813572426569119 0 -0.12489821836988629 0.38504933412521658 0 -0.133105152246457 0.35724375183742962 0 -0.1148767948118867 0.35407642262420741 0 -0.1126294939057787 0.36813572426569119 0 -0.1148767948118867 0.35407642262420741 0 -0.1126294939057787 0.36813572426569119 0 -0.099752760986312347 0.35727965549448171 0 -0.1126294939057787 0.36813572426569119 0 -0.093826568502452551 0.37246991762324599 0 -0.099752760986312347 0.35727965549448171 0 -0.090805589986875546 0.33588352345424638 0 -0.099752760986312347 0.35727965549448171 0 -0.096396863418441892 0.39073404317254118 0 -0.110059694654426 0.39856913303451891 0 -0.097277915376510163 0.40877412628587179 0 -0.1126294939057787 0.36813572426569119 0 -0.093826568502452551 0.37246991762324599 0 -0.096396863418441892 0.39073404317254118 0 -0.1126294939057787 0.36813572426569119 0 -0.096396863418441892 0.39073404317254118 0 -0.1126294939057787 0.36813572426569119 0 -0.096396863418441892 0.39073404317254118 0 -0.12489821836988629 0.38504933412521658 0 -0.096396863418441892 0.39073404317254118 0 -0.12489821836988629 0.38504933412521658 0 -0.110059694654426 0.39856913303451891 0 -0.12489821836988629 0.38504933412521658 0 -0.11669128449331551 0.41285491641300348 0 -0.12489821836988629 0.38504933412521658 0 -0.110059694654426 0.39856913303451891 0 -0.11669128449331551 0.41285491641300348 0 -0.110059694654426 0.39856913303451891 0 -0.11669128449331551 0.41285491641300348 0 -0.1062050328026697 0.41524127652315101 0 -0.11669128449331551 0.41285491641300348 0 -0.1062276667539513 0.42611058900440069 0 -0.11669128449331551 0.41285491641300348 0 -0.1062276667539513 0.42611058900440069 0 -0.1062050328026697 0.41524127652315101 0 -0.13115928916177991 0.43005933000412738 0 -0.11669128449331551 0.41285491641300348 0 -0.1102609755425394 0.43464118730975571 0 -0.11669128449331551 0.41285491641300348 0 -0.1102609755425394 0.43464118730975571 0 -0.11669128449331551 0.41285491641300348 0 -0.1102609755425394 0.43464118730975571 0 -0.1062276667539513 0.42611058900440069 0 -0.1062276667539513 0.42611058900440069 0 -0.094509674691452217 0.42362456444705521 0 -0.095764049014587252 0.43936626159579811 0 -0.1102609755425394 0.43464118730975571 0 -0.1062276667539513 0.42611058900440069 0 -0.095764049014587252 0.43936626159579811 0 -0.1062276667539513 0.42611058900440069 0 -0.095764049014587252 0.43936626159579811 0 -0.110059694654426 0.39856913303451891 0 -0.1062050328026697 0.41524127652315101 0 -0.097277915376510163 0.40877412628587179 0 -0.1062276667539513 0.42611058900440069 0 -0.094509674691452217 0.42362456444705521 0 -0.1062050328026697 0.41524127652315101 0 -0.094509674691452217 0.42362456444705521 0 -0.1062050328026697 0.41524127652315101 0 -0.097277915376510163 0.40877412628587179 0 -0.094509674691452217 0.42362456444705521 0 -0.097277915376510163 0.40877412628587179 0 -0.080164232931105001 0.41333236207939128 0 -0.094509674691452217 0.42362456444705521 0 -0.080978629870418192 0.43848125560877338 0 -0.095764049014587252 0.43936626159579811 0 -0.094509674691452217 0.42362456444705521 0 -0.080164232931105001 0.41333236207939128 0 -0.080978629870418192 0.43848125560877338 0 -0.080164232931105001 0.41333236207939128 0 -0.063931602443768262 0.43593068098624121 0 -0.080164232931105001 0.41333236207939128 0 -0.063931602443768262 0.43593068098624121 0 -0.080978629870418192 0.43848125560877338 0 -0.080164232931105001 0.41333236207939128 0 -0.063931602443768262 0.43593068098624121 0 -0.060408009804499348 0.41938366528481241 0 -0.080164232931105001 0.41333236207939128 0 -0.070478030252884544 0.39838004728887472 0 -0.060408009804499348 0.41938366528481241 0 -0.096396863418441892 0.39073404317254118 0 -0.080164232931105001 0.41333236207939128 0 -0.070478030252884544 0.39838004728887472 0 -0.096396863418441892 0.39073404317254118 0 -0.097277915376510163 0.40877412628587179 0 -0.080164232931105001 0.41333236207939128 0 -0.096396863418441892 0.39073404317254118 0 -0.080164232931105001 0.41333236207939128 0 -0.093826568502452551 0.37246991762324599 0 -0.096396863418441892 0.39073404317254118 0 -0.078698533466811688 0.38257442908432171 0 -0.096396863418441892 0.39073404317254118 0 -0.070478030252884544 0.39838004728887472 0 -0.078698533466811688 0.38257442908432171 0 -0.062544361299902207 0.36522916565841668 0 -0.078698533466811688 0.38257442908432171 0 -0.061124326458717473 0.38661122194989178 0 -0.070478030252884544 0.39838004728887472 0 -0.078698533466811688 0.38257442908432171 0 -0.061124326458717473 0.38661122194989178 0 -0.062544361299902207 0.36522916565841668 0 -0.061124326458717473 0.38661122194989178 0 -0.0437682588446748 0.38471104712025489 0 -0.061124326458717473 0.38661122194989178 0 -0.051738268363436722 0.40350616039360587 0 -0.0437682588446748 0.38471104712025489 0 -0.070478030252884544 0.39838004728887472 0 -0.061124326458717473 0.38661122194989178 0 -0.051738268363436722 0.40350616039360587 0 -0.051738268363436722 0.40350616039360587 0 -0.033122516485801973 0.40410368821158382 0 -0.0437682588446748 0.38471104712025489 0 -0.033122516485801973 0.40410368821158382 0 -0.0437682588446748 0.38471104712025489 0 -0.026756339142825551 0.38841319774454552 0 -0.03657326413791108 0.36814854998852897 0 -0.026756339142825551 0.38841319774454552 0 -0.03657326413791108 0.36814854998852897 0 -0.0437682588446748 0.38471104712025489 0 -0.026756339142825551 0.38841319774454552 0 -0.015852015901626389 0.37372462600530471 0 -0.03657326413791108 0.36814854998852897 0 -0.026756339142825551 0.38841319774454552 0 -0.015852015901626389 0.37372462600530471 0 -0.026756339142825551 0.38841319774454552 0 -0.01172806663937228 0.39597676074200899 0 -0.033122516485801973 0.40410368821158382 0 -0.01172806663937228 0.39597676074200899 0 -0.015881701261914329 0.41343615935137962 0 -0.033122516485801973 0.40410368821158382 0 -0.026756339142825551 0.38841319774454552 0 -0.01172806663937228 0.39597676074200899 0 -0.01172806663937228 0.39597676074200899 0 0.0026210578660720301 0.40829700878198949 0 0.00037264731633979142 0.38217558503673832 0 -0.01172806663937228 0.39597676074200899 0 -0.015881701261914329 0.41343615935137962 0 0.0026210578660720301 0.40829700878198949 0 -0.015852015901626389 0.37372462600530471 0 -0.01172806663937228 0.39597676074200899 0 0.00037264731633979142 0.38217558503673832 0 -0.0096688337351077888 0.43518737276166031 0 0.0026210578660720301 0.40829700878198949 0 -0.0096688337351077888 0.43518737276166031 0 -0.015881701261914329 0.41343615935137962 0 0.0026210578660720301 0.40829700878198949 0 -0.033122516485801973 0.40410368821158382 0 -0.015881701261914329 0.41343615935137962 0 -0.027510147315361642 0.42361596625965497 0 -0.0096688337351077888 0.43518737276166031 0 -0.027510147315361642 0.42361596625965497 0 -0.033696299366701279 0.43991361858572448 0 -0.0096688337351077888 0.43518737276166031 0 -0.015881701261914329 0.41343615935137962 0 -0.027510147315361642 0.42361596625965497 0 -0.027510147315361642 0.42361596625965497 0 -0.043483926029717818 0.42086203274591011 0 -0.033696299366701279 0.43991361858572448 0 -0.043483926029717818 0.42086203274591011 0 -0.05329280388715088 0.43473271341375408 0 -0.033696299366701279 0.43991361858572448 0 -0.033122516485801973 0.40410368821158382 0 -0.027510147315361642 0.42361596625965497 0 -0.043483926029717818 0.42086203274591011 0 -0.051738268363436722 0.40350616039360587 0 -0.033122516485801973 0.40410368821158382 0 -0.043483926029717818 0.42086203274591011 0 -0.070478030252884544 0.39838004728887472 0 -0.051738268363436722 0.40350616039360587 0 -0.060408009804499348 0.41938366528481241 0 -0.051738268363436722 0.40350616039360587 0 -0.043483926029717818 0.42086203274591011 0 -0.060408009804499348 0.41938366528481241 0 -0.043483926029717818 0.42086203274591011 0 -0.060408009804499348 0.41938366528481241 0 -0.05329280388715088 0.43473271341375408 0 -0.063931602443768262 0.43593068098624121 0 -0.060408009804499348 0.41938366528481241 0 -0.05329280388715088 0.43473271341375408 0 -0.063931602443768262 0.43593068098624121 0 -0.05329280388715088 0.43473271341375408 0 -0.056824965204818688 0.45120363319616352 0 -0.05329280388715088 0.43473271341375408 0 -0.043770710412306513 0.46185040706737801 0 -0.05329280388715088 0.43473271341375408 0 -0.056824965204818688 0.45120363319616352 0 -0.043770710412306513 0.46185040706737801 0 -0.043770710412306513 0.46185040706737801 0 -0.061958932830245242 0.47681204343206551 0 -0.064939685442891165 0.46182506332271123 0 -0.056824965204818688 0.45120363319616352 0 -0.043770710412306513 0.46185040706737801 0 -0.064939685442891165 0.46182506332271123 0 -0.043770710412306513 0.46185040706737801 0 -0.033696299366701279 0.43991361858572448 0 -0.02195872533628759 0.46207773674133112 0 -0.05329280388715088 0.43473271341375408 0 -0.043770710412306513 0.46185040706737801 0 -0.033696299366701279 0.43991361858572448 0 -0.0096688337351077888 0.43518737276166031 0 -0.033696299366701279 0.43991361858572448 0 -0.02195872533628759 0.46207773674133112 0 -0.0096688337351077888 0.43518737276166031 0 -0.02195872533628759 0.46207773674133112 0 -0.02195872533628759 0.46207773674133112 0 -0.0010394636373830389 0.46156839135186112 0 -0.016574233706221551 0.48079229836293619 0 -0.0096688337351077888 0.43518737276166031 0 -0.02195872533628759 0.46207773674133112 0 -0.0010394636373830389 0.46156839135186112 0 -0.013366155679640499 0.5 0 -0.0048617928662866806 0.48882511462333661 0 0.0036425699470663099 0.50000000000000022 0 -0.0048617928662866806 0.48882511462333661 0 -0.016574233706221551 0.48079229836293619 0 -0.019885136099192721 0.49171710274145508 0 -0.013366155679640499 0.5 0 -0.0048617928662866806 0.48882511462333661 0 -0.019885136099192721 0.49171710274145508 0 -0.0010394636373830389 0.46156839135186112 0 -0.016574233706221551 0.48079229836293619 0 0.005006686924833483 0.47883435105617261 0 -0.0048617928662866806 0.48882511462333661 0 -0.016574233706221551 0.48079229836293619 0 0.005006686924833483 0.47883435105617261 0 -0.02195872533628759 0.46207773674133112 0 -0.016574233706221551 0.48079229836293619 0 -0.03424861693746524 0.48896810072100289 0 -0.02195872533628759 0.46207773674133112 0 -0.03424861693746524 0.48896810072100289 0 -0.016574233706221551 0.48079229836293619 0 -0.019885136099192721 0.49171710274145508 0 -0.03424861693746524 0.48896810072100289 0 -0.013366155679640499 0.5 0 -0.019885136099192721 0.49171710274145508 0 -0.030374881306347339 0.50000000000000067 0 -0.019885136099192721 0.49171710274145508 0 -0.030374881306347339 0.50000000000000067 0 -0.03424861693746524 0.48896810072100289 0 -0.030374881306347339 0.50000000000000067 0 -0.03424861693746524 0.48896810072100289 0 -0.039290603219119369 0.50000000000000444 0 -0.03424861693746524 0.48896810072100289 0 -0.039290603219119369 0.50000000000000444 0 -0.050697572227174269 0.48811845615863642 0 -0.030374881306347339 0.50000000000000067 0 -0.03424861693746524 0.48896810072100289 0 -0.03424861693746524 0.48896810072100289 0 -0.039290603219119369 0.50000000000000444 0 -0.043770710412306513 0.46185040706737801 0 -0.03424861693746524 0.48896810072100289 0 -0.043770710412306513 0.46185040706737801 0 -0.02195872533628759 0.46207773674133112 0 -0.03424861693746524 0.48896810072100289 0 -0.043770710412306513 0.46185040706737801 0 -0.03424861693746524 0.48896810072100289 0 -0.050697572227174269 0.48811845615863642 0 -0.043770710412306513 0.46185040706737801 0 -0.061958932830245242 0.47681204343206551 0 -0.050697572227174269 0.48811845615863642 0 -0.039290603219119369 0.50000000000000444 0 -0.050697572227174269 0.48811845615863642 0 -0.065130325954663393 0.5 0 -0.061958932830245242 0.47681204343206551 0 -0.050697572227174269 0.48811845615863642 0 -0.065130325954663393 0.5 0 -0.090970048690207556 0.50000000000001132 0 -0.07995772443934758 0.47583424420354142 0 -0.097400357640986868 0.47821372910326021 0 -0.065130325954663393 0.5 0 -0.090970048690207556 0.50000000000001132 0 -0.07995772443934758 0.47583424420354142 0 -0.07995772443934758 0.47583424420354142 0 -0.089916595569692198 0.46388016343889982 0 -0.097400357640986868 0.47821372910326021 0 -0.061958932830245242 0.47681204343206551 0 -0.065130325954663393 0.5 0 -0.07995772443934758 0.47583424420354142 0 -0.061958932830245242 0.47681204343206551 0 -0.07995772443934758 0.47583424420354142 0 -0.064939685442891165 0.46182506332271123 0 -0.07995772443934758 0.47583424420354142 0 -0.064939685442891165 0.46182506332271123 0 -0.078570702871028131 0.45745786811289368 0 -0.056824965204818688 0.45120363319616352 0 -0.064939685442891165 0.46182506332271123 0 -0.06855507689960097 0.44779218392422532 0 -0.064939685442891165 0.46182506332271123 0 -0.06855507689960097 0.44779218392422532 0 -0.078570702871028131 0.45745786811289368 0 -0.06855507689960097 0.44779218392422532 0 -0.080978629870418192 0.43848125560877338 0 -0.078570702871028131 0.45745786811289368 0 -0.063931602443768262 0.43593068098624121 0 -0.06855507689960097 0.44779218392422532 0 -0.080978629870418192 0.43848125560877338 0 -0.063931602443768262 0.43593068098624121 0 -0.056824965204818688 0.45120363319616352 0 -0.06855507689960097 0.44779218392422532 0 -0.080978629870418192 0.43848125560877338 0 -0.089823526305335286 0.45146751756829601 0 -0.078570702871028131 0.45745786811289368 0 -0.080978629870418192 0.43848125560877338 0 -0.089823526305335286 0.45146751756829601 0 -0.095764049014587252 0.43936626159579811 0 -0.07995772443934758 0.47583424420354142 0 -0.078570702871028131 0.45745786811289368 0 -0.089916595569692198 0.46388016343889982 0 -0.089823526305335286 0.45146751756829601 0 -0.078570702871028131 0.45745786811289368 0 -0.089916595569692198 0.46388016343889982 0 -0.1038306665917631 0.45642745820650787 0 -0.097400357640986868 0.47821372910326021 0 -0.089916595569692198 0.46388016343889982 0 -0.1038306665917631 0.45642745820650787 0 -0.097400357640986868 0.47821372910326021 0 -0.089823526305335286 0.45146751756829601 0 -0.089916595569692198 0.46388016343889982 0 -0.1038306665917631 0.45642745820650787 0 -0.089823526305335286 0.45146751756829601 0 -0.1038306665917631 0.45642745820650787 0 -0.095764049014587252 0.43936626159579811 0 -0.1102609755425394 0.43464118730975571 0 -0.1038306665917631 0.45642745820650787 0 -0.1102609755425394 0.43464118730975571 0 -0.1038306665917631 0.45642745820650787 0 -0.095764049014587252 0.43936626159579811 0 -0.12516841094691289 0.4495105975028017 0 -0.1102609755425394 0.43464118730975571 0 -0.1038306665917631 0.45642745820650787 0 -0.12516841094691289 0.4495105975028017 0 -0.13115928916177991 0.43005933000412738 0 -0.1102609755425394 0.43464118730975571 0 -0.12516841094691289 0.4495105975028017 0 -0.1038306665917631 0.45642745820650787 0 -0.1207610548997911 0.47204153038836028 0 -0.1207610548997911 0.47204153038836028 0 -0.12029679558512429 0.5 0 -0.097400357640986868 0.47821372910326021 0 -0.090970048690207556 0.50000000000001132 0 -0.097400357640986868 0.47821372910326021 0 -0.090970048690207556 0.50000000000001132 0 -0.12029679558512429 0.5 0 -0.097400357640986868 0.47821372910326021 0 -0.1038306665917631 0.45642745820650787 0 -0.1207610548997911 0.47204153038836028 0 -0.097400357640986868 0.47821372910326021 0 -0.1631225062723298 0.074251314660481599 0 -0.17636165872581869 0.087135549843147378 0 -0.15597343726269891 0.1009701478560803 0 -0.1631225062723298 0.074251314660481599 0 -0.15597343726269891 0.1009701478560803 0 -0.1631225062723298 0.074251314660481599 0 -0.1752433789360254 0.06775480365324249 0 -0.17027157528196421 0.047532481464883793 0 -0.1631225062723298 0.074251314660481599 0 -0.1752433789360254 0.06775480365324249 0 -0.17636165872581869 0.087135549843147378 0 -0.1752433789360254 0.06775480365324249 0 -0.1862002927678873 0.072560731459141534 0 -0.17636165872581869 0.087135549843147378 0 -0.1752433789360254 0.06775480365324249 0 -0.1862002927678873 0.072560731459141534 0 -0.18026086163212859 0.057293940838558627 0 -0.17636165872581869 0.087135549843147378 0 -0.19344216401089839 0.087045725975270535 0 -0.18773081238053349 0.099008793952034019 0 -0.1862002927678873 0.072560731459141534 0 -0.17636165872581869 0.087135549843147378 0 -0.19344216401089839 0.087045725975270535 0 -0.17636165872581869 0.087135549843147378 0 -0.1748826921341991 0.1101507464267184 0 -0.18773081238053349 0.099008793952034019 0 -0.1748826921341991 0.1101507464267184 0 -0.18922286181994319 0.1097882139790686 0 -0.18773081238053349 0.099008793952034019 0 -0.1748826921341991 0.1101507464267184 0 -0.19379194700569921 0.1193313449973568 0 -0.18922286181994319 0.1097882139790686 0 -0.1807055611592753 0.1222213690145703 0 -0.1748826921341991 0.1101507464267184 0 -0.19379194700569921 0.1193313449973568 0 -0.1748826921341991 0.1101507464267184 0 -0.19379194700569921 0.1193313449973568 0 -0.1807055611592753 0.1222213690145703 0 -0.1748826921341991 0.1101507464267184 0 -0.16846530882462071 0.13171392438793991 0 -0.1748826921341991 0.1101507464267184 0 -0.15597343726269891 0.1009701478560803 0 -0.15123419683471551 0.118682520515855 0 -0.1748826921341991 0.1101507464267184 0 -0.15123419683471551 0.118682520515855 0 -0.16846530882462071 0.13171392438793991 0 -0.17636165872581869 0.087135549843147378 0 -0.1748826921341991 0.1101507464267184 0 -0.15597343726269891 0.1009701478560803 0 -0.1748826921341991 0.1101507464267184 0 -0.15597343726269891 0.1009701478560803 0 -0.15597343726269891 0.1009701478560803 0 -0.13354198269330661 0.090079492398921407 0 -0.15597343726269891 0.1009701478560803 0 -0.14016329476371719 0.1103099096129723 0 -0.13354198269330661 0.090079492398921407 0 -0.15597343726269891 0.1009701478560803 0 -0.15123419683471551 0.118682520515855 0 -0.15597343726269891 0.1009701478560803 0 -0.15123419683471551 0.118682520515855 0 -0.14016329476371719 0.1103099096129723 0 -0.15123419683471551 0.118682520515855 0 -0.14888358540213589 0.1274676636848677 0 -0.15123419683471551 0.118682520515855 0 -0.14016329476371719 0.1103099096129723 0 -0.15123419683471551 0.118682520515855 0 -0.13943672542501021 0.1226227336581521 0 -0.14016329476371719 0.1103099096129723 0 -0.15123419683471551 0.118682520515855 0 -0.13943672542501021 0.1226227336581521 0 -0.14888358540213589 0.1274676636848677 0 -0.13943672542501021 0.1226227336581521 0 -0.14016329476371719 0.1103099096129723 0 -0.1284821480166535 0.1137632357378007 0 -0.13943672542501021 0.1226227336581521 0 -0.1284821480166535 0.1137632357378007 0 -0.12699073800916399 0.1277996415964478 0 -0.1284821480166535 0.1137632357378007 0 -0.13354198269330661 0.090079492398921407 0 -0.1177399202292308 0.1070916594883476 0 -0.14016329476371719 0.1103099096129723 0 -0.1284821480166535 0.1137632357378007 0 -0.13354198269330661 0.090079492398921407 0 -0.13354198269330661 0.090079492398921407 0 -0.14705545484781271 0.082154458756640319 0 -0.12936541511880731 0.073230595649532326 0 -0.15597343726269891 0.1009701478560803 0 -0.13354198269330661 0.090079492398921407 0 -0.14705545484781271 0.082154458756640319 0 -0.1631225062723298 0.074251314660481599 0 -0.15597343726269891 0.1009701478560803 0 -0.14705545484781271 0.082154458756640319 0 -0.1631225062723298 0.074251314660481599 0 -0.14705545484781271 0.082154458756640319 0 -0.13981811038868219 0.058494694747308978 0 -0.14705545484781271 0.082154458756640319 0 -0.12936541511880731 0.073230595649532326 0 -0.13981811038868219 0.058494694747308978 0 -0.13981811038868219 0.058494694747308978 0 -0.12735046531874469 0.043680477281468268 0 -0.112497703185479 0.053371735304928732 0 -0.13981811038868219 0.058494694747308978 0 -0.12735046531874469 0.043680477281468268 0 -0.14107983274338759 0.041458619323925028 0 -0.12936541511880731 0.073230595649532326 0 -0.13981811038868219 0.058494694747308978 0 -0.112497703185479 0.053371735304928732 0 -0.12735046531874469 0.043680477281468268 0 -0.1284228677841299 0.032335744680439857 0 -0.14107983274338759 0.041458619323925028 0 -0.1284228677841299 0.032335744680439857 0 -0.14107983274338759 0.041458619323925028 0 -0.13851535798812911 0.028004607003639329 0 -0.14107983274338759 0.041458619323925028 0 -0.13851535798812911 0.028004607003639329 0 -0.15667860297914751 0.034249525881247259 0 -0.14107983274338759 0.041458619323925028 0 -0.15493996292142251 0.0523456432624161 0 -0.15667860297914751 0.034249525881247259 0 -0.1631225062723298 0.074251314660481599 0 -0.13981811038868219 0.058494694747308978 0 -0.15493996292142251 0.0523456432624161 0 -0.13981811038868219 0.058494694747308978 0 -0.14107983274338759 0.041458619323925028 0 -0.15493996292142251 0.0523456432624161 0 -0.13374372074794261 0.0065571909176088926 0 -0.13164590146551461 0.0097877485056629132 0 -0.14728126924118529 0.014505455121504069 0 -0.14385230174742869 -0.0007513362545505406 0 -0.1322115625968833 -0.0048588272694234684 0 -0.13374372074794261 0.0065571909176088926 0 -0.1202061722546995 -0.0013910732862858659 0 -0.13164590146551461 0.0097877485056629132 0 -0.1202061722546995 -0.0013910732862858659 0 -0.1322115625968833 -0.0048588272694234684 0 -0.13374372074794261 0.0065571909176088926 0 -0.1202061722546995 -0.0013910732862858659 0 -0.13374372074794261 0.0065571909176088926 0 -0.1202061722546995 -0.0013910732862858659 0 -0.13374372074794261 0.0065571909176088926 0 -0.13164590146551461 0.0097877485056629132 0 -0.13164590146551461 0.0097877485056629132 0 -0.12972333112282211 0.021635635646294591 0 -0.1187332144630753 0.013936095380259949 0 -0.13164590146551461 0.0097877485056629132 0 -0.14308563067633001 0.02096657029761136 0 -0.13374372074794261 0.0065571909176088926 0 -0.14728126924118529 0.014505455121504069 0 -0.13164590146551461 0.0097877485056629132 0 -0.12972333112282211 0.021635635646294591 0 -0.14308563067633001 0.02096657029761136 0 -0.1284228677841299 0.032335744680439857 0 -0.12972333112282211 0.021635635646294591 0 -0.1174458562074427 0.025546133892312618 0 -0.1284228677841299 0.032335744680439857 0 -0.12972333112282211 0.021635635646294591 0 -0.13851535798812911 0.028004607003639329 0 -0.12972333112282211 0.021635635646294591 0 -0.13851535798812911 0.028004607003639329 0 -0.14308563067633001 0.02096657029761136 0 -0.13851535798812911 0.028004607003639329 0 -0.14308563067633001 0.02096657029761136 0 -0.15667860297914751 0.034249525881247259 0 -0.13851535798812911 0.028004607003639329 0 -0.14308563067633001 0.02096657029761136 0 -0.15202362846444931 0.02217780270195709 0 -0.14308563067633001 0.02096657029761136 0 -0.15667860297914751 0.034249525881247259 0 -0.14308563067633001 0.02096657029761136 0 -0.15667860297914751 0.034249525881247259 0 -0.14728126924118529 0.014505455121504069 0 -0.16103433975605391 0.02258025818658933 0 -0.15202362846444931 0.02217780270195709 0 -0.14728126924118529 0.014505455121504069 0 -0.16103433975605391 0.02258025818658933 0 -0.15202362846444931 0.02217780270195709 0 -0.14308563067633001 0.02096657029761136 0 -0.14728126924118529 0.014505455121504069 0 -0.14308563067633001 0.02096657029761136 0 -0.14728126924118529 0.014505455121504069 0 -0.16139484457369621 -0.0072288850416046789 0 -0.14728126924118529 0.014505455121504069 0 -0.14385230174742869 -0.0007513362545505406 0 -0.16139484457369621 -0.0072288850416046789 0 -0.14728126924118529 0.014505455121504069 0 -0.13164590146551461 0.0097877485056629132 0 -0.14308563067633001 0.02096657029761136 0 -0.14728126924118529 0.014505455121504069 0 -0.14385230174742869 -0.0007513362545505406 0 -0.13374372074794261 0.0065571909176088926 0 -0.14728126924118529 0.014505455121504069 0 -0.14728126924118529 0.014505455121504069 0 -0.16490393677323331 0.0078262417282228373 0 -0.16103433975605391 0.02258025818658933 0 -0.16490393677323331 0.0078262417282228373 0 -0.16103433975605391 0.02258025818658933 0 -0.18012443120693261 0.010708551858828731 0 -0.16139484457369621 -0.0072288850416046789 0 -0.14728126924118529 0.014505455121504069 0 -0.16490393677323331 0.0078262417282228373 0 -0.16103433975605391 0.02258025818658933 0 -0.17478741027092209 0.030655061251675012 0 -0.15667860297914751 0.034249525881247259 0 -0.15202362846444931 0.02217780270195709 0 -0.16103433975605391 0.02258025818658933 0 -0.15667860297914751 0.034249525881247259 0 -0.16103433975605391 0.02258025818658933 0 -0.17478741027092209 0.030655061251675012 0 -0.17478741027092209 0.030655061251675012 0 -0.18012443120693261 0.010708551858828731 0 -0.17478741027092209 0.030655061251675012 0 -0.18012443120693261 0.010708551858828731 0 -0.19569570414869791 0.022048598308245369 0 -0.16103433975605391 0.02258025818658933 0 -0.17478741027092209 0.030655061251675012 0 -0.18012443120693261 0.010708551858828731 0 -0.1854614521429454 -0.0092379575340169606 0 -0.18012443120693261 0.010708551858828731 0 -0.19633944426408809 0.00466060732896001 0 -0.1854614521429454 -0.0092379575340169606 0 -0.18012443120693261 0.010708551858828731 0 -0.17524180425740291 -0.0061600029170402653 0 -0.16490393677323331 0.0078262417282228373 0 -0.18012443120693261 0.010708551858828731 0 -0.1631225062723298 0.074251314660481599 0 -0.17027157528196421 0.047532481464883793 0 -0.1631225062723298 0.074251314660481599 0 -0.15493996292142251 0.0523456432624161 0 -0.17027157528196421 0.047532481464883793 0 -0.15493996292142251 0.0523456432624161 0 -0.17027157528196421 0.047532481464883793 0 -0.15667860297914751 0.034249525881247259 0 -0.17027157528196421 0.047532481464883793 0 -0.15667860297914751 0.034249525881247259 0 -0.17478741027092209 0.030655061251675012 0 -0.17027157528196421 0.047532481464883793 0 -0.15667860297914751 0.034249525881247259 0 -0.17478741027092209 0.030655061251675012 0 -0.17027157528196421 0.047532481464883793 0 -0.18196939148255031 0.045553589834538402 0 -0.17478741027092209 0.030655061251675012 0 -0.18196939148255031 0.045553589834538402 0 -0.19308095671227771 0.04139570165748329 0 -0.17478741027092209 0.030655061251675012 0 -0.17027157528196421 0.047532481464883793 0 -0.17478741027092209 0.030655061251675012 0 -0.19308095671227771 0.04139570165748329 0 -0.1752433789360254 0.06775480365324249 0 -0.17027157528196421 0.047532481464883793 0 -0.18026086163212859 0.057293940838558627 0 -0.18196939148255031 0.045553589834538402 0 -0.18026086163212859 0.057293940838558627 0 -0.19834979291729041 0.055890696194585032 0 -0.17027157528196421 0.047532481464883793 0 -0.18026086163212859 0.057293940838558627 0 -0.17027157528196421 0.047532481464883793 0 -0.18196939148255031 0.045553589834538402 0 -0.18026086163212859 0.057293940838558627 0 -0.18196939148255031 0.045553589834538402 0 -0.19834979291729041 0.055890696194585032 0 -0.19308095671227771 0.04139570165748329 0 -0.1862002927678873 0.072560731459141534 0 -0.18026086163212859 0.057293940838558627 0 -0.19834979291729041 0.055890696194585032 0 -0.19834979291729041 0.055890696194585032 0 -0.19308095671227771 0.04139570165748329 0 -0.20899835239046899 0.035974845264358637 0 -0.17478741027092209 0.030655061251675012 0 -0.19308095671227771 0.04139570165748329 0 -0.19569570414869791 0.022048598308245369 0 -0.19308095671227771 0.04139570165748329 0 -0.20899835239046899 0.035974845264358637 0 -0.19569570414869791 0.022048598308245369 0 -0.19834979291729041 0.055890696194585032 0 -0.20899835239046899 0.035974845264358637 0 -0.22189997168775921 0.056401598624421179 0 -0.19633944426408809 0.00466060732896001 0 -0.19569570414869791 0.022048598308245369 0 -0.2149907176199192 0.011062683029353881 0 -0.18012443120693261 0.010708551858828731 0 -0.19633944426408809 0.00466060732896001 0 -0.19569570414869791 0.022048598308245369 0 -0.20899835239046899 0.035974845264358637 0 -0.19569570414869791 0.022048598308245369 0 -0.2149907176199192 0.011062683029353881 0 -0.20899835239046899 0.035974845264358637 0 -0.2149907176199192 0.011062683029353881 0 -0.22997297125686961 0.02904979377206313 0 -0.20542491620194561 -0.011278839017610971 0 -0.19633944426408809 0.00466060732896001 0 -0.2149907176199192 0.011062683029353881 0 -0.22558477193685969 -0.009933186482104249 0 -0.2149907176199192 0.011062683029353881 0 -0.24246841339286879 0.0059924289061955363 0 -0.2149907176199192 0.011062683029353881 0 -0.22997297125686961 0.02904979377206313 0 -0.24246841339286879 0.0059924289061955363 0 -0.22997297125686961 0.02904979377206313 0 -0.24246841339286879 0.0059924289061955363 0 -0.24959440881251921 0.034531036724415987 0 -0.2583402395750603 0.055023550802444948 0 -0.22189997168775921 0.056401598624421179 0 -0.24959440881251921 0.034531036724415987 0 -0.2583402395750603 0.055023550802444948 0 -0.22189997168775921 0.056401598624421179 0 -0.2377951598790477 0.073523087065822029 0 -0.22997297125686961 0.02904979377206313 0 -0.22189997168775921 0.056401598624421179 0 -0.24959440881251921 0.034531036724415987 0 -0.22997297125686961 0.02904979377206313 0 -0.22189997168775921 0.056401598624421179 0 -0.20899835239046899 0.035974845264358637 0 -0.22997297125686961 0.02904979377206313 0 -0.22189997168775921 0.056401598624421179 0 -0.25705194419740379 0.078948087156403529 0 -0.2377951598790477 0.073523087065822029 0 -0.23785667181636741 0.093488795269061634 0 -0.23785667181636741 0.093488795269061634 0 -0.2138269721186479 0.083753403476778815 0 -0.2377951598790477 0.073523087065822029 0 -0.23785667181636741 0.093488795269061634 0 -0.2138269721186479 0.083753403476778815 0 -0.22189997168775921 0.056401598624421179 0 -0.2377951598790477 0.073523087065822029 0 -0.2138269721186479 0.083753403476778815 0 -0.19834979291729041 0.055890696194585032 0 -0.22189997168775921 0.056401598624421179 0 -0.2138269721186479 0.083753403476778815 0 -0.22189997168775921 0.056401598624421179 0 -0.2138269721186479 0.083753403476778815 0 -0.2138269721186479 0.083753403476778815 0 -0.20309108406160439 0.092770151145250904 0 -0.19344216401089839 0.087045725975270535 0 -0.1862002927678873 0.072560731459141534 0 -0.2138269721186479 0.083753403476778815 0 -0.19344216401089839 0.087045725975270535 0 -0.1862002927678873 0.072560731459141534 0 -0.2138269721186479 0.083753403476778815 0 -0.20309108406160439 0.092770151145250904 0 -0.19344216401089839 0.087045725975270535 0 -0.18773081238053349 0.099008793952034019 0 -0.1862002927678873 0.072560731459141534 0 -0.19834979291729041 0.055890696194585032 0 -0.2138269721186479 0.083753403476778815 0 -0.19723000968486551 0.1156822290439672 0 -0.20721020200087639 0.1061714159472253 0 -0.20059343188310411 0.12858942841767149 0 -0.19723000968486551 0.1156822290439672 0 -0.1914632152496957 0.1302137786519961 0 -0.20059343188310411 0.12858942841767149 0 -0.1807055611592753 0.1222213690145703 0 -0.19379194700569921 0.1193313449973568 0 -0.1914632152496957 0.1302137786519961 0 -0.19723000968486551 0.1156822290439672 0 -0.19379194700569921 0.1193313449973568 0 -0.1914632152496957 0.1302137786519961 0 -0.19723000968486551 0.1156822290439672 0 -0.1914632152496957 0.1302137786519961 0 -0.19723000968486551 0.1156822290439672 0 -0.19379194700569921 0.1193313449973568 0 -0.18922286181994319 0.1097882139790686 0 -0.19723000968486551 0.1156822290439672 0 -0.18922286181994319 0.1097882139790686 0 -0.19690897366454019 0.1053535744445276 0 -0.18922286181994319 0.1097882139790686 0 -0.18773081238053349 0.099008793952034019 0 -0.19690897366454019 0.1053535744445276 0 -0.20309108406160439 0.092770151145250904 0 -0.18773081238053349 0.099008793952034019 0 -0.19690897366454019 0.1053535744445276 0 -0.20309108406160439 0.092770151145250904 0 -0.19690897366454019 0.1053535744445276 0 -0.20721020200087639 0.1061714159472253 0 -0.19723000968486551 0.1156822290439672 0 -0.19690897366454019 0.1053535744445276 0 -0.20721020200087639 0.1061714159472253 0 -0.2138269721186479 0.083753403476778815 0 -0.20309108406160439 0.092770151145250904 0 -0.20721020200087639 0.1061714159472253 0 -0.20721020200087639 0.1061714159472253 0 -0.2151543975621745 0.11318368474237001 0 -0.22476094116670059 0.10521267942639401 0 -0.2138269721186479 0.083753403476778815 0 -0.20721020200087639 0.1061714159472253 0 -0.2138269721186479 0.083753403476778815 0 -0.20721020200087639 0.1061714159472253 0 -0.22476094116670059 0.10521267942639401 0 -0.20721020200087639 0.1061714159472253 0 -0.20059343188310411 0.12858942841767149 0 -0.20721020200087639 0.1061714159472253 0 -0.2151543975621745 0.11318368474237001 0 -0.21093265301325331 0.12023573230752729 0 -0.20721020200087639 0.1061714159472253 0 -0.21093265301325331 0.12023573230752729 0 -0.20059343188310411 0.12858942841767149 0 -0.2151543975621745 0.11318368474237001 0 -0.21093265301325331 0.12023573230752729 0 -0.22002409377351451 0.1212032448750865 0 -0.21093265301325331 0.12023573230752729 0 -0.22002409377351451 0.1212032448750865 0 -0.21228278039494261 0.1320538910935003 0 -0.22002409377351451 0.1212032448750865 0 -0.22476094116670059 0.10521267942639401 0 -0.23465984522559599 0.1213213163240147 0 -0.2151543975621745 0.11318368474237001 0 -0.22002409377351451 0.1212032448750865 0 -0.22476094116670059 0.10521267942639401 0 -0.22002409377351451 0.1212032448750865 0 -0.23465984522559599 0.1213213163240147 0 -0.2255517000595488 0.13214588870121299 0 -0.23785667181636741 0.093488795269061634 0 -0.2138269721186479 0.083753403476778815 0 -0.22476094116670059 0.10521267942639401 0 -0.26188637151409061 0.1032241870613356 0 -0.23785667181636741 0.093488795269061634 0 -0.24538069525023401 0.11002628242505789 0 -0.26188637151409061 0.1032241870613356 0 -0.23785667181636741 0.093488795269061634 0 -0.23785667181636741 0.093488795269061634 0 -0.22476094116670059 0.10521267942639401 0 -0.24538069525023401 0.11002628242505789 0 -0.22476094116670059 0.10521267942639401 0 -0.24538069525023401 0.11002628242505789 0 -0.23465984522559599 0.1213213163240147 0 -0.25522976875176268 0.1246419591823202 0 -0.24538069525023401 0.11002628242505789 0 -0.23465984522559599 0.1213213163240147 0 -0.23819557112678791 0.13286436956006631 0 -0.22885985867031969 0.13974039717775469 0 -0.24579287854133169 0.14255149029060371 0 -0.25522976875176268 0.1246419591823202 0 -0.23819557112678791 0.13286436956006631 0 -0.24579287854133169 0.14255149029060371 0 -0.25522976875176268 0.1246419591823202 0 -0.23465984522559599 0.1213213163240147 0 -0.23819557112678791 0.13286436956006631 0 -0.23465984522559599 0.1213213163240147 0 -0.23819557112678791 0.13286436956006631 0 -0.2255517000595488 0.13214588870121299 0 -0.23819557112678791 0.13286436956006631 0 -0.22885985867031969 0.13974039717775469 0 -0.2255517000595488 0.13214588870121299 0 -0.2255517000595488 0.13214588870121299 0 -0.2188461489734424 0.143731715114643 0 -0.21228278039494261 0.1320538910935003 0 -0.22885985867031969 0.13974039717775469 0 -0.2255517000595488 0.13214588870121299 0 -0.2188461489734424 0.143731715114643 0 -0.22002409377351451 0.1212032448750865 0 -0.2255517000595488 0.13214588870121299 0 -0.21228278039494261 0.1320538910935003 0 -0.22885985867031969 0.13974039717775469 0 -0.22837107978723431 0.15007495277215349 0 -0.24579287854133169 0.14255149029060371 0 -0.21938441050662311 0.15561215485625679 0 -0.22837107978723431 0.15007495277215349 0 -0.2239303690094723 0.16156461377797779 0 -0.21938441050662311 0.15561215485625679 0 -0.2188461489734424 0.143731715114643 0 -0.22837107978723431 0.15007495277215349 0 -0.22885985867031969 0.13974039717775469 0 -0.2188461489734424 0.143731715114643 0 -0.22837107978723431 0.15007495277215349 0 -0.22837107978723431 0.15007495277215349 0 -0.24579287854133169 0.14255149029060371 0 -0.23454669755314431 0.15922491431840621 0 -0.25053511496792102 0.16342135627284449 0 -0.24579287854133169 0.14255149029060371 0 -0.23454669755314431 0.15922491431840621 0 -0.25053511496792102 0.16342135627284449 0 -0.23454669755314431 0.15922491431840621 0 -0.2247428373718505 0.17303974923603191 0 -0.25053511496792102 0.16342135627284449 0 -0.23574730809267661 0.18408729418630121 0 -0.249755023560321 0.19544853815688309 0 -0.25053511496792102 0.16342135627284449 0 -0.2247428373718505 0.17303974923603191 0 -0.25053511496792102 0.16342135627284449 0 -0.23574730809267661 0.18408729418630121 0 -0.2247428373718505 0.17303974923603191 0 -0.2247428373718505 0.17303974923603191 0 -0.22039024680665389 0.184903480549821 0 -0.2143054248316566 0.1673489625025075 0 -0.23574730809267661 0.18408729418630121 0 -0.2247428373718505 0.17303974923603191 0 -0.22039024680665389 0.184903480549821 0 -0.22837107978723431 0.15007495277215349 0 -0.23454669755314431 0.15922491431840621 0 -0.2239303690094723 0.16156461377797779 0 -0.23454669755314431 0.15922491431840621 0 -0.2247428373718505 0.17303974923603191 0 -0.2239303690094723 0.16156461377797779 0 -0.2247428373718505 0.17303974923603191 0 -0.2239303690094723 0.16156461377797779 0 -0.2143054248316566 0.1673489625025075 0 -0.21938441050662311 0.15561215485625679 0 -0.2239303690094723 0.16156461377797779 0 -0.2143054248316566 0.1673489625025075 0 -0.21938441050662311 0.15561215485625679 0 -0.2143054248316566 0.1673489625025075 0 -0.21153416230277799 0.15415509841742381 0 -0.2143054248316566 0.1673489625025075 0 -0.20703526428850499 0.16088329356577671 0 -0.21153416230277799 0.15415509841742381 0 -0.2143054248316566 0.1673489625025075 0 -0.20330696839451731 0.16872747693628681 0 -0.21068596128531261 0.17588789868593799 0 -0.2143054248316566 0.1673489625025075 0 -0.20330696839451731 0.16872747693628681 0 -0.20703526428850499 0.16088329356577671 0 -0.22039024680665389 0.184903480549821 0 -0.21068596128531261 0.17588789868593799 0 -0.20474120510842239 0.182571674755137 0 -0.22039024680665389 0.184903480549821 0 -0.2143054248316566 0.1673489625025075 0 -0.21068596128531261 0.17588789868593799 0 -0.22039024680665389 0.184903480549821 0 -0.20474120510842239 0.182571674755137 0 -0.20934893529800491 0.19460044809958391 0 -0.22039024680665389 0.184903480549821 0 -0.2143054248316566 0.1673489625025075 0 -0.20330696839451731 0.16872747693628681 0 -0.21068596128531261 0.17588789868593799 0 -0.20474120510842239 0.182571674755137 0 -0.19544007764812771 0.1922271735228738 0 -0.18075210167465089 0.19581304056170251 0 -0.18736438171999131 0.17341024072491021 0 -0.20474120510842239 0.182571674755137 0 -0.19544007764812771 0.1922271735228738 0 -0.18736438171999131 0.17341024072491021 0 -0.20330696839451731 0.16872747693628681 0 -0.20474120510842239 0.182571674755137 0 -0.18736438171999131 0.17341024072491021 0 -0.20330696839451731 0.16872747693628681 0 -0.19397666176533099 0.1510074408881176 0 -0.18736438171999131 0.17341024072491021 0 -0.20330696839451731 0.16872747693628681 0 -0.20703526428850499 0.16088329356577671 0 -0.19397666176533099 0.1510074408881176 0 -0.19397666176533099 0.1510074408881176 0 -0.18736438171999131 0.17341024072491021 0 -0.19397666176533099 0.1510074408881176 0 -0.20269140007011091 0.14261348936129739 0 -0.20059343188310411 0.12858942841767149 0 -0.19397666176533099 0.1510074408881176 0 -0.1914632152496957 0.1302137786519961 0 -0.185696420814526 0.14474532826002501 0 -0.20703526428850499 0.16088329356577671 0 -0.19397666176533099 0.1510074408881176 0 -0.20479600616608121 0.15066830331724959 0 -0.20703526428850499 0.16088329356577671 0 -0.19397666176533099 0.1510074408881176 0 -0.19397666176533099 0.1510074408881176 0 -0.20269140007011091 0.14261348936129739 0 -0.20479600616608121 0.15066830331724959 0 -0.19397666176533099 0.1510074408881176 0 -0.185696420814526 0.14474532826002501 0 -0.19397666176533099 0.1510074408881176 0 -0.1914632152496957 0.1302137786519961 0 -0.20059343188310411 0.12858942841767149 0 -0.19397666176533099 0.1510074408881176 0 -0.20059343188310411 0.12858942841767149 0 -0.1914632152496957 0.1302137786519961 0 -0.185696420814526 0.14474532826002501 0 -0.20269140007011091 0.14261348936129739 0 -0.20059343188310411 0.12858942841767149 0 -0.2060775386879595 0.13698475080652539 0 -0.2060775386879595 0.13698475080652539 0 -0.21228278039494261 0.1320538910935003 0 -0.20947172295928279 0.14354686533034189 0 -0.20059343188310411 0.12858942841767149 0 -0.2060775386879595 0.13698475080652539 0 -0.21228278039494261 0.1320538910935003 0 -0.21093265301325331 0.12023573230752729 0 -0.20059343188310411 0.12858942841767149 0 -0.21228278039494261 0.1320538910935003 0 -0.2188461489734424 0.143731715114643 0 -0.21228278039494261 0.1320538910935003 0 -0.20947172295928279 0.14354686533034189 0 -0.2188461489734424 0.143731715114643 0 -0.21153416230277799 0.15415509841742381 0 -0.20947172295928279 0.14354686533034189 0 -0.21938441050662311 0.15561215485625679 0 -0.2188461489734424 0.143731715114643 0 -0.21153416230277799 0.15415509841742381 0 -0.21153416230277799 0.15415509841742381 0 -0.20479600616608121 0.15066830331724959 0 -0.20947172295928279 0.14354686533034189 0 -0.20703526428850499 0.16088329356577671 0 -0.21153416230277799 0.15415509841742381 0 -0.20479600616608121 0.15066830331724959 0 -0.20269140007011091 0.14261348936129739 0 -0.20479600616608121 0.15066830331724959 0 -0.20947172295928279 0.14354686533034189 0 -0.20269140007011091 0.14261348936129739 0 -0.2060775386879595 0.13698475080652539 0 -0.20947172295928279 0.14354686533034189 0 -0.24338505276019021 0.2512427650456508 0 -0.2236563306449528 0.2495190359932952 0 -0.23493006077092071 0.22685038182139261 0 -0.2236563306449528 0.2495190359932952 0 -0.23493006077092071 0.22685038182139261 0 -0.21252951673882989 0.22904377059105041 0 -0.24338505276019021 0.2512427650456508 0 -0.23493006077092071 0.22685038182139261 0 -0.25025753539417261 0.23272492963053659 0 -0.24338505276019021 0.2512427650456508 0 -0.23493006077092071 0.22685038182139261 0 -0.25025753539417261 0.23272492963053659 0 -0.25541758599954478 0.24830747332655551 0 -0.24338505276019021 0.2512427650456508 0 -0.25025753539417261 0.23272492963053659 0 -0.23493006077092071 0.22685038182139261 0 -0.2476151157830245 0.2135097841317026 0 -0.23493006077092071 0.22685038182139261 0 -0.22647506878165119 0.2024579985971344 0 -0.21252951673882989 0.22904377059105041 0 -0.23493006077092071 0.22685038182139261 0 -0.22647506878165119 0.2024579985971344 0 -0.23493006077092071 0.22685038182139261 0 -0.2476151157830245 0.2135097841317026 0 -0.22647506878165119 0.2024579985971344 0 -0.2476151157830245 0.2135097841317026 0 -0.249755023560321 0.19544853815688309 0 -0.22647506878165119 0.2024579985971344 0 -0.23574730809267661 0.18408729418630121 0 -0.249755023560321 0.19544853815688309 0 -0.22647506878165119 0.2024579985971344 0 -0.249755023560321 0.19544853815688309 0 -0.22647506878165119 0.2024579985971344 0 -0.23574730809267661 0.18408729418630121 0 -0.22039024680665389 0.184903480549821 0 -0.22647506878165119 0.2024579985971344 0 -0.22039024680665389 0.184903480549821 0 -0.22647506878165119 0.2024579985971344 0 -0.22039024680665389 0.184903480549821 0 -0.22647506878165119 0.2024579985971344 0 -0.20934893529800491 0.19460044809958391 0 -0.22647506878165119 0.2024579985971344 0 -0.20934893529800491 0.19460044809958391 0 -0.20030744520548019 0.2103369194978135 0 -0.20474120510842239 0.182571674755137 0 -0.20934893529800491 0.19460044809958391 0 -0.19544007764812771 0.1922271735228738 0 -0.19544007764812771 0.1922271735228738 0 -0.20030744520548019 0.2103369194978135 0 -0.18075210167465089 0.19581304056170251 0 -0.20934893529800491 0.19460044809958391 0 -0.19544007764812771 0.1922271735228738 0 -0.20030744520548019 0.2103369194978135 0 -0.22647506878165119 0.2024579985971344 0 -0.20030744520548019 0.2103369194978135 0 -0.22647506878165119 0.2024579985971344 0 -0.20030744520548019 0.2103369194978135 0 -0.21252951673882989 0.22904377059105041 0 -0.20030744520548019 0.2103369194978135 0 -0.21252951673882989 0.22904377059105041 0 -0.1866445730272448 0.23657667660611509 0 -0.21252951673882989 0.22904377059105041 0 -0.20455644492525299 0.24848876851732821 0 -0.1866445730272448 0.23657667660611509 0 -0.2236563306449528 0.2495190359932952 0 -0.21252951673882989 0.22904377059105041 0 -0.20455644492525299 0.24848876851732821 0 -0.16593288775273979 0.24602142268628169 0 -0.15623877798733379 0.223605741643602 0 -0.1509256926292962 0.2385259019661953 0 -0.16593288775273979 0.24602142268628169 0 -0.1509256926292962 0.2385259019661953 0 -0.15452019481184001 0.2499777617130321 0 -0.18614839561170071 0.266793386232271 0 -0.16593288775273979 0.24602142268628169 0 -0.1866445730272448 0.23657667660611509 0 -0.16593288775273979 0.24602142268628169 0 -0.1866445730272448 0.23657667660611509 0 -0.17413982162930969 0.21821584039849459 0 -0.20030744520548019 0.2103369194978135 0 -0.1866445730272448 0.23657667660611509 0 -0.17413982162930969 0.21821584039849459 0 -0.16593288775273979 0.24602142268628169 0 -0.17413982162930969 0.21821584039849459 0 -0.15623877798733379 0.223605741643602 0 -0.16593288775273979 0.24602142268628169 0 -0.17413982162930969 0.21821584039849459 0 -0.17413982162930969 0.21821584039849459 0 -0.15623877798733379 0.223605741643602 0 -0.1606891953035362 0.205863174449815 0 -0.17413982162930969 0.21821584039849459 0 -0.15623877798733379 0.223605741643602 0 -0.1606891953035362 0.205863174449815 0 -0.17413982162930969 0.21821584039849459 0 -0.16942100979499769 0.20068283503150711 0 -0.20030744520548019 0.2103369194978135 0 -0.17413982162930969 0.21821584039849459 0 -0.17413982162930969 0.21821584039849459 0 -0.18075210167465089 0.19581304056170251 0 -0.17413982162930969 0.21821584039849459 0 -0.18075210167465089 0.19581304056170251 0 -0.16942100979499769 0.20068283503150711 0 -0.20030744520548019 0.2103369194978135 0 -0.17413982162930969 0.21821584039849459 0 -0.18075210167465089 0.19581304056170251 0 -0.18075210167465089 0.19581304056170251 0 -0.1683368827877782 0.1884890390588165 0 -0.16942100979499769 0.20068283503150711 0 -0.1683368827877782 0.1884890390588165 0 -0.16942100979499769 0.20068283503150711 0 -0.1626416018629768 0.19516382315250469 0 -0.1606891953035362 0.205863174449815 0 -0.16942100979499769 0.20068283503150711 0 -0.1626416018629768 0.19516382315250469 0 -0.1606891953035362 0.205863174449815 0 -0.1626416018629768 0.19516382315250469 0 -0.15149940635253439 0.19377770389984619 0 -0.1626416018629768 0.19516382315250469 0 -0.15850522842609771 0.18814643760685601 0 -0.15149940635253439 0.19377770389984619 0 -0.1683368827877782 0.1884890390588165 0 -0.1626416018629768 0.19516382315250469 0 -0.15850522842609771 0.18814643760685601 0 -0.15850522842609771 0.18814643760685601 0 -0.15149940635253439 0.19377770389984619 0 -0.15146451258002039 0.1847230872649612 0 -0.1606891953035362 0.205863174449815 0 -0.15149940635253439 0.19377770389984619 0 -0.1481836677827558 0.20606089852096779 0 -0.15149940635253439 0.19377770389984619 0 -0.13660109176338989 0.19482848159924199 0 -0.1481836677827558 0.20606089852096779 0 -0.15149940635253439 0.19377770389984619 0 -0.13660109176338989 0.19482848159924199 0 -0.14189233718696029 0.18648807142098159 0 -0.15149940635253439 0.19377770389984619 0 -0.15146451258002039 0.1847230872649612 0 -0.14189233718696029 0.18648807142098159 0 -0.13660109176338989 0.19482848159924199 0 -0.13459366048807669 0.20813075083642571 0 -0.11816259824302761 0.19546762909377491 0 -0.13660109176338989 0.19482848159924199 0 -0.14189233718696029 0.18648807142098159 0 -0.13340267785405971 0.1820021501253952 0 -0.13660109176338989 0.19482848159924199 0 -0.13340267785405971 0.1820021501253952 0 -0.11816259824302761 0.19546762909377491 0 -0.13340267785405971 0.1820021501253952 0 -0.11816259824302761 0.19546762909377491 0 -0.13660109176338989 0.19482848159924199 0 -0.13459366048807669 0.20813075083642571 0 -0.1481836677827558 0.20606089852096779 0 -0.13459366048807669 0.20813075083642571 0 -0.1279165565020168 0.22345647017760861 0 -0.12074298430650469 0.21208973632973141 0 -0.13459366048807669 0.20813075083642571 0 -0.14309551626886791 0.21762993678426501 0 -0.1279165565020168 0.22345647017760861 0 -0.1606891953035362 0.205863174449815 0 -0.1481836677827558 0.20606089852096779 0 -0.15623877798733379 0.223605741643602 0 -0.14309551626886791 0.21762993678426501 0 -0.1481836677827558 0.20606089852096779 0 -0.15623877798733379 0.223605741643602 0 -0.13459366048807669 0.20813075083642571 0 -0.14309551626886791 0.21762993678426501 0 -0.1481836677827558 0.20606089852096779 0 -0.14309551626886791 0.21762993678426501 0 -0.15623877798733379 0.223605741643602 0 -0.13833773434535829 0.2289956428887108 0 -0.15623877798733379 0.223605741643602 0 -0.13833773434535829 0.2289956428887108 0 -0.15623877798733379 0.223605741643602 0 -0.13833773434535829 0.2289956428887108 0 -0.1509256926292962 0.2385259019661953 0 -0.14309551626886791 0.21762993678426501 0 -0.1279165565020168 0.22345647017760861 0 -0.13833773434535829 0.2289956428887108 0 -0.1279165565020168 0.22345647017760861 0 -0.13833773434535829 0.2289956428887108 0 -0.1246775416865783 0.2380801200856669 0 -0.13833773434535829 0.2289956428887108 0 -0.13959886824920911 0.24402894089934959 0 -0.1246775416865783 0.2380801200856669 0 -0.12693387211038021 0.24110311343421731 0 -0.13959886824920911 0.24402894089934959 0 -0.1246775416865783 0.2380801200856669 0 -0.13959886824920911 0.24402894089934959 0 -0.1246775416865783 0.2380801200856669 0 -0.12693387211038021 0.24110311343421731 0 -0.1246775416865783 0.2380801200856669 0 -0.12256057738715639 0.25314703781829762 0 -0.13158174630476269 0.24952230106181231 0 -0.1248334224459937 0.2471335956147635 0 -0.12693387211038021 0.24110311343421731 0 -0.13158174630476269 0.24952230106181231 0 -0.13959886824920911 0.24402894089934959 0 -0.12693387211038021 0.24110311343421731 0 -0.13158174630476269 0.24952230106181231 0 -0.1248334224459937 0.2471335956147635 0 -0.13959886824920911 0.24402894089934959 0 -0.15452019481184001 0.2499777617130321 0 -0.13959886824920911 0.24402894089934959 0 -0.1509256926292962 0.2385259019661953 0 -0.15452019481184001 0.2499777617130321 0 -0.13833773434535829 0.2289956428887108 0 -0.13959886824920911 0.24402894089934959 0 -0.1509256926292962 0.2385259019661953 0 -0.16864871156116421 0.14300165740095541 0 -0.1715769465467058 0.1528731199043126 0 -0.16009721326309939 0.15024334267750949 0 -0.1715769465467058 0.1528731199043126 0 -0.16009721326309939 0.15024334267750949 0 -0.1661290401471123 0.16020510038341329 0 -0.16864871156116421 0.14300165740095541 0 -0.16009721326309939 0.15024334267750949 0 -0.15740766835686909 0.13543257177499041 0 -0.15123419683471551 0.118682520515855 0 -0.16846530882462071 0.13171392438793991 0 -0.15123419683471551 0.118682520515855 0 -0.15740766835686909 0.13543257177499041 0 -0.16846530882462071 0.13171392438793991 0 -0.16864871156116421 0.14300165740095541 0 -0.15740766835686909 0.13543257177499041 0 -0.16846530882462071 0.13171392438793991 0 -0.1807055611592753 0.1222213690145703 0 -0.16846530882462071 0.13171392438793991 0 -0.185696420814526 0.14474532826002501 0 -0.1807055611592753 0.1222213690145703 0 -0.1914632152496957 0.1302137786519961 0 -0.185696420814526 0.14474532826002501 0 -0.16864871156116421 0.14300165740095541 0 -0.16846530882462071 0.13171392438793991 0 -0.185696420814526 0.14474532826002501 0 -0.16846530882462071 0.13171392438793991 0 -0.185696420814526 0.14474532826002501 0 -0.185696420814526 0.14474532826002501 0 -0.177016651801152 0.1666171836594208 0 -0.16864871156116421 0.14300165740095541 0 -0.1715769465467058 0.1528731199043126 0 -0.185696420814526 0.14474532826002501 0 -0.19397666176533099 0.1510074408881176 0 -0.185696420814526 0.14474532826002501 0 -0.177016651801152 0.1666171836594208 0 -0.1715769465467058 0.1528731199043126 0 -0.185696420814526 0.14474532826002501 0 -0.177016651801152 0.1666171836594208 0 -0.19397666176533099 0.1510074408881176 0 -0.177016651801152 0.1666171836594208 0 -0.18736438171999131 0.17341024072491021 0 -0.1683368827877782 0.1884890390588165 0 -0.177016651801152 0.1666171836594208 0 -0.18075210167465089 0.19581304056170251 0 -0.1683368827877782 0.1884890390588165 0 -0.18736438171999131 0.17341024072491021 0 -0.1683368827877782 0.1884890390588165 0 -0.177016651801152 0.1666171836594208 0 -0.18736438171999131 0.17341024072491021 0 -0.18075210167465089 0.19581304056170251 0 -0.18736438171999131 0.17341024072491021 0 -0.1683368827877782 0.1884890390588165 0 -0.177016651801152 0.1666171836594208 0 -0.1646429546977719 0.1804583221383918 0 -0.177016651801152 0.1666171836594208 0 -0.1646429546977719 0.1804583221383918 0 -0.16450953262285811 0.16871251247338101 0 -0.1646429546977719 0.1804583221383918 0 -0.16450953262285811 0.16871251247338101 0 -0.1547690943726156 0.17090249392968551 0 -0.15850522842609771 0.18814643760685601 0 -0.1646429546977719 0.1804583221383918 0 -0.15146451258002039 0.1847230872649612 0 -0.1683368827877782 0.1884890390588165 0 -0.15850522842609771 0.18814643760685601 0 -0.1646429546977719 0.1804583221383918 0 -0.1715769465467058 0.1528731199043126 0 -0.177016651801152 0.1666171836594208 0 -0.1661290401471123 0.16020510038341329 0 -0.177016651801152 0.1666171836594208 0 -0.1661290401471123 0.16020510038341329 0 -0.16450953262285811 0.16871251247338101 0 -0.16450953262285811 0.16871251247338101 0 -0.15744485650174619 0.16257934320244291 0 -0.1547690943726156 0.17090249392968551 0 -0.1661290401471123 0.16020510038341329 0 -0.16450953262285811 0.16871251247338101 0 -0.15744485650174619 0.16257934320244291 0 -0.16009721326309939 0.15024334267750949 0 -0.1661290401471123 0.16020510038341329 0 -0.15744485650174619 0.16257934320244291 0 -0.15744485650174619 0.16257934320244291 0 -0.1485739983974726 0.16479512205005059 0 -0.14878784752799321 0.15498295845722021 0 -0.15744485650174619 0.16257934320244291 0 -0.1547690943726156 0.17090249392968551 0 -0.1485739983974726 0.16479512205005059 0 -0.1547690943726156 0.17090249392968551 0 -0.1485739983974726 0.16479512205005059 0 -0.14078263623673781 0.1747449012587303 0 -0.1485739983974726 0.16479512205005059 0 -0.14078263623673781 0.1747449012587303 0 -0.1401497048688824 0.16141956162431231 0 -0.1485739983974726 0.16479512205005059 0 -0.1401497048688824 0.16141956162431231 0 -0.14878784752799321 0.15498295845722021 0 -0.1646429546977719 0.1804583221383918 0 -0.14078263623673781 0.1747449012587303 0 -0.1646429546977719 0.1804583221383918 0 -0.1547690943726156 0.17090249392968551 0 -0.14078263623673781 0.1747449012587303 0 -0.1646429546977719 0.1804583221383918 0 -0.15146451258002039 0.1847230872649612 0 -0.14078263623673781 0.1747449012587303 0 -0.15146451258002039 0.1847230872649612 0 -0.14078263623673781 0.1747449012587303 0 -0.14189233718696029 0.18648807142098159 0 -0.14078263623673781 0.1747449012587303 0 -0.13340267785405971 0.1820021501253952 0 -0.1169223177757038 0.1690314803790689 0 -0.14078263623673781 0.1747449012587303 0 -0.1169223177757038 0.1690314803790689 0 -0.14078263623673781 0.1747449012587303 0 -0.14189233718696029 0.18648807142098159 0 -0.13340267785405971 0.1820021501253952 0 -0.14078263623673781 0.1747449012587303 0 -0.12695532145711419 0.1583079532094589 0 -0.1169223177757038 0.1690314803790689 0 -0.14078263623673781 0.1747449012587303 0 -0.1401497048688824 0.16141956162431231 0 -0.12695532145711419 0.1583079532094589 0 -0.12695532145711419 0.1583079532094589 0 -0.13528797331579409 0.1484633567306996 0 -0.11935333803497621 0.14164185470234869 0 -0.13528797331579409 0.1484633567306996 0 -0.13000864654203559 0.13853187066662839 0 -0.11935333803497621 0.14164185470234869 0 -0.13528797331579409 0.1484633567306996 0 -0.13966326666366949 0.13698070410104499 0 -0.13000864654203559 0.13853187066662839 0 -0.1401497048688824 0.16141956162431231 0 -0.12695532145711419 0.1583079532094589 0 -0.13528797331579409 0.1484633567306996 0 -0.13528797331579409 0.1484633567306996 0 -0.14892729287043399 0.1439657801914383 0 -0.14878784752799321 0.15498295845722021 0 -0.1401497048688824 0.16141956162431231 0 -0.13528797331579409 0.1484633567306996 0 -0.14878784752799321 0.15498295845722021 0 -0.13528797331579409 0.1484633567306996 0 -0.14892729287043399 0.1439657801914383 0 -0.13966326666366949 0.13698070410104499 0 -0.16009721326309939 0.15024334267750949 0 -0.15740766835686909 0.13543257177499041 0 -0.14892729287043399 0.1439657801914383 0 -0.16009721326309939 0.15024334267750949 0 -0.15744485650174619 0.16257934320244291 0 -0.14878784752799321 0.15498295845722021 0 -0.16009721326309939 0.15024334267750949 0 -0.14892729287043399 0.1439657801914383 0 -0.14878784752799321 0.15498295845722021 0 -0.15123419683471551 0.118682520515855 0 -0.15740766835686909 0.13543257177499041 0 -0.14888358540213589 0.1274676636848677 0 -0.15740766835686909 0.13543257177499041 0 -0.14892729287043399 0.1439657801914383 0 -0.14847968912886131 0.13615194101135361 0 -0.15740766835686909 0.13543257177499041 0 -0.14888358540213589 0.1274676636848677 0 -0.14847968912886131 0.13615194101135361 0 -0.14888358540213589 0.1274676636848677 0 -0.14847968912886131 0.13615194101135361 0 -0.13966326666366949 0.13698070410104499 0 -0.14892729287043399 0.1439657801914383 0 -0.14847968912886131 0.13615194101135361 0 -0.13966326666366949 0.13698070410104499 0 -0.13943672542501021 0.1226227336581521 0 -0.14888358540213589 0.1274676636848677 0 -0.13966326666366949 0.13698070410104499 0 -0.13943672542501021 0.1226227336581521 0 -0.13966326666366949 0.13698070410104499 0 -0.12699073800916399 0.1277996415964478 0 -0.13000864654203559 0.13853187066662839 0 -0.12699073800916399 0.1277996415964478 0 -0.11935333803497621 0.14164185470234869 0 -0.13966326666366949 0.13698070410104499 0 -0.13000864654203559 0.13853187066662839 0 -0.12699073800916399 0.1277996415964478 0 -0.12699073800916399 0.1277996415964478 0 -0.11935333803497621 0.14164185470234869 0 -0.11302022697949241 0.12467597767196301 0 -0.1037507320866085 0.13909324142158949 0 -0.11935333803497621 0.14164185470234869 0 -0.11302022697949241 0.12467597767196301 0 -0.1037507320866085 0.13909324142158949 0 -0.096892991918933635 0.1257254020939445 0 -0.081757772457370745 0.13052736867413381 0 -0.1037507320866085 0.13909324142158949 0 -0.096892991918933635 0.1257254020939445 0 -0.11302022697949241 0.12467597767196301 0 -0.1037507320866085 0.13909324142158949 0 -0.10923595851059099 0.15454656456159341 0 -0.087910357834401001 0.14556918640721991 0 -0.10923595851059099 0.15454656456159341 0 -0.093061999314669713 0.1633180594994075 0 -0.087910357834401001 0.14556918640721991 0 -0.12695532145711419 0.1583079532094589 0 -0.10923595851059099 0.15454656456159341 0 -0.11935333803497621 0.14164185470234869 0 -0.1037507320866085 0.13909324142158949 0 -0.10923595851059099 0.15454656456159341 0 -0.11935333803497621 0.14164185470234869 0 -0.12695532145711419 0.1583079532094589 0 -0.10923595851059099 0.15454656456159341 0 -0.1169223177757038 0.1690314803790689 0 -0.1169223177757038 0.1690314803790689 0 -0.1196269794972569 0.18242061374926841 0 -0.10631954750553239 0.18641075287122799 0 -0.13340267785405971 0.1820021501253952 0 -0.1169223177757038 0.1690314803790689 0 -0.1196269794972569 0.18242061374926841 0 -0.13340267785405971 0.1820021501253952 0 -0.1196269794972569 0.18242061374926841 0 -0.11816259824302761 0.19546762909377491 0 -0.10631954750553239 0.18641075287122799 0 -0.096889437997602842 0.17514379956296369 0 -0.08636777498719253 0.1867533424581064 0 -0.1169223177757038 0.1690314803790689 0 -0.10631954750553239 0.18641075287122799 0 -0.096889437997602842 0.17514379956296369 0 -0.1169223177757038 0.1690314803790689 0 -0.093061999314669713 0.1633180594994075 0 -0.1169223177757038 0.1690314803790689 0 -0.096889437997602842 0.17514379956296369 0 -0.093061999314669713 0.1633180594994075 0 -0.10923595851059099 0.15454656456159341 0 -0.1169223177757038 0.1690314803790689 0 -0.093061999314669713 0.1633180594994075 0 -0.093061999314669713 0.1633180594994075 0 -0.069201680853635567 0.157604638619746 0 -0.0769466227240687 0.14908516343377379 0 -0.093061999314669713 0.1633180594994075 0 -0.083066784899097815 0.16947868339885649 0 -0.069201680853635567 0.157604638619746 0 -0.093061999314669713 0.1633180594994075 0 -0.069201680853635567 0.157604638619746 0 -0.096889437997602842 0.17514379956296369 0 -0.093061999314669713 0.1633180594994075 0 -0.083066784899097815 0.16947868339885649 0 -0.096889437997602842 0.17514379956296369 0 -0.083066784899097815 0.16947868339885649 0 -0.08636777498719253 0.1867533424581064 0 -0.083066784899097815 0.16947868339885649 0 -0.08636777498719253 0.1867533424581064 0 -0.069813031342388393 0.1645735768540588 0 -0.08636777498719253 0.1867533424581064 0 -0.069813031342388393 0.1645735768540588 0 -0.08636777498719253 0.1867533424581064 0 -0.07211680261717493 0.18012209224344361 0 -0.069813031342388393 0.1645735768540588 0 -0.07211680261717493 0.18012209224344361 0 -0.065665325682302614 0.1716385020771696 0 -0.060138725694013517 0.17494812887204361 0 -0.07211680261717493 0.18012209224344361 0 -0.065665325682302614 0.1716385020771696 0 -0.069813031342388393 0.1645735768540588 0 -0.07211680261717493 0.18012209224344361 0 -0.059444113198955907 0.18942083601934301 0 -0.060138725694013517 0.17494812887204361 0 -0.083066784899097815 0.16947868339885649 0 -0.069813031342388393 0.1645735768540588 0 -0.069201680853635567 0.157604638619746 0 -0.065665325682302614 0.1716385020771696 0 -0.069813031342388393 0.1645735768540588 0 -0.060592743075633629 0.1669102103391325 0 -0.069201680853635567 0.157604638619746 0 -0.066312134153768368 0.14467231459555821 0 -0.053258287697584318 0.14239381125001119 0 -0.069813031342388393 0.1645735768540588 0 -0.069201680853635567 0.157604638619746 0 -0.053258287697584318 0.14239381125001119 0 -0.069201680853635567 0.157604638619746 0 -0.071562864404292742 0.14851093263191431 0 -0.066312134153768368 0.14467231459555821 0 -0.069201680853635567 0.157604638619746 0 -0.071562864404292742 0.14851093263191431 0 -0.0769466227240687 0.14908516343377379 0 -0.071562864404292742 0.14851093263191431 0 -0.073791019885698306 0.142681613878579 0 -0.066312134153768368 0.14467231459555821 0 -0.071562864404292742 0.14851093263191431 0 -0.0769466227240687 0.14908516343377379 0 -0.073791019885698306 0.142681613878579 0 -0.073791019885698306 0.142681613878579 0 -0.066312134153768368 0.14467231459555821 0 -0.067873333925301399 0.1376998478303802 0 -0.067873333925301399 0.1376998478303802 0 -0.073837585331266858 0.1337653411669491 0 -0.06196815372089582 0.13362546866246 0 -0.066312134153768368 0.14467231459555821 0 -0.067873333925301399 0.1376998478303802 0 -0.06196815372089582 0.13362546866246 0 -0.081757772457370745 0.13052736867413381 0 -0.059764812828132792 0.1219614959266782 0 -0.073837585331266858 0.1337653411669491 0 -0.081757772457370745 0.13052736867413381 0 -0.059764812828132792 0.1219614959266782 0 -0.073837585331266858 0.1337653411669491 0 -0.059764812828132792 0.1219614959266782 0 -0.073837585331266858 0.1337653411669491 0 -0.06196815372089582 0.13362546866246 0 -0.059764812828132792 0.1219614959266782 0 -0.073791019885698306 0.142681613878579 0 -0.067873333925301399 0.1376998478303802 0 -0.073837585331266858 0.1337653411669491 0 -0.073837585331266858 0.1337653411669491 0 -0.081757772457370745 0.13052736867413381 0 -0.087910357834401001 0.14556918640721991 0 -0.1037507320866085 0.13909324142158949 0 -0.081757772457370745 0.13052736867413381 0 -0.087910357834401001 0.14556918640721991 0 -0.1037507320866085 0.13909324142158949 0 -0.081757772457370745 0.13052736867413381 0 -0.073837585331266858 0.1337653411669491 0 -0.087910357834401001 0.14556918640721991 0 -0.096892991918933635 0.1257254020939445 0 -0.081757772457370745 0.13052736867413381 0 -0.086648589927463215 0.1192607845507805 0 -0.093061999314669713 0.1633180594994075 0 -0.0769466227240687 0.14908516343377379 0 -0.087910357834401001 0.14556918640721991 0 -0.073791019885698306 0.142681613878579 0 -0.073837585331266858 0.1337653411669491 0 -0.087910357834401001 0.14556918640721991 0 -0.0769466227240687 0.14908516343377379 0 -0.073791019885698306 0.142681613878579 0 -0.087910357834401001 0.14556918640721991 0 -0.1049585748000932 0.2420718400397846 0 -0.095542973025134176 0.2264647769240927 0 -0.092343926260290629 0.24400901516315271 0 -0.10120816956893711 0.25531151265741342 0 -0.1049585748000932 0.2420718400397846 0 -0.092343926260290629 0.24400901516315271 0 -0.10120816956893711 0.25531151265741342 0 -0.1049585748000932 0.2420718400397846 0 -0.11186130183636819 0.24999957395857081 0 -0.1049585748000932 0.2420718400397846 0 -0.11186130183636819 0.24999957395857081 0 -0.1186848207539737 0.24437371303059829 0 -0.12256057738715639 0.25314703781829762 0 -0.1186848207539737 0.24437371303059829 0 -0.1248334224459937 0.2471335956147635 0 -0.12693387211038021 0.24110311343421731 0 -0.1186848207539737 0.24437371303059829 0 -0.1248334224459937 0.2471335956147635 0 -0.12256057738715639 0.25314703781829762 0 -0.11186130183636819 0.24999957395857081 0 -0.1186848207539737 0.24437371303059829 0 -0.12693387211038021 0.24110311343421731 0 -0.1186848207539737 0.24437371303059829 0 -0.1246775416865783 0.2380801200856669 0 -0.1186848207539737 0.24437371303059829 0 -0.1246775416865783 0.2380801200856669 0 -0.110110257355856 0.23227244850488041 0 -0.1246775416865783 0.2380801200856669 0 -0.110110257355856 0.23227244850488041 0 -0.1049585748000932 0.2420718400397846 0 -0.1186848207539737 0.24437371303059829 0 -0.110110257355856 0.23227244850488041 0 -0.1246775416865783 0.2380801200856669 0 -0.110110257355856 0.23227244850488041 0 -0.1138000301592875 0.22350661407391029 0 -0.110110257355856 0.23227244850488041 0 -0.1138000301592875 0.22350661407391029 0 -0.105023887359425 0.22540531759663379 0 -0.1279165565020168 0.22345647017760861 0 -0.1246775416865783 0.2380801200856669 0 -0.1138000301592875 0.22350661407391029 0 -0.1246775416865783 0.2380801200856669 0 -0.1138000301592875 0.22350661407391029 0 -0.1279165565020168 0.22345647017760861 0 -0.1138000301592875 0.22350661407391029 0 -0.12074298430650469 0.21208973632973141 0 -0.095542973025134176 0.2264647769240927 0 -0.1083423445687595 0.2176596703041008 0 -0.095542973025134176 0.2264647769240927 0 -0.10292251863199529 0.2089331080621547 0 -0.086955303506081327 0.2230410527021521 0 -0.105023887359425 0.22540531759663379 0 -0.095542973025134176 0.2264647769240927 0 -0.1083423445687595 0.2176596703041008 0 -0.1138000301592875 0.22350661407391029 0 -0.105023887359425 0.22540531759663379 0 -0.1083423445687595 0.2176596703041008 0 -0.1049585748000932 0.2420718400397846 0 -0.110110257355856 0.23227244850488041 0 -0.095542973025134176 0.2264647769240927 0 -0.110110257355856 0.23227244850488041 0 -0.095542973025134176 0.2264647769240927 0 -0.110110257355856 0.23227244850488041 0 -0.105023887359425 0.22540531759663379 0 -0.095542973025134176 0.2264647769240927 0 -0.095542973025134176 0.2264647769240927 0 -0.10292251863199529 0.2089331080621547 0 -0.1083423445687595 0.2176596703041008 0 -0.10292251863199529 0.2089331080621547 0 -0.086955303506081327 0.2230410527021521 0 -0.1138000301592875 0.22350661407391029 0 -0.10292251863199529 0.2089331080621547 0 -0.1138000301592875 0.22350661407391029 0 -0.10292251863199529 0.2089331080621547 0 -0.1083423445687595 0.2176596703041008 0 -0.13459366048807669 0.20813075083642571 0 -0.12074298430650469 0.21208973632973141 0 -0.11816259824302761 0.19546762909377491 0 -0.1138000301592875 0.22350661407391029 0 -0.10292251863199529 0.2089331080621547 0 -0.12074298430650469 0.21208973632973141 0 -0.10292251863199529 0.2089331080621547 0 -0.12074298430650469 0.21208973632973141 0 -0.11816259824302761 0.19546762909377491 0 -0.10292251863199529 0.2089331080621547 0 -0.11816259824302761 0.19546762909377491 0 -0.1196269794972569 0.18242061374926841 0 -0.10631954750553239 0.18641075287122799 0 -0.11816259824302761 0.19546762909377491 0 -0.10631954750553239 0.18641075287122799 0 -0.10292251863199529 0.2089331080621547 0 -0.11816259824302761 0.19546762909377491 0 -0.08636777498719253 0.1867533424581064 0 -0.10292251863199529 0.2089331080621547 0 -0.10631954750553239 0.18641075287122799 0 -0.08636777498719253 0.1867533424581064 0 -0.10292251863199529 0.2089331080621547 0 -0.08636777498719253 0.1867533424581064 0 -0.07211680261717493 0.18012209224344361 0 -0.076996616971357706 0.1965310314758569 0 -0.08636777498719253 0.1867533424581064 0 -0.10292251863199529 0.2089331080621547 0 -0.086906750494652185 0.20650355793673161 0 -0.08636777498719253 0.1867533424581064 0 -0.076996616971357706 0.1965310314758569 0 -0.086906750494652185 0.20650355793673161 0 -0.076996616971357706 0.1965310314758569 0 -0.059444113198955907 0.18942083601934301 0 -0.076996616971357706 0.1965310314758569 0 -0.065255596314330769 0.20347955561815731 0 -0.059444113198955907 0.18942083601934301 0 -0.07211680261717493 0.18012209224344361 0 -0.076996616971357706 0.1965310314758569 0 -0.059444113198955907 0.18942083601934301 0 -0.076996616971357706 0.1965310314758569 0 -0.077220199285684202 0.20916624694842359 0 -0.065255596314330769 0.20347955561815731 0 -0.077220199285684202 0.20916624694842359 0 -0.069986729141999243 0.21627603700922041 0 -0.086955303506081327 0.2230410527021521 0 -0.065255596314330769 0.20347955561815731 0 -0.069986729141999243 0.21627603700922041 0 -0.053018154777917402 0.2095110213162879 0 -0.077220199285684202 0.20916624694842359 0 -0.065255596314330769 0.20347955561815731 0 -0.069986729141999243 0.21627603700922041 0 -0.10292251863199529 0.2089331080621547 0 -0.086906750494652185 0.20650355793673161 0 -0.086955303506081327 0.2230410527021521 0 -0.077220199285684202 0.20916624694842359 0 -0.086906750494652185 0.20650355793673161 0 -0.086955303506081327 0.2230410527021521 0 -0.076996616971357706 0.1965310314758569 0 -0.077220199285684202 0.20916624694842359 0 -0.086906750494652185 0.20650355793673161 0 -0.095542973025134176 0.2264647769240927 0 -0.086955303506081327 0.2230410527021521 0 -0.073364677054707741 0.24172195263804999 0 -0.069986729141999243 0.21627603700922041 0 -0.086955303506081327 0.2230410527021521 0 -0.095542973025134176 0.2264647769240927 0 -0.073364677054707741 0.24172195263804999 0 -0.095542973025134176 0.2264647769240927 0 -0.086955303506081327 0.2230410527021521 0 -0.069986729141999243 0.21627603700922041 0 -0.086955303506081327 0.2230410527021521 0 -0.068871175705444973 0.23901941034699509 0 -0.069986729141999243 0.21627603700922041 0 -0.068871175705444973 0.23901941034699509 0 -0.056424615767705202 0.22251993524084801 0 -0.086955303506081327 0.2230410527021521 0 -0.068871175705444973 0.23901941034699509 0 -0.050787047904808619 0.25499776799183832 0 -0.073364677054707741 0.24172195263804999 0 -0.068871175705444973 0.23901941034699509 0 -0.086955303506081327 0.2230410527021521 0 -0.073364677054707741 0.24172195263804999 0 -0.068871175705444973 0.23901941034699509 0 -0.086510550050873436 0.25607580188373752 0 -0.073364677054707741 0.24172195263804999 0 -0.092343926260290629 0.24400901516315271 0 -0.095542973025134176 0.2264647769240927 0 -0.073364677054707741 0.24172195263804999 0 -0.092343926260290629 0.24400901516315271 0 -0.035591639146344299 0.24566544933220499 0 -0.033347284585120207 0.22816430810750429 0 -0.046465992091886198 0.23355810521927661 0 -0.050787047904808619 0.25499776799183832 0 -0.035591639146344299 0.24566544933220499 0 -0.046465992091886198 0.23355810521927661 0 -0.050787047904808619 0.25499776799183832 0 -0.046465992091886198 0.23355810521927661 0 -0.050787047904808619 0.25499776799183832 0 -0.068871175705444973 0.23901941034699509 0 -0.050787047904808619 0.25499776799183832 0 -0.068871175705444973 0.23901941034699509 0 -0.046465992091886198 0.23355810521927661 0 -0.051186381084281467 0.25697912835200742 0 -0.073364677054707741 0.24172195263804999 0 -0.068871175705444973 0.23901941034699509 0 -0.056424615767705202 0.22251993524084801 0 -0.046465992091886198 0.23355810521927661 0 -0.056424615767705202 0.22251993524084801 0 -0.046465992091886198 0.23355810521927661 0 -0.042144936278964297 0.21211844244671479 0 -0.046465992091886198 0.23355810521927661 0 -0.042144936278964297 0.21211844244671479 0 -0.033347284585120207 0.22816430810750429 0 -0.046465992091886198 0.23355810521927661 0 -0.042144936278964297 0.21211844244671479 0 -0.042144936278964297 0.21211844244671479 0 -0.037823880466042042 0.1906787796741532 0 -0.02678591195814934 0.21338610773782621 0 -0.033347284585120207 0.22816430810750429 0 -0.042144936278964297 0.21211844244671479 0 -0.02678591195814934 0.21338610773782621 0 -0.056424615767705202 0.22251993524084801 0 -0.042144936278964297 0.21211844244671479 0 -0.053018154777917402 0.2095110213162879 0 -0.069986729141999243 0.21627603700922041 0 -0.053018154777917402 0.2095110213162879 0 -0.069986729141999243 0.21627603700922041 0 -0.056424615767705202 0.22251993524084801 0 -0.053018154777917402 0.2095110213162879 0 -0.065255596314330769 0.20347955561815731 0 -0.053018154777917402 0.2095110213162879 0 -0.055346250240711388 0.19921248599168531 0 -0.042144936278964297 0.21211844244671479 0 -0.053018154777917402 0.2095110213162879 0 -0.047340366145105388 0.20041963960265541 0 -0.059444113198955907 0.18942083601934301 0 -0.048415104207408473 0.1924198992051116 0 -0.041891609426554233 0.18231064056282881 0 -0.047340366145105388 0.20041963960265541 0 -0.055346250240711388 0.19921248599168531 0 -0.048415104207408473 0.1924198992051116 0 -0.053018154777917402 0.2095110213162879 0 -0.047340366145105388 0.20041963960265541 0 -0.055346250240711388 0.19921248599168531 0 -0.065255596314330769 0.20347955561815731 0 -0.055346250240711388 0.19921248599168531 0 -0.059444113198955907 0.18942083601934301 0 -0.055346250240711388 0.19921248599168531 0 -0.059444113198955907 0.18942083601934301 0 -0.048415104207408473 0.1924198992051116 0 -0.042144936278964297 0.21211844244671479 0 -0.047340366145105388 0.20041963960265541 0 -0.037823880466042042 0.1906787796741532 0 -0.037823880466042042 0.1906787796741532 0 -0.02678591195814934 0.21338610773782621 0 -0.042144936278964297 0.21211844244671479 0 -0.037823880466042042 0.1906787796741532 0 -0.048415104207408473 0.1924198992051116 0 -0.037823880466042042 0.1906787796741532 0 -0.041891609426554233 0.18231064056282881 0 -0.047340366145105388 0.20041963960265541 0 -0.048415104207408473 0.1924198992051116 0 -0.037823880466042042 0.1906787796741532 0 -0.037823880466042042 0.1906787796741532 0 -0.015884639254205381 0.20254277528706521 0 -0.02678591195814934 0.21338610773782621 0 -0.037823880466042042 0.1906787796741532 0 -0.02188316075200978 0.18838532689253251 0 -0.015884639254205381 0.20254277528706521 0 -0.037823880466042042 0.1906787796741532 0 -0.02188316075200978 0.18838532689253251 0 -0.029582003495459551 0.1853376704222518 0 -0.015884639254205381 0.20254277528706521 0 -0.0013544956615165211 0.1975138059712592 0 -0.0064423259037591704 0.184638151680309 0 -0.02188316075200978 0.18838532689253251 0 -0.015884639254205381 0.20254277528706521 0 -0.0064423259037591704 0.184638151680309 0 -0.015884639254205381 0.20254277528706521 0 -0.0013544956615165211 0.1975138059712592 0 -0.0043793094578833446 0.21635995093607571 0 -0.015884639254205381 0.20254277528706521 0 -0.0043793094578833446 0.21635995093607571 0 -0.02678591195814934 0.21338610773782621 0 -0.033347284585120207 0.22816430810750429 0 -0.02678591195814934 0.21338610773782621 0 -0.015747943450256891 0.2360934358014993 0 -0.0043793094578833446 0.21635995093607571 0 -0.02678591195814934 0.21338610773782621 0 -0.015747943450256891 0.2360934358014993 0 -0.02678591195814934 0.21338610773782621 0 -0.015747943450256891 0.2360934358014993 0 -0.0043793094578833446 0.21635995093607571 0 -0.015747943450256891 0.2360934358014993 0 0.00201100181985514 0.2363839756251932 0 -0.0047099749423644751 0.25880076386517242 0 -0.015747943450256891 0.2360934358014993 0 -0.0047099749423644751 0.25880076386517242 0 -0.015747943450256891 0.2360934358014993 0 0.00201100181985514 0.2363839756251932 0 -0.024023074354920858 0.25913543755824808 0 -0.035591639146344299 0.24566544933220499 0 -0.015747943450256891 0.2360934358014993 0 -0.035591639146344299 0.24566544933220499 0 -0.033347284585120207 0.22816430810750429 0 -0.015747943450256891 0.2360934358014993 0 -0.040291608771800692 0.1413776843204444 0 -0.044607156712184758 0.15304671176781101 0 -0.053258287697584318 0.14239381125001119 0 -0.044607156712184758 0.15304671176781101 0 -0.032138570515656592 0.15166665760259751 0 -0.037619678191716348 0.16049957479587709 0 -0.040291608771800692 0.1413776843204444 0 -0.044607156712184758 0.15304671176781101 0 -0.032138570515656592 0.15166665760259751 0 -0.040291608771800692 0.1413776843204444 0 -0.032138570515656592 0.15166665760259751 0 -0.0256395341895632 0.1414639460706251 0 -0.040291608771800692 0.1413776843204444 0 -0.03272306926001721 0.13393147464418501 0 -0.041808263404730393 0.12807571896393569 0 -0.040291608771800692 0.1413776843204444 0 -0.03272306926001721 0.13393147464418501 0 -0.0256395341895632 0.1414639460706251 0 -0.03272306926001721 0.13393147464418501 0 -0.032925185909410723 0.12539773662929929 0 -0.041808263404730393 0.12807571896393569 0 -0.040291608771800692 0.1413776843204444 0 -0.041808263404730393 0.12807571896393569 0 -0.051418225284628818 0.13348683582470591 0 -0.041808263404730393 0.12807571896393569 0 -0.051418225284628818 0.13348683582470591 0 -0.059764812828132792 0.1219614959266782 0 -0.040291608771800692 0.1413776843204444 0 -0.051418225284628818 0.13348683582470591 0 -0.053258287697584318 0.14239381125001119 0 -0.051418225284628818 0.13348683582470591 0 -0.06196815372089582 0.13362546866246 0 -0.059764812828132792 0.1219614959266782 0 -0.066312134153768368 0.14467231459555821 0 -0.06196815372089582 0.13362546866246 0 -0.053258287697584318 0.14239381125001119 0 -0.051418225284628818 0.13348683582470591 0 -0.06196815372089582 0.13362546866246 0 -0.053258287697584318 0.14239381125001119 0 -0.069813031342388393 0.1645735768540588 0 -0.053258287697584318 0.14239381125001119 0 -0.055592660255382398 0.1541248149043476 0 -0.069813031342388393 0.1645735768540588 0 -0.053258287697584318 0.14239381125001119 0 -0.044607156712184758 0.15304671176781101 0 -0.053258287697584318 0.14239381125001119 0 -0.055592660255382398 0.1541248149043476 0 -0.069813031342388393 0.1645735768540588 0 -0.055592660255382398 0.1541248149043476 0 -0.060592743075633629 0.1669102103391325 0 -0.055592660255382398 0.1541248149043476 0 -0.060592743075633629 0.1669102103391325 0 -0.048742134840968301 0.16821772773358831 0 -0.065665325682302614 0.1716385020771696 0 -0.060592743075633629 0.1669102103391325 0 -0.060138725694013517 0.17494812887204361 0 -0.060592743075633629 0.1669102103391325 0 -0.048742134840968301 0.16821772773358831 0 -0.060138725694013517 0.17494812887204361 0 -0.055592660255382398 0.1541248149043476 0 -0.048742134840968301 0.16821772773358831 0 -0.044607156712184758 0.15304671176781101 0 -0.055592660255382398 0.1541248149043476 0 -0.048742134840968301 0.16821772773358831 0 -0.059444113198955907 0.18942083601934301 0 -0.041891609426554233 0.18231064056282881 0 -0.059444113198955907 0.18942083601934301 0 -0.052554145790122991 0.17872433329695089 0 -0.041891609426554233 0.18231064056282881 0 -0.059444113198955907 0.18942083601934301 0 -0.060138725694013517 0.17494812887204361 0 -0.052554145790122991 0.17872433329695089 0 -0.048742134840968301 0.16821772773358831 0 -0.060138725694013517 0.17494812887204361 0 -0.052554145790122991 0.17872433329695089 0 -0.048742134840968301 0.16821772773358831 0 -0.052554145790122991 0.17872433329695089 0 -0.041891609426554233 0.18231064056282881 0 -0.037823880466042042 0.1906787796741532 0 -0.041891609426554233 0.18231064056282881 0 -0.048742134840968301 0.16821772773358831 0 -0.041891609426554233 0.18231064056282881 0 -0.034581288993100902 0.16896189081224819 0 -0.048742134840968301 0.16821772773358831 0 -0.041891609426554233 0.18231064056282881 0 -0.041891609426554233 0.18231064056282881 0 -0.035794471335198808 0.17984080240657349 0 -0.034581288993100902 0.16896189081224819 0 -0.037823880466042042 0.1906787796741532 0 -0.041891609426554233 0.18231064056282881 0 -0.035794471335198808 0.17984080240657349 0 -0.037823880466042042 0.1906787796741532 0 -0.035794471335198808 0.17984080240657349 0 -0.029582003495459551 0.1853376704222518 0 -0.037823880466042042 0.1906787796741532 0 -0.035794471335198808 0.17984080240657349 0 -0.041891609426554233 0.18231064056282881 0 -0.035794471335198808 0.17984080240657349 0 -0.044607156712184758 0.15304671176781101 0 -0.048742134840968301 0.16821772773358831 0 -0.037619678191716348 0.16049957479587709 0 -0.048742134840968301 0.16821772773358831 0 -0.034581288993100902 0.16896189081224819 0 -0.037619678191716348 0.16049957479587709 0 -0.032138570515656592 0.15166665760259751 0 -0.037619678191716348 0.16049957479587709 0 -0.027795416935511321 0.16136153572137499 0 -0.034581288993100902 0.16896189081224819 0 -0.037619678191716348 0.16049957479587709 0 -0.027795416935511321 0.16136153572137499 0 -0.027795416935511321 0.16136153572137499 0 -0.018190137581921419 0.17270961158100509 0 -0.019112473417495539 0.15354921648201389 0 -0.034581288993100902 0.16896189081224819 0 -0.027795416935511321 0.16136153572137499 0 -0.018190137581921419 0.17270961158100509 0 -0.035794471335198808 0.17984080240657349 0 -0.018190137581921419 0.17270961158100509 0 -0.035794471335198808 0.17984080240657349 0 -0.018190137581921419 0.17270961158100509 0 -0.029582003495459551 0.1853376704222518 0 -0.02188316075200978 0.18838532689253251 0 -0.018190137581921419 0.17270961158100509 0 -0.029582003495459551 0.1853376704222518 0 -0.035794471335198808 0.17984080240657349 0 -0.034581288993100902 0.16896189081224819 0 -0.018190137581921419 0.17270961158100509 0 -0.02188316075200978 0.18838532689253251 0 -0.018190137581921419 0.17270961158100509 0 -0.0064423259037591704 0.184638151680309 0 -0.018190137581921419 0.17270961158100509 0 -0.0064423259037591704 0.184638151680309 0 0.0055113342627114148 0.16310858259918129 0 -0.018190137581921419 0.17270961158100509 0 -0.002609900621990735 0.1506190610776463 0 -0.019112473417495539 0.15354921648201389 0 -0.018190137581921419 0.17270961158100509 0 -0.002609900621990735 0.1506190610776463 0 0.0055113342627114148 0.16310858259918129 0 -0.018190137581921419 0.17270961158100509 0 0.0055113342627114148 0.16310858259918129 0 -0.002609900621990735 0.1506190610776463 0 -0.01132071856531641 0.14299131520035679 0 -0.019112473417495539 0.15354921648201389 0 -0.002609900621990735 0.1506190610776463 0 -0.0045795472881563423 0.13853451359274119 0 0.0042444643585255182 0.13650405945261521 0 -0.002609900621990735 0.1506190610776463 0 -0.01132071856531641 0.14299131520035679 0 -0.0045795472881563423 0.13853451359274119 0 -0.01132071856531641 0.14299131520035679 0 -0.019112473417495539 0.15354921648201389 0 -0.0256395341895632 0.1414639460706251 0 -0.032138570515656592 0.15166665760259751 0 -0.027795416935511321 0.16136153572137499 0 -0.019112473417495539 0.15354921648201389 0 -0.032138570515656592 0.15166665760259751 0 -0.019112473417495539 0.15354921648201389 0 -0.0256395341895632 0.1414639460706251 0 -0.03272306926001721 0.13393147464418501 0 -0.032925185909410723 0.12539773662929929 0 -0.022830043179404 0.12752502270314461 0 -0.03272306926001721 0.13393147464418501 0 -0.0256395341895632 0.1414639460706251 0 -0.022830043179404 0.12752502270314461 0 -0.01132071856531641 0.14299131520035679 0 -0.0256395341895632 0.1414639460706251 0 -0.022830043179404 0.12752502270314461 0 -0.01132071856531641 0.14299131520035679 0 -0.022830043179404 0.12752502270314461 0 -0.0045795472881563423 0.13853451359274119 0 -0.010257062393283179 0.1217124500946084 0 0.0011193715973417161 0.12735019327789721 0 -0.0045795472881563423 0.13853451359274119 0 -0.010257062393283179 0.1217124500946084 0 -0.022830043179404 0.12752502270314461 0 -0.01224684285653998 0.13269082539771271 0 -0.010257062393283179 0.1217124500946084 0 -0.01224684285653998 0.13269082539771271 0 -0.0045795472881563423 0.13853451359274119 0 -0.010257062393283179 0.1217124500946084 0 -0.01132071856531641 0.14299131520035679 0 -0.01224684285653998 0.13269082539771271 0 -0.0045795472881563423 0.13853451359274119 0 -0.01132071856531641 0.14299131520035679 0 -0.022830043179404 0.12752502270314461 0 -0.01224684285653998 0.13269082539771271 0 -0.010257062393283179 0.1217124500946084 0 0.00071008929500930085 0.1188524068210496 0 0.0011193715973417161 0.12735019327789721 0 -0.010257062393283179 0.1217124500946084 0 -0.0159345774984095 0.1048903865964755 0 -0.010257062393283179 0.1217124500946084 0 -0.0044111750211892663 0.11103904934749929 0 0.00071008929500930085 0.1188524068210496 0 -0.010257062393283179 0.1217124500946084 0 -0.0044111750211892663 0.11103904934749929 0 -0.0159345774984095 0.1048903865964755 0 -0.0044111750211892663 0.11103904934749929 0 -0.0029496625288702172 0.099832989541204259 0 0.006300447950588998 0.1107341990224166 0 -0.0044111750211892663 0.11103904934749929 0 -0.0029496625288702172 0.099832989541204259 0 -0.0159345774984095 0.1048903865964755 0 -0.0029496625288702172 0.099832989541204259 0 -0.0159345774984095 0.1048903865964755 0 -0.0122316139574065 0.090073275501740921 0 -0.0029496625288702172 0.099832989541204259 0 -0.0159345774984095 0.1048903865964755 0 -0.0159345774984095 0.1048903865964755 0 -0.02671300572870099 0.094238570978798564 0 -0.023179241016760679 0.083424976558508168 0 -0.0159345774984095 0.1048903865964755 0 -0.023179241016760679 0.083424976558508168 0 -0.0159345774984095 0.1048903865964755 0 -0.02671300572870099 0.094238570978798564 0 -0.034339367793491227 0.112058730205932 0 -0.0159345774984095 0.1048903865964755 0 -0.034339367793491227 0.112058730205932 0 -0.0159345774984095 0.1048903865964755 0 -0.02206373538878097 0.1155946758511683 0 -0.034339367793491227 0.112058730205932 0 -0.010257062393283179 0.1217124500946084 0 -0.0159345774984095 0.1048903865964755 0 -0.02206373538878097 0.1155946758511683 0 -0.032925185909410723 0.12539773662929929 0 -0.022830043179404 0.12752502270314461 0 -0.034339367793491227 0.112058730205932 0 -0.022830043179404 0.12752502270314461 0 -0.034339367793491227 0.112058730205932 0 -0.022830043179404 0.12752502270314461 0 -0.02206373538878097 0.1155946758511683 0 -0.034339367793491227 0.112058730205932 0 -0.022830043179404 0.12752502270314461 0 -0.010257062393283179 0.1217124500946084 0 -0.02206373538878097 0.1155946758511683 0 -0.01147888043887123 0.063941888187010909 0 -0.0087984771182856841 0.077035775661651693 0 -0.0046535666324173707 0.059196937454625717 0 -0.0087984771182856841 0.077035775661651693 0 -0.0046535666324173707 0.059196937454625717 0 0.002614186996336807 0.085144428290871613 0 -0.0046535666324173707 0.059196937454625717 0 0.002614186996336807 0.085144428290871613 0 -0.01147888043887123 0.063941888187010909 0 -0.01436210511702587 0.071971202675767093 0 -0.02059554625924296 0.071351307862133478 0 -0.01147888043887123 0.063941888187010909 0 -0.0087984771182856841 0.077035775661651693 0 -0.01436210511702587 0.071971202675767093 0 -0.0087984771182856841 0.077035775661651693 0 -0.01436210511702587 0.071971202675767093 0 -0.016995697031592091 0.078242117453946533 0 -0.0087984771182856841 0.077035775661651693 0 -0.0122316139574065 0.090073275501740921 0 -0.016995697031592091 0.078242117453946533 0 -0.0087984771182856841 0.077035775661651693 0 -0.0036295419654841631 0.091177419313066138 0 0.002614186996336807 0.085144428290871613 0 -0.0029496625288702172 0.099832989541204259 0 -0.0036295419654841631 0.091177419313066138 0 -0.0122316139574065 0.090073275501740921 0 -0.0087984771182856841 0.077035775661651693 0 -0.0036295419654841631 0.091177419313066138 0 -0.0122316139574065 0.090073275501740921 0 -0.0159345774984095 0.1048903865964755 0 -0.0122316139574065 0.090073275501740921 0 -0.023179241016760679 0.083424976558508168 0 -0.02671300572870099 0.094238570978798564 0 -0.023179241016760679 0.083424976558508168 0 -0.032085275352561123 0.086498776768861502 0 -0.0122316139574065 0.090073275501740921 0 -0.023179241016760679 0.083424976558508168 0 -0.016995697031592091 0.078242117453946533 0 -0.01147888043887123 0.063941888187010909 0 -0.02059554625924296 0.071351307862133478 0 -0.030423904535110551 0.06195956652054041 0 -0.023179241016760679 0.083424976558508168 0 -0.030423904535110551 0.06195956652054041 0 -0.023179241016760679 0.083424976558508168 0 -0.039056886041314583 0.078105428386646442 0 -0.030423904535110551 0.06195956652054041 0 -0.023179241016760679 0.083424976558508168 0 -0.02059554625924296 0.071351307862133478 0 -0.030423904535110551 0.06195956652054041 0 -0.01147888043887123 0.063941888187010909 0 -0.030423904535110551 0.06195956652054041 0 -0.023179241016760679 0.083424976558508168 0 -0.016995697031592091 0.078242117453946533 0 -0.02059554625924296 0.071351307862133478 0 -0.01436210511702587 0.071971202675767093 0 -0.016995697031592091 0.078242117453946533 0 -0.02059554625924296 0.071351307862133478 0 -0.049620048950082582 0.070637605115496466 0 -0.057781837418566642 0.059096956115336267 0 -0.030423904535110551 0.06195956652054041 0 -0.039056886041314583 0.078105428386646442 0 -0.049620048950082582 0.070637605115496466 0 -0.030423904535110551 0.06195956652054041 0 -0.023179241016760679 0.083424976558508168 0 -0.039056886041314583 0.078105428386646442 0 -0.032085275352561123 0.086498776768861502 0 -0.039056886041314583 0.078105428386646442 0 -0.038791649089106199 0.090338066463285974 0 -0.053470293405297638 0.086350489177398543 0 -0.039056886041314583 0.078105428386646442 0 -0.038791649089106199 0.090338066463285974 0 -0.032085275352561123 0.086498776768861502 0 -0.02671300572870099 0.094238570978798564 0 -0.038791649089106199 0.090338066463285974 0 -0.032085275352561123 0.086498776768861502 0 -0.053470293405297638 0.086350489177398543 0 -0.061638950652943968 0.102511240836571 0 -0.070698736023920045 0.084662900637485508 0 -0.039056886041314583 0.078105428386646442 0 -0.053470293405297638 0.086350489177398543 0 -0.049620048950082582 0.070637605115496466 0 -0.053470293405297638 0.086350489177398543 0 -0.049620048950082582 0.070637605115496466 0 -0.067367323350123465 0.067675585377560576 0 -0.053470293405297638 0.086350489177398543 0 -0.067367323350123465 0.067675585377560576 0 -0.049620048950082582 0.070637605115496466 0 -0.067367323350123465 0.067675585377560576 0 -0.057781837418566642 0.059096956115336267 0 -0.032925185909410723 0.12539773662929929 0 -0.041808263404730393 0.12807571896393569 0 -0.034339367793491227 0.112058730205932 0 -0.041808263404730393 0.12807571896393569 0 -0.034339367793491227 0.112058730205932 0 -0.059764812828132792 0.1219614959266782 0 -0.034339367793491227 0.112058730205932 0 -0.039573263460471839 0.1050253929772364 0 -0.059764812828132792 0.1219614959266782 0 -0.02671300572870099 0.094238570978798564 0 -0.034339367793491227 0.112058730205932 0 -0.039573263460471839 0.1050253929772364 0 -0.053470293405297638 0.086350489177398543 0 -0.039573263460471839 0.1050253929772364 0 -0.038791649089106199 0.090338066463285974 0 -0.053470293405297638 0.086350489177398543 0 -0.039573263460471839 0.1050253929772364 0 -0.034339367793491227 0.112058730205932 0 -0.039573263460471839 0.1050253929772364 0 -0.02671300572870099 0.094238570978798564 0 -0.039573263460471839 0.1050253929772364 0 -0.02671300572870099 0.094238570978798564 0 -0.038791649089106199 0.090338066463285974 0 -0.039573263460471839 0.1050253929772364 0 -0.053470293405297638 0.086350489177398543 0 -0.039573263460471839 0.1050253929772364 0 -0.061638950652943968 0.102511240836571 0 -0.039573263460471839 0.1050253929772364 0 -0.059764812828132792 0.1219614959266782 0 -0.039573263460471839 0.1050253929772364 0 -0.061638950652943968 0.102511240836571 0 -0.059764812828132792 0.1219614959266782 0 -0.034339367793491227 0.112058730205932 0 -0.059764812828132792 0.1219614959266782 0 -0.081757772457370745 0.13052736867413381 0 -0.059764812828132792 0.1219614959266782 0 -0.075310988336478396 0.1148975633648172 0 -0.061638950652943968 0.102511240836571 0 -0.059764812828132792 0.1219614959266782 0 -0.075310988336478396 0.1148975633648172 0 -0.081757772457370745 0.13052736867413381 0 -0.075310988336478396 0.1148975633648172 0 -0.086648589927463215 0.1192607845507805 0 -0.075310988336478396 0.1148975633648172 0 -0.086648589927463215 0.1192607845507805 0 -0.090561300738004294 0.1076127853198109 0 -0.086648589927463215 0.1192607845507805 0 -0.090561300738004294 0.1076127853198109 0 -0.1007093272786552 0.11406161381121049 0 -0.075310988336478396 0.1148975633648172 0 -0.080577539308621132 0.09866222377695924 0 -0.090561300738004294 0.1076127853198109 0 -0.080577539308621132 0.09866222377695924 0 -0.090561300738004294 0.1076127853198109 0 -0.1005834071558389 0.096414591312547371 0 -0.061638950652943968 0.102511240836571 0 -0.080577539308621132 0.09866222377695924 0 -0.070698736023920045 0.084662900637485508 0 -0.061638950652943968 0.102511240836571 0 -0.075310988336478396 0.1148975633648172 0 -0.080577539308621132 0.09866222377695924 0 -0.053470293405297638 0.086350489177398543 0 -0.070698736023920045 0.084662900637485508 0 -0.067367323350123465 0.067675585377560576 0 -0.070698736023920045 0.084662900637485508 0 -0.067367323350123465 0.067675585377560576 0 -0.086832032673588397 0.078387238970616349 0 -0.086832032673588397 0.078387238970616349 0 -0.098895008571251081 0.066795539231860102 0 -0.085139770302022799 0.056234345710132513 0 -0.067367323350123465 0.067675585377560576 0 -0.086832032673588397 0.078387238970616349 0 -0.085139770302022799 0.056234345710132513 0 -0.080577539308621132 0.09866222377695924 0 -0.070698736023920045 0.084662900637485508 0 -0.086832032673588397 0.078387238970616349 0 -0.080577539308621132 0.09866222377695924 0 -0.086832032673588397 0.078387238970616349 0 -0.1005834071558389 0.096414591312547371 0 -0.086832032673588397 0.078387238970616349 0 -0.111110528123914 0.079188836941762805 0 -0.1005834071558389 0.096414591312547371 0 -0.086832032673588397 0.078387238970616349 0 -0.098895008571251081 0.066795539231860102 0 -0.111110528123914 0.079188836941762805 0 -0.098895008571251081 0.066795539231860102 0 -0.111110528123914 0.079188836941762805 0 -0.112497703185479 0.053371735304928732 0 -0.12936541511880731 0.073230595649532326 0 -0.111110528123914 0.079188836941762805 0 -0.112497703185479 0.053371735304928732 0 -0.13354198269330661 0.090079492398921407 0 -0.12936541511880731 0.073230595649532326 0 -0.111110528123914 0.079188836941762805 0 -0.111110528123914 0.079188836941762805 0 -0.11693022257939591 0.093198330194469409 0 -0.1005834071558389 0.096414591312547371 0 -0.13354198269330661 0.090079492398921407 0 -0.111110528123914 0.079188836941762805 0 -0.11693022257939591 0.093198330194469409 0 -0.13354198269330661 0.090079492398921407 0 -0.111110528123914 0.079188836941762805 0 -0.11693022257939591 0.093198330194469409 0 -0.1177399202292308 0.1070916594883476 0 -0.1005834071558389 0.096414591312547371 0 -0.13354198269330661 0.090079492398921407 0 -0.11693022257939591 0.093198330194469409 0 -0.1177399202292308 0.1070916594883476 0 -0.1284821480166535 0.1137632357378007 0 -0.1177399202292308 0.1070916594883476 0 -0.11302022697949241 0.12467597767196301 0 -0.1177399202292308 0.1070916594883476 0 -0.11302022697949241 0.12467597767196301 0 -0.1007093272786552 0.11406161381121049 0 -0.1284821480166535 0.1137632357378007 0 -0.12699073800916399 0.1277996415964478 0 -0.11302022697949241 0.12467597767196301 0 -0.096892991918933635 0.1257254020939445 0 -0.11302022697949241 0.12467597767196301 0 -0.1007093272786552 0.11406161381121049 0 -0.096892991918933635 0.1257254020939445 0 -0.086648589927463215 0.1192607845507805 0 -0.1007093272786552 0.11406161381121049 0 -0.090561300738004294 0.1076127853198109 0 -0.1007093272786552 0.11406161381121049 0 -0.1005834071558389 0.096414591312547371 0 -0.1177399202292308 0.1070916594883476 0 -0.1007093272786552 0.11406161381121049 0 -0.1005834071558389 0.096414591312547371 0 -0.1090292796141264 0.01789533022616098 0 -0.097962843570078312 0.01657098868557726 0 -0.1010304823348539 0.034312711186393341 0 -0.1090292796141264 0.01789533022616098 0 -0.1174458562074427 0.025546133892312618 0 -0.1010304823348539 0.034312711186393341 0 -0.097962843570078312 0.01657098868557726 0 -0.1010304823348539 0.034312711186393341 0 -0.082860375238201195 0.034236227460475568 0 -0.097962843570078312 0.01657098868557726 0 -0.094681377386978766 0.0041082946190843907 0 -0.10766802143425221 0.0057165579607475628 0 -0.097480550556826001 -0.0063456501565944757 0 -0.094681377386978766 0.0041082946190843907 0 -0.10766802143425221 0.0057165579607475628 0 -0.1090292796141264 0.01789533022616098 0 -0.097962843570078312 0.01657098868557726 0 -0.10766802143425221 0.0057165579607475628 0 -0.10766802143425221 0.0057165579607475628 0 -0.1182663443865396 0.0043209969646549216 0 -0.1187332144630753 0.013936095380259949 0 -0.1090292796141264 0.01789533022616098 0 -0.10766802143425221 0.0057165579607475628 0 -0.1187332144630753 0.013936095380259949 0 -0.10766802143425221 0.0057165579607475628 0 -0.11262869904329049 0.0001426134633649314 0 -0.1182663443865396 0.0043209969646549216 0 -0.1081753613973562 -0.005400591745477544 0 -0.10766802143425221 0.0057165579607475628 0 -0.11262869904329049 0.0001426134633649314 0 -0.11871605765840609 -0.002265960235820368 0 -0.11262869904329049 0.0001426134633649314 0 -0.1182663443865396 0.0043209969646549216 0 -0.1202061722546995 -0.0013910732862858659 0 -0.13164590146551461 0.0097877485056629132 0 -0.1182663443865396 0.0043209969646549216 0 -0.11871605765840609 -0.002265960235820368 0 -0.1202061722546995 -0.0013910732862858659 0 -0.1182663443865396 0.0043209969646549216 0 -0.13164590146551461 0.0097877485056629132 0 -0.1182663443865396 0.0043209969646549216 0 -0.1187332144630753 0.013936095380259949 0 -0.12972333112282211 0.021635635646294591 0 -0.1187332144630753 0.013936095380259949 0 -0.1174458562074427 0.025546133892312618 0 -0.1090292796141264 0.01789533022616098 0 -0.1187332144630753 0.013936095380259949 0 -0.1174458562074427 0.025546133892312618 0 -0.12735046531874469 0.043680477281468268 0 -0.1284228677841299 0.032335744680439857 0 -0.1155097120604052 0.037964466990148528 0 -0.1174458562074427 0.025546133892312618 0 -0.1155097120604052 0.037964466990148528 0 -0.1010304823348539 0.034312711186393341 0 -0.1155097120604052 0.037964466990148528 0 -0.112497703185479 0.053371735304928732 0 -0.1010304823348539 0.034312711186393341 0 -0.1284228677841299 0.032335744680439857 0 -0.1174458562074427 0.025546133892312618 0 -0.1155097120604052 0.037964466990148528 0 -0.12735046531874469 0.043680477281468268 0 -0.1155097120604052 0.037964466990148528 0 -0.112497703185479 0.053371735304928732 0 -0.112497703185479 0.053371735304928732 0 -0.085139770302022799 0.056234345710132513 0 -0.098895008571251081 0.066795539231860102 0 -0.112497703185479 0.053371735304928732 0 -0.085139770302022799 0.056234345710132513 0 -0.112497703185479 0.053371735304928732 0 -0.1010304823348539 0.034312711186393341 0 -0.085139770302022799 0.056234345710132513 0 -0.1010304823348539 0.034312711186393341 0 -0.082860375238201195 0.034236227460475568 0 -0.085139770302022799 0.056234345710132513 0 -0.082860375238201195 0.034236227460475568 0 -0.085139770302022799 0.056234345710132513 0 -0.069289052295434195 0.044860843088620879 0 -0.085139770302022799 0.056234345710132513 0 -0.069289052295434195 0.044860843088620879 0 -0.057781837418566642 0.059096956115336267 0 -0.067367323350123465 0.067675585377560576 0 -0.085139770302022799 0.056234345710132513 0 -0.057781837418566642 0.059096956115336267 0 -0.085139770302022799 0.056234345710132513 0 -0.057781837418566642 0.059096956115336267 0 -0.082860375238201195 0.034236227460475568 0 -0.069289052295434195 0.044860843088620879 0 -0.069667582330362729 0.032041941352793243 0 -0.06255160625646039 0.039825698677122059 0 -0.069289052295434195 0.044860843088620879 0 -0.057733142226991468 0.047729889215865608 0 -0.06255160625646039 0.039825698677122059 0 -0.069667582330362729 0.032041941352793243 0 -0.056763431429043651 0.026965294024384089 0 -0.06255160625646039 0.039825698677122059 0 -0.069289052295434195 0.044860843088620879 0 -0.069667582330362729 0.032041941352793243 0 -0.069667582330362729 0.032041941352793243 0 -0.071505759647158412 0.020585879068563021 0 -0.056763431429043651 0.026965294024384089 0 -0.071505759647158412 0.020585879068563021 0 -0.06067299480549232 0.01217424620236909 0 -0.056763431429043651 0.026965294024384089 0 -0.082860375238201195 0.034236227460475568 0 -0.069667582330362729 0.032041941352793243 0 -0.071505759647158412 0.020585879068563021 0 -0.082860375238201195 0.034236227460475568 0 -0.071505759647158412 0.020585879068563021 0 -0.082374423920651516 0.0098715670803008835 0 -0.097962843570078312 0.01657098868557726 0 -0.082860375238201195 0.034236227460475568 0 -0.082374423920651516 0.0098715670803008835 0 -0.084025503774487115 -0.0070039595572996306 0 -0.094681377386978766 0.0041082946190843907 0 -0.082374423920651516 0.0098715670803008835 0 -0.097962843570078312 0.01657098868557726 0 -0.094681377386978766 0.0041082946190843907 0 -0.082374423920651516 0.0098715670803008835 0 -0.071505759647158412 0.020585879068563021 0 -0.082374423920651516 0.0098715670803008835 0 -0.06067299480549232 0.01217424620236909 0 -0.084025503774487115 -0.0070039595572996306 0 -0.062413360479634639 -0.0022353211108208362 0 -0.082374423920651516 0.0098715670803008835 0 -0.062413360479634639 -0.0022353211108208362 0 -0.082374423920651516 0.0098715670803008835 0 -0.06067299480549232 0.01217424620236909 0 -0.062413360479634639 -0.0022353211108208362 0 -0.06067299480549232 0.01217424620236909 0 -0.040801217184782149 0.0025333173356579639 0 -0.06067299480549232 0.01217424620236909 0 -0.048496373427316698 0.016160370759378741 0 -0.040801217184782149 0.0025333173356579639 0 -0.062413360479634639 -0.0022353211108208362 0 -0.040801217184782149 0.0025333173356579639 0 -0.06067299480549232 0.01217424620236909 0 -0.056763431429043651 0.026965294024384089 0 -0.048496373427316698 0.016160370759378741 0 -0.056763431429043651 0.026965294024384089 0 -0.04232356522172491 0.023232971065772379 0 -0.046432685428266222 0.031673371966512508 0 -0.056763431429043651 0.026965294024384089 0 -0.048496373427316698 0.016160370759378741 0 -0.04232356522172491 0.023232971065772379 0 -0.048496373427316698 0.016160370759378741 0 -0.04232356522172491 0.023232971065772379 0 -0.038585309218186127 0.012739855405645701 0 -0.04232356522172491 0.023232971065772379 0 -0.035479304887250408 0.030107493959046008 0 -0.046432685428266222 0.031673371966512508 0 -0.04232356522172491 0.023232971065772379 0 -0.035479304887250408 0.030107493959046008 0 -0.032002510192509458 0.019911394402702901 0 -0.04232356522172491 0.023232971065772379 0 -0.032002510192509458 0.019911394402702901 0 -0.038585309218186127 0.012739855405645701 0 -0.038585309218186127 0.012739855405645701 0 -0.040801217184782149 0.0025333173356579639 0 -0.01918907388992936 0.0073019557821350058 0 -0.048496373427316698 0.016160370759378741 0 -0.038585309218186127 0.012739855405645701 0 -0.040801217184782149 0.0025333173356579639 0 -0.057781837418566642 0.059096956115336267 0 -0.046857431421992807 0.048552745071478533 0 -0.040458018038241061 0.055021118382796483 0 -0.069289052295434195 0.044860843088620879 0 -0.057781837418566642 0.059096956115336267 0 -0.057733142226991468 0.047729889215865608 0 -0.057781837418566642 0.059096956115336267 0 -0.057733142226991468 0.047729889215865608 0 -0.046857431421992807 0.048552745071478533 0 -0.057733142226991468 0.047729889215865608 0 -0.051912510103303222 0.039827108010744107 0 -0.046857431421992807 0.048552745071478533 0 -0.06255160625646039 0.039825698677122059 0 -0.057733142226991468 0.047729889215865608 0 -0.051912510103303222 0.039827108010744107 0 -0.06255160625646039 0.039825698677122059 0 -0.056763431429043651 0.026965294024384089 0 -0.051912510103303222 0.039827108010744107 0 -0.056763431429043651 0.026965294024384089 0 -0.051912510103303222 0.039827108010744107 0 -0.046432685428266222 0.031673371966512508 0 -0.051912510103303222 0.039827108010744107 0 -0.046432685428266222 0.031673371966512508 0 -0.04080651603941611 0.039571236622795172 0 -0.035479304887250408 0.030107493959046008 0 -0.046432685428266222 0.031673371966512508 0 -0.04080651603941611 0.039571236622795172 0 -0.035479304887250408 0.030107493959046008 0 -0.04080651603941611 0.039571236622795172 0 -0.028180735503205271 0.039159590651435462 0 -0.04080651603941611 0.039571236622795172 0 -0.035317015673766237 0.04793965733713855 0 -0.028180735503205271 0.039159590651435462 0 -0.04080651603941611 0.039571236622795172 0 -0.046857431421992807 0.048552745071478533 0 -0.035317015673766237 0.04793965733713855 0 -0.051912510103303222 0.039827108010744107 0 -0.04080651603941611 0.039571236622795172 0 -0.046857431421992807 0.048552745071478533 0 -0.057781837418566642 0.059096956115336267 0 -0.030423904535110551 0.06195956652054041 0 -0.057781837418566642 0.059096956115336267 0 -0.040458018038241061 0.055021118382796483 0 -0.030423904535110551 0.06195956652054041 0 -0.046857431421992807 0.048552745071478533 0 -0.035317015673766237 0.04793965733713855 0 -0.040458018038241061 0.055021118382796483 0 -0.035317015673766237 0.04793965733713855 0 -0.031909901141769073 0.057556666869488633 0 -0.040458018038241061 0.055021118382796483 0 -0.035317015673766237 0.04793965733713855 0 -0.031909901141769073 0.057556666869488633 0 -0.026881181145431369 0.050455417736498837 0 -0.031909901141769073 0.057556666869488633 0 -0.040458018038241061 0.055021118382796483 0 -0.030423904535110551 0.06195956652054041 0 -0.01147888043887123 0.063941888187010909 0 -0.023853393577402359 0.057706687140288419 0 -0.030423904535110551 0.06195956652054041 0 -0.01147888043887123 0.063941888187010909 0 -0.023853393577402359 0.057706687140288419 0 -0.01857310062582954 0.05461989638790328 0 -0.031909901141769073 0.057556666869488633 0 -0.023853393577402359 0.057706687140288419 0 -0.026881181145431369 0.050455417736498837 0 -0.031909901141769073 0.057556666869488633 0 -0.023853393577402359 0.057706687140288419 0 -0.030423904535110551 0.06195956652054041 0 -0.031909901141769073 0.057556666869488633 0 -0.030423904535110551 0.06195956652054041 0 -0.026881181145431369 0.050455417736498837 0 -0.01857310062582954 0.05461989638790328 0 -0.01650993354081606 0.044911529508795157 0 -0.023853393577402359 0.057706687140288419 0 -0.026881181145431369 0.050455417736498837 0 -0.01857310062582954 0.05461989638790328 0 -0.01857310062582954 0.05461989638790328 0 -0.01650993354081606 0.044911529508795157 0 -0.01280387030948355 0.055667562884583757 0 -0.028180735503205271 0.039159590651435462 0 -0.011921320261171551 0.033249446618379842 0 -0.024264904697784952 0.02650944865612001 0 -0.01650993354081606 0.044911529508795157 0 -0.028180735503205271 0.039159590651435462 0 -0.011921320261171551 0.033249446618379842 0 -0.026881181145431369 0.050455417736498837 0 -0.01650993354081606 0.044911529508795157 0 -0.028180735503205271 0.039159590651435462 0 -0.035317015673766237 0.04793965733713855 0 -0.026881181145431369 0.050455417736498837 0 -0.028180735503205271 0.039159590651435462 0 -0.035479304887250408 0.030107493959046008 0 -0.028180735503205271 0.039159590651435462 0 -0.024264904697784952 0.02650944865612001 0 -0.011921320261171551 0.033249446618379842 0 -0.0046535666324173707 0.059196937454625717 0 -0.01650993354081606 0.044911529508795157 0 -0.011921320261171551 0.033249446618379842 0 -0.0046535666324173707 0.059196937454625717 0 -0.011921320261171551 0.033249446618379842 0 -0.0046535666324173707 0.059196937454625717 0 0.0098287769403148338 0.051831970635321307 0 -0.01650993354081606 0.044911529508795157 0 -0.0046535666324173707 0.059196937454625717 0 -0.01280387030948355 0.055667562884583757 0 -0.01147888043887123 0.063941888187010909 0 -0.01857310062582954 0.05461989638790328 0 -0.01280387030948355 0.055667562884583757 0 -0.01147888043887123 0.063941888187010909 0 -0.0046535666324173707 0.059196937454625717 0 -0.01280387030948355 0.055667562884583757 0 -0.032002510192509458 0.019911394402702901 0 -0.038585309218186127 0.012739855405645701 0 -0.01918907388992936 0.0073019557821350058 0 -0.040801217184782149 0.0025333173356579639 0 -0.01918907388992936 0.0073019557821350058 0 -0.029380671470779201 0.0020721751775648329 0 -0.040801217184782149 0.0025333173356579639 0 -0.01918907388992936 0.0073019557821350058 0 -0.02288696417543129 -0.00590033191195867 0 -0.01918907388992936 0.0073019557821350058 0 -0.02288696417543129 -0.00590033191195867 0 -0.01918907388992936 0.0073019557821350058 0 -0.029380671470779201 0.0020721751775648329 0 -0.011921320261171551 0.033249446618379842 0 -0.01918907388992936 0.0073019557821350058 0 -0.024264904697784952 0.02650944865612001 0 -0.032002510192509458 0.019911394402702901 0 -0.01918907388992936 0.0073019557821350058 0 -0.024264904697784952 0.02650944865612001 0 -0.035479304887250408 0.030107493959046008 0 -0.032002510192509458 0.019911394402702901 0 -0.024264904697784952 0.02650944865612001 0 -0.011921320261171551 0.033249446618379842 0 -0.01918907388992936 0.0073019557821350058 0 0.0082561663295642115 0.013357645210898619 0 -0.011921320261171551 0.033249446618379842 0 -0.01918907388992936 0.0073019557821350058 0 -0.0025007363194086028 -0.0051543784696279817 0 -0.01918907388992936 0.0073019557821350058 0 0.0082561663295642115 0.013357645210898619 0 -0.01918907388992936 0.0073019557821350058 0 0.0082561663295642115 0.013357645210898619 0 -0.0025007363194086028 -0.0051543784696279817 0 0.0082561663295642115 0.013357645210898619 0 0.021600236337897379 -0.0042573374784961784 0 -0.011921320261171551 0.033249446618379842 0 0.0082561663295642115 0.013357645210898619 0 0.01404468549316598 0.03390182135376725 0 0.0082561663295642115 0.013357645210898619 0 0.035701406549058158 0.019413334639660499 0 0.0082561663295642115 0.013357645210898619 0 0.01404468549316598 0.03390182135376725 0 0.035701406549058158 0.019413334639660499 0 0.0082561663295642115 0.013357645210898619 0 0.035701406549058158 0.019413334639660499 0 0.021600236337897379 -0.0042573374784961784 0 -0.0046535666324173707 0.059196937454625717 0 0.0098287769403148338 0.051831970635321307 0 0.0098460742479551683 0.06938754726252197 0 0.0098287769403148338 0.051831970635321307 0 0.02331074058952725 0.066237689147358059 0 0.0098460742479551683 0.06938754726252197 0 -0.011921320261171551 0.033249446618379842 0 0.0098287769403148338 0.051831970635321307 0 0.01404468549316598 0.03390182135376725 0 0.0098287769403148338 0.051831970635321307 0 0.01404468549316598 0.03390182135376725 0 0.030659545074026691 0.044725716479398991 0 0.01404468549316598 0.03390182135376725 0 0.030659545074026691 0.044725716479398991 0 0.035701406549058158 0.019413334639660499 0 0.0098287769403148338 0.051831970635321307 0 0.030659545074026691 0.044725716479398991 0 0.02331074058952725 0.066237689147358059 0 0.030659545074026691 0.044725716479398991 0 0.040165888042008581 0.061891739960142862 0 0.02331074058952725 0.066237689147358059 0 0.030659545074026691 0.044725716479398991 0 0.040165888042008581 0.061891739960142862 0 0.045678377839633771 0.048203936203878327 0 0.030659545074026691 0.044725716479398991 0 0.046415764337373461 0.034423647829504543 0 0.035701406549058158 0.019413334639660499 0 0.030659545074026691 0.044725716479398991 0 0.045678377839633771 0.048203936203878327 0 0.046415764337373461 0.034423647829504543 0 0.046415764337373461 0.034423647829504543 0 0.05784179863335101 0.040873919534342072 0 0.063146646768552112 0.025469024068422368 0 0.045678377839633771 0.048203936203878327 0 0.046415764337373461 0.034423647829504543 0 0.05784179863335101 0.040873919534342072 0 0.040165888042008581 0.061891739960142862 0 0.045678377839633771 0.048203936203878327 0 0.059459593045270077 0.058127108528758818 0 0.045678377839633771 0.048203936203878327 0 0.05784179863335101 0.040873919534342072 0 0.059459593045270077 0.058127108528758818 0 0.035701406549058158 0.019413334639660499 0 0.021600236337897379 -0.0042573374784961784 0 0.045049452822597078 -0.003360735619274113 0 0.035701406549058158 0.019413334639660499 0 0.056734102163932411 0.0083852866623192659 0 0.045049452822597078 -0.003360735619274113 0 0.035701406549058158 0.019413334639660499 0 0.063146646768552112 0.025469024068422368 0 0.046415764337373461 0.034423647829504543 0 0.035701406549058158 0.019413334639660499 0 0.063146646768552112 0.025469024068422368 0 0.035701406549058158 0.019413334639660499 0 0.056734102163932411 0.0083852866623192659 0 0.063146646768552112 0.025469024068422368 0 0.056734102163932411 0.0083852866623192659 0 0.073547312206776419 0.0075852302534506694 0 0.063146646768552112 0.025469024068422368 0 0.056734102163932411 0.0083852866623192659 0 0.073547312206776419 0.0075852302534506694 0 0.067710228959486876 -0.01298016752375167 0 0.073547312206776419 0.0075852302534506694 0 0.08961751359136351 0.01379592516480453 0 0.086551077657245498 0.021679917361345939 0 0.073547312206776419 0.0075852302534506694 0 0.08961751359136351 0.01379592516480453 0 0.091180058974594053 0.00073809788061110189 0 0.08961751359136351 0.01379592516480453 0 0.091180058974594053 0.00073809788061110189 0 0.098232693989704814 0.01107556061788258 0 0.073547312206776419 0.0075852302534506694 0 0.086551077657245498 0.021679917361345939 0 0.079194781582778262 0.02900998488962981 0 0.086551077657245498 0.021679917361345939 0 0.090591886988046072 0.031524713497184248 0 0.099164582487104885 0.02290433476640167 0 0.08961751359136351 0.01379592516480453 0 0.086551077657245498 0.021679917361345939 0 0.099164582487104885 0.02290433476640167 0 0.079194781582778262 0.02900998488962981 0 0.090591886988046072 0.031524713497184248 0 0.086551077657245498 0.021679917361345939 0 0.079194781582778262 0.02900998488962981 0 0.090591886988046072 0.031524713497184248 0 0.079194781582778262 0.02900998488962981 0 0.063146646768552112 0.025469024068422368 0 0.073547312206776419 0.0075852302534506694 0 0.079194781582778262 0.02900998488962981 0 0.063146646768552112 0.025469024068422368 0 0.073547312206776419 0.0075852302534506694 0 0.079194781582778262 0.02900998488962981 0 0.05784179863335101 0.040873919534342072 0 0.063146646768552112 0.025469024068422368 0 0.073284617338169863 0.04303076572174093 0 0.079194781582778262 0.02900998488962981 0 0.063146646768552112 0.025469024068422368 0 0.073284617338169863 0.04303076572174093 0 0.059459593045270077 0.058127108528758818 0 0.073284617338169863 0.04303076572174093 0 0.077533063530330196 0.062684014815564182 0 0.05784179863335101 0.040873919534342072 0 0.059459593045270077 0.058127108528758818 0 0.073284617338169863 0.04303076572174093 0 0.073284617338169863 0.04303076572174093 0 0.088936380014242367 0.046459553695004617 0 0.077533063530330196 0.062684014815564182 0 0.088936380014242367 0.046459553695004617 0 0.09447055867425308 0.061338891647816009 0 0.077533063530330196 0.062684014815564182 0 0.073284617338169863 0.04303076572174093 0 0.088936380014242367 0.046459553695004617 0 0.090591886988046072 0.031524713497184248 0 0.079194781582778262 0.02900998488962981 0 0.073284617338169863 0.04303076572174093 0 0.090591886988046072 0.031524713497184248 0 0.088936380014242367 0.046459553695004617 0 0.090591886988046072 0.031524713497184248 0 0.1024245825590273 0.035916799969674937 0 0.088936380014242367 0.046459553695004617 0 0.1024245825590273 0.035916799969674937 0 0.1016136345140651 0.04830582451937273 0 0.1024245825590273 0.035916799969674937 0 0.1016136345140651 0.04830582451937273 0 0.1141197811810003 0.043597982727184612 0 0.088936380014242367 0.046459553695004617 0 0.09447055867425308 0.061338891647816009 0 0.1016136345140651 0.04830582451937273 0 0.1016136345140651 0.04830582451937273 0 0.10891983572964641 0.058185135895093533 0 0.1141197811810003 0.043597982727184612 0 0.09447055867425308 0.061338891647816009 0 0.1016136345140651 0.04830582451937273 0 0.10891983572964641 0.058185135895093533 0 0.10891983572964641 0.058185135895093533 0 0.1234093269503041 0.053135151783242469 0 0.12692345178439729 0.07084319391043982 0 0.10891983572964641 0.058185135895093533 0 0.1234093269503041 0.053135151783242469 0 0.1141197811810003 0.043597982727184612 0 0.1234093269503041 0.053135151783242469 0 0.1141197811810003 0.043597982727184612 0 0.13232217191780229 0.039777085903021488 0 0.1141197811810003 0.043597982727184612 0 0.1167144904564974 0.026418326068680539 0 0.13232217191780229 0.039777085903021488 0 0.1024245825590273 0.035916799969674937 0 0.1141197811810003 0.043597982727184612 0 0.1167144904564974 0.026418326068680539 0 0.1167144904564974 0.026418326068680539 0 0.12108946560642141 0.01154877377898424 0 0.1081744831391009 0.01403292477160068 0 0.1167144904564974 0.026418326068680539 0 0.12108946560642141 0.01154877377898424 0 0.13181535284950829 0.022009500972414942 0 0.12108946560642141 0.01154877377898424 0 0.1195703238469088 0.00072067968360169793 0 0.1124479519792444 0.0053550192033084013 0 0.12108946560642141 0.01154877377898424 0 0.1195703238469088 0.00072067968360169793 0 0.12773595140078731 0.0024735933284422431 0 0.1195703238469088 0.00072067968360169793 0 0.1124479519792444 0.0053550192033084013 0 0.1103786555474302 -0.003433802723639526 0 0.12108946560642141 0.01154877377898424 0 0.1124479519792444 0.0053550192033084013 0 0.1081744831391009 0.01403292477160068 0 0.1081744831391009 0.01403292477160068 0 0.1030268317563607 0.0039065205059949162 0 0.098232693989704814 0.01107556061788258 0 0.1124479519792444 0.0053550192033084013 0 0.1030268317563607 0.0039065205059949162 0 0.1103786555474302 -0.003433802723639526 0 0.1124479519792444 0.0053550192033084013 0 0.1081744831391009 0.01403292477160068 0 0.1030268317563607 0.0039065205059949162 0 0.091180058974594053 0.00073809788061110189 0 0.1030268317563607 0.0039065205059949162 0 0.098232693989704814 0.01107556061788258 0 0.1167144904564974 0.026418326068680539 0 0.1081744831391009 0.01403292477160068 0 0.099164582487104885 0.02290433476640167 0 0.1024245825590273 0.035916799969674937 0 0.1167144904564974 0.026418326068680539 0 0.099164582487104885 0.02290433476640167 0 0.08961751359136351 0.01379592516480453 0 0.098232693989704814 0.01107556061788258 0 0.099164582487104885 0.02290433476640167 0 0.090591886988046072 0.031524713497184248 0 0.1024245825590273 0.035916799969674937 0 0.099164582487104885 0.02290433476640167 0 0.1081744831391009 0.01403292477160068 0 0.098232693989704814 0.01107556061788258 0 0.099164582487104885 0.02290433476640167 0 0.1078785645780025 0.1008655598573608 0 0.1108150050816977 0.1146218667896597 0 0.093607383957468288 0.10837425524325479 0 0.1078785645780025 0.1008655598573608 0 0.096600149433067301 0.090205545678349208 0 0.093607383957468288 0.10837425524325479 0 0.098545111275038774 0.1236658966593453 0 0.093607383957468288 0.10837425524325479 0 0.089459200386390297 0.1190366201411325 0 0.098545111275038774 0.1236658966593453 0 0.1108150050816977 0.1146218667896597 0 0.093607383957468288 0.10837425524325479 0 0.098545111275038774 0.1236658966593453 0 0.1108150050816977 0.1146218667896597 0 0.1107813868236939 0.1261253583884866 0 0.1108150050816977 0.1146218667896597 0 0.12574356414906299 0.1042783247926226 0 0.12912469052369591 0.1215541264122493 0 0.1108150050816977 0.1146218667896597 0 0.1107813868236939 0.1261253583884866 0 0.12912469052369591 0.1215541264122493 0 0.1151634042966601 0.088892019204466016 0 0.13123900241856071 0.088459768899363272 0 0.12574356414906299 0.1042783247926226 0 0.1078785645780025 0.1008655598573608 0 0.1151634042966601 0.088892019204466016 0 0.12574356414906299 0.1042783247926226 0 0.1078785645780025 0.1008655598573608 0 0.1108150050816977 0.1146218667896597 0 0.12574356414906299 0.1042783247926226 0 0.1151634042966601 0.088892019204466016 0 0.12692345178439729 0.07084319391043982 0 0.13123900241856071 0.088459768899363272 0 0.10891983572964641 0.058185135895093533 0 0.104667290586707 0.074454504191819371 0 0.12692345178439729 0.07084319391043982 0 0.1151634042966601 0.088892019204466016 0 0.104667290586707 0.074454504191819371 0 0.12692345178439729 0.07084319391043982 0 0.09447055867425308 0.061338891647816009 0 0.10891983572964641 0.058185135895093533 0 0.104667290586707 0.074454504191819371 0 0.09447055867425308 0.061338891647816009 0 0.104667290586707 0.074454504191819371 0 0.089921353770543513 0.076198431762453389 0 0.1078785645780025 0.1008655598573608 0 0.1151634042966601 0.088892019204466016 0 0.096600149433067301 0.090205545678349208 0 0.1151634042966601 0.088892019204466016 0 0.096600149433067301 0.090205545678349208 0 0.1151634042966601 0.088892019204466016 0 0.104667290586707 0.074454504191819371 0 0.096600149433067301 0.090205545678349208 0 0.104667290586707 0.074454504191819371 0 0.096600149433067301 0.090205545678349208 0 0.089921353770543513 0.076198431762453389 0 0.096600149433067301 0.090205545678349208 0 0.089921353770543513 0.076198431762453389 0 0.078036894569474505 0.091519072152232248 0 0.096600149433067301 0.090205545678349208 0 0.078036894569474505 0.091519072152232248 0 0.089921353770543513 0.076198431762453389 0 0.077533063530330196 0.062684014815564182 0 0.078036894569474505 0.091519072152232248 0 0.09447055867425308 0.061338891647816009 0 0.089921353770543513 0.076198431762453389 0 0.077533063530330196 0.062684014815564182 0 0.059459593045270077 0.058127108528758818 0 0.077533063530330196 0.062684014815564182 0 0.065783855402178709 0.075747004865788295 0 0.077533063530330196 0.062684014815564182 0 0.065783855402178709 0.075747004865788295 0 0.078036894569474505 0.091519072152232248 0 0.077533063530330196 0.062684014815564182 0 0.078036894569474505 0.091519072152232248 0 0.065783855402178709 0.075747004865788295 0 0.078036894569474505 0.091519072152232248 0 0.06198911424134064 0.092654604927220413 0 0.078036894569474505 0.091519072152232248 0 0.06198911424134064 0.092654604927220413 0 0.078036894569474505 0.091519072152232248 0 0.067477225779020975 0.10541209571039491 0 0.06198911424134064 0.092654604927220413 0 0.078036894569474505 0.091519072152232248 0 0.067477225779020975 0.10541209571039491 0 0.078428866709170986 0.11395226551373409 0 0.078036894569474505 0.091519072152232248 0 0.093607383957468288 0.10837425524325479 0 0.078428866709170986 0.11395226551373409 0 0.096600149433067301 0.090205545678349208 0 0.078036894569474505 0.091519072152232248 0 0.093607383957468288 0.10837425524325479 0 0.078036894569474505 0.091519072152232248 0 0.078428866709170986 0.11395226551373409 0 0.089459200386390297 0.1190366201411325 0 0.078428866709170986 0.11395226551373409 0 0.087255439603883184 0.1301540631481958 0 0.098545111275038774 0.1236658966593453 0 0.089459200386390297 0.1190366201411325 0 0.087255439603883184 0.1301540631481958 0 0.093607383957468288 0.10837425524325479 0 0.089459200386390297 0.1190366201411325 0 0.078428866709170986 0.11395226551373409 0 0.067477225779020975 0.10541209571039491 0 0.078428866709170986 0.11395226551373409 0 0.066021638774187874 0.1217927579725754 0 0.078428866709170986 0.11395226551373409 0 0.066021638774187874 0.1217927579725754 0 0.078820838848869645 0.13638545887523601 0 0.067477225779020975 0.10541209571039491 0 0.066021638774187874 0.1217927579725754 0 0.055300292250800687 0.112090061656857 0 0.055300292250800687 0.112090061656857 0 0.037462598884312047 0.1223025056970382 0 0.053408823134691509 0.126130718485017 0 0.066021638774187874 0.1217927579725754 0 0.055300292250800687 0.112090061656857 0 0.053408823134691509 0.126130718485017 0 0.067477225779020975 0.10541209571039491 0 0.055300292250800687 0.112090061656857 0 0.06198911424134064 0.092654604927220413 0 0.055300292250800687 0.112090061656857 0 0.045941333913206872 0.093790137702209286 0 0.06198911424134064 0.092654604927220413 0 0.045941333913206872 0.093790137702209286 0 0.037462598884312047 0.1223025056970382 0 0.026791009695220341 0.095145204905056874 0 0.045941333913206872 0.093790137702209286 0 0.026791009695220341 0.095145204905056874 0 0.045941333913206872 0.093790137702209286 0 0.037462598884312047 0.1223025056970382 0 0.055300292250800687 0.112090061656857 0 0.045941333913206872 0.093790137702209286 0 0.037462598884312047 0.1223025056970382 0 0.040165888042008581 0.061891739960142862 0 0.059459593045270077 0.058127108528758818 0 0.051900611624478087 0.073750223905165779 0 0.059459593045270077 0.058127108528758818 0 0.065783855402178709 0.075747004865788295 0 0.051900611624478087 0.073750223905165779 0 0.045941333913206872 0.093790137702209286 0 0.051900611624478087 0.073750223905165779 0 0.06198911424134064 0.092654604927220413 0 0.045941333913206872 0.093790137702209286 0 0.06198911424134064 0.092654604927220413 0 0.045941333913206872 0.093790137702209286 0 0.051900611624478087 0.073750223905165779 0 0.065783855402178709 0.075747004865788295 0 0.051900611624478087 0.073750223905165779 0 0.06198911424134064 0.092654604927220413 0 0.045941333913206872 0.093790137702209286 0 0.034274508525843961 0.078892906954736802 0 0.026791009695220341 0.095145204905056874 0 0.045941333913206872 0.093790137702209286 0 0.051900611624478087 0.073750223905165779 0 0.034274508525843961 0.078892906954736802 0 0.040165888042008581 0.061891739960142862 0 0.034274508525843961 0.078892906954736802 0 0.02331074058952725 0.066237689147358059 0 0.040165888042008581 0.061891739960142862 0 0.051900611624478087 0.073750223905165779 0 0.034274508525843961 0.078892906954736802 0 0.034274508525843961 0.078892906954736802 0 0.02331074058952725 0.066237689147358059 0 0.01759181497464064 0.082082724633238194 0 0.02331074058952725 0.066237689147358059 0 0.01759181497464064 0.082082724633238194 0 0.0098460742479551683 0.06938754726252197 0 0.034274508525843961 0.078892906954736802 0 0.01759181497464064 0.082082724633238194 0 0.026791009695220341 0.095145204905056874 0 0.01759181497464064 0.082082724633238194 0 0.026791009695220341 0.095145204905056874 0 0.0076406854772338986 0.096500272107905322 0 0.01759181497464064 0.082082724633238194 0 0.002614186996336807 0.085144428290871613 0 0.0098460742479551683 0.06938754726252197 0 0.01759181497464064 0.082082724633238194 0 0.002614186996336807 0.085144428290871613 0 0.0076406854772338986 0.096500272107905322 0 -0.0036295419654841631 0.091177419313066138 0 0.002614186996336807 0.085144428290871613 0 0.0076406854772338986 0.096500272107905322 0 -0.0046535666324173707 0.059196937454625717 0 0.002614186996336807 0.085144428290871613 0 0.0098460742479551683 0.06938754726252197 0 0.037462598884312047 0.1223025056970382 0 0.020122106846360441 0.1149599030008867 0 0.026791009695220341 0.095145204905056874 0 0.020122106846360441 0.1149599030008867 0 0.01064908420355172 0.12508051303934309 0 0.02206443413688185 0.13102259630864349 0 0.037462598884312047 0.1223025056970382 0 0.020122106846360441 0.1149599030008867 0 0.02206443413688185 0.13102259630864349 0 0.020122106846360441 0.1149599030008867 0 0.026791009695220341 0.095145204905056874 0 0.01478399187216007 0.10431115711594351 0 0.026791009695220341 0.095145204905056874 0 0.0076406854772338986 0.096500272107905322 0 0.026791009695220341 0.095145204905056874 0 0.01478399187216007 0.10431115711594351 0 0.0076406854772338986 0.096500272107905322 0 0.01478399187216007 0.10431115711594351 0 0.0076406854772338986 0.096500272107905322 0 0.006300447950588998 0.1107341990224166 0 -0.0029496625288702172 0.099832989541204259 0 -0.0036295419654841631 0.091177419313066138 0 0.0076406854772338986 0.096500272107905322 0 -0.0029496625288702172 0.099832989541204259 0 0.0076406854772338986 0.096500272107905322 0 0.006300447950588998 0.1107341990224166 0 -0.0044111750211892663 0.11103904934749929 0 0.006300447950588998 0.1107341990224166 0 0.00071008929500930085 0.1188524068210496 0 0.020122106846360441 0.1149599030008867 0 0.006300447950588998 0.1107341990224166 0 0.01064908420355172 0.12508051303934309 0 0.020122106846360441 0.1149599030008867 0 0.01478399187216007 0.10431115711594351 0 0.006300447950588998 0.1107341990224166 0 0.00071008929500930085 0.1188524068210496 0 0.0011193715973417161 0.12735019327789721 0 0.01064908420355172 0.12508051303934309 0 0.006300447950588998 0.1107341990224166 0 0.00071008929500930085 0.1188524068210496 0 0.01064908420355172 0.12508051303934309 0 0.0011193715973417161 0.12735019327789721 0 0.0042444643585255182 0.13650405945261521 0 0.01064908420355172 0.12508051303934309 0 0.01064908420355172 0.12508051303934309 0 0.02206443413688185 0.13102259630864349 0 0.013104516894770161 0.14195518611408309 0 0.0042444643585255182 0.13650405945261521 0 0.01064908420355172 0.12508051303934309 0 0.013104516894770161 0.14195518611408309 0 -0.0045795472881563423 0.13853451359274119 0 0.0011193715973417161 0.12735019327789721 0 0.0042444643585255182 0.13650405945261521 0 0.037462598884312047 0.1223025056970382 0 0.02206443413688185 0.13102259630864349 0 0.02898386385541488 0.15081487369186661 0 0.02898386385541488 0.15081487369186661 0 0.013104516894770161 0.14195518611408309 0 0.0055113342627114148 0.16310858259918129 0 0.02206443413688185 0.13102259630864349 0 0.02898386385541488 0.15081487369186661 0 0.013104516894770161 0.14195518611408309 0 -0.002609900621990735 0.1506190610776463 0 0.013104516894770161 0.14195518611408309 0 0.0055113342627114148 0.16310858259918129 0 -0.002609900621990735 0.1506190610776463 0 0.0042444643585255182 0.13650405945261521 0 0.013104516894770161 0.14195518611408309 0 0.0055113342627114148 0.16310858259918129 0 0.013147143564386661 0.183568807750811 0 0.02511526942176252 0.16695833845970359 0 -0.0064423259037591704 0.184638151680309 0 0.0055113342627114148 0.16310858259918129 0 0.013147143564386661 0.183568807750811 0 0.013147143564386661 0.183568807750811 0 0.032248833109440288 0.1787098869238275 0 0.026106082877692109 0.19429571707017981 0 0.013147143564386661 0.183568807750811 0 0.02511526942176252 0.16695833845970359 0 0.032248833109440288 0.1787098869238275 0 0.02898386385541488 0.15081487369186661 0 0.0055113342627114148 0.16310858259918129 0 0.02511526942176252 0.16695833845970359 0 0.02898386385541488 0.15081487369186661 0 0.041699925660515391 0.167684048487799 0 0.051699141817810421 0.15234304802782031 0 0.02511526942176252 0.16695833845970359 0 0.041699925660515391 0.167684048487799 0 0.032248833109440288 0.1787098869238275 0 0.02898386385541488 0.15081487369186661 0 0.02511526942176252 0.16695833845970359 0 0.041699925660515391 0.167684048487799 0 0.032248833109440288 0.1787098869238275 0 0.04502706230478562 0.18324812656011119 0 0.037914474003642652 0.19034218840844691 0 0.041699925660515391 0.167684048487799 0 0.032248833109440288 0.1787098869238275 0 0.04502706230478562 0.18324812656011119 0 0.04502706230478562 0.18324812656011119 0 0.053948328726729 0.17637008034799781 0 0.057895917376250161 0.19116348400882779 0 0.041699925660515391 0.167684048487799 0 0.04502706230478562 0.18324812656011119 0 0.053948328726729 0.17637008034799781 0 0.053948328726729 0.17637008034799781 0 0.062506945745814807 0.16403230899862381 0 0.063941078159025097 0.17791118266295131 0 0.053948328726729 0.17637008034799781 0 0.057895917376250161 0.19116348400882779 0 0.063941078159025097 0.17791118266295131 0 0.041699925660515391 0.167684048487799 0 0.052463585487717401 0.1651073714655602 0 0.051699141817810421 0.15234304802782031 0 0.041699925660515391 0.167684048487799 0 0.053948328726729 0.17637008034799781 0 0.052463585487717401 0.1651073714655602 0 0.053948328726729 0.17637008034799781 0 0.052463585487717401 0.1651073714655602 0 0.062506945745814807 0.16403230899862381 0 0.052463585487717401 0.1651073714655602 0 0.051699141817810421 0.15234304802782031 0 0.062506945745814807 0.16403230899862381 0 0.051699141817810421 0.15234304802782031 0 0.062360141537675537 0.1369512419912835 0 0.045899444226481401 0.1375170251073311 0 0.051699141817810421 0.15234304802782031 0 0.062360141537675537 0.1369512419912835 0 0.067366152097004098 0.14951599360645179 0 0.051699141817810421 0.15234304802782031 0 0.067366152097004098 0.14951599360645179 0 0.062506945745814807 0.16403230899862381 0 0.062360141537675537 0.1369512419912835 0 0.045899444226481401 0.1375170251073311 0 0.062360141537675537 0.1369512419912835 0 0.053408823134691509 0.126130718485017 0 0.045899444226481401 0.1375170251073311 0 0.066021638774187874 0.1217927579725754 0 0.062360141537675537 0.1369512419912835 0 0.053408823134691509 0.126130718485017 0 0.037462598884312047 0.1223025056970382 0 0.02898386385541488 0.15081487369186661 0 0.037462598884312047 0.1223025056970382 0 0.02898386385541488 0.15081487369186661 0 0.045899444226481401 0.1375170251073311 0 0.037462598884312047 0.1223025056970382 0 0.053408823134691509 0.126130718485017 0 0.045899444226481401 0.1375170251073311 0 0.02898386385541488 0.15081487369186661 0 0.051699141817810421 0.15234304802782031 0 0.045899444226481401 0.1375170251073311 0 0.031219584792892802 0.24070969102814579 0 0.015464831166581599 0.2471975019248627 0 0.01942740578319882 0.22346822559835619 0 -0.0047099749423644751 0.25880076386517242 0 0.015464831166581599 0.2471975019248627 0 0.00201100181985514 0.2363839756251932 0 0.015464831166581599 0.2471975019248627 0 0.00201100181985514 0.2363839756251932 0 0.01942740578319882 0.22346822559835619 0 -0.0043793094578833446 0.21635995093607571 0 0.00201100181985514 0.2363839756251932 0 0.01942740578319882 0.22346822559835619 0 0.01942740578319882 0.22346822559835619 0 0.03515856198712615 0.2156326115380518 0 0.035819645317386961 0.2281628124667425 0 0.031219584792892802 0.24070969102814579 0 0.01942740578319882 0.22346822559835619 0 0.035819645317386961 0.2281628124667425 0 0.01942740578319882 0.22346822559835619 0 0.02550077569096983 0.20748047604119749 0 0.01200086362717564 0.2048724414583824 0 0.01942740578319882 0.22346822559835619 0 0.02550077569096983 0.20748047604119749 0 0.03515856198712615 0.2156326115380518 0 -0.0043793094578833446 0.21635995093607571 0 0.01942740578319882 0.22346822559835619 0 0.01200086362717564 0.2048724414583824 0 -0.0013544956615165211 0.1975138059712592 0 -0.0043793094578833446 0.21635995093607571 0 0.01200086362717564 0.2048724414583824 0 -0.0013544956615165211 0.1975138059712592 0 -0.0064423259037591704 0.184638151680309 0 0.013147143564386661 0.183568807750811 0 -0.0013544956615165211 0.1975138059712592 0 0.013147143564386661 0.183568807750811 0 0.01200086362717564 0.2048724414583824 0 0.013147143564386661 0.183568807750811 0 0.01200086362717564 0.2048724414583824 0 0.026106082877692109 0.19429571707017981 0 0.02550077569096983 0.20748047604119749 0 0.01200086362717564 0.2048724414583824 0 0.026106082877692109 0.19429571707017981 0 0.02550077569096983 0.20748047604119749 0 0.026106082877692109 0.19429571707017981 0 0.035824407270537609 0.20080050183841389 0 0.032248833109440288 0.1787098869238275 0 0.026106082877692109 0.19429571707017981 0 0.037914474003642652 0.19034218840844691 0 0.026106082877692109 0.19429571707017981 0 0.037914474003642652 0.19034218840844691 0 0.035824407270537609 0.20080050183841389 0 0.035824407270537609 0.20080050183841389 0 0.045721122981397341 0.19689540901492081 0 0.043625860335615531 0.207719760173041 0 0.037914474003642652 0.19034218840844691 0 0.035824407270537609 0.20080050183841389 0 0.045721122981397341 0.19689540901492081 0 0.04502706230478562 0.18324812656011119 0 0.037914474003642652 0.19034218840844691 0 0.045721122981397341 0.19689540901492081 0 0.04502706230478562 0.18324812656011119 0 0.045721122981397341 0.19689540901492081 0 0.057895917376250161 0.19116348400882779 0 0.057895917376250161 0.19116348400882779 0 0.052524056282064788 0.20411694082907661 0 0.060198036785329007 0.20356177885696711 0 0.057895917376250161 0.19116348400882779 0 0.060198036785329007 0.20356177885696711 0 0.065140009410543362 0.1988754238087819 0 0.045721122981397341 0.19689540901492081 0 0.057895917376250161 0.19116348400882779 0 0.052524056282064788 0.20411694082907661 0 0.045721122981397341 0.19689540901492081 0 0.052524056282064788 0.20411694082907661 0 0.043625860335615531 0.207719760173041 0 0.052524056282064788 0.20411694082907661 0 0.057296507641689642 0.2101310406314551 0 0.050502091077980767 0.2131129688815844 0 0.052524056282064788 0.20411694082907661 0 0.050502091077980767 0.2131129688815844 0 0.043625860335615531 0.207719760173041 0 0.057296507641689642 0.2101310406314551 0 0.061422995389217742 0.2148670278864423 0 0.063698189719642001 0.2065223601024784 0 0.052524056282064788 0.20411694082907661 0 0.057296507641689642 0.2101310406314551 0 0.060198036785329007 0.20356177885696711 0 0.057296507641689642 0.2101310406314551 0 0.060198036785329007 0.20356177885696711 0 0.063698189719642001 0.2065223601024784 0 0.057296507641689642 0.2101310406314551 0 0.061422995389217742 0.2148670278864423 0 0.055422234012061977 0.21773123335735231 0 0.061422995389217742 0.2148670278864423 0 0.055422234012061977 0.21773123335735231 0 0.058155336822065737 0.22037026803838519 0 0.055422234012061977 0.21773123335735231 0 0.050502091077980767 0.2131129688815844 0 0.049594741234372533 0.22016426348813689 0 0.057296507641689642 0.2101310406314551 0 0.055422234012061977 0.21773123335735231 0 0.050502091077980767 0.2131129688815844 0 0.050502091077980767 0.2131129688815844 0 0.043338827008662831 0.21579870203843801 0 0.049594741234372533 0.22016426348813689 0 0.043338827008662831 0.21579870203843801 0 0.043625860335615531 0.207719760173041 0 0.03515856198712615 0.2156326115380518 0 0.043338827008662831 0.21579870203843801 0 0.03515856198712615 0.2156326115380518 0 0.043330837150274387 0.22392436753477921 0 0.050502091077980767 0.2131129688815844 0 0.043338827008662831 0.21579870203843801 0 0.043625860335615531 0.207719760173041 0 0.035824407270537609 0.20080050183841389 0 0.043625860335615531 0.207719760173041 0 0.03515856198712615 0.2156326115380518 0 0.02550077569096983 0.20748047604119749 0 0.035824407270537609 0.20080050183841389 0 0.03515856198712615 0.2156326115380518 0 0.03515856198712615 0.2156326115380518 0 0.035819645317386961 0.2281628124667425 0 0.043330837150274387 0.22392436753477921 0 0.031219584792892802 0.24070969102814579 0 0.035819645317386961 0.2281628124667425 0 0.043894087635332327 0.23369455643748499 0 0.035819645317386961 0.2281628124667425 0 0.043894087635332327 0.23369455643748499 0 0.043330837150274387 0.22392436753477921 0 0.043894087635332327 0.23369455643748499 0 0.043330837150274387 0.22392436753477921 0 0.049814446369391863 0.22696410655742449 0 0.043338827008662831 0.21579870203843801 0 0.043330837150274387 0.22392436753477921 0 0.049594741234372533 0.22016426348813689 0 0.043330837150274387 0.22392436753477921 0 0.049594741234372533 0.22016426348813689 0 0.049814446369391863 0.22696410655742449 0 0.049594741234372533 0.22016426348813689 0 0.055548381490992338 0.22356403233284991 0 0.049814446369391863 0.22696410655742449 0 0.055422234012061977 0.21773123335735231 0 0.049594741234372533 0.22016426348813689 0 0.055548381490992338 0.22356403233284991 0 0.061422995389217742 0.2148670278864423 0 0.058155336822065737 0.22037026803838519 0 0.060227736395990779 0.22531877857689631 0 0.055422234012061977 0.21773123335735231 0 0.058155336822065737 0.22037026803838519 0 0.055548381490992338 0.22356403233284991 0 0.055548381490992338 0.22356403233284991 0 0.060227736395990779 0.22531877857689631 0 0.058155336822065737 0.22037026803838519 0 0.055548381490992338 0.22356403233284991 0 0.060227736395990779 0.22531877857689631 0 0.055548381490992338 0.22356403233284991 0 0.060227736395990779 0.22531877857689631 0 0.055871712085607927 0.23241499856970799 0 0.060227736395990779 0.22531877857689631 0 0.055871712085607927 0.23241499856970799 0 0.066623608715498536 0.2389533359466825 0 0.060227736395990779 0.22531877857689631 0 0.055871712085607927 0.23241499856970799 0 0.043894087635332327 0.23369455643748499 0 0.055871712085607927 0.23241499856970799 0 0.049814446369391863 0.22696410655742449 0 0.055548381490992338 0.22356403233284991 0 0.055871712085607927 0.23241499856970799 0 0.049814446369391863 0.22696410655742449 0 0.055871712085607927 0.23241499856970799 0 0.057146322994644352 0.2488551141305724 0 0.042873870208327558 0.24806069189205859 0 0.043894087635332327 0.23369455643748499 0 0.055871712085607927 0.23241499856970799 0 0.042873870208327558 0.24806069189205859 0 0.055871712085607927 0.23241499856970799 0 0.057146322994644352 0.2488551141305724 0 0.066623608715498536 0.2389533359466825 0 0.055871712085607927 0.23241499856970799 0 0.042873870208327558 0.24806069189205859 0 0.031219584792892802 0.24070969102814579 0 0.043894087635332327 0.23369455643748499 0 0.042873870208327558 0.24806069189205859 0 0.08244168361355847 0.23364895255105039 0 0.071186561255840705 0.25827523459292862 0 0.089649969986245248 0.25250598727088341 0 0.08244168361355847 0.23364895255105039 0 0.1068336825019828 0.2427958903882515 0 0.089649969986245248 0.25250598727088341 0 0.08244168361355847 0.23364895255105039 0 0.071186561255840705 0.25827523459292862 0 0.057146322994644352 0.2488551141305724 0 0.066623608715498536 0.2389533359466825 0 0.071186561255840705 0.25827523459292862 0 0.066623608715498536 0.2389533359466825 0 0.08244168361355847 0.23364895255105039 0 0.071186561255840705 0.25827523459292862 0 0.060227736395990779 0.22531877857689631 0 0.076251013533837092 0.22299451411089441 0 0.072268827030295246 0.212853884566161 0 0.060227736395990779 0.22531877857689631 0 0.066623608715498536 0.2389533359466825 0 0.08244168361355847 0.23364895255105039 0 0.060227736395990779 0.22531877857689631 0 0.076251013533837092 0.22299451411089441 0 0.08244168361355847 0.23364895255105039 0 0.060227736395990779 0.22531877857689631 0 0.08244168361355847 0.23364895255105039 0 0.060227736395990779 0.22531877857689631 0 0.072268827030295246 0.212853884566161 0 0.076251013533837092 0.22299451411089441 0 0.08244168361355847 0.23364895255105039 0 0.088821516944922005 0.21968983509280279 0 0.08244168361355847 0.23364895255105039 0 0.088821516944922005 0.21968983509280279 0 0.08244168361355847 0.23364895255105039 0 0.088821516944922005 0.21968983509280279 0 0.097923035445779308 0.22240863984332371 0 0.089991207666326956 0.20862751883695871 0 0.072268827030295246 0.212853884566161 0 0.083065627514017859 0.19992238489875869 0 0.088821516944922005 0.21968983509280279 0 0.089991207666326956 0.20862751883695871 0 0.072268827030295246 0.212853884566161 0 0.076251013533837092 0.22299451411089441 0 0.088821516944922005 0.21968983509280279 0 0.072268827030295246 0.212853884566161 0 0.088821516944922005 0.21968983509280279 0 0.089991207666326956 0.20862751883695871 0 0.097923035445779308 0.22240863984332371 0 0.060227736395990779 0.22531877857689631 0 0.075653910899527277 0.2001886323415622 0 0.060227736395990779 0.22531877857689631 0 0.072268827030295246 0.212853884566161 0 0.075653910899527277 0.2001886323415622 0 0.061422995389217742 0.2148670278864423 0 0.060227736395990779 0.22531877857689631 0 0.075653910899527277 0.2001886323415622 0 0.061422995389217742 0.2148670278864423 0 0.063698189719642001 0.2065223601024784 0 0.075653910899527277 0.2001886323415622 0 0.072268827030295246 0.212853884566161 0 0.075653910899527277 0.2001886323415622 0 0.083065627514017859 0.19992238489875869 0 0.072268827030295246 0.212853884566161 0 0.083065627514017859 0.19992238489875869 0 0.063698189719642001 0.2065223601024784 0 0.075653910899527277 0.2001886323415622 0 0.065140009410543362 0.1988754238087819 0 0.060198036785329007 0.20356177885696711 0 0.063698189719642001 0.2065223601024784 0 0.065140009410543362 0.1988754238087819 0 0.057895917376250161 0.19116348400882779 0 0.065140009410543362 0.1988754238087819 0 0.07136024166488722 0.18539387987123121 0 0.075653910899527277 0.2001886323415622 0 0.065140009410543362 0.1988754238087819 0 0.07136024166488722 0.18539387987123121 0 0.075653910899527277 0.2001886323415622 0 0.091080085403063574 0.17505848610622801 0 0.075653910899527277 0.2001886323415622 0 0.083065627514017859 0.19992238489875869 0 0.091080085403063574 0.17505848610622801 0 0.083065627514017859 0.19992238489875869 0 0.095813250339389242 0.19030775386741439 0 0.091080085403063574 0.17505848610622801 0 0.089991207666326956 0.20862751883695871 0 0.083065627514017859 0.19992238489875869 0 0.096078211198278474 0.20026324321788261 0 0.083065627514017859 0.19992238489875869 0 0.095813250339389242 0.19030775386741439 0 0.096078211198278474 0.20026324321788261 0 0.095813250339389242 0.19030775386741439 0 0.1067308700710667 0.1953618125128633 0 0.1118295113761069 0.18306003647659161 0 0.095813250339389242 0.19030775386741439 0 0.096078211198278474 0.20026324321788261 0 0.1067308700710667 0.1953618125128633 0 0.096078211198278474 0.20026324321788261 0 0.1067308700710667 0.1953618125128633 0 0.10428021400655441 0.20742015802549749 0 0.1067308700710667 0.1953618125128633 0 0.11840869754852509 0.20035290941287359 0 0.1118295113761069 0.18306003647659161 0 0.11840869754852509 0.20035290941287359 0 0.1118295113761069 0.18306003647659161 0 0.12996447077162951 0.18655620125725311 0 0.1067308700710667 0.1953618125128633 0 0.11840869754852509 0.20035290941287359 0 0.10428021400655441 0.20742015802549749 0 0.11840869754852509 0.20035290941287359 0 0.11516990794133131 0.22226948416538131 0 0.13151560086974989 0.21569004199298589 0 0.11840869754852509 0.20035290941287359 0 0.10428021400655441 0.20742015802549749 0 0.11516990794133131 0.22226948416538131 0 0.10428021400655441 0.20742015802549749 0 0.097923035445779308 0.22240863984332371 0 0.11516990794133131 0.22226948416538131 0 0.089991207666326956 0.20862751883695871 0 0.096078211198278474 0.20026324321788261 0 0.10428021400655441 0.20742015802549749 0 0.089991207666326956 0.20862751883695871 0 0.10428021400655441 0.20742015802549749 0 0.097923035445779308 0.22240863984332371 0 0.08244168361355847 0.23364895255105039 0 0.097923035445779308 0.22240863984332371 0 0.1068336825019828 0.2427958903882515 0 0.097923035445779308 0.22240863984332371 0 0.11516990794133131 0.22226948416538131 0 0.1068336825019828 0.2427958903882515 0 0.11516990794133131 0.22226948416538131 0 0.1068336825019828 0.2427958903882515 0 0.12583423215518319 0.23459787797161591 0 0.11516990794133131 0.22226948416538131 0 0.12583423215518319 0.23459787797161591 0 0.13151560086974989 0.21569004199298589 0 0.1068336825019828 0.2427958903882515 0 0.12583423215518319 0.23459787797161591 0 0.13122568139040239 0.2519428282254651 0 0.1068336825019828 0.2427958903882515 0 0.13122568139040239 0.2519428282254651 0 0.08244168361355847 0.23364895255105039 0 0.1068336825019828 0.2427958903882515 0 0.085319724767530386 0.14721149976944439 0 0.078927626003802751 0.14249705878887439 0 0.07854165043725235 0.1509394595851295 0 0.085319724767530386 0.14721149976944439 0 0.085741026012009669 0.141037901073995 0 0.078927626003802751 0.14249705878887439 0 0.085319724767530386 0.14721149976944439 0 0.07854165043725235 0.1509394595851295 0 0.084858822293069638 0.15732263486858161 0 0.085319724767530386 0.14721149976944439 0 0.093002027369840173 0.1523519579172313 0 0.084858822293069638 0.15732263486858161 0 0.085319724767530386 0.14721149976944439 0 0.093002027369840173 0.1523519579172313 0 0.091814312994936406 0.14375469938262159 0 0.085319724767530386 0.14721149976944439 0 0.085741026012009669 0.141037901073995 0 0.091814312994936406 0.14375469938262159 0 0.085741026012009669 0.141037901073995 0 0.091814312994936406 0.14375469938262159 0 0.093989139172761998 0.13586409771658381 0 0.078820838848869645 0.13638545887523601 0 0.093989139172761998 0.13586409771658381 0 0.078428866709170986 0.11395226551373409 0 0.078820838848869645 0.13638545887523601 0 0.078428866709170986 0.11395226551373409 0 0.087255439603883184 0.1301540631481958 0 0.078820838848869645 0.13638545887523601 0 0.085741026012009669 0.141037901073995 0 0.078820838848869645 0.13638545887523601 0 0.093989139172761998 0.13586409771658381 0 0.087255439603883184 0.1301540631481958 0 0.078820838848869645 0.13638545887523601 0 0.093989139172761998 0.13586409771658381 0 0.087255439603883184 0.1301540631481958 0 0.093989139172761998 0.13586409771658381 0 0.098545111275038774 0.1236658966593453 0 0.087255439603883184 0.1301540631481958 0 0.093989139172761998 0.13586409771658381 0 0.078927626003802751 0.14249705878887439 0 0.078820838848869645 0.13638545887523601 0 0.085741026012009669 0.141037901073995 0 0.078927626003802751 0.14249705878887439 0 0.078820838848869645 0.13638545887523601 0 0.066021638774187874 0.1217927579725754 0 0.062360141537675537 0.1369512419912835 0 0.078820838848869645 0.13638545887523601 0 0.062360141537675537 0.1369512419912835 0 0.078927626003802751 0.14249705878887439 0 0.078820838848869645 0.13638545887523601 0 0.062360141537675537 0.1369512419912835 0 0.078820838848869645 0.13638545887523601 0 0.062360141537675537 0.1369512419912835 0 0.078927626003802751 0.14249705878887439 0 0.067366152097004098 0.14951599360645179 0 0.078927626003802751 0.14249705878887439 0 0.07854165043725235 0.1509394595851295 0 0.067366152097004098 0.14951599360645179 0 0.07854165043725235 0.1509394595851295 0 0.067366152097004098 0.14951599360645179 0 0.076350623487661709 0.16105177096487441 0 0.067366152097004098 0.14951599360645179 0 0.062506945745814807 0.16403230899862381 0 0.076350623487661709 0.16105177096487441 0 0.062506945745814807 0.16403230899862381 0 0.063941078159025097 0.17791118266295131 0 0.073993957281444256 0.17259616008807621 0 0.062506945745814807 0.16403230899862381 0 0.076350623487661709 0.16105177096487441 0 0.073993957281444256 0.17259616008807621 0 0.057895917376250161 0.19116348400882779 0 0.063941078159025097 0.17791118266295131 0 0.07136024166488722 0.18539387987123121 0 0.063941078159025097 0.17791118266295131 0 0.073993957281444256 0.17259616008807621 0 0.07136024166488722 0.18539387987123121 0 0.073993957281444256 0.17259616008807621 0 0.07136024166488722 0.18539387987123121 0 0.091080085403063574 0.17505848610622801 0 0.075653910899527277 0.2001886323415622 0 0.07136024166488722 0.18539387987123121 0 0.091080085403063574 0.17505848610622801 0 0.076350623487661709 0.16105177096487441 0 0.091080085403063574 0.17505848610622801 0 0.084858822293069638 0.15732263486858161 0 0.076350623487661709 0.16105177096487441 0 0.073993957281444256 0.17259616008807621 0 0.091080085403063574 0.17505848610622801 0 0.093002027369840173 0.1523519579172313 0 0.091080085403063574 0.17505848610622801 0 0.084858822293069638 0.15732263486858161 0 0.07854165043725235 0.1509394595851295 0 0.076350623487661709 0.16105177096487441 0 0.084858822293069638 0.15732263486858161 0 0.093002027369840173 0.1523519579172313 0 0.091080085403063574 0.17505848610622801 0 0.1065062599065999 0.14992833987089391 0 0.091080085403063574 0.17505848610622801 0 0.10917524673971821 0.16569994347185199 0 0.1065062599065999 0.14992833987089391 0 0.091080085403063574 0.17505848610622801 0 0.1065062599065999 0.14992833987089391 0 0.095813250339389242 0.19030775386741439 0 0.091080085403063574 0.17505848610622801 0 0.1118295113761069 0.18306003647659161 0 0.091080085403063574 0.17505848610622801 0 0.10917524673971821 0.16569994347185199 0 0.1118295113761069 0.18306003647659161 0 0.10917524673971821 0.16569994347185199 0 0.1118295113761069 0.18306003647659161 0 0.1311670250327171 0.16739015724277351 0 0.1118295113761069 0.18306003647659161 0 0.1311670250327171 0.16739015724277351 0 0.12996447077162951 0.18655620125725311 0 0.1125780821027394 0.1516271274796788 0 0.1311670250327171 0.16739015724277351 0 0.10917524673971821 0.16569994347185199 0 0.1125780821027394 0.1516271274796788 0 0.1311670250327171 0.16739015724277351 0 0.1125780821027394 0.1516271274796788 0 0.1214329880652753 0.13492080436459461 0 0.13428360934926181 0.15011916444648901 0 0.10917524673971821 0.16569994347185199 0 0.1125780821027394 0.1516271274796788 0 0.1065062599065999 0.14992833987089391 0 0.1125780821027394 0.1516271274796788 0 0.1065062599065999 0.14992833987089391 0 0.098714167044500992 0.1442610567409828 0 0.1125780821027394 0.1516271274796788 0 0.098714167044500992 0.1442610567409828 0 0.093989139172761998 0.13586409771658381 0 0.1125780821027394 0.1516271274796788 0 0.093989139172761998 0.13586409771658381 0 0.1125780821027394 0.1516271274796788 0 0.093989139172761998 0.13586409771658381 0 0.1214329880652753 0.13492080436459461 0 0.091814312994936406 0.14375469938262159 0 0.098714167044500992 0.1442610567409828 0 0.093989139172761998 0.13586409771658381 0 0.093002027369840173 0.1523519579172313 0 0.091814312994936406 0.14375469938262159 0 0.098714167044500992 0.1442610567409828 0 0.093002027369840173 0.1523519579172313 0 0.1065062599065999 0.14992833987089391 0 0.098714167044500992 0.1442610567409828 0 0.093989139172761998 0.13586409771658381 0 0.1107813868236939 0.1261253583884866 0 0.1214329880652753 0.13492080436459461 0 0.098545111275038774 0.1236658966593453 0 0.093989139172761998 0.13586409771658381 0 0.1107813868236939 0.1261253583884866 0 0.093989139172761998 0.13586409771658381 0 0.1214329880652753 0.13492080436459461 0 0.1107813868236939 0.1261253583884866 0 0.1214329880652753 0.13492080436459461 0 0.12912469052369591 0.1215541264122493 0 0.1214329880652753 0.13492080436459461 0 0.14887683695778881 0.1339775110126088 0 0.12912469052369591 0.1215541264122493 0 0.1214329880652753 0.13492080436459461 0 0.14887683695778881 0.1339775110126088 0 0.13428360934926181 0.15011916444648901 0 0.1214329880652753 0.13492080436459461 0 0.14887683695778881 0.1339775110126088 0 0.14887683695778881 0.1339775110126088 0 0.14399047736256479 0.1174506220742596 0 0.14887683695778881 0.1339775110126088 0 0.15736311458778851 0.16268022213278921 0 0.14887683695778881 0.1339775110126088 0 0.13428360934926181 0.15011916444648901 0 0.15736311458778851 0.16268022213278921 0 0.1125780821027394 0.1516271274796788 0 0.13428360934926181 0.15011916444648901 0 0.1311670250327171 0.16739015724277351 0 0.1311670250327171 0.16739015724277351 0 0.12996447077162951 0.18655620125725311 0 0.14975596796269469 0.18315318700586811 0 0.1311670250327171 0.16739015724277351 0 0.14975596796269469 0.18315318700586811 0 0.1311670250327171 0.16739015724277351 0 0.14975596796269469 0.18315318700586811 0 0.15736311458778851 0.16268022213278921 0 0.13428360934926181 0.15011916444648901 0 0.1311670250327171 0.16739015724277351 0 0.15736311458778851 0.16268022213278921 0 0.15736311458778851 0.16268022213278921 0 0.1768094201995728 0.1722128868422394 0 0.17285918811573581 0.15625359736987171 0 0.15736311458778851 0.16268022213278921 0 0.1768094201995728 0.1722128868422394 0 0.16584939221778741 0.19138293325297009 0 0.15736311458778851 0.16268022213278921 0 0.16584939221778741 0.19138293325297009 0 0.14975596796269469 0.18315318700586811 0 0.15736311458778851 0.16268022213278921 0 0.16584939221778741 0.19138293325297009 0 0.1768094201995728 0.1722128868422394 0 0.16584939221778741 0.19138293325297009 0 0.1768094201995728 0.1722128868422394 0 0.16584939221778741 0.19138293325297009 0 0.1844417781694678 0.19424764872600209 0 0.1768094201995728 0.1722128868422394 0 0.1844417781694678 0.19424764872600209 0 0.19470962495045599 0.168956692956271 0 0.1768094201995728 0.1722128868422394 0 0.18776944818135929 0.1530428404315092 0 0.1768094201995728 0.1722128868422394 0 0.17285918811573581 0.15625359736987171 0 0.18776944818135929 0.1530428404315092 0 0.1768094201995728 0.1722128868422394 0 0.18776944818135929 0.1530428404315092 0 0.19470962495045599 0.168956692956271 0 0.17285918811573581 0.15625359736987171 0 0.17709310291946739 0.13300766832749891 0 0.18776944818135929 0.1530428404315092 0 0.1866930490288588 0.12703253422057989 0 0.17709310291946739 0.13300766832749891 0 0.17854276971843239 0.1233172163296401 0 0.17709310291946739 0.13300766832749891 0 0.16837534816006999 0.11884179722547419 0 0.17854276971843239 0.1233172163296401 0 0.14887683695778881 0.1339775110126088 0 0.17709310291946739 0.13300766832749891 0 0.16339054528446789 0.14529225780325641 0 0.14887683695778881 0.1339775110126088 0 0.17709310291946739 0.13300766832749891 0 0.1577610861918583 0.1224796992451784 0 0.14887683695778881 0.1339775110126088 0 0.17709310291946739 0.13300766832749891 0 0.15736311458778851 0.16268022213278921 0 0.17285918811573581 0.15625359736987171 0 0.16339054528446789 0.14529225780325641 0 0.14887683695778881 0.1339775110126088 0 0.15736311458778851 0.16268022213278921 0 0.16339054528446789 0.14529225780325641 0 0.17285918811573581 0.15625359736987171 0 0.17709310291946739 0.13300766832749891 0 0.16339054528446789 0.14529225780325641 0 0.14953261231820489 0.2452533771335165 0 0.14276691833286489 0.23175619656796731 0 0.13122568139040239 0.2519428282254651 0 0.14953261231820489 0.2452533771335165 0 0.14276691833286489 0.23175619656796731 0 0.1583580250602083 0.22796613818656211 0 0.14276691833286489 0.23175619656796731 0 0.13122568139040239 0.2519428282254651 0 0.12583423215518319 0.23459787797161591 0 0.14276691833286489 0.23175619656796731 0 0.13122568139040239 0.2519428282254651 0 0.12583423215518319 0.23459787797161591 0 0.14276691833286489 0.23175619656796731 0 0.13151560086974989 0.21569004199298589 0 0.14276691833286489 0.23175619656796731 0 0.1543081552753256 0.21156956491046841 0 0.1583580250602083 0.22796613818656211 0 0.14276691833286489 0.23175619656796731 0 0.1543081552753256 0.21156956491046841 0 0.13151560086974989 0.21569004199298589 0 0.14276691833286489 0.23175619656796731 0 0.1543081552753256 0.21156956491046841 0 0.1543081552753256 0.21156956491046841 0 0.13151560086974989 0.21569004199298589 0 0.13866115193810369 0.1988247161481588 0 0.11840869754852509 0.20035290941287359 0 0.13151560086974989 0.21569004199298589 0 0.13866115193810369 0.1988247161481588 0 0.12996447077162951 0.18655620125725311 0 0.14975596796269469 0.18315318700586811 0 0.13866115193810369 0.1988247161481588 0 0.11840869754852509 0.20035290941287359 0 0.12996447077162951 0.18655620125725311 0 0.13866115193810369 0.1988247161481588 0 0.14975596796269469 0.18315318700586811 0 0.1521436668484776 0.19623260032936621 0 0.16584939221778741 0.19138293325297009 0 0.14975596796269469 0.18315318700586811 0 0.13866115193810369 0.1988247161481588 0 0.1521436668484776 0.19623260032936621 0 0.1543081552753256 0.21156956491046841 0 0.13866115193810369 0.1988247161481588 0 0.1521436668484776 0.19623260032936621 0 0.1543081552753256 0.21156956491046841 0 0.1521436668484776 0.19623260032936621 0 0.16584939221778741 0.19138293325297009 0 0.1543081552753256 0.21156956491046841 0 0.16584939221778741 0.19138293325297009 0 0.16584939221778741 0.19138293325297009 0 0.1844417781694678 0.19424764872600209 0 0.17417393138848261 0.21953860449573409 0 0.1844417781694678 0.19424764872600209 0 0.17417393138848261 0.21953860449573409 0 0.1962007281551649 0.2183812629531425 0 0.1844417781694678 0.19424764872600209 0 0.17417393138848261 0.21953860449573409 0 0.16584939221778741 0.19138293325297009 0 0.17417393138848261 0.21953860449573409 0 0.1543081552753256 0.21156956491046841 0 0.16584939221778741 0.19138293325297009 0 0.17417393138848261 0.21953860449573409 0 0.1583580250602083 0.22796613818656211 0 0.17417393138848261 0.21953860449573409 0 0.1666530113961299 0.23806354540412281 0 0.1543081552753256 0.21156956491046841 0 0.1583580250602083 0.22796613818656211 0 0.17417393138848261 0.21953860449573409 0 0.17417393138848261 0.21953860449573409 0 0.1666530113961299 0.23806354540412281 0 0.17417393138848261 0.21953860449573409 0 0.1788874318502679 0.23548084065838609 0 0.1666530113961299 0.23806354540412281 0 0.17417393138848261 0.21953860449573409 0 0.1788874318502679 0.23548084065838609 0 0.17417393138848261 0.21953860449573409 0 0.1788874318502679 0.23548084065838609 0 0.1962007281551649 0.2183812629531425 0 0.1748650477234398 0.2394535717158319 0 0.1788874318502679 0.23548084065838609 0 0.1666530113961299 0.23806354540412281 0 0.1748650477234398 0.2394535717158319 0 0.1788874318502679 0.23548084065838609 0 0.17494309726484791 0.2453188763195476 0 0.1788874318502679 0.23548084065838609 0 0.17494309726484791 0.2453188763195476 0 0.17828623373862171 0.25254967586398591 0 0.1788874318502679 0.23548084065838609 0 0.18737767064019339 0.2641969494110829 0 0.1748650477234398 0.2394535717158319 0 0.1788874318502679 0.23548084065838609 0 0.17494309726484791 0.2453188763195476 0 0.17132064302414021 0.24562659744895199 0 0.171356129987773 0.25348369591058117 0 0.1748650477234398 0.2394535717158319 0 0.17494309726484791 0.2453188763195476 0 0.17132064302414021 0.24562659744895199 0 0.14953261231820489 0.2452533771335165 0 0.1666530113961299 0.23806354540412281 0 0.1591320914037804 0.25658848631251258 0 0.14953261231820489 0.2452533771335165 0 0.1583580250602083 0.22796613818656211 0 0.1666530113961299 0.23806354540412281 0 0.16832310546349971 0.24771796654975209 0 0.17132064302414021 0.24562659744895199 0 0.171356129987773 0.25348369591058117 0 0.1666530113961299 0.23806354540412281 0 0.1591320914037804 0.25658848631251258 0 0.16832310546349971 0.24771796654975209 0 0.1666530113961299 0.23806354540412281 0 0.1639626374459556 0.25369802743535241 0 0.1666530113961299 0.23806354540412281 0 0.1639626374459556 0.25369802743535241 0 0.1591320914037804 0.25658848631251258 0 0.16832310546349971 0.24771796654975209 0 0.17132064302414021 0.24562659744895199 0 0.1666530113961299 0.23806354540412281 0 0.1748650477234398 0.2394535717158319 0 0.17132064302414021 0.24562659744895199 0 0.1666530113961299 0.23806354540412281 0 0.21841260707924079 0.24787849365120351 0 0.20149263876269899 0.2490339844868433 0 0.20846504295291571 0.2295912129597131 0 0.21841260707924079 0.24787849365120351 0 0.20846504295291571 0.2295912129597131 0 0.22753365594074271 0.23226686392712151 0 0.1788874318502679 0.23548084065838609 0 0.20149263876269899 0.2490339844868433 0 0.18737767064019339 0.2641969494110829 0 0.1788874318502679 0.23548084065838609 0 0.20149263876269899 0.2490339844868433 0 0.20846504295291571 0.2295912129597131 0 0.1788874318502679 0.23548084065838609 0 0.20846504295291571 0.2295912129597131 0 0.1962007281551649 0.2183812629531425 0 0.1788874318502679 0.23548084065838609 0 0.1962007281551649 0.2183812629531425 0 0.1962007281551649 0.2183812629531425 0 0.2135140244600576 0.2012816852478943 0 0.20846504295291571 0.2295912129597131 0 0.2135140244600576 0.2012816852478943 0 0.22587745015449329 0.2155760325110502 0 0.20846504295291571 0.2295912129597131 0 0.1962007281551649 0.2183812629531425 0 0.2135140244600576 0.2012816852478943 0 0.1844417781694678 0.19424764872600209 0 0.1962007281551649 0.2183812629531425 0 0.2135140244600576 0.2012816852478943 0 0.1844417781694678 0.19424764872600209 0 0.2135140244600576 0.2012816852478943 0 0.2079247611249643 0.18018719905815939 0 0.2135140244600576 0.2012816852478943 0 0.2079247611249643 0.18018719905815939 0 0.23082732076495061 0.18418210754264661 0 0.2135140244600576 0.2012816852478943 0 0.23082732076495061 0.18418210754264661 0 0.2135140244600576 0.2012816852478943 0 0.24157592692321239 0.20102918882948601 0 0.23082732076495061 0.18418210754264661 0 0.24157592692321239 0.20102918882948601 0 0.23082732076495061 0.18418210754264661 0 0.24157592692321239 0.20102918882948601 0 0.24181394639938389 0.18517864377364759 0 0.25096185484086497 0.18748103319587661 0 0.24157592692321239 0.20102918882948601 0 0.23082732076495061 0.18418210754264661 0 0.24181394639938389 0.18517864377364759 0 0.24157592692321239 0.20102918882948601 0 0.25096185484086497 0.18748103319587661 0 0.25692254755214899 0.19625362416250361 0 0.24157592692321239 0.20102918882948601 0 0.24035615561101209 0.21854709006987949 0 0.25140047973087548 0.2169793571628218 0 0.24157592692321239 0.20102918882948601 0 0.24035615561101209 0.21854709006987949 0 0.22587745015449329 0.2155760325110502 0 0.2135140244600576 0.2012816852478943 0 0.24157592692321239 0.20102918882948601 0 0.22587745015449329 0.2155760325110502 0 0.24035615561101209 0.21854709006987949 0 0.22587745015449329 0.2155760325110502 0 0.22753365594074271 0.23226686392712151 0 0.20846504295291571 0.2295912129597131 0 0.22587745015449329 0.2155760325110502 0 0.22753365594074271 0.23226686392712151 0 0.24035615561101209 0.21854709006987949 0 0.22753365594074271 0.23226686392712151 0 0.2408850773256794 0.23609943885122481 0 0.24035615561101209 0.21854709006987949 0 0.2408850773256794 0.23609943885122481 0 0.25556301788750557 0.2273286642810339 0 0.24035615561101209 0.21854709006987949 0 0.25556301788750557 0.2273286642810339 0 0.25140047973087548 0.2169793571628218 0 0.2408850773256794 0.23609943885122481 0 0.231750085001796 0.2465167433246036 0 0.24356618594519031 0.25228373232622581 0 0.2408850773256794 0.23609943885122481 0 0.24356618594519031 0.25228373232622581 0 0.25010503738555478 0.24259371671335209 0 0.2408850773256794 0.23609943885122481 0 0.25010503738555478 0.24259371671335209 0 0.25556301788750557 0.2273286642810339 0 0.22753365594074271 0.23226686392712151 0 0.2408850773256794 0.23609943885122481 0 0.231750085001796 0.2465167433246036 0 0.21841260707924079 0.24787849365120351 0 0.22753365594074271 0.23226686392712151 0 0.231750085001796 0.2465167433246036 0 0.20497747173144229 0.1436657371865393 0 0.21086623431790841 0.1528956280684238 0 0.20320904086342431 0.16391619207060729 0 0.20497747173144229 0.1436657371865393 0 0.21086623431790841 0.1528956280684238 0 0.21086623431790841 0.1528956280684238 0 0.21917467245504241 0.14093776455188739 0 0.22370457905656779 0.1554340634577904 0 0.20497747173144229 0.1436657371865393 0 0.21086623431790841 0.1528956280684238 0 0.21917467245504241 0.14093776455188739 0 0.21086623431790841 0.1528956280684238 0 0.21917467245504241 0.14093776455188739 0 0.20904055294359919 0.1336578738616101 0 0.21917467245504241 0.14093776455188739 0 0.22215804802789371 0.13664396139298551 0 0.20904055294359919 0.1336578738616101 0 0.21917467245504241 0.14093776455188739 0 0.20497747173144229 0.1436657371865393 0 0.20904055294359919 0.1336578738616101 0 0.21917467245504241 0.14093776455188739 0 0.21236938067208411 0.12545856619354839 0 0.22215804802789371 0.13664396139298551 0 0.21236938067208411 0.12545856619354839 0 0.20904055294359919 0.1336578738616101 0 0.22215804802789371 0.13664396139298551 0 0.21236938067208411 0.12545856619354839 0 0.20904055294359919 0.1336578738616101 0 0.20904055294359919 0.1336578738616101 0 0.19872947616314399 0.13387279402077801 0 0.20181847652677501 0.12846986252900869 0 0.21236938067208411 0.12545856619354839 0 0.20904055294359919 0.1336578738616101 0 0.20181847652677501 0.12846986252900869 0 0.20904055294359919 0.1336578738616101 0 0.20181847652677501 0.12846986252900869 0 0.20497747173144229 0.1436657371865393 0 0.20904055294359919 0.1336578738616101 0 0.20497747173144229 0.1436657371865393 0 0.20904055294359919 0.1336578738616101 0 0.19872947616314399 0.13387279402077801 0 0.17709310291946739 0.13300766832749891 0 0.19872947616314399 0.13387279402077801 0 0.18776944818135929 0.1530428404315092 0 0.20497747173144229 0.1436657371865393 0 0.19872947616314399 0.13387279402077801 0 0.1866930490288588 0.12703253422057989 0 0.17709310291946739 0.13300766832749891 0 0.19872947616314399 0.13387279402077801 0 0.19872947616314399 0.13387279402077801 0 0.20181847652677501 0.12846986252900869 0 0.19872947616314399 0.13387279402077801 0 0.20181847652677501 0.12846986252900869 0 0.19630065585608991 0.1300659252471445 0 0.19872947616314399 0.13387279402077801 0 0.19630065585608991 0.1300659252471445 0 0.1866930490288588 0.12703253422057989 0 0.19872947616314399 0.13387279402077801 0 0.19630065585608991 0.1300659252471445 0 0.20497747173144229 0.1436657371865393 0 0.18776944818135929 0.1530428404315092 0 0.19470962495045599 0.168956692956271 0 0.20497747173144229 0.1436657371865393 0 0.19872947616314399 0.13387279402077801 0 0.18776944818135929 0.1530428404315092 0 0.19872947616314399 0.13387279402077801 0 0.18776944818135929 0.1530428404315092 0 0.20497747173144229 0.1436657371865393 0 0.19470962495045599 0.168956692956271 0 0.20497747173144229 0.1436657371865393 0 0.19470962495045599 0.168956692956271 0 0.20320904086342431 0.16391619207060729 0 0.19470962495045599 0.168956692956271 0 0.2079247611249643 0.18018719905815939 0 0.20320904086342431 0.16391619207060729 0 0.1844417781694678 0.19424764872600209 0 0.19470962495045599 0.168956692956271 0 0.2079247611249643 0.18018719905815939 0 0.1844417781694678 0.19424764872600209 0 0.19470962495045599 0.168956692956271 0 0.21086623431790841 0.1528956280684238 0 0.20320904086342431 0.16391619207060729 0 0.2208467775414294 0.16853886780553529 0 0.21086623431790841 0.1528956280684238 0 0.2208467775414294 0.16853886780553529 0 0.22370457905656779 0.1554340634577904 0 0.2079247611249643 0.18018719905815939 0 0.20320904086342431 0.16391619207060729 0 0.2208467775414294 0.16853886780553529 0 0.21086623431790841 0.1528956280684238 0 0.2208467775414294 0.16853886780553529 0 0.21086623431790841 0.1528956280684238 0 0.20320904086342431 0.16391619207060729 0 0.2208467775414294 0.16853886780553529 0 0.23276552945806661 0.1628388057214942 0 0.22370457905656779 0.1554340634577904 0 0.2208467775414294 0.16853886780553529 0 0.23053412189689709 0.17019828773544429 0 0.23276552945806661 0.1628388057214942 0 0.23053412189689709 0.17019828773544429 0 0.23276552945806661 0.1628388057214942 0 0.23700976475696689 0.1694324350274036 0 0.23276552945806661 0.1628388057214942 0 0.23732753427187131 0.15397795512720039 0 0.22370457905656779 0.1554340634577904 0 0.2208467775414294 0.16853886780553529 0 0.23053412189689709 0.17019828773544429 0 0.23082732076495061 0.18418210754264661 0 0.2208467775414294 0.16853886780553529 0 0.23082732076495061 0.18418210754264661 0 0.2079247611249643 0.18018719905815939 0 0.2208467775414294 0.16853886780553529 0 0.23082732076495061 0.18418210754264661 0 0.23053412189689709 0.17019828773544429 0 0.23082732076495061 0.18418210754264661 0 0.23700976475696689 0.1694324350274036 0 0.24069716399492569 0.17443409952167299 0 0.24826796332043391 0.17979306739518369 0 0.2570848785433778 0.1721788521524327 0 0.24069716399492569 0.17443409952167299 0 0.2570848785433778 0.1721788521524327 0 0.23082732076495061 0.18418210754264661 0 0.24181394639938389 0.18517864377364759 0 0.24069716399492569 0.17443409952167299 0 0.23082732076495061 0.18418210754264661 0 0.24069716399492569 0.17443409952167299 0 0.23700976475696689 0.1694324350274036 0 0.23082732076495061 0.18418210754264661 0 0.24069716399492569 0.17443409952167299 0 0.24181394639938389 0.18517864377364759 0 0.24826796332043391 0.17979306739518369 0 0.25096185484086497 0.18748103319587661 0 0.24181394639938389 0.18517864377364759 0 0.24069716399492569 0.17443409952167299 0 0.24826796332043391 0.17979306739518369 0 0.23732753427187131 0.15397795512720039 0 0.25680141540481938 0.16796710591659411 0 0.24402545139701359 0.161631586345304 0 0.23732753427187131 0.15397795512720039 0 0.25680141540481938 0.16796710591659411 0 0.24069716399492569 0.17443409952167299 0 0.24689640026790671 0.16831138779212901 0 0.2570848785433778 0.1721788521524327 0 0.23276552945806661 0.1628388057214942 0 0.24402545139701359 0.161631586345304 0 0.23732753427187131 0.15397795512720039 0 0.24402545139701359 0.161631586345304 0 0.23732753427187131 0.15397795512720039 0 0.24069716399492569 0.17443409952167299 0 0.23700976475696689 0.1694324350274036 0 0.24689640026790671 0.16831138779212901 0 0.23276552945806661 0.1628388057214942 0 0.23700976475696689 0.1694324350274036 0 0.24402545139701359 0.161631586345304 0 0.23700976475696689 0.1694324350274036 0 0.24689640026790671 0.16831138779212901 0 0.24402545139701359 0.161631586345304 0 0.24689640026790671 0.16831138779212901 0 0.24402545139701359 0.161631586345304 0 0.25680141540481938 0.16796710591659411 0 0.24069716399492569 0.17443409952167299 0 0.24689640026790671 0.16831138779212901 0 0.23732753427187131 0.15397795512720039 0 0.22215804802789371 0.13664396139298551 0 0.24689748716589169 0.13668034068660331 0 0.23732753427187131 0.15397795512720039 0 0.24689748716589169 0.13668034068660331 0 0.2601429464355336 0.15325935293470719 0 0.23732753427187131 0.15397795512720039 0 0.22215804802789371 0.13664396139298551 0 0.23732753427187131 0.15397795512720039 0 0.21917467245504241 0.14093776455188739 0 0.23732753427187131 0.15397795512720039 0 0.21917467245504241 0.14093776455188739 0 0.22370457905656779 0.1554340634577904 0 0.23732753427187131 0.15397795512720039 0 0.21917467245504241 0.14093776455188739 0 0.22215804802789371 0.13664396139298551 0 0.21236938067208411 0.12545856619354839 0 0.22215804802789371 0.13664396139298551 0 0.23365202789624959 0.1201013284384997 0 0.22215804802789371 0.13664396139298551 0 0.24689748716589169 0.13668034068660331 0 0.23365202789624959 0.1201013284384997 0 0.22215804802789371 0.13664396139298551 0 0.23365202789624959 0.1201013284384997 0 0.21917467245504241 0.14093776455188739 0 0.22215804802789371 0.13664396139298551 0 0.24689748716589169 0.13668034068660331 0 0.2485501070929089 0.1191882429421139 0 0.23365202789624959 0.1201013284384997 0 0.24689748716589169 0.13668034068660331 0 0.23365202789624959 0.1201013284384997 0 0.24304896194163839 0.1065768545320899 0 0.23381975300694871 0.1025864079887793 0 0.23365202789624959 0.1201013284384997 0 0.2485501070929089 0.1191882429421139 0 0.24304896194163839 0.1065768545320899 0 0.25513117456964352 0.1062350585458208 0 0.2485501070929089 0.1191882429421139 0 0.24304896194163839 0.1065768545320899 0 0.23365202789624959 0.1201013284384997 0 0.24304896194163839 0.1065768545320899 0 0.23365202789624959 0.1201013284384997 0 0.24304896194163839 0.1065768545320899 0 0.23381975300694871 0.1025864079887793 0 0.25244589598702583 0.093052380625679054 0 0.23381975300694871 0.1025864079887793 0 0.22584541507168079 0.092265454022949223 0 0.25244589598702583 0.093052380625679054 0 0.24304896194163839 0.1065768545320899 0 0.25244589598702583 0.093052380625679054 0 0.23381975300694871 0.1025864079887793 0 0.2209825566030523 0.10424326602851609 0 0.23365202789624959 0.1201013284384997 0 0.23381975300694871 0.1025864079887793 0 0.2209825566030523 0.10424326602851609 0 0.22584541507168079 0.092265454022949223 0 0.2209825566030523 0.10424326602851609 0 0.2179366517400578 0.10027776599344849 0 0.2209825566030523 0.10424326602851609 0 0.22584541507168079 0.092265454022949223 0 0.2209825566030523 0.10424326602851609 0 0.2179366517400578 0.10027776599344849 0 0.22584541507168079 0.092265454022949223 0 0.21236938067208411 0.12545856619354839 0 0.2209825566030523 0.10424326602851609 0 0.23365202789624959 0.1201013284384997 0 0.2209825566030523 0.10424326602851609 0 0.23365202789624959 0.1201013284384997 0 0.21236938067208411 0.12545856619354839 0 0.2209825566030523 0.10424326602851609 0 0.2070290089386356 0.1193561861473444 0 0.2070290089386356 0.1193561861473444 0 0.2179366517400578 0.10027776599344849 0 0.21236938067208411 0.12545856619354839 0 0.2209825566030523 0.10424326602851609 0 0.21236938067208411 0.12545856619354839 0 0.20181847652677501 0.12846986252900869 0 0.2070290089386356 0.1193561861473444 0 0.20181847652677501 0.12846986252900869 0 0.2070290089386356 0.1193561861473444 0 0.21236938067208411 0.12545856619354839 0 0.2070290089386356 0.1193561861473444 0 0.2209825566030523 0.10424326602851609 0 0.2070290089386356 0.1193561861473444 0 0.2179366517400578 0.10027776599344849 0 0.2070290089386356 0.1193561861473444 0 0.2179366517400578 0.10027776599344849 0 0.20533665370800289 0.1017162195105626 0 0.2179366517400578 0.10027776599344849 0 0.2110637689994003 0.091828166044458259 0 0.22584541507168079 0.092265454022949223 0 0.2179366517400578 0.10027776599344849 0 0.20533665370800289 0.1017162195105626 0 0.2110637689994003 0.091828166044458259 0 0.2179366517400578 0.10027776599344849 0 0.2110637689994003 0.091828166044458259 0 0.20362333758179721 0.09592360215689269 0 0.20533665370800289 0.1017162195105626 0 0.2110637689994003 0.091828166044458259 0 0.2070290089386356 0.1193561861473444 0 0.20533665370800289 0.1017162195105626 0 0.19386327257216349 0.1043118538599872 0 0.20533665370800289 0.1017162195105626 0 0.19843742196656561 0.098659349645111222 0 0.19386327257216349 0.1043118538599872 0 0.20362333758179721 0.09592360215689269 0 0.19843742196656561 0.098659349645111222 0 0.1996555056532201 0.091490673427439398 0 0.20362333758179721 0.09592360215689269 0 0.20533665370800289 0.1017162195105626 0 0.19843742196656561 0.098659349645111222 0 0.1996555056532201 0.091490673427439398 0 0.18488111528520451 0.10685895814173441 0 0.18701897933715261 0.096741055042958574 0 0.19843742196656561 0.098659349645111222 0 0.1996555056532201 0.091490673427439398 0 0.18488111528520451 0.10685895814173441 0 0.1996555056532201 0.091490673427439398 0 0.18488111528520451 0.10685895814173441 0 0.19386327257216349 0.1043118538599872 0 0.18961408497240831 0.110719377881787 0 0.18488111528520451 0.10685895814173441 0 0.19843742196656561 0.098659349645111222 0 0.19386327257216349 0.1043118538599872 0 0.18488111528520451 0.10685895814173441 0 0.20181847652677501 0.12846986252900869 0 0.18411534335686641 0.1157527365658864 0 0.19386327257216349 0.1043118538599872 0 0.18961408497240831 0.110719377881787 0 0.1955966086753988 0.11595396295954009 0 0.18961408497240831 0.110719377881787 0 0.1955966086753988 0.11595396295954009 0 0.18411534335686641 0.1157527365658864 0 0.20181847652677501 0.12846986252900869 0 0.1955966086753988 0.11595396295954009 0 0.18411534335686641 0.1157527365658864 0 0.20181847652677501 0.12846986252900869 0 0.19630065585608991 0.1300659252471445 0 0.18411534335686641 0.1157527365658864 0 0.1866930490288588 0.12703253422057989 0 0.19630065585608991 0.1300659252471445 0 0.18411534335686641 0.1157527365658864 0 0.20181847652677501 0.12846986252900869 0 0.2070290089386356 0.1193561861473444 0 0.1955966086753988 0.11595396295954009 0 0.2070290089386356 0.1193561861473444 0 0.19386327257216349 0.1043118538599872 0 0.1955966086753988 0.11595396295954009 0 0.2070290089386356 0.1193561861473444 0 0.19386327257216349 0.1043118538599872 0 0.190307811557094 0.065848449852526927 0 0.20573871747785549 0.085162931370429018 0 0.20425730163472969 0.056535555477401647 0 0.190307811557094 0.065848449852526927 0 0.20573871747785549 0.085162931370429018 0 0.190307811557094 0.065848449852526927 0 0.18762704384774159 0.079800563564754345 0 0.20573871747785549 0.085162931370429018 0 0.18762704384774159 0.079800563564754345 0 0.19586118661271579 0.091378425434566465 0 0.20573871747785549 0.085162931370429018 0 0.19586118661271579 0.091378425434566465 0 0.1996555056532201 0.091490673427439398 0 0.18701897933715261 0.096741055042958574 0 0.19586118661271579 0.091378425434566465 0 0.18701897933715261 0.096741055042958574 0 0.18697511259490299 0.089516710579921333 0 0.18762704384774159 0.079800563564754345 0 0.19586118661271579 0.091378425434566465 0 0.18697511259490299 0.089516710579921333 0 0.19586118661271579 0.091378425434566465 0 0.1996555056532201 0.091490673427439398 0 0.20573871747785549 0.085162931370429018 0 0.19586118661271579 0.091378425434566465 0 0.1996555056532201 0.091490673427439398 0 0.1996555056532201 0.091490673427439398 0 0.20573871747785549 0.085162931370429018 0 0.1996555056532201 0.091490673427439398 0 0.20573871747785549 0.085162931370429018 0 0.2110637689994003 0.091828166044458259 0 0.1996555056532201 0.091490673427439398 0 0.2110637689994003 0.091828166044458259 0 0.20362333758179721 0.09592360215689269 0 0.1996555056532201 0.091490673427439398 0 0.2110637689994003 0.091828166044458259 0 0.20573871747785549 0.085162931370429018 0 0.2110637689994003 0.091828166044458259 0 0.2110637689994003 0.091828166044458259 0 0.22584541507168079 0.092265454022949223 0 0.20573871747785549 0.085162931370429018 0 0.2110637689994003 0.091828166044458259 0 0.22079508848582721 0.080347437221244961 0 0.20573871747785549 0.085162931370429018 0 0.2256370960416432 0.064464686671064184 0 0.20573871747785549 0.085162931370429018 0 0.2256370960416432 0.064464686671064184 0 0.20425730163472969 0.056535555477401647 0 0.20573871747785549 0.085162931370429018 0 0.2256370960416432 0.064464686671064184 0 0.22079508848582721 0.080347437221244961 0 0.2256370960416432 0.064464686671064184 0 0.22079508848582721 0.080347437221244961 0 0.23569044483855631 0.068015947997324702 0 0.22584541507168079 0.092265454022949223 0 0.23569044483855631 0.068015947997324702 0 0.22584541507168079 0.092265454022949223 0 0.22079508848582721 0.080347437221244961 0 0.23569044483855631 0.068015947997324702 0 0.2110637689994003 0.091828166044458259 0 0.22584541507168079 0.092265454022949223 0 0.22079508848582721 0.080347437221244961 0 0.22584541507168079 0.092265454022949223 0 0.2477663946351947 0.078357918266048876 0 0.23569044483855631 0.068015947997324702 0 0.22584541507168079 0.092265454022949223 0 0.2477663946351947 0.078357918266048876 0 0.25244589598702583 0.093052380625679054 0 0.22584541507168079 0.092265454022949223 0 0.25244589598702583 0.093052380625679054 0 0.23569044483855631 0.068015947997324702 0 0.25656045389062482 0.059112627339890603 0 0.2509897177165582 0.070498448047813717 0 0.2477663946351947 0.078357918266048876 0 0.23569044483855631 0.068015947997324702 0 0.2509897177165582 0.070498448047813717 0 0.23569044483855631 0.068015947997324702 0 0.24553547460543171 0.043766441971699953 0 0.2256370960416432 0.064464686671064184 0 0.23569044483855631 0.068015947997324702 0 0.24553547460543171 0.043766441971699953 0 0.23569044483855631 0.068015947997324702 0 0.24553547460543171 0.043766441971699953 0 0.25656045389062482 0.059112627339890603 0 0.2256370960416432 0.064464686671064184 0 0.24553547460543171 0.043766441971699953 0 0.24553547460543171 0.043766441971699953 0 0.22913918346662371 0.033274829617706073 0 0.24345244955096459 0.029488498618385289 0 0.24553547460543171 0.043766441971699953 0 0.24345244955096459 0.029488498618385289 0 0.25489883525781248 0.020703345573159691 0 0.24553547460543171 0.043766441971699953 0 0.22913918346662371 0.033274829617706073 0 0.2168914885008609 0.045503982729149933 0 0.22913918346662371 0.033274829617706073 0 0.2168914885008609 0.045503982729149933 0 0.2256370960416432 0.064464686671064184 0 0.24553547460543171 0.043766441971699953 0 0.2168914885008609 0.045503982729149933 0 0.24666420319168639 0.01542139876343003 0 0.2301876845731515 0.0022250632122473471 0 0.24311130928645741 -0.005463409046427151 0 0.24666420319168639 0.01542139876343003 0 0.2297620653858409 0.01691760108263499 0 0.2301876845731515 0.0022250632122473471 0 0.22913918346662371 0.033274829617706073 0 0.24666420319168639 0.01542139876343003 0 0.24345244955096459 0.029488498618385289 0 0.22913918346662371 0.033274829617706073 0 0.24666420319168639 0.01542139876343003 0 0.2297620653858409 0.01691760108263499 0 0.22913918346662371 0.033274829617706073 0 0.24666420319168639 0.01542139876343003 0 0.24666420319168639 0.01542139876343003 0 0.24345244955096459 0.029488498618385289 0 0.25489883525781248 0.020703345573159691 0 0.22913918346662371 0.033274829617706073 0 0.2297620653858409 0.01691760108263499 0 0.21324779508725131 0.016702537929435289 0 0.2297620653858409 0.01691760108263499 0 0.2301876845731515 0.0022250632122473471 0 0.21324779508725131 0.016702537929435289 0 0.21324779508725131 0.016702537929435289 0 0.1925679174992857 0.0043077106914305597 0 0.21191963030083841 -0.0024113053172400609 0 0.2301876845731515 0.0022250632122473471 0 0.21324779508725131 0.016702537929435289 0 0.21191963030083841 -0.0024113053172400609 0 0.22913918346662371 0.033274829617706073 0 0.21324779508725131 0.016702537929435289 0 0.20191274216380409 0.03992768638002539 0 0.21324779508725131 0.016702537929435289 0 0.19691263259589739 0.020820467345102501 0 0.20191274216380409 0.03992768638002539 0 0.19691263259589739 0.020820467345102501 0 0.1925679174992857 0.0043077106914305597 0 0.17992207563324869 0.022343934379518759 0 0.19691263259589739 0.020820467345102501 0 0.20191274216380409 0.03992768638002539 0 0.17992207563324869 0.022343934379518759 0 0.21324779508725131 0.016702537929435289 0 0.19691263259589739 0.020820467345102501 0 0.1925679174992857 0.0043077106914305597 0 0.2256370960416432 0.064464686671064184 0 0.20425730163472969 0.056535555477401647 0 0.2168914885008609 0.045503982729149933 0 0.20425730163472969 0.056535555477401647 0 0.2168914885008609 0.045503982729149933 0 0.20191274216380409 0.03992768638002539 0 0.22913918346662371 0.033274829617706073 0 0.2168914885008609 0.045503982729149933 0 0.20191274216380409 0.03992768638002539 0 0.22913918346662371 0.033274829617706073 0 0.20191274216380409 0.03992768638002539 0 0.20191274216380409 0.03992768638002539 0 0.17487690563633401 0.046533968334623768 0 0.190307811557094 0.065848449852526927 0 0.20425730163472969 0.056535555477401647 0 0.17487690563633401 0.046533968334623768 0 0.20425730163472969 0.056535555477401647 0 0.20191274216380409 0.03992768638002539 0 0.17487690563633401 0.046533968334623768 0 0.190307811557094 0.065848449852526927 0 0.17487690563633401 0.046533968334623768 0 0.16763517883160731 0.070948302271564262 0 0.190307811557094 0.065848449852526927 0 0.17487690563633401 0.046533968334623768 0 0.20191274216380409 0.03992768638002539 0 0.17487690563633401 0.046533968334623768 0 0.17992207563324869 0.022343934379518759 0 0.17487690563633401 0.046533968334623768 0 0.1603796395955521 0.02838810065565249 0 0.15524179467059751 0.051331862386012422 0 0.17487690563633401 0.046533968334623768 0 0.17992207563324869 0.022343934379518759 0 0.1603796395955521 0.02838810065565249 0 0.17487690563633401 0.046533968334623768 0 0.1603796395955521 0.02838810065565249 0 0.17487690563633401 0.046533968334623768 0 0.15524179467059751 0.051331862386012422 0 0.17487690563633401 0.046533968334623768 0 0.15524179467059751 0.051331862386012422 0 0.16763517883160731 0.070948302271564262 0 0.1925679174992857 0.0043077106914305597 0 0.17354728991198329 0.0029068343059747781 0 0.17992207563324869 0.022343934379518759 0 0.17354728991198329 0.0029068343059747781 0 0.17992207563324869 0.022343934379518759 0 0.16323000135621479 0.01253044391235518 0 0.17992207563324869 0.022343934379518759 0 0.1603796395955521 0.02838810065565249 0 0.16323000135621479 0.01253044391235518 0 0.1603796395955521 0.02838810065565249 0 0.16323000135621479 0.01253044391235518 0 0.14588237355477091 0.010242232976680719 0 0.17354728991198329 0.0029068343059747781 0 0.16323000135621479 0.01253044391235518 0 0.15641862808551901 -0.001228882756050856 0 0.14588237355477091 0.010242232976680719 0 0.13138510751398111 -0.0079036347022841107 0 0.15641862808551901 -0.001228882756050856 0 0.16323000135621479 0.01253044391235518 0 0.14588237355477091 0.010242232976680719 0 0.15641862808551901 -0.001228882756050856 0 0.1603796395955521 0.02838810065565249 0 0.14588237355477091 0.010242232976680719 0 0.1603796395955521 0.02838810065565249 0 0.14588237355477091 0.010242232976680719 0 0.14512826651764621 0.030349756578756409 0 0.14588237355477091 0.010242232976680719 0 0.14512826651764621 0.030349756578756409 0 0.13181535284950829 0.022009500972414942 0 0.1167144904564974 0.026418326068680539 0 0.13181535284950829 0.022009500972414942 0 0.13232217191780229 0.039777085903021488 0 0.14512826651764621 0.030349756578756409 0 0.13181535284950829 0.022009500972414942 0 0.13232217191780229 0.039777085903021488 0 0.14588237355477091 0.010242232976680719 0 0.13138510751398111 -0.0079036347022841107 0 0.14588237355477091 0.010242232976680719 0 0.13213487022227541 0.0082800473563394636 0 0.13138510751398111 -0.0079036347022841107 0 0.13213487022227541 0.0082800473563394636 0 0.12773595140078731 0.0024735933284422431 0 0.13138510751398111 -0.0079036347022841107 0 0.14588237355477091 0.010242232976680719 0 0.13181535284950829 0.022009500972414942 0 0.13213487022227541 0.0082800473563394636 0 0.12108946560642141 0.01154877377898424 0 0.13181535284950829 0.022009500972414942 0 0.13213487022227541 0.0082800473563394636 0 0.12108946560642141 0.01154877377898424 0 0.13213487022227541 0.0082800473563394636 0 0.12773595140078731 0.0024735933284422431 0 0.15524179467059751 0.051331862386012422 0 0.13232217191780229 0.039777085903021488 0 0.13761776913131249 0.056214300637891637 0 0.15524179467059751 0.051331862386012422 0 0.13761776913131249 0.056214300637891637 0 0.150192100333461 0.065984209206741959 0 0.1603796395955521 0.02838810065565249 0 0.14512826651764621 0.030349756578756409 0 0.15524179467059751 0.051331862386012422 0 0.14512826651764621 0.030349756578756409 0 0.15524179467059751 0.051331862386012422 0 0.13232217191780229 0.039777085903021488 0 0.1234093269503041 0.053135151783242469 0 0.13232217191780229 0.039777085903021488 0 0.13761776913131249 0.056214300637891637 0 0.1234093269503041 0.053135151783242469 0 0.13761776913131249 0.056214300637891637 0 0.12692345178439729 0.07084319391043982 0 0.13761776913131249 0.056214300637891637 0 0.12692345178439729 0.07084319391043982 0 0.150192100333461 0.065984209206741959 0 0.12692345178439729 0.07084319391043982 0 0.150192100333461 0.065984209206741959 0 0.14502875406654389 0.080596893271668732 0 0.150192100333461 0.065984209206741959 0 0.14502875406654389 0.080596893271668732 0 0.16763517883160731 0.070948302271564262 0 0.14502875406654389 0.080596893271668732 0 0.1433358377961387 0.097688413317619099 0 0.15891299345502169 0.091713579409896162 0 0.14502875406654389 0.080596893271668732 0 0.13123900241856071 0.088459768899363272 0 0.1433358377961387 0.097688413317619099 0 0.12692345178439729 0.07084319391043982 0 0.14502875406654389 0.080596893271668732 0 0.13123900241856071 0.088459768899363272 0 0.12574356414906299 0.1042783247926226 0 0.14399047736256479 0.1174506220742596 0 0.1433358377961387 0.097688413317619099 0 0.13123900241856071 0.088459768899363272 0 0.12574356414906299 0.1042783247926226 0 0.1433358377961387 0.097688413317619099 0 0.12574356414906299 0.1042783247926226 0 0.12912469052369591 0.1215541264122493 0 0.14399047736256479 0.1174506220742596 0 0.14887683695778881 0.1339775110126088 0 0.14399047736256479 0.1174506220742596 0 0.1577610861918583 0.1224796992451784 0 0.14887683695778881 0.1339775110126088 0 0.12912469052369591 0.1215541264122493 0 0.14399047736256479 0.1174506220742596 0 0.14399047736256479 0.1174506220742596 0 0.15456580580175391 0.1081392555232893 0 0.1577610861918583 0.1224796992451784 0 0.14399047736256479 0.1174506220742596 0 0.1433358377961387 0.097688413317619099 0 0.15456580580175391 0.1081392555232893 0 0.1433358377961387 0.097688413317619099 0 0.15456580580175391 0.1081392555232893 0 0.15891299345502169 0.091713579409896162 0 0.15456580580175391 0.1081392555232893 0 0.16641221018695751 0.10303561060276439 0 0.15891299345502169 0.091713579409896162 0 0.16641221018695751 0.10303561060276439 0 0.17739324058200201 0.090146798277405973 0 0.15891299345502169 0.091713579409896162 0 0.17709310291946739 0.13300766832749891 0 0.1577610861918583 0.1224796992451784 0 0.16837534816006999 0.11884179722547419 0 0.15456580580175391 0.1081392555232893 0 0.16641221018695751 0.10303561060276439 0 0.16837534816006999 0.11884179722547419 0 0.15456580580175391 0.1081392555232893 0 0.1577610861918583 0.1224796992451784 0 0.16837534816006999 0.11884179722547419 0 0.16837534816006999 0.11884179722547419 0 0.17854276971843239 0.1233172163296401 0 0.18411534335686641 0.1157527365658864 0 0.16641221018695751 0.10303561060276439 0 0.18411534335686641 0.1157527365658864 0 0.16641221018695751 0.10303561060276439 0 0.16837534816006999 0.11884179722547419 0 0.18411534335686641 0.1157527365658864 0 0.18961408497240831 0.110719377881787 0 0.18411534335686641 0.1157527365658864 0 0.18488111528520451 0.10685895814173441 0 0.1866930490288588 0.12703253422057989 0 0.17854276971843239 0.1233172163296401 0 0.18411534335686641 0.1157527365658864 0 0.16641221018695751 0.10303561060276439 0 0.18411534335686641 0.1157527365658864 0 0.17869333051835781 0.1007799758272333 0 0.16641221018695751 0.10303561060276439 0 0.17869333051835781 0.1007799758272333 0 0.17739324058200201 0.090146798277405973 0 0.18411534335686641 0.1157527365658864 0 0.17869333051835781 0.1007799758272333 0 0.18488111528520451 0.10685895814173441 0 0.17869333051835781 0.1007799758272333 0 0.18701897933715261 0.096741055042958574 0 0.17739324058200201 0.090146798277405973 0 0.17869333051835781 0.1007799758272333 0 0.18488111528520451 0.10685895814173441 0 0.18701897933715261 0.096741055042958574 0 0.18762704384774159 0.079800563564754345 0 0.18697511259490299 0.089516710579921333 0 0.17739324058200201 0.090146798277405973 0 0.18701897933715261 0.096741055042958574 0 0.18697511259490299 0.089516710579921333 0 0.17739324058200201 0.090146798277405973 0 0.18762704384774159 0.079800563564754345 0 0.17739324058200201 0.090146798277405973 0 0.16763517883160731 0.070948302271564262 0 0.190307811557094 0.065848449852526927 0 0.18762704384774159 0.079800563564754345 0 0.16763517883160731 0.070948302271564262 0 0.15524179467059751 0.051331862386012422 0 0.150192100333461 0.065984209206741959 0 0.16763517883160731 0.070948302271564262 0 0.14502875406654389 0.080596893271668732 0 0.16763517883160731 0.070948302271564262 0 0.15891299345502169 0.091713579409896162 0 0.17739324058200201 0.090146798277405973 0 0.16763517883160731 0.070948302271564262 0 0.15891299345502169 0.091713579409896162 0 0.1015092313666741 0.46885267931762442 0 0.09856111858623981 0.48220110895488177 0 0.085113728383667694 0.47407075850570468 0 0.09856111858623981 0.48220110895488177 0 0.1087338631646388 0.48948086548723768 0 0.1106038686939541 0.47496441608381762 0 0.1015092313666741 0.46885267931762442 0 0.09856111858623981 0.48220110895488177 0 0.1106038686939541 0.47496441608381762 0 0.09856111858623981 0.48220110895488177 0 0.099171959641662616 0.4981791176696525 0 0.1087338631646388 0.48948086548723768 0 0.099171959641662616 0.4981791176696525 0 0.1180890437532176 0.49570144938853022 0 0.099171959641662616 0.4981791176696525 0 0.09682727784289813 0.5 0 0.1125539615505905 0.49999999999999939 0 0.099171959641662616 0.4981791176696525 0 0.1087338631646388 0.48948086548723768 0 0.1180890437532176 0.49570144938853022 0 0.09856111858623981 0.48220110895488177 0 0.099171959641662616 0.4981791176696525 0 0.086533125229488153 0.48674796456480579 0 0.1180890437532176 0.49570144938853022 0 0.1106038686939541 0.47496441608381762 0 0.099171959641662616 0.4981791176696525 0 0.1125539615505905 0.49999999999999939 0 0.1180890437532176 0.49570144938853022 0 0.1087338631646388 0.48948086548723768 0 0.1180890437532176 0.49570144938853022 0 0.1106038686939541 0.47496441608381762 0 0.1125539615505905 0.49999999999999939 0 0.1180890437532176 0.49570144938853022 0 0.1125539615505905 0.49999999999999939 0 0.1196406352154659 0.50000000000000067 0 0.1180890437532176 0.49570144938853022 0 0.1196406352154659 0.50000000000000067 0 0.1180890437532176 0.49570144938853022 0 0.1180890437532176 0.49570144938853022 0 0.1232626025210715 0.47962859419113252 0 0.1106038686939541 0.47496441608381762 0 0.1232626025210715 0.47962859419113252 0 0.1106038686939541 0.47496441608381762 0 0.12759513619708221 0.46664877989488568 0 0.1106038686939541 0.47496441608381762 0 0.1151324701229109 0.46194043672083551 0 0.1031186936346911 0.45422738277910479 0 0.1106038686939541 0.47496441608381762 0 0.1151324701229109 0.46194043672083551 0 0.12759513619708221 0.46664877989488568 0 0.1151324701229109 0.46194043672083551 0 0.1192121819659164 0.45192116812553379 0 0.1031186936346911 0.45422738277910479 0 0.1151324701229109 0.46194043672083551 0 0.1192121819659164 0.45192116812553379 0 0.12759513619708221 0.46664877989488568 0 0.1192121819659164 0.45192116812553379 0 0.1168219467785717 0.42740703270861741 0 0.13595725424645819 0.4468779553736183 0 0.1192121819659164 0.45192116812553379 0 0.1084284855668544 0.44080338890191822 0 0.1031186936346911 0.45422738277910479 0 0.1192121819659164 0.45192116812553379 0 0.1084284855668544 0.44080338890191822 0 0.1168219467785717 0.42740703270861741 0 0.1084284855668544 0.44080338890191822 0 0.1031186936346911 0.45422738277910479 0 0.088030501340678025 0.43172035259367342 0 0.1031186936346911 0.45422738277910479 0 0.091026905563830557 0.46029793026709281 0 0.088030501340678025 0.43172035259367342 0 0.1106038686939541 0.47496441608381762 0 0.1031186936346911 0.45422738277910479 0 0.1015092313666741 0.46885267931762442 0 0.1106038686939541 0.47496441608381762 0 0.1031186936346911 0.45422738277910479 0 0.1015092313666741 0.46885267931762442 0 0.1031186936346911 0.45422738277910479 0 0.091026905563830557 0.46029793026709281 0 0.078374363370671468 0.45550459514373159 0 0.091026905563830557 0.46029793026709281 0 0.085113728383667694 0.47407075850570468 0 0.1015092313666741 0.46885267931762442 0 0.091026905563830557 0.46029793026709281 0 0.085113728383667694 0.47407075850570468 0 0.078374363370671468 0.45550459514373159 0 0.091026905563830557 0.46029793026709281 0 0.088030501340678025 0.43172035259367342 0 0.078374363370671468 0.45550459514373159 0 0.06814706788555637 0.43575275865951968 0 0.088030501340678025 0.43172035259367342 0 0.078374363370671468 0.45550459514373159 0 0.088030501340678025 0.43172035259367342 0 0.078374363370671468 0.45550459514373159 0 0.053311478262955313 0.46172382295177999 0 0.06814706788555637 0.43575275865951968 0 0.078374363370671468 0.45550459514373159 0 0.068718225400662469 0.47928883769378888 0 0.078374363370671468 0.45550459514373159 0 0.068718225400662469 0.47928883769378888 0 0.053311478262955313 0.46172382295177999 0 0.078374363370671468 0.45550459514373159 0 0.068718225400662469 0.47928883769378888 0 0.085113728383667694 0.47407075850570468 0 0.068718225400662469 0.47928883769378888 0 0.085113728383667694 0.47407075850570468 0 0.1015092313666741 0.46885267931762442 0 0.085113728383667694 0.47407075850570468 0 0.068718225400662469 0.47928883769378888 0 0.085113728383667694 0.47407075850570468 0 0.086533125229488153 0.48674796456480579 0 0.09856111858623981 0.48220110895488177 0 0.085113728383667694 0.47407075850570468 0 0.086533125229488153 0.48674796456480579 0 0.099171959641662616 0.4981791176696525 0 0.09682727784289813 0.5 0 0.081100594135205761 0.5 0 0.068718225400662469 0.47928883769378888 0 0.081100594135205761 0.5 0 0.086533125229488153 0.48674796456480579 0 0.099171959641662616 0.4981791176696525 0 0.081100594135205761 0.5 0 0.099171959641662616 0.4981791176696525 0 0.081100594135205761 0.5 0 0.086533125229488153 0.48674796456480579 0 0.068718225400662469 0.47928883769378888 0 0.060309723833859359 0.49999999999997319 0 0.068718225400662469 0.47928883769378888 0 0.081100594135205761 0.5 0 0.060309723833859359 0.49999999999997319 0 0.060309723833859359 0.49999999999997319 0 0.050891050234957387 0.48496256492318679 0 0.037064476467779148 0.50000000000000133 0 0.068718225400662469 0.47928883769378888 0 0.060309723833859359 0.49999999999997319 0 0.050891050234957387 0.48496256492318679 0 0.068718225400662469 0.47928883769378888 0 0.050891050234957387 0.48496256492318679 0 0.053311478262955313 0.46172382295177999 0 0.068718225400662469 0.47928883769378888 0 0.050891050234957387 0.48496256492318679 0 0.050891050234957387 0.48496256492318679 0 0.038461855878232823 0.47482627442724218 0 0.053311478262955313 0.46172382295177999 0 0.050891050234957387 0.48496256492318679 0 0.038461855878232823 0.47482627442724218 0 0.03306387506925329 0.49063629215258781 0 0.038461855878232823 0.47482627442724218 0 0.03306387506925329 0.49063629215258781 0 0.023923895755198338 0.46924348454627052 0 0.050891050234957387 0.48496256492318679 0 0.03306387506925329 0.49063629215258781 0 0.037064476467779148 0.50000000000000133 0 0.050891050234957387 0.48496256492318679 0 0.03306387506925329 0.49063629215258781 0 0.03306387506925329 0.49063629215258781 0 0.037064476467779148 0.50000000000000133 0 0.03306387506925329 0.49063629215258781 0 0.037064476467779148 0.50000000000000133 0 0.02035352320742273 0.5 0 0.03306387506925329 0.49063629215258781 0 0.018353222508159951 0.49531814607629449 0 0.02035352320742273 0.5 0 0.03306387506925329 0.49063629215258781 0 0.018353222508159951 0.49531814607629449 0 0.03306387506925329 0.49063629215258781 0 0.018353222508159951 0.49531814607629449 0 0.023923895755198338 0.46924348454627052 0 0.018353222508159951 0.49531814607629449 0 0.023923895755198338 0.46924348454627052 0 0.005006686924833483 0.47883435105617261 0 0.03306387506925329 0.49063629215258781 0 0.023923895755198338 0.46924348454627052 0 -0.0010394636373830389 0.46156839135186112 0 0.023923895755198338 0.46924348454627052 0 0.005006686924833483 0.47883435105617261 0 0.018353222508159951 0.49531814607629449 0 0.005006686924833483 0.47883435105617261 0 0.0036425699470663099 0.50000000000000022 0 0.018353222508159951 0.49531814607629449 0 0.02035352320742273 0.5 0 0.0036425699470663099 0.50000000000000022 0 -0.0048617928662866806 0.48882511462333661 0 0.005006686924833483 0.47883435105617261 0 0.0036425699470663099 0.50000000000000022 0 0.018353222508159951 0.49531814607629449 0 0.0036425699470663099 0.50000000000000022 0 -0.0096688337351077888 0.43518737276166031 0 0.014783916441143361 0.44785067693995328 0 0.0088949481809326297 0.42962804516099001 0 -0.0096688337351077888 0.43518737276166031 0 -0.0010394636373830389 0.46156839135186112 0 0.014783916441143361 0.44785067693995328 0 -0.0010394636373830389 0.46156839135186112 0 0.023923895755198338 0.46924348454627052 0 0.014783916441143361 0.44785067693995328 0 0.023923895755198338 0.46924348454627052 0 0.014783916441143361 0.44785067693995328 0 0.023923895755198338 0.46924348454627052 0 0.014783916441143361 0.44785067693995328 0 0.03538648274820308 0.45359631184323401 0 0.014783916441143361 0.44785067693995328 0 0.03538648274820308 0.45359631184323401 0 0.029529644837417979 0.42525207208252819 0 0.03538648274820308 0.45359631184323401 0 0.053311478262955313 0.46172382295177999 0 0.048580639521774473 0.43858287609485608 0 0.03538648274820308 0.45359631184323401 0 0.048580639521774473 0.43858287609485608 0 0.029529644837417979 0.42525207208252819 0 0.038461855878232823 0.47482627442724218 0 0.03538648274820308 0.45359631184323401 0 0.053311478262955313 0.46172382295177999 0 0.038461855878232823 0.47482627442724218 0 0.023923895755198338 0.46924348454627052 0 0.03538648274820308 0.45359631184323401 0 0.053311478262955313 0.46172382295177999 0 0.048580639521774473 0.43858287609485608 0 0.06814706788555637 0.43575275865951968 0 0.048580639521774473 0.43858287609485608 0 0.056346908752467367 0.41976576480584687 0 0.06814706788555637 0.43575275865951968 0 0.056346908752467367 0.41976576480584687 0 0.043885641663795397 0.40470818775342499 0 0.068469171063409162 0.4000531208199174 0 0.056346908752467367 0.41976576480584687 0 0.029529644837417979 0.42525207208252819 0 0.043885641663795397 0.40470818775342499 0 0.029529644837417979 0.42525207208252819 0 0.0247516766036926 0.40034955714721088 0 0.043885641663795397 0.40470818775342499 0 0.048580639521774473 0.43858287609485608 0 0.056346908752467367 0.41976576480584687 0 0.029529644837417979 0.42525207208252819 0 0.014783916441143361 0.44785067693995328 0 0.029529644837417979 0.42525207208252819 0 0.0088949481809326297 0.42962804516099001 0 0.029529644837417979 0.42525207208252819 0 0.0026210578660720301 0.40829700878198949 0 0.0247516766036926 0.40034955714721088 0 0.029529644837417979 0.42525207208252819 0 0.0026210578660720301 0.40829700878198949 0 0.0088949481809326297 0.42962804516099001 0 -0.0096688337351077888 0.43518737276166031 0 0.0026210578660720301 0.40829700878198949 0 0.0088949481809326297 0.42962804516099001 0 0.014910949467251191 0.38140664480231828 0 0.00037264731633979142 0.38217558503673832 0 0.005774776065040307 0.3645300477706111 0 0.014910949467251191 0.38140664480231828 0 0.00037264731633979142 0.38217558503673832 0 0.0026210578660720301 0.40829700878198949 0 0.014910949467251191 0.38140664480231828 0 0.00037264731633979142 0.38217558503673832 0 0.0026210578660720301 0.40829700878198949 0 0.014910949467251191 0.38140664480231828 0 0.0247516766036926 0.40034955714721088 0 0.0026210578660720301 0.40829700878198949 0 0.014910949467251191 0.38140664480231828 0 0.014910949467251191 0.38140664480231828 0 0.0247516766036926 0.40034955714721088 0 0.036718800627353283 0.38025321340371399 0 0.014910949467251191 0.38140664480231828 0 0.036718800627353283 0.38025321340371399 0 0.036718800627353283 0.38025321340371399 0 0.043885641663795397 0.40470818775342499 0 0.058526651787455322 0.37909978200510908 0 0.0247516766036926 0.40034955714721088 0 0.036718800627353283 0.38025321340371399 0 0.043885641663795397 0.40470818775342499 0 0.043885641663795397 0.40470818775342499 0 0.058526651787455322 0.37909978200510908 0 0.043885641663795397 0.40470818775342499 0 0.058526651787455322 0.37909978200510908 0 0.068469171063409162 0.4000531208199174 0 0.036718800627353283 0.38025321340371399 0 0.058526651787455322 0.37909978200510908 0 0.058526651787455322 0.37909978200510908 0 0.071784947017816764 0.3874889064942868 0 0.078605222722461551 0.37803781335971232 0 0.058526651787455322 0.37909978200510908 0 0.078605222722461551 0.37803781335971232 0 0.058526651787455322 0.37909978200510908 0 0.071784947017816764 0.3874889064942868 0 0.068469171063409162 0.4000531208199174 0 0.071784947017816764 0.3874889064942868 0 0.078605222722461551 0.37803781335971232 0 0.08153874249794095 0.3927649097924073 0 0.078605222722461551 0.37803781335971232 0 0.098683793657467711 0.37697584471431439 0 0.078605222722461551 0.37803781335971232 0 0.089731439849604439 0.38679450235663221 0 0.098683793657467711 0.37697584471431439 0 0.078605222722461551 0.37803781335971232 0 0.089731439849604439 0.38679450235663221 0 0.08153874249794095 0.3927649097924073 0 0.086617354394175922 0.39863984336071218 0 0.093234720788219885 0.40340610908035368 0 0.090468512261014572 0.39494232901019238 0 0.086617354394175922 0.39863984336071218 0 0.093234720788219885 0.40340610908035368 0 0.081227442029528335 0.4034460255598955 0 0.086617354394175922 0.39863984336071218 0 0.090468512261014572 0.39494232901019238 0 0.08153874249794095 0.3927649097924073 0 0.089731439849604439 0.38679450235663221 0 0.090468512261014572 0.39494232901019238 0 0.08153874249794095 0.3927649097924073 0 0.089731439849604439 0.38679450235663221 0 0.090468512261014572 0.39494232901019238 0 0.098104747128125933 0.39101494253770669 0 0.086617354394175922 0.39863984336071218 0 0.08153874249794095 0.3927649097924073 0 0.081227442029528335 0.4034460255598955 0 0.08153874249794095 0.3927649097924073 0 0.081227442029528335 0.4034460255598955 0 0.068469171063409162 0.4000531208199174 0 0.081227442029528335 0.4034460255598955 0 0.068469171063409162 0.4000531208199174 0 0.07946928754285093 0.41424557342483509 0 0.071784947017816764 0.3874889064942868 0 0.08153874249794095 0.3927649097924073 0 0.068469171063409162 0.4000531208199174 0 0.056346908752467367 0.41976576480584687 0 0.068469171063409162 0.4000531208199174 0 0.07946928754285093 0.41424557342483509 0 0.056346908752467367 0.41976576480584687 0 0.06814706788555637 0.43575275865951968 0 0.07946928754285093 0.41424557342483509 0 0.06814706788555637 0.43575275865951968 0 0.088030501340678025 0.43172035259367342 0 0.07946928754285093 0.41424557342483509 0 0.088030501340678025 0.43172035259367342 0 0.07946928754285093 0.41424557342483509 0 0.097686639310685761 0.40793611004361569 0 0.093234720788219885 0.40340610908035368 0 0.07946928754285093 0.41424557342483509 0 0.097686639310685761 0.40793611004361569 0 0.088030501340678025 0.43172035259367342 0 0.097686639310685761 0.40793611004361569 0 0.093234720788219885 0.40340610908035368 0 0.081227442029528335 0.4034460255598955 0 0.07946928754285093 0.41424557342483509 0 0.097686639310685761 0.40793611004361569 0 0.1168219467785717 0.42740703270861741 0 0.088030501340678025 0.43172035259367342 0 0.097686639310685761 0.40793611004361569 0 0.1168219467785717 0.42740703270861741 0 0.1084284855668544 0.44080338890191822 0 0.088030501340678025 0.43172035259367342 0 0.1168219467785717 0.42740703270861741 0 0.097686639310685761 0.40793611004361569 0 0.1168219467785717 0.42740703270861741 0 0.11870975264124969 0.40634132692798602 0 0.1168219467785717 0.42740703270861741 0 0.11870975264124969 0.40634132692798602 0 0.13181225149328279 0.41872548653505398 0 0.11870975264124969 0.40634132692798602 0 0.1086124476283081 0.38102451496399092 0 0.1386154779954 0.39661349038865229 0 0.1086124476283081 0.38102451496399092 0 0.098683793657467711 0.37697584471431439 0 0.098104747128125933 0.39101494253770669 0 0.089731439849604439 0.38679450235663221 0 0.098683793657467711 0.37697584471431439 0 0.098104747128125933 0.39101494253770669 0 0.097686639310685761 0.40793611004361569 0 0.1086124476283081 0.38102451496399092 0 0.098104747128125933 0.39101494253770669 0 0.097686639310685761 0.40793611004361569 0 0.11870975264124969 0.40634132692798602 0 0.1086124476283081 0.38102451496399092 0 0.093234720788219885 0.40340610908035368 0 0.097686639310685761 0.40793611004361569 0 0.098104747128125933 0.39101494253770669 0 0.097686639310685761 0.40793611004361569 0 0.1086124476283081 0.38102451496399092 0 0.093234720788219885 0.40340610908035368 0 0.090468512261014572 0.39494232901019238 0 0.098104747128125933 0.39101494253770669 0 0.093234720788219885 0.40340610908035368 0 0.097686639310685761 0.40793611004361569 0 0.1086124476283081 0.38102451496399092 0 0.119538255945931 0.35411291988436611 0 0.14253274960608461 0.36884263540487072 0 0.10432716433042651 0.36321798270586392 0 0.094358051536754001 0.3379830910141598 0 0.090373595547454943 0.35670796548039302 0 0.10432716433042651 0.36321798270586392 0 0.119538255945931 0.35411291988436611 0 0.094358051536754001 0.3379830910141598 0 0.119538255945931 0.35411291988436611 0 0.094358051536754001 0.3379830910141598 0 0.1086124476283081 0.38102451496399092 0 0.098683793657467711 0.37697584471431439 0 0.10432716433042651 0.36321798270586392 0 0.098683793657467711 0.37697584471431439 0 0.10432716433042651 0.36321798270586392 0 0.088451662633471678 0.36854767778347552 0 0.10432716433042651 0.36321798270586392 0 0.090373595547454943 0.35670796548039302 0 0.088451662633471678 0.36854767778347552 0 0.1086124476283081 0.38102451496399092 0 0.10432716433042651 0.36321798270586392 0 0.119538255945931 0.35411291988436611 0 0.1086124476283081 0.38102451496399092 0 0.119538255945931 0.35411291988436611 0 0.119538255945931 0.35411291988436611 0 0.12943671481039379 0.32973181149140279 0 0.119538255945931 0.35411291988436611 0 0.1080330750292892 0.32733043907607301 0 0.12943671481039379 0.32973181149140279 0 0.1080330750292892 0.32733043907607301 0 0.11991313284415681 0.30732148064363052 0 0.12943671481039379 0.32973181149140279 0 0.1080330750292892 0.32733043907607301 0 0.099139559301931329 0.30806425880927002 0 0.11991313284415681 0.30732148064363052 0 0.1080330750292892 0.32733043907607301 0 0.085601923463772003 0.33174276654121609 0 0.099139559301931329 0.30806425880927002 0 0.1080330750292892 0.32733043907607301 0 0.094358051536754001 0.3379830910141598 0 0.085601923463772003 0.33174276654121609 0 0.119538255945931 0.35411291988436611 0 0.1080330750292892 0.32733043907607301 0 0.094358051536754001 0.3379830910141598 0 0.094358051536754001 0.3379830910141598 0 0.085601923463772003 0.33174276654121609 0 0.072064287625612761 0.35542127427316211 0 0.085601923463772003 0.33174276654121609 0 0.072064287625612761 0.35542127427316211 0 0.085601923463772003 0.33174276654121609 0 0.072780197750291362 0.32213322335791411 0 0.099139559301931329 0.30806425880927002 0 0.085601923463772003 0.33174276654121609 0 0.099139559301931329 0.30806425880927002 0 0.072780197750291362 0.32213322335791411 0 0.062281829815626299 0.33634963852293281 0 0.057465011680707723 0.31742312292188191 0 0.072780197750291362 0.32213322335791411 0 0.057465011680707723 0.31742312292188191 0 0.075869072833835566 0.30641066564036268 0 0.085601923463772003 0.33174276654121609 0 0.072064287625612761 0.35542127427316211 0 0.062281829815626299 0.33634963852293281 0 0.085601923463772003 0.33174276654121609 0 0.072780197750291362 0.32213322335791411 0 0.062281829815626299 0.33634963852293281 0 0.094358051536754001 0.3379830910141598 0 0.072064287625612761 0.35542127427316211 0 0.090373595547454943 0.35670796548039302 0 0.078605222722461551 0.37803781335971232 0 0.072064287625612761 0.35542127427316211 0 0.088451662633471678 0.36854767778347552 0 0.072064287625612761 0.35542127427316211 0 0.090373595547454943 0.35670796548039302 0 0.088451662633471678 0.36854767778347552 0 0.078605222722461551 0.37803781335971232 0 0.098683793657467711 0.37697584471431439 0 0.088451662633471678 0.36854767778347552 0 0.058526651787455322 0.37909978200510908 0 0.072064287625612761 0.35542127427316211 0 0.058526651787455322 0.37909978200510908 0 0.078605222722461551 0.37803781335971232 0 0.072064287625612761 0.35542127427316211 0 0.036718800627353283 0.38025321340371399 0 0.058526651787455322 0.37909978200510908 0 0.048863139310617427 0.35667639194732043 0 0.058526651787455322 0.37909978200510908 0 0.072064287625612761 0.35542127427316211 0 0.048863139310617427 0.35667639194732043 0 0.072064287625612761 0.35542127427316211 0 0.048863139310617427 0.35667639194732043 0 0.062281829815626299 0.33634963852293281 0 0.026166071824969599 0.35678036276044067 0 0.037421194182687363 0.33215408071856273 0 0.048863139310617427 0.35667639194732043 0 0.026166071824969599 0.35678036276044067 0 0.037421194182687363 0.33215408071856273 0 0.036718800627353283 0.38025321340371399 0 0.048863139310617427 0.35667639194732043 0 0.026166071824969599 0.35678036276044067 0 0.014910949467251191 0.38140664480231828 0 0.026166071824969599 0.35678036276044067 0 0.014910949467251191 0.38140664480231828 0 0.036718800627353283 0.38025321340371399 0 0.026166071824969599 0.35678036276044067 0 0.026166071824969599 0.35678036276044067 0 0.0041153052395316329 0.34739948802827242 0 0.018543060905211659 0.33908285926150961 0 0.026166071824969599 0.35678036276044067 0 0.0041153052395316329 0.34739948802827242 0 0.005774776065040307 0.3645300477706111 0 0.014910949467251191 0.38140664480231828 0 0.026166071824969599 0.35678036276044067 0 0.005774776065040307 0.3645300477706111 0 -0.00194009678120214 0.32918780883551219 0 0.0040457971871854818 0.31382622979778668 0 0.018712590883725261 0.32124155685585631 0 0.0040457971871854818 0.31382622979778668 0 0.018712590883725261 0.32124155685585631 0 0.017365962073420289 0.30421541999251828 0 -0.00194009678120214 0.32918780883551219 0 0.0041153052395316329 0.34739948802827242 0 0.018543060905211659 0.33908285926150961 0 -0.00194009678120214 0.32918780883551219 0 0.018543060905211659 0.33908285926150961 0 0.018712590883725261 0.32124155685585631 0 0.018543060905211659 0.33908285926150961 0 0.018712590883725261 0.32124155685585631 0 0.037421194182687363 0.33215408071856273 0 0.026166071824969599 0.35678036276044067 0 0.018543060905211659 0.33908285926150961 0 0.037421194182687363 0.33215408071856273 0 0.018712590883725261 0.32124155685585631 0 0.037421194182687363 0.33215408071856273 0 0.031862019177160521 0.30618053129548167 0 0.037421194182687363 0.33215408071856273 0 0.048676316540405121 0.30752779867668473 0 0.037421194182687363 0.33215408071856273 0 0.048676316540405121 0.30752779867668473 0 0.031862019177160521 0.30618053129548167 0 0.048863139310617427 0.35667639194732043 0 0.037421194182687363 0.33215408071856273 0 0.062281829815626299 0.33634963852293281 0 0.037421194182687363 0.33215408071856273 0 0.062281829815626299 0.33634963852293281 0 0.057465011680707723 0.31742312292188191 0 0.037421194182687363 0.33215408071856273 0 0.057465011680707723 0.31742312292188191 0 0.048676316540405121 0.30752779867668473 0 0.057465011680707723 0.31742312292188191 0 0.048676316540405121 0.30752779867668473 0 0.064144699390204493 0.29992903665449261 0 0.048676316540405121 0.30752779867668473 0 0.059931438898122899 0.28290151663480673 0 0.048676316540405121 0.30752779867668473 0 0.059931438898122899 0.28290151663480673 0 0.04178513167057963 0.28581574009899757 0 0.048676316540405121 0.30752779867668473 0 0.059931438898122899 0.28290151663480673 0 0.064144699390204493 0.29992903665449261 0 0.04178513167057963 0.28581574009899757 0 0.031862019177160521 0.30618053129548167 0 0.024947464648828719 0.28416393596947082 0 0.048676316540405121 0.30752779867668473 0 0.04178513167057963 0.28581574009899757 0 0.031862019177160521 0.30618053129548167 0 0.018712590883725261 0.32124155685585631 0 0.031862019177160521 0.30618053129548167 0 0.017365962073420289 0.30421541999251828 0 0.031862019177160521 0.30618053129548167 0 0.017365962073420289 0.30421541999251828 0 0.024947464648828719 0.28416393596947082 0 0.017365962073420289 0.30421541999251828 0 0.024947464648828719 0.28416393596947082 0 0.0063279935655279028 0.28150809192884529 0 0.017365962073420289 0.30421541999251828 0 0.0063279935655279028 0.28150809192884529 0 0.0018947413267401891 0.29603879189989118 0 0.017365962073420289 0.30421541999251828 0 0.0063279935655279028 0.28150809192884529 0 -0.0041687012673470867 0.2876309262329893 0 0.0063279935655279028 0.28150809192884529 0 0.0018947413267401891 0.29603879189989118 0 0.0040457971871854818 0.31382622979778668 0 0.017365962073420289 0.30421541999251828 0 0.0018947413267401891 0.29603879189989118 0 -0.0047099749423644751 0.25880076386517242 0 0.015464831166581599 0.2471975019248627 0 0.012078757279971441 0.26467623500623122 0 -0.0047099749423644751 0.25880076386517242 0 0.0063279935655279028 0.28150809192884529 0 -0.0047099749423644751 0.25880076386517242 0 0.0063279935655279028 0.28150809192884529 0 0.012078757279971441 0.26467623500623122 0 0.024947464648828719 0.28416393596947082 0 0.0063279935655279028 0.28150809192884529 0 0.012078757279971441 0.26467623500623122 0 0.024947464648828719 0.28416393596947082 0 0.012078757279971441 0.26467623500623122 0 0.029837668646529539 0.26367435784936971 0 0.031219584792892802 0.24070969102814579 0 0.015464831166581599 0.2471975019248627 0 0.029837668646529539 0.26367435784936971 0 0.015464831166581599 0.2471975019248627 0 0.012078757279971441 0.26467623500623122 0 0.029837668646529539 0.26367435784936971 0 0.031219584792892802 0.24070969102814579 0 0.042873870208327558 0.24806069189205859 0 0.029837668646529539 0.26367435784936971 0 0.042873870208327558 0.24806069189205859 0 0.029837668646529539 0.26367435784936971 0 0.05002358996047078 0.26573112706225188 0 0.042873870208327558 0.24806069189205859 0 0.029837668646529539 0.26367435784936971 0 0.04178513167057963 0.28581574009899757 0 0.029837668646529539 0.26367435784936971 0 0.05002358996047078 0.26573112706225188 0 0.04178513167057963 0.28581574009899757 0 0.024947464648828719 0.28416393596947082 0 0.029837668646529539 0.26367435784936971 0 0.059931438898122899 0.28290151663480673 0 0.05002358996047078 0.26573112706225188 0 0.071186561255840705 0.25827523459292862 0 0.059931438898122899 0.28290151663480673 0 0.04178513167057963 0.28581574009899757 0 0.05002358996047078 0.26573112706225188 0 0.057146322994644352 0.2488551141305724 0 0.042873870208327558 0.24806069189205859 0 0.05002358996047078 0.26573112706225188 0 0.057146322994644352 0.2488551141305724 0 0.05002358996047078 0.26573112706225188 0 0.071186561255840705 0.25827523459292862 0 0.071186561255840705 0.25827523459292862 0 0.089649969986245248 0.25250598727088341 0 0.088889742928091223 0.26762100673300099 0 0.088889742928091223 0.26762100673300099 0 0.078781656997951185 0.2853820793987274 0 0.097084742481585745 0.28007049267947492 0 0.071186561255840705 0.25827523459292862 0 0.088889742928091223 0.26762100673300099 0 0.078781656997951185 0.2853820793987274 0 0.059931438898122899 0.28290151663480673 0 0.071186561255840705 0.25827523459292862 0 0.078781656997951185 0.2853820793987274 0 0.059931438898122899 0.28290151663480673 0 0.071186561255840705 0.25827523459292862 0 0.059931438898122899 0.28290151663480673 0 0.064144699390204493 0.29992903665449261 0 0.078781656997951185 0.2853820793987274 0 0.057465011680707723 0.31742312292188191 0 0.075869072833835566 0.30641066564036268 0 0.064144699390204493 0.29992903665449261 0 0.057465011680707723 0.31742312292188191 0 0.075869072833835566 0.30641066564036268 0 0.075869072833835566 0.30641066564036268 0 0.064144699390204493 0.29992903665449261 0 0.078781656997951185 0.2853820793987274 0 0.075869072833835566 0.30641066564036268 0 0.094273133986963409 0.29539820835884367 0 0.075869072833835566 0.30641066564036268 0 0.094273133986963409 0.29539820835884367 0 0.099139559301931329 0.30806425880927002 0 0.072780197750291362 0.32213322335791411 0 0.075869072833835566 0.30641066564036268 0 0.099139559301931329 0.30806425880927002 0 0.075869072833835566 0.30641066564036268 0 0.078781656997951185 0.2853820793987274 0 0.094273133986963409 0.29539820835884367 0 0.078781656997951185 0.2853820793987274 0 0.094273133986963409 0.29539820835884367 0 0.097084742481585745 0.28007049267947492 0 0.094273133986963409 0.29539820835884367 0 0.112677195140091 0.28438575107732411 0 0.097084742481585745 0.28007049267947492 0 0.099139559301931329 0.30806425880927002 0 0.112677195140091 0.28438575107732411 0 0.094273133986963409 0.29539820835884367 0 0.112677195140091 0.28438575107732411 0 0.094273133986963409 0.29539820835884367 0 0.099139559301931329 0.30806425880927002 0 0.112677195140091 0.28438575107732411 0 0.099139559301931329 0.30806425880927002 0 0.11991313284415681 0.30732148064363052 0 0.112677195140091 0.28438575107732411 0 0.11991313284415681 0.30732148064363052 0 0.112677195140091 0.28438575107732411 0 0.13085707910837999 0.28906592030927403 0 0.112677195140091 0.28438575107732411 0 0.1219514382652474 0.26816428965139488 0 0.112677195140091 0.28438575107732411 0 0.1219514382652474 0.26816428965139488 0 0.13291544907068301 0.27227576594910741 0 0.112677195140091 0.28438575107732411 0 0.13291544907068301 0.27227576594910741 0 0.112677195140091 0.28438575107732411 0 0.1219514382652474 0.26816428965139488 0 0.1066621654992829 0.26236336030148599 0 0.1068336825019828 0.2427958903882515 0 0.1066621654992829 0.26236336030148599 0 0.13122568139040239 0.2519428282254651 0 0.1219514382652474 0.26816428965139488 0 0.1066621654992829 0.26236336030148599 0 0.13122568139040239 0.2519428282254651 0 0.1068336825019828 0.2427958903882515 0 0.089649969986245248 0.25250598727088341 0 0.1066621654992829 0.26236336030148599 0 0.089649969986245248 0.25250598727088341 0 0.088889742928091223 0.26762100673300099 0 0.1066621654992829 0.26236336030148599 0 0.088889742928091223 0.26762100673300099 0 0.1066621654992829 0.26236336030148599 0 0.097084742481585745 0.28007049267947492 0 0.112677195140091 0.28438575107732411 0 0.1066621654992829 0.26236336030148599 0 0.097084742481585745 0.28007049267947492 0 0.14923363253931801 0.280969594705476 0 0.155884306966624 0.26118975039563702 0 0.15315370300127379 0.26016578082088859 0 0.14923363253931801 0.280969594705476 0 0.1591320914037804 0.25658848631251258 0 0.15315370300127379 0.26016578082088859 0 0.13291544907068301 0.27227576594910741 0 0.14923363253931801 0.280969594705476 0 0.15315370300127379 0.26016578082088859 0 0.13291544907068301 0.27227576594910741 0 0.14923363253931801 0.280969594705476 0 0.155884306966624 0.26118975039563702 0 0.1591320914037804 0.25658848631251258 0 0.15315370300127379 0.26016578082088859 0 0.13122568139040239 0.2519428282254651 0 0.14953261231820489 0.2452533771335165 0 0.15315370300127379 0.26016578082088859 0 0.13122568139040239 0.2519428282254651 0 0.155884306966624 0.26118975039563702 0 0.15315370300127379 0.26016578082088859 0 0.1591320914037804 0.25658848631251258 0 0.155884306966624 0.26118975039563702 0 0.15315370300127379 0.26016578082088859 0 0.15315370300127379 0.26016578082088859 0 0.1591320914037804 0.25658848631251258 0 0.14953261231820489 0.2452533771335165 0 0.15315370300127379 0.26016578082088859 0 0.1591320914037804 0.25658848631251258 0 0.15315370300127379 0.26016578082088859 0 0.13122568139040239 0.2519428282254651 0 0.13291544907068301 0.27227576594910741 0 0.1219514382652474 0.26816428965139488 0 0.13122568139040239 0.2519428282254651 0 0.13291544907068301 0.27227576594910741 0 0.1219514382652474 0.26816428965139488 0 0.13122568139040239 0.2519428282254651 0 0.14923363253931801 0.280969594705476 0 0.13291544907068301 0.27227576594910741 0 0.13085707910837999 0.28906592030927403 0 0.14923363253931801 0.280969594705476 0 0.13085707910837999 0.28906592030927403 0 0.1393351736748559 0.30535070309843942 0 0.112677195140091 0.28438575107732411 0 0.13291544907068301 0.27227576594910741 0 0.13085707910837999 0.28906592030927403 0 0.11991313284415681 0.30732148064363052 0 0.13085707910837999 0.28906592030927403 0 0.1393351736748559 0.30535070309843942 0 0.1393351736748559 0.30535070309843942 0 0.16673801442492631 0.30121514566668012 0 0.15569772888161729 0.31958815155185433 0 0.14923363253931801 0.280969594705476 0 0.1393351736748559 0.30535070309843942 0 0.16673801442492631 0.30121514566668012 0 0.14923363253931801 0.280969594705476 0 0.1393351736748559 0.30535070309843942 0 0.14923363253931801 0.280969594705476 0 0.16673801442492631 0.30121514566668012 0 0.17331301505058261 0.28599479422872931 0 0.16673801442492631 0.30121514566668012 0 0.18483506371288891 0.30503971889256382 0 0.18054577202729241 0.32086316863929037 0 0.16673801442492631 0.30121514566668012 0 0.18483506371288891 0.30503971889256382 0 0.18184033423852461 0.29321643337169678 0 0.16673801442492631 0.30121514566668012 0 0.17331301505058261 0.28599479422872931 0 0.18184033423852461 0.29321643337169678 0 0.17331301505058261 0.28599479422872931 0 0.18184033423852461 0.29321643337169678 0 0.18844766857410339 0.28091944990673212 0 0.1798820481515078 0.27340802659417351 0 0.18737767064019339 0.2641969494110829 0 0.18844766857410339 0.28091944990673212 0 0.17331301505058261 0.28599479422872931 0 0.1798820481515078 0.27340802659417351 0 0.18844766857410339 0.28091944990673212 0 0.1798820481515078 0.27340802659417351 0 0.175888488925729 0.2630763494105231 0 0.18737767064019339 0.2641969494110829 0 0.1798820481515078 0.27340802659417351 0 0.16973145039304791 0.27306171450738459 0 0.175888488925729 0.2630763494105231 0 0.17331301505058261 0.28599479422872931 0 0.1798820481515078 0.27340802659417351 0 0.16973145039304791 0.27306171450738459 0 0.14923363253931801 0.280969594705476 0 0.16973145039304791 0.27306171450738459 0 0.1677282449820045 0.261801601778761 0 0.14923363253931801 0.280969594705476 0 0.1591320914037804 0.25658848631251258 0 0.1677282449820045 0.261801601778761 0 0.14923363253931801 0.280969594705476 0 0.17331301505058261 0.28599479422872931 0 0.16973145039304791 0.27306171450738459 0 0.16973145039304791 0.27306171450738459 0 0.1677282449820045 0.261801601778761 0 0.175888488925729 0.2630763494105231 0 0.1639626374459556 0.25369802743535241 0 0.1591320914037804 0.25658848631251258 0 0.1677282449820045 0.261801601778761 0 0.1639626374459556 0.25369802743535241 0 0.1591320914037804 0.25658848631251258 0 0.1677282449820045 0.261801601778761 0 0.171356129987773 0.25348369591058117 0 0.175888488925729 0.2630763494105231 0 0.1639626374459556 0.25369802743535241 0 0.1677282449820045 0.261801601778761 0 0.171356129987773 0.25348369591058117 0 0.16832310546349971 0.24771796654975209 0 0.1639626374459556 0.25369802743535241 0 0.171356129987773 0.25348369591058117 0 0.171356129987773 0.25348369591058117 0 0.17828623373862171 0.25254967586398591 0 0.175888488925729 0.2630763494105231 0 0.17494309726484791 0.2453188763195476 0 0.171356129987773 0.25348369591058117 0 0.17828623373862171 0.25254967586398591 0 0.1788874318502679 0.23548084065838609 0 0.17828623373862171 0.25254967586398591 0 0.18737767064019339 0.2641969494110829 0 0.17828623373862171 0.25254967586398591 0 0.175888488925729 0.2630763494105231 0 0.18737767064019339 0.2641969494110829 0 0.20149263876269899 0.2490339844868433 0 0.18737767064019339 0.2641969494110829 0 0.214150153564312 0.26677760297049358 0 0.18737767064019339 0.2641969494110829 0 0.19586790943012261 0.29291305816377861 0 0.18737767064019339 0.2641969494110829 0 0.2086367352644965 0.28490268152118792 0 0.19586790943012261 0.29291305816377861 0 0.18737767064019339 0.2641969494110829 0 0.18844766857410339 0.28091944990673212 0 0.19586790943012261 0.29291305816377861 0 0.214150153564312 0.26677760297049358 0 0.22205014142501481 0.2874809391323267 0 0.2086367352644965 0.28490268152118792 0 0.18737767064019339 0.2641969494110829 0 0.214150153564312 0.26677760297049358 0 0.2086367352644965 0.28490268152118792 0 0.21841260707924079 0.24787849365120351 0 0.20149263876269899 0.2490339844868433 0 0.214150153564312 0.26677760297049358 0 0.21841260707924079 0.24787849365120351 0 0.214150153564312 0.26677760297049358 0 0.2266753757092165 0.26009697955843819 0 0.231750085001796 0.2465167433246036 0 0.2266753757092165 0.26009697955843819 0 0.24356618594519031 0.25228373232622581 0 0.21841260707924079 0.24787849365120351 0 0.231750085001796 0.2465167433246036 0 0.2266753757092165 0.26009697955843819 0 0.2266753757092165 0.26009697955843819 0 0.23039588099971919 0.27573358083610178 0 0.2266753757092165 0.26009697955843819 0 0.23039588099971919 0.27573358083610178 0 0.2420987772361087 0.26631129006276572 0 0.214150153564312 0.26677760297049358 0 0.2266753757092165 0.26009697955843819 0 0.23039588099971919 0.27573358083610178 0 0.214150153564312 0.26677760297049358 0 0.23039588099971919 0.27573358083610178 0 0.22205014142501481 0.2874809391323267 0 0.23039588099971919 0.27573358083610178 0 0.2420987772361087 0.26631129006276572 0 0.2459560110871154 0.28044065192532458 0 0.2420987772361087 0.26631129006276572 0 0.2459560110871154 0.28044065192532458 0 0.25616004720769131 0.26912097196986329 0 0.2420987772361087 0.26631129006276572 0 0.24356618594519031 0.25228373232622581 0 0.25441855054454432 0.25563729412123742 0 0.2266753757092165 0.26009697955843819 0 0.2420987772361087 0.26631129006276572 0 0.24356618594519031 0.25228373232622581 0 0.24356618594519031 0.25228373232622581 0 0.25441855054454432 0.25563729412123742 0 0.25010503738555478 0.24259371671335209 0 0.2366197322972719 0.30189128618857808 0 0.23411638629022291 0.29137018211376542 0 0.25279455652671928 0.29739060879247697 0 0.2366197322972719 0.30189128618857808 0 0.25279455652671928 0.29739060879247697 0 0.2366197322972719 0.30189128618857808 0 0.24922446385908911 0.31055272940810158 0 0.25279455652671928 0.29739060879247697 0 0.2459560110871154 0.28044065192532458 0 0.23411638629022291 0.29137018211376542 0 0.25279455652671928 0.29739060879247697 0 0.23039588099971919 0.27573358083610178 0 0.2459560110871154 0.28044065192532458 0 0.23411638629022291 0.29137018211376542 0 0.23411638629022291 0.29137018211376542 0 0.25279455652671928 0.29739060879247697 0 0.2366197322972719 0.30189128618857808 0 0.23411638629022291 0.29137018211376542 0 0.23039588099971919 0.27573358083610178 0 0.23411638629022291 0.29137018211376542 0 0.23411638629022291 0.29137018211376542 0 0.22205014142501481 0.2874809391323267 0 0.23039588099971919 0.27573358083610178 0 0.23411638629022291 0.29137018211376542 0 0.22205014142501481 0.2874809391323267 0 0.22665945925953221 0.29526942567089459 0 0.23411638629022291 0.29137018211376542 0 0.22205014142501481 0.2874809391323267 0 0.2366197322972719 0.30189128618857808 0 0.22665945925953221 0.29526942567089459 0 0.23411638629022291 0.29137018211376542 0 0.22665945925953221 0.29526942567089459 0 0.22205014142501481 0.2874809391323267 0 0.2169565781320372 0.2947626909600376 0 0.22665945925953221 0.29526942567089459 0 0.22197056787226049 0.30097010900729632 0 0.2169565781320372 0.2947626909600376 0 0.2366197322972719 0.30189128618857808 0 0.21082386396199829 0.30906903847091832 0 0.22663575745614609 0.31595253699026088 0 0.2366197322972719 0.30189128618857808 0 0.21082386396199829 0.30906903847091832 0 0.2366197322972719 0.30189128618857808 0 0.22197056787226049 0.30097010900729632 0 0.21082386396199829 0.30906903847091832 0 0.2366197322972719 0.30189128618857808 0 0.22665945925953221 0.29526942567089459 0 0.22197056787226049 0.30097010900729632 0 0.20827641787248311 0.29867136572204173 0 0.20649357279260391 0.31008770873289632 0 0.19586790943012261 0.29291305816377861 0 0.21082386396199829 0.30906903847091832 0 0.20649357279260391 0.31008770873289632 0 0.21891355412437341 0.31825440876570399 0 0.21414614709843641 0.30128162470647868 0 0.20827641787248311 0.29867136572204173 0 0.21082386396199829 0.30906903847091832 0 0.22197056787226049 0.30097010900729632 0 0.21414614709843641 0.30128162470647868 0 0.2169565781320372 0.2947626909600376 0 0.22197056787226049 0.30097010900729632 0 0.21414614709843641 0.30128162470647868 0 0.21082386396199829 0.30906903847091832 0 0.21414614709843641 0.30128162470647868 0 0.20827641787248311 0.29867136572204173 0 0.2169565781320372 0.2947626909600376 0 0.20827641787248311 0.29867136572204173 0 0.21082386396199829 0.30906903847091832 0 0.20649357279260391 0.31008770873289632 0 0.22205014142501481 0.2874809391323267 0 0.2169565781320372 0.2947626909600376 0 0.2086367352644965 0.28490268152118792 0 0.20827641787248311 0.29867136572204173 0 0.2169565781320372 0.2947626909600376 0 0.2086367352644965 0.28490268152118792 0 0.20827641787248311 0.29867136572204173 0 0.2086367352644965 0.28490268152118792 0 0.19586790943012261 0.29291305816377861 0 0.18184033423852461 0.29321643337169678 0 0.18844766857410339 0.28091944990673212 0 0.19586790943012261 0.29291305816377861 0 0.18844766857410339 0.28091944990673212 0 0.19586790943012261 0.29291305816377861 0 0.19586790943012261 0.29291305816377861 0 0.20295986136148311 0.31689981141875823 0 0.20649357279260391 0.31008770873289632 0 0.19586790943012261 0.29291305816377861 0 0.20649357279260391 0.31008770873289632 0 0.19586790943012261 0.29291305816377861 0 0.20295986136148311 0.31689981141875823 0 0.18483506371288891 0.30503971889256382 0 0.19586790943012261 0.29291305816377861 0 0.20295986136148311 0.31689981141875823 0 0.18483506371288891 0.30503971889256382 0 0.18184033423852461 0.29321643337169678 0 0.19586790943012261 0.29291305816377861 0 0.20295986136148311 0.31689981141875823 0 0.18648354949151361 0.34196188923230719 0 0.18054577202729241 0.32086316863929037 0 0.18483506371288891 0.30503971889256382 0 0.20295986136148311 0.31689981141875823 0 0.18054577202729241 0.32086316863929037 0 0.20295986136148311 0.31689981141875823 0 0.21005181329284439 0.34088656467373751 0 0.18648354949151361 0.34196188923230719 0 0.21005181329284439 0.34088656467373751 0 0.2105366722849733 0.31662271917213219 0 0.22520543513982319 0.34033238018048639 0 0.20295986136148311 0.31689981141875823 0 0.21005181329284439 0.34088656467373751 0 0.2105366722849733 0.31662271917213219 0 0.22520543513982319 0.34033238018048639 0 0.20295986136148311 0.31689981141875823 0 0.21005181329284439 0.34088656467373751 0 0.2105366722849733 0.31662271917213219 0 0.20649357279260391 0.31008770873289632 0 0.21891355412437341 0.31825440876570399 0 0.22562490612484809 0.33316813187751609 0 0.20649357279260391 0.31008770873289632 0 0.2105366722849733 0.31662271917213219 0 0.22562490612484809 0.33316813187751609 0 0.20649357279260391 0.31008770873289632 0 0.22562490612484809 0.33316813187751609 0 0.20649357279260391 0.31008770873289632 0 0.2105366722849733 0.31662271917213219 0 0.20649357279260391 0.31008770873289632 0 0.20295986136148311 0.31689981141875823 0 0.2105366722849733 0.31662271917213219 0 0.21082386396199829 0.30906903847091832 0 0.21891355412437341 0.31825440876570399 0 0.22663575745614609 0.31595253699026088 0 0.22663575745614609 0.31595253699026088 0 0.23027840384392059 0.32653647068308411 0 0.24240589367588089 0.32620946109790611 0 0.21891355412437341 0.31825440876570399 0 0.22663575745614609 0.31595253699026088 0 0.22487036444620789 0.32306844024519921 0 0.23027840384392059 0.32653647068308411 0 0.22487036444620789 0.32306844024519921 0 0.22562490612484809 0.33316813187751609 0 0.22663575745614609 0.31595253699026088 0 0.23027840384392059 0.32653647068308411 0 0.22487036444620789 0.32306844024519921 0 0.21891355412437341 0.31825440876570399 0 0.22487036444620789 0.32306844024519921 0 0.22562490612484809 0.33316813187751609 0 0.2105366722849733 0.31662271917213219 0 0.22520543513982319 0.34033238018048639 0 0.22562490612484809 0.33316813187751609 0 0.22520543513982319 0.34033238018048639 0 0.22562490612484809 0.33316813187751609 0 0.24463693361703029 0.35632236751040602 0 0.22562490612484809 0.33316813187751609 0 0.2342033766661907 0.33188151686399109 0 0.2389561519157361 0.33984295390763841 0 0.23027840384392059 0.32653647068308411 0 0.22562490612484809 0.33316813187751609 0 0.2342033766661907 0.33188151686399109 0 0.2342033766661907 0.33188151686399109 0 0.2389561519157361 0.33984295390763841 0 0.24240589367588089 0.32620946109790611 0 0.2389561519157361 0.33984295390763841 0 0.24240589367588089 0.32620946109790611 0 0.24819205505449121 0.35052763600723369 0 0.23027840384392059 0.32653647068308411 0 0.2342033766661907 0.33188151686399109 0 0.24240589367588089 0.32620946109790611 0 0.24240589367588089 0.32620946109790611 0 0.24819205505449121 0.35052763600723369 0 0.25786204442318528 0.33476587005469932 0 0.22562490612484809 0.33316813187751609 0 0.2389561519157361 0.33984295390763841 0 0.24463693361703029 0.35632236751040602 0 0.24240589367588089 0.32620946109790611 0 0.24819205505449121 0.35052763600723369 0 0.2366197322972719 0.30189128618857808 0 0.22663575745614609 0.31595253699026088 0 0.24240589367588089 0.32620946109790611 0 0.2366197322972719 0.30189128618857808 0 0.24240589367588089 0.32620946109790611 0 0.2366197322972719 0.30189128618857808 0 0.24922446385908911 0.31055272940810158 0 0.24240589367588089 0.32620946109790611 0 0.24922446385908911 0.31055272940810158 0 0.24240589367588089 0.32620946109790611 0 0.25268802066888468 0.32026758447247022 0 0.23988792781026089 0.3640335467861231 0 0.25451163841684538 0.38770107459702913 0 0.25183242829235308 0.36582745696640578 0 0.23988792781026089 0.3640335467861231 0 0.24463693361703029 0.35632236751040602 0 0.25129995781948239 0.36358958124085561 0 0.23988792781026089 0.3640335467861231 0 0.25129995781948239 0.36358958124085561 0 0.25183242829235308 0.36582745696640578 0 0.23988792781026089 0.3640335467861231 0 0.25129995781948239 0.36358958124085561 0 0.23988792781026089 0.3640335467861231 0 0.24463693361703029 0.35632236751040602 0 0.24463693361703029 0.35632236751040602 0 0.25129995781948239 0.36358958124085561 0 0.2389561519157361 0.33984295390763841 0 0.24463693361703029 0.35632236751040602 0 0.24819205505449121 0.35052763600723369 0 0.22520543513982319 0.34033238018048639 0 0.23988792781026089 0.3640335467861231 0 0.24463693361703029 0.35632236751040602 0 0.24819205505449121 0.35052763600723369 0 0.25129995781948239 0.36358958124085561 0 0.22562490612484809 0.33316813187751609 0 0.24463693361703029 0.35632236751040602 0 0.24463693361703029 0.35632236751040602 0 0.24819205505449121 0.35052763600723369 0 0.25129995781948239 0.36358958124085561 0 0.24463693361703029 0.35632236751040602 0 0.24819205505449121 0.35052763600723369 0 0.22520543513982319 0.34033238018048639 0 0.23988792781026089 0.3640335467861231 0 0.21714376522420531 0.36487331792871691 0 0.22520543513982319 0.34033238018048639 0 0.23988792781026089 0.3640335467861231 0 0.21714376522420531 0.36487331792871691 0 0.2218990160605783 0.38095676428897779 0 0.23988792781026089 0.3640335467861231 0 0.21714376522420531 0.36487331792871691 0 0.2281454248876012 0.37111394237565198 0 0.21714376522420531 0.36487331792871691 0 0.2218990160605783 0.38095676428897779 0 0.23988792781026089 0.3640335467861231 0 0.22698970540829039 0.38508677149596959 0 0.23988792781026089 0.3640335467861231 0 0.2281454248876012 0.37111394237565198 0 0.22698970540829039 0.38508677149596959 0 0.23988792781026089 0.3640335467861231 0 0.2281454248876012 0.37111394237565198 0 0.21714376522420531 0.36487331792871691 0 0.21714376522420531 0.36487331792871691 0 0.20998443472073941 0.37703502113432891 0 0.2218990160605783 0.38095676428897779 0 0.21714376522420531 0.36487331792871691 0 0.18728183956809041 0.3659956575872737 0 0.20998443472073941 0.37703502113432891 0 0.21005181329284439 0.34088656467373751 0 0.22520543513982319 0.34033238018048639 0 0.21714376522420531 0.36487331792871691 0 0.21005181329284439 0.34088656467373751 0 0.21714376522420531 0.36487331792871691 0 0.18728183956809041 0.3659956575872737 0 0.21005181329284439 0.34088656467373751 0 0.21714376522420531 0.36487331792871691 0 0.21005181329284439 0.34088656467373751 0 0.18728183956809041 0.3659956575872737 0 0.18648354949151361 0.34196188923230719 0 0.21714376522420531 0.36487331792871691 0 0.18728183956809041 0.3659956575872737 0 0.18728183956809041 0.3659956575872737 0 0.1650582005908772 0.35831292079260652 0 0.16552724326623841 0.38357235092537523 0 0.1650582005908772 0.35831292079260652 0 0.14253274960608461 0.36884263540487072 0 0.16552724326623841 0.38357235092537523 0 0.1650582005908772 0.35831292079260652 0 0.166468501539215 0.33776789220838599 0 0.14645535856235331 0.34472605522224781 0 0.18728183956809041 0.3659956575872737 0 0.1650582005908772 0.35831292079260652 0 0.18648354949151361 0.34196188923230719 0 0.1650582005908772 0.35831292079260652 0 0.18648354949151361 0.34196188923230719 0 0.166468501539215 0.33776789220838599 0 0.18648354949151361 0.34196188923230719 0 0.18054577202729241 0.32086316863929037 0 0.166468501539215 0.33776789220838599 0 0.16673801442492631 0.30121514566668012 0 0.18054577202729241 0.32086316863929037 0 0.15569772888161729 0.31958815155185433 0 0.18054577202729241 0.32086316863929037 0 0.166468501539215 0.33776789220838599 0 0.15569772888161729 0.31958815155185433 0 0.166468501539215 0.33776789220838599 0 0.15569772888161729 0.31958815155185433 0 0.14645535856235331 0.34472605522224781 0 0.15569772888161729 0.31958815155185433 0 0.12943671481039379 0.32973181149140279 0 0.14645535856235331 0.34472605522224781 0 0.1393351736748559 0.30535070309843942 0 0.15569772888161729 0.31958815155185433 0 0.12943671481039379 0.32973181149140279 0 0.1393351736748559 0.30535070309843942 0 0.12943671481039379 0.32973181149140279 0 0.11991313284415681 0.30732148064363052 0 0.1393351736748559 0.30535070309843942 0 0.12943671481039379 0.32973181149140279 0 0.119538255945931 0.35411291988436611 0 0.12943671481039379 0.32973181149140279 0 0.14645535856235331 0.34472605522224781 0 0.119538255945931 0.35411291988436611 0 0.14253274960608461 0.36884263540487072 0 0.14645535856235331 0.34472605522224781 0 0.119538255945931 0.35411291988436611 0 0.14253274960608461 0.36884263540487072 0 0.1650582005908772 0.35831292079260652 0 0.14253274960608461 0.36884263540487072 0 0.14645535856235331 0.34472605522224781 0 0.1086124476283081 0.38102451496399092 0 0.14253274960608461 0.36884263540487072 0 0.1386154779954 0.39661349038865229 0 0.1386154779954 0.39661349038865229 0 0.15799535506677109 0.4060298896552893 0 0.16552724326623841 0.38357235092537523 0 0.1386154779954 0.39661349038865229 0 0.14626194503061651 0.41454532034434372 0 0.15799535506677109 0.4060298896552893 0 0.14253274960608461 0.36884263540487072 0 0.1386154779954 0.39661349038865229 0 0.16552724326623841 0.38357235092537523 0 0.14253274960608461 0.36884263540487072 0 0.16552724326623841 0.38357235092537523 0 0.11870975264124969 0.40634132692798602 0 0.1386154779954 0.39661349038865229 0 0.13181225149328279 0.41872548653505398 0 0.1386154779954 0.39661349038865229 0 0.13181225149328279 0.41872548653505398 0 0.14626194503061651 0.41454532034434372 0 0.1168219467785717 0.42740703270861741 0 0.13595725424645819 0.4468779553736183 0 0.13181225149328279 0.41872548653505398 0 0.1445399414656286 0.42959263459747088 0 0.13595725424645819 0.4468779553736183 0 0.1168219467785717 0.42740703270861741 0 0.13181225149328279 0.41872548653505398 0 0.13595725424645819 0.4468779553736183 0 0.13181225149328279 0.41872548653505398 0 0.1445399414656286 0.42959263459747088 0 0.1445399414656286 0.42959263459747088 0 0.15834669913199989 0.42176510054525179 0 0.16153948285195829 0.43184494892766012 0 0.1445399414656286 0.42959263459747088 0 0.16153948285195829 0.43184494892766012 0 0.15726763143797409 0.44045978265988822 0 0.1445399414656286 0.42959263459747088 0 0.14626194503061651 0.41454532034434372 0 0.15834669913199989 0.42176510054525179 0 0.1445399414656286 0.42959263459747088 0 0.15726763143797409 0.44045978265988822 0 0.14626194503061651 0.41454532034434372 0 0.15834669913199989 0.42176510054525179 0 0.15799535506677109 0.4060298896552893 0 0.13181225149328279 0.41872548653505398 0 0.1445399414656286 0.42959263459747088 0 0.14626194503061651 0.41454532034434372 0 0.15834669913199989 0.42176510054525179 0 0.1701479884028079 0.41689159193388692 0 0.15799535506677109 0.4060298896552893 0 0.1701479884028079 0.41689159193388692 0 0.17249349256676769 0.40288843770321231 0 0.15799535506677109 0.4060298896552893 0 0.16153948285195829 0.43184494892766012 0 0.1736053197762995 0.43553926414648542 0 0.15726763143797409 0.44045978265988822 0 0.15834669913199989 0.42176510054525179 0 0.16153948285195829 0.43184494892766012 0 0.17099641743617441 0.43010412641891421 0 0.15834669913199989 0.42176510054525179 0 0.1701479884028079 0.41689159193388692 0 0.17099641743617441 0.43010412641891421 0 0.16153948285195829 0.43184494892766012 0 0.17099641743617441 0.43010412641891421 0 0.1736053197762995 0.43553926414648542 0 0.1736053197762995 0.43553926414648542 0 0.19217045122072629 0.42994789337943712 0 0.1736053197762995 0.43553926414648542 0 0.18155633864448081 0.42635377174963912 0 0.19217045122072629 0.42994789337943712 0 0.1736053197762995 0.43553926414648542 0 0.19217045122072629 0.42994789337943712 0 0.18741467994240299 0.43899267402683828 0 0.17099641743617441 0.43010412641891421 0 0.1736053197762995 0.43553926414648542 0 0.18155633864448081 0.42635377174963912 0 0.17099641743617441 0.43010412641891421 0 0.1736053197762995 0.43553926414648542 0 0.1701479884028079 0.41689159193388692 0 0.17099641743617441 0.43010412641891421 0 0.18155633864448081 0.42635377174963912 0 0.1701479884028079 0.41689159193388692 0 0.18164418233165611 0.41218184746913772 0 0.17249349256676769 0.40288843770321231 0 0.1701479884028079 0.41689159193388692 0 0.18155633864448081 0.42635377174963912 0 0.18164418233165611 0.41218184746913772 0 0.18155633864448081 0.42635377174963912 0 0.18164418233165611 0.41218184746913772 0 0.19387868201084149 0.41532017307991898 0 0.16552724326623841 0.38357235092537523 0 0.18852173692639221 0.39830206644587968 0 0.18164418233165611 0.41218184746913772 0 0.17249349256676769 0.40288843770321231 0 0.18852173692639221 0.39830206644587968 0 0.17249349256676769 0.40288843770321231 0 0.16552724326623841 0.38357235092537523 0 0.18852173692639221 0.39830206644587968 0 0.18728183956809041 0.3659956575872737 0 0.16552724326623841 0.38357235092537523 0 0.18852173692639221 0.39830206644587968 0 0.17249349256676769 0.40288843770321231 0 0.15799535506677109 0.4060298896552893 0 0.16552724326623841 0.38357235092537523 0 0.18728183956809041 0.3659956575872737 0 0.20287133985599159 0.38684575588517373 0 0.18852173692639221 0.39830206644587968 0 0.18728183956809041 0.3659956575872737 0 0.20287133985599159 0.38684575588517373 0 0.20998443472073941 0.37703502113432891 0 0.20287133985599159 0.38684575588517373 0 0.18852173692639221 0.39830206644587968 0 0.2095338735621928 0.4032467413459554 0 0.18852173692639221 0.39830206644587968 0 0.2095338735621928 0.4032467413459554 0 0.19387868201084149 0.41532017307991898 0 0.20287133985599159 0.38684575588517373 0 0.2095338735621928 0.4032467413459554 0 0.21803677108623029 0.38989931817929468 0 0.2095338735621928 0.4032467413459554 0 0.21803677108623029 0.38989931817929468 0 0.22460951656628669 0.40129663711876218 0 0.20287133985599159 0.38684575588517373 0 0.20998443472073941 0.37703502113432891 0 0.21803677108623029 0.38989931817929468 0 0.20998443472073941 0.37703502113432891 0 0.21803677108623029 0.38989931817929468 0 0.2218990160605783 0.38095676428897779 0 0.2281454248876012 0.37111394237565198 0 0.2218990160605783 0.38095676428897779 0 0.22698970540829039 0.38508677149596959 0 0.23988792781026089 0.3640335467861231 0 0.22698970540829039 0.38508677149596959 0 0.23550800752949 0.38302305041629398 0 0.22698970540829039 0.38508677149596959 0 0.22999548749159809 0.39247146935510208 0 0.23550800752949 0.38302305041629398 0 0.21803677108623029 0.38989931817929468 0 0.22698970540829039 0.38508677149596959 0 0.22999548749159809 0.39247146935510208 0 0.21803677108623029 0.38989931817929468 0 0.2218990160605783 0.38095676428897779 0 0.22698970540829039 0.38508677149596959 0 0.21803677108623029 0.38989931817929468 0 0.22460951656628669 0.40129663711876218 0 0.22999548749159809 0.39247146935510208 0 0.22460951656628669 0.40129663711876218 0 0.22999548749159809 0.39247146935510208 0 0.23909663522386471 0.4033934452323234 0 0.23883212737032269 0.39158225067295888 0 0.2470447434231034 0.39635895695318368 0 0.25451163841684538 0.38770107459702913 0 0.22999548749159809 0.39247146935510208 0 0.23883212737032269 0.39158225067295888 0 0.23909663522386471 0.4033934452323234 0 0.23883212737032269 0.39158225067295888 0 0.23909663522386471 0.4033934452323234 0 0.2470447434231034 0.39635895695318368 0 0.23909663522386471 0.4033934452323234 0 0.2470447434231034 0.39635895695318368 0 0.25299666832954271 0.40433951365922183 0 0.23988792781026089 0.3640335467861231 0 0.2418353545011532 0.38195624489153718 0 0.25451163841684538 0.38770107459702913 0 0.23883212737032269 0.39158225067295888 0 0.2418353545011532 0.38195624489153718 0 0.25451163841684538 0.38770107459702913 0 0.23988792781026089 0.3640335467861231 0 0.2418353545011532 0.38195624489153718 0 0.23550800752949 0.38302305041629398 0 0.23988792781026089 0.3640335467861231 0 0.25451163841684538 0.38770107459702913 0 0.23883212737032269 0.39158225067295888 0 0.2418353545011532 0.38195624489153718 0 0.23550800752949 0.38302305041629398 0 0.22999548749159809 0.39247146935510208 0 0.23883212737032269 0.39158225067295888 0 0.23550800752949 0.38302305041629398 0 0.22673894926793259 0.41525826488246581 0 0.22700703455972099 0.43280214576235038 0 0.2503840746753393 0.42450906341010719 0 0.22700703455972099 0.43280214576235038 0 0.23752794432869631 0.45206970256460899 0 0.2503840746753393 0.42450906341010719 0 0.22700703455972099 0.43280214576235038 0 0.2503840746753393 0.42450906341010719 0 0.23909663522386471 0.4033934452323234 0 0.2503840746753393 0.42450906341010719 0 0.25299666832954271 0.40433951365922183 0 0.23909663522386471 0.4033934452323234 0 0.22673894926793259 0.41525826488246581 0 0.2503840746753393 0.42450906341010719 0 0.2095338735621928 0.4032467413459554 0 0.22460951656628669 0.40129663711876218 0 0.22673894926793259 0.41525826488246581 0 0.22460951656628669 0.40129663711876218 0 0.23909663522386471 0.4033934452323234 0 0.22673894926793259 0.41525826488246581 0 0.22673894926793259 0.41525826488246581 0 0.22700703455972099 0.43280214576235038 0 0.209845509379601 0.42188871808946549 0 0.22700703455972099 0.43280214576235038 0 0.209845509379601 0.42188871808946549 0 0.2036299944441026 0.44109522811459351 0 0.22700703455972099 0.43280214576235038 0 0.2036299944441026 0.44109522811459351 0 0.2095338735621928 0.4032467413459554 0 0.22673894926793259 0.41525826488246581 0 0.209845509379601 0.42188871808946549 0 0.2095338735621928 0.4032467413459554 0 0.209845509379601 0.42188871808946549 0 0.19387868201084149 0.41532017307991898 0 0.18164418233165611 0.41218184746913772 0 0.18852173692639221 0.39830206644587968 0 0.19387868201084149 0.41532017307991898 0 0.19217045122072629 0.42994789337943712 0 0.2036299944441026 0.44109522811459351 0 0.18741467994240299 0.43899267402683828 0 0.209845509379601 0.42188871808946549 0 0.19387868201084149 0.41532017307991898 0 0.19217045122072629 0.42994789337943712 0 0.209845509379601 0.42188871808946549 0 0.19217045122072629 0.42994789337943712 0 0.2036299944441026 0.44109522811459351 0 0.18155633864448081 0.42635377174963912 0 0.19387868201084149 0.41532017307991898 0 0.19217045122072629 0.42994789337943712 0 0.19260685828549559 0.45449981646333992 0 0.2036299944441026 0.44109522811459351 0 0.1802529543284844 0.44938831046683669 0 0.2036299944441026 0.44109522811459351 0 0.18741467994240299 0.43899267402683828 0 0.1802529543284844 0.44938831046683669 0 0.2036299944441026 0.44109522811459351 0 0.1802529543284844 0.44938831046683669 0 0.19260685828549559 0.45449981646333992 0 0.201140618399857 0.45551598919379033 0 0.2036299944441026 0.44109522811459351 0 0.19269621362185471 0.46669697742160582 0 0.18895317060149469 0.46751350932007879 0 0.1972397647304695 0.46874892956654368 0 0.18895317060149469 0.46751350932007879 0 0.19454291012931321 0.46207631342111949 0 0.19260685828549559 0.45449981646333992 0 0.19269621362185471 0.46669697742160582 0 0.19454291012931321 0.46207631342111949 0 0.1972397647304695 0.46874892956654368 0 0.19269621362185471 0.46669697742160582 0 0.18895317060149469 0.46751350932007879 0 0.19454291012931321 0.46207631342111949 0 0.19454291012931321 0.46207631342111949 0 0.19260685828549559 0.45449981646333992 0 0.201140618399857 0.45551598919379033 0 0.19454291012931321 0.46207631342111949 0 0.201140618399857 0.45551598919379033 0 0.20566686028218609 0.46771526295748261 0 0.19454291012931321 0.46207631342111949 0 0.1972397647304695 0.46874892956654368 0 0.20566686028218609 0.46771526295748261 0 0.201140618399857 0.45551598919379033 0 0.20566686028218609 0.46771526295748261 0 0.21604384559765999 0.45276209419538371 0 0.20566686028218609 0.46771526295748261 0 0.21604384559765999 0.45276209419538371 0 0.22129062157139731 0.46737423657947658 0 0.22700703455972099 0.43280214576235038 0 0.2036299944441026 0.44109522811459351 0 0.21604384559765999 0.45276209419538371 0 0.201140618399857 0.45551598919379033 0 0.2036299944441026 0.44109522811459351 0 0.21604384559765999 0.45276209419538371 0 0.22700703455972099 0.43280214576235038 0 0.21604384559765999 0.45276209419538371 0 0.23752794432869631 0.45206970256460899 0 0.22129062157139731 0.46737423657947658 0 0.23752794432869631 0.45206970256460899 0 0.23939303546495361 0.47803087059540622 0 0.21604384559765999 0.45276209419538371 0 0.22129062157139731 0.46737423657947658 0 0.23752794432869631 0.45206970256460899 0 0.23752794432869631 0.45206970256460899 0 0.23939303546495361 0.47803087059540622 0 0.25801153696436802 0.46349667030790959 0 0.23939303546495361 0.47803087059540622 0 0.23114640959924179 0.5 0 0.25774591651410728 0.5 0 0.22129062157139731 0.46737423657947658 0 0.23939303546495361 0.47803087059540622 0 0.21591899326600669 0.48335714075320629 0 0.23939303546495361 0.47803087059540622 0 0.23114640959924179 0.5 0 0.21591899326600669 0.48335714075320629 0 0.20454690268437639 0.49999999999999772 0 0.21591899326600669 0.48335714075320629 0 0.19675003664293569 0.4837567546600382 0 0.23114640959924179 0.5 0 0.20454690268437639 0.49999999999999772 0 0.21591899326600669 0.48335714075320629 0 0.20566686028218609 0.46771526295748261 0 0.22129062157139731 0.46737423657947658 0 0.21591899326600669 0.48335714075320629 0 0.20566686028218609 0.46771526295748261 0 0.21591899326600669 0.48335714075320629 0 0.19675003664293569 0.4837567546600382 0 0.18895317060149469 0.46751350932007879 0 0.19675003664293569 0.4837567546600382 0 0.18895317060149469 0.46751350932007879 0 0.1972397647304695 0.46874892956654368 0 0.19675003664293569 0.4837567546600382 0 0.18895317060149469 0.46751350932007879 0 0.19675003664293569 0.4837567546600382 0 0.18077718349567851 0.48088985431255121 0 0.1972397647304695 0.46874892956654368 0 0.20566686028218609 0.46771526295748261 0 0.19675003664293569 0.4837567546600382 0 0.20454690268437639 0.49999999999999772 0 0.19675003664293569 0.4837567546600382 0 0.17624481352807289 0.5 0 0.20454690268437639 0.49999999999999772 0 0.19675003664293569 0.4837567546600382 0 0.19675003664293569 0.4837567546600382 0 0.17624481352807289 0.5 0 0.18077718349567851 0.48088985431255121 0 0.17624481352807289 0.5 0 0.1681431187988032 0.48254533678629657 0 0.18077718349567851 0.48088985431255121 0 0.17624481352807289 0.5 0 0.15631848890352171 0.48831663670280251 0 0.1681431187988032 0.48254533678629657 0 0.17624481352807289 0.5 0 0.15631848890352171 0.48831663670280251 0 0.1479427243717695 0.5 0 0.1583490938558704 0.46966252667427522 0 0.15847840770813509 0.47828849798465839 0 0.1647093752224133 0.47372451391905679 0 0.1583490938558704 0.46966252667427522 0 0.1647093752224133 0.47372451391905679 0 0.16478147784217109 0.46749253735371182 0 0.15631848890352171 0.48831663670280251 0 0.15847840770813509 0.47828849798465839 0 0.1681431187988032 0.48254533678629657 0 0.15847840770813509 0.47828849798465839 0 0.1681431187988032 0.48254533678629657 0 0.1647093752224133 0.47372451391905679 0 0.1681431187988032 0.48254533678629657 0 0.1647093752224133 0.47372451391905679 0 0.1737947779070865 0.47063367079634227 0 0.1647093752224133 0.47372451391905679 0 0.1737947779070865 0.47063367079634227 0 0.16478147784217109 0.46749253735371182 0 0.1681431187988032 0.48254533678629657 0 0.1737947779070865 0.47063367079634227 0 0.18077718349567851 0.48088985431255121 0 0.18895317060149469 0.46751350932007879 0 0.1737947779070865 0.47063367079634227 0 0.18077718349567851 0.48088985431255121 0 0.18895317060149469 0.46751350932007879 0 0.17311040101973479 0.45398664598998312 0 0.1802529543284844 0.44938831046683669 0 0.18895317060149469 0.46751350932007879 0 0.1802529543284844 0.44938831046683669 0 0.18895317060149469 0.46751350932007879 0 0.19260685828549559 0.45449981646333992 0 0.1802529543284844 0.44938831046683669 0 0.18895317060149469 0.46751350932007879 0 0.1737947779070865 0.47063367079634227 0 0.17311040101973479 0.45398664598998312 0 0.18895317060149469 0.46751350932007879 0 0.17311040101973479 0.45398664598998312 0 0.17311040101973479 0.45398664598998312 0 0.17155474086404329 0.45265839323685719 0 0.1736053197762995 0.43553926414648542 0 0.1802529543284844 0.44938831046683669 0 0.17155474086404329 0.45265839323685719 0 0.1736053197762995 0.43553926414648542 0 0.18741467994240299 0.43899267402683828 0 0.1802529543284844 0.44938831046683669 0 0.17311040101973479 0.45398664598998312 0 0.1802529543284844 0.44938831046683669 0 0.17155474086404329 0.45265839323685719 0 0.1802529543284844 0.44938831046683669 0 0.17155474086404329 0.45265839323685719 0 0.1736053197762995 0.43553926414648542 0 0.1802529543284844 0.44938831046683669 0 0.1736053197762995 0.43553926414648542 0 0.17155474086404329 0.45265839323685719 0 0.15726763143797409 0.44045978265988822 0 0.1736053197762995 0.43553926414648542 0 0.15726763143797409 0.44045978265988822 0 0.17155474086404329 0.45265839323685719 0 0.15726763143797409 0.44045978265988822 0 0.1682054510419807 0.46045098750551888 0 0.17155474086404329 0.45265839323685719 0 0.15726763143797409 0.44045978265988822 0 0.1737947779070865 0.47063367079634227 0 0.17311040101973479 0.45398664598998312 0 0.1682054510419807 0.46045098750551888 0 0.15726763143797409 0.44045978265988822 0 0.1682054510419807 0.46045098750551888 0 0.1604414964263981 0.46281049047032768 0 0.1737947779070865 0.47063367079634227 0 0.16478147784217109 0.46749253735371182 0 0.1682054510419807 0.46045098750551888 0 0.16478147784217109 0.46749253735371182 0 0.1682054510419807 0.46045098750551888 0 0.1604414964263981 0.46281049047032768 0 0.17311040101973479 0.45398664598998312 0 0.17155474086404329 0.45265839323685719 0 0.1682054510419807 0.46045098750551888 0 0.1604414964263981 0.46281049047032768 0 0.15543567912684561 0.46669801340606221 0 0.1583490938558704 0.46966252667427522 0 0.16478147784217109 0.46749253735371182 0 0.1604414964263981 0.46281049047032768 0 0.1583490938558704 0.46966252667427522 0 0.1604414964263981 0.46281049047032768 0 0.15543567912684561 0.46669801340606221 0 0.1583490938558704 0.46966252667427522 0 0.15543567912684561 0.46669801340606221 0 0.1604414964263981 0.46281049047032768 0 0.15543567912684561 0.46669801340606221 0 0.13595725424645819 0.4468779553736183 0 0.15543567912684561 0.46669801340606221 0 0.13595725424645819 0.4468779553736183 0 0.15726763143797409 0.44045978265988822 0 0.1604414964263981 0.46281049047032768 0 0.13595725424645819 0.4468779553736183 0 0.1445399414656286 0.42959263459747088 0 0.15726763143797409 0.44045978265988822 0 0.13595725424645819 0.4468779553736183 0 0.15726763143797409 0.44045978265988822 0 0.13595725424645819 0.4468779553736183 0 0.1192121819659164 0.45192116812553379 0 0.13595725424645819 0.4468779553736183 0 0.1192121819659164 0.45192116812553379 0 0.13595725424645819 0.4468779553736183 0 0.12759513619708221 0.46664877989488568 0 0.15543567912684561 0.46669801340606221 0 0.13595725424645819 0.4468779553736183 0 0.12759513619708221 0.46664877989488568 0 0.15543567912684561 0.46669801340606221 0 0.12759513619708221 0.46664877989488568 0 0.13676236144003179 0.48119973139729638 0 0.1232626025210715 0.47962859419113252 0 0.12759513619708221 0.46664877989488568 0 0.13676236144003179 0.48119973139729638 0 0.1180890437532176 0.49570144938853022 0 0.1232626025210715 0.47962859419113252 0 0.13676236144003179 0.48119973139729638 0 0.1180890437532176 0.49570144938853022 0 0.13676236144003179 0.48119973139729638 0 0.14384397992645689 0.48588288138850211 0 0.1196406352154659 0.50000000000000067 0 0.1180890437532176 0.49570144938853022 0 0.1480579640994828 0.4932533326377061 0 0.1196406352154659 0.50000000000000067 0 0.1480579640994828 0.4932533326377061 0 0.1479427243717695 0.5 0 0.1180890437532176 0.49570144938853022 0 0.13676236144003179 0.48119973139729638 0 0.1180890437532176 0.49570144938853022 0 0.14384397992645689 0.48588288138850211 0 0.1480579640994828 0.4932533326377061 0 0.1180890437532176 0.49570144938853022 0 0.1480579640994828 0.4932533326377061 0 0.15631848890352171 0.48831663670280251 0 0.1480579640994828 0.4932533326377061 0 0.1479427243717695 0.5 0 0.15631848890352171 0.48831663670280251 0 0.14384397992645689 0.48588288138850211 0 0.1480579640994828 0.4932533326377061 0 0.15631848890352171 0.48831663670280251 0 0.14384397992645689 0.48588288138850211 0 0.1515184138919313 0.478246408122455 0 0.15631848890352171 0.48831663670280251 0 0.15847840770813509 0.47828849798465839 0 0.1515184138919313 0.478246408122455 0 0.15543567912684561 0.46669801340606221 0 0.13676236144003179 0.48119973139729638 0 0.1515184138919313 0.478246408122455 0 0.15543567912684561 0.46669801340606221 0 0.13676236144003179 0.48119973139729638 0 0.1583490938558704 0.46966252667427522 0 0.15847840770813509 0.47828849798465839 0 0.1515184138919313 0.478246408122455 0 0.1583490938558704 0.46966252667427522 0 0.15543567912684561 0.46669801340606221 0 0.1515184138919313 0.478246408122455 0 0.13676236144003179 0.48119973139729638 0 0.14384397992645689 0.48588288138850211 0 0.1515184138919313 0.478246408122455 0 0.3553244230430046 0.47627173306018428 0 0.36561871567760679 0.5 0 0.33754443725870342 0.50000000000000333 0 0.3553244230430046 0.47627173306018428 0 0.36561871567760679 0.5 0 0.37122403352689548 0.48327155723405818 0 0.3553244230430046 0.47627173306018428 0 0.37122403352689548 0.48327155723405818 0 0.37446310876981698 0.46179544865201161 0 0.3553244230430046 0.47627173306018428 0 0.37446310876981698 0.46179544865201161 0 0.34847144679069408 0.45209741771530199 0 0.37446310876981698 0.46179544865201161 0 0.36930359675366592 0.44331647074245623 0 0.34847144679069408 0.45209741771530199 0 0.36930359675366592 0.44331647074245623 0 0.34847144679069408 0.45209741771530199 0 0.3590748149936096 0.42912889851320901 0 0.34847144679069408 0.45209741771530199 0 0.31624615723092592 0.44493973804889259 0 0.32689529724481398 0.47246986902444821 0 0.31624615723092592 0.44493973804889259 0 0.32689529724481398 0.47246986902444821 0 0.30580760756344788 0.47809769063423863 0 0.3553244230430046 0.47627173306018428 0 0.34847144679069408 0.45209741771530199 0 0.32689529724481398 0.47246986902444821 0 0.34847144679069408 0.45209741771530199 0 0.31624615723092592 0.44493973804889259 0 0.34140729616956639 0.43127008199152628 0 0.31624615723092592 0.44493973804889259 0 0.32689529724481398 0.47246986902444821 0 0.32689529724481398 0.47246986902444821 0 0.31094493034383802 0.5 0 0.30580760756344788 0.47809769063423863 0 0.3553244230430046 0.47627173306018428 0 0.32689529724481398 0.47246986902444821 0 0.33754443725870342 0.50000000000000333 0 0.32689529724481398 0.47246986902444821 0 0.33754443725870342 0.50000000000000333 0 0.32689529724481398 0.47246986902444821 0 0.33754443725870342 0.50000000000000333 0 0.31094493034383802 0.5 0 0.30580760756344788 0.47809769063423863 0 0.28434542342897268 0.5 0 0.28558141289854688 0.46545756090431573 0 0.31094493034383802 0.5 0 0.30580760756344788 0.47809769063423863 0 0.28434542342897268 0.5 0 0.28434542342897268 0.5 0 0.26717730903792991 0.48091913099149319 0 0.28558141289854688 0.46545756090431573 0 0.28434542342897268 0.5 0 0.26717730903792991 0.48091913099149319 0 0.25774591651410728 0.5 0 0.26717730903792991 0.48091913099149319 0 0.25801153696436802 0.46349667030790959 0 0.28558141289854688 0.46545756090431573 0 0.23939303546495361 0.47803087059540622 0 0.26717730903792991 0.48091913099149319 0 0.25801153696436802 0.46349667030790959 0 0.23939303546495361 0.47803087059540622 0 0.26717730903792991 0.48091913099149319 0 0.25774591651410728 0.5 0 0.23752794432869631 0.45206970256460899 0 0.26329708128488211 0.44180356248081881 0 0.2503840746753393 0.42450906341010719 0 0.23752794432869631 0.45206970256460899 0 0.26329708128488211 0.44180356248081881 0 0.25801153696436802 0.46349667030790959 0 0.26329708128488211 0.44180356248081881 0 0.25801153696436802 0.46349667030790959 0 0.28558141289854688 0.46545756090431573 0 0.26329708128488211 0.44180356248081881 0 0.28558141289854688 0.46545756090431573 0 0.2837865192611902 0.43501914141340631 0 0.31624615723092592 0.44493973804889259 0 0.30580760756344788 0.47809769063423863 0 0.28558141289854688 0.46545756090431573 0 0.31624615723092592 0.44493973804889259 0 0.28558141289854688 0.46545756090431573 0 0.2837865192611902 0.43501914141340631 0 0.31624615723092592 0.44493973804889259 0 0.30559701721703758 0.41740960707333702 0 0.31624615723092592 0.44493973804889259 0 0.30559701721703758 0.41740960707333702 0 0.2837865192611902 0.43501914141340631 0 0.30559701721703758 0.41740960707333702 0 0.28703009886063813 0.41645110963371668 0 0.29494787720314941 0.38987947609778129 0 0.30559701721703758 0.41740960707333702 0 0.28703009886063813 0.41645110963371668 0 0.2837865192611902 0.43501914141340631 0 0.26329708128488211 0.44180356248081881 0 0.2837865192611902 0.43501914141340631 0 0.26914907883901779 0.41136010800521761 0 0.2837865192611902 0.43501914141340631 0 0.26914907883901779 0.41136010800521761 0 0.28703009886063813 0.41645110963371668 0 0.2837865192611902 0.43501914141340631 0 0.26914907883901779 0.41136010800521761 0 0.28703009886063813 0.41645110963371668 0 0.26914907883901779 0.41136010800521761 0 0.28039375594173838 0.40002264983454972 0 0.26914907883901779 0.41136010800521761 0 0.2503840746753393 0.42450906341010719 0 0.25299666832954271 0.40433951365922183 0 0.26329708128488211 0.44180356248081881 0 0.26914907883901779 0.41136010800521761 0 0.2503840746753393 0.42450906341010719 0 0.25451163841684538 0.38770107459702913 0 0.26934552241690951 0.38641429155500778 0 0.25183242829235308 0.36582745696640578 0 0.26934552241690951 0.38641429155500778 0 0.25129995781948239 0.36358958124085561 0 0.26914907883901779 0.41136010800521761 0 0.25451163841684538 0.38770107459702913 0 0.26934552241690951 0.38641429155500778 0 0.26914907883901779 0.41136010800521761 0 0.25451163841684538 0.38770107459702913 0 0.25299666832954271 0.40433951365922183 0 0.26914907883901779 0.41136010800521761 0 0.25451163841684538 0.38770107459702913 0 0.2470447434231034 0.39635895695318368 0 0.25451163841684538 0.38770107459702913 0 0.25299666832954271 0.40433951365922183 0 0.26914907883901779 0.41136010800521761 0 0.28039375594173838 0.40002264983454972 0 0.26934552241690951 0.38641429155500778 0 0.26934552241690951 0.38641429155500778 0 0.29494787720314941 0.38987947609778129 0 0.27648167010992503 0.37417026719607138 0 0.29494787720314941 0.38987947609778129 0 0.2842987371892608 0.36234934512222589 0 0.29494787720314941 0.38987947609778129 0 0.2842987371892608 0.36234934512222589 0 0.27648167010992503 0.37417026719607138 0 0.28039375594173838 0.40002264983454972 0 0.26934552241690951 0.38641429155500778 0 0.29494787720314941 0.38987947609778129 0 0.28703009886063813 0.41645110963371668 0 0.28039375594173838 0.40002264983454972 0 0.29494787720314941 0.38987947609778129 0 0.30559701721703758 0.41740960707333702 0 0.29494787720314941 0.38987947609778129 0 0.30559701721703758 0.41740960707333702 0 0.29494787720314941 0.38987947609778129 0 0.31230223974095989 0.39343347392106709 0 0.29494787720314941 0.38987947609778129 0 0.30581500257232769 0.37582932693955301 0 0.29592449394281062 0.36924747941366282 0 0.29494787720314941 0.38987947609778129 0 0.31230223974095989 0.39343347392106709 0 0.30581500257232769 0.37582932693955301 0 0.31230223974095989 0.39343347392106709 0 0.30581500257232769 0.37582932693955301 0 0.32061406952607252 0.37851981779320448 0 0.32061406952607252 0.37851981779320448 0 0.32857617081417267 0.4000422627741077 0 0.33581017480710212 0.37430744675231742 0 0.32857617081417267 0.4000422627741077 0 0.34831437634838441 0.38494394491492628 0 0.33581017480710212 0.37430744675231742 0 0.32857617081417267 0.4000422627741077 0 0.34991746872144869 0.40628802966486732 0 0.34831437634838441 0.38494394491492628 0 0.31230223974095989 0.39343347392106709 0 0.32061406952607252 0.37851981779320448 0 0.32857617081417267 0.4000422627741077 0 0.30559701721703758 0.41740960707333702 0 0.31230223974095989 0.39343347392106709 0 0.32857617081417267 0.4000422627741077 0 0.30559701721703758 0.41740960707333702 0 0.32857617081417267 0.4000422627741077 0 0.32588966147874843 0.42176958134409098 0 0.31624615723092592 0.44493973804889259 0 0.32588966147874843 0.42176958134409098 0 0.34140729616956639 0.43127008199152628 0 0.31624615723092592 0.44493973804889259 0 0.30559701721703758 0.41740960707333702 0 0.32588966147874843 0.42176958134409098 0 0.32588966147874843 0.42176958134409098 0 0.34140729616956639 0.43127008199152628 0 0.34991746872144869 0.40628802966486732 0 0.32857617081417267 0.4000422627741077 0 0.32588966147874843 0.42176958134409098 0 0.34991746872144869 0.40628802966486732 0 0.34991746872144869 0.40628802966486732 0 0.3590748149936096 0.42912889851320901 0 0.36588602204460519 0.41465886817914538 0 0.34847144679069408 0.45209741771530199 0 0.34140729616956639 0.43127008199152628 0 0.3590748149936096 0.42912889851320901 0 0.34140729616956639 0.43127008199152628 0 0.34991746872144869 0.40628802966486732 0 0.3590748149936096 0.42912889851320901 0 0.3590748149936096 0.42912889851320901 0 0.36588602204460519 0.41465886817914538 0 0.37994859105186052 0.42257609133380858 0 0.36930359675366592 0.44331647074245623 0 0.3590748149936096 0.42912889851320901 0 0.37994859105186052 0.42257609133380858 0 0.36588602204460519 0.41465886817914538 0 0.3753335618341983 0.40308257339433501 0 0.37994859105186052 0.42257609133380858 0 0.34991746872144869 0.40628802966486732 0 0.36588602204460519 0.41465886817914538 0 0.3753335618341983 0.40308257339433501 0 0.34991746872144869 0.40628802966486732 0 0.37316426570948041 0.38583691766786932 0 0.3753335618341983 0.40308257339433501 0 0.37316426570948041 0.38583691766786932 0 0.34831437634838441 0.38494394491492628 0 0.36527241956673562 0.37048534447309872 0 0.37316426570948041 0.38583691766786932 0 0.34831437634838441 0.38494394491492628 0 0.37316426570948041 0.38583691766786932 0 0.36527241956673562 0.37048534447309872 0 0.3801807417636644 0.37252583622892033 0 0.34991746872144869 0.40628802966486732 0 0.37316426570948041 0.38583691766786932 0 0.34831437634838441 0.38494394491492628 0 0.35613397368114941 0.35296939807249628 0 0.35010440123723008 0.36316433422236422 0 0.34323575832283038 0.34704683967312022 0 0.35613397368114941 0.35296939807249628 0 0.35010440123723008 0.36316433422236422 0 0.36143556578496122 0.36058754635609552 0 0.35613397368114941 0.35296939807249628 0 0.34991518076625888 0.33978523139775563 0 0.34323575832283038 0.34704683967312022 0 0.34831437634838441 0.38494394491492628 0 0.35010440123723008 0.36316433422236422 0 0.33581017480710212 0.37430744675231742 0 0.34831437634838441 0.38494394491492628 0 0.35010440123723008 0.36316433422236422 0 0.36527241956673562 0.37048534447309872 0 0.35010440123723008 0.36316433422236422 0 0.36143556578496122 0.36058754635609552 0 0.36527241956673562 0.37048534447309872 0 0.36527241956673562 0.37048534447309872 0 0.37423146865472978 0.35573110865642288 0 0.3801807417636644 0.37252583622892033 0 0.36143556578496122 0.36058754635609552 0 0.36527241956673562 0.37048534447309872 0 0.37423146865472978 0.35573110865642288 0 0.37423146865472978 0.35573110865642288 0 0.37484275173419918 0.34129884314659548 0 0.34991518076625888 0.33978523139775563 0 0.35613397368114941 0.35296939807249628 0 0.37423146865472978 0.35573110865642288 0 0.34991518076625888 0.33978523139775563 0 0.37423146865472978 0.35573110865642288 0 0.34991518076625888 0.33978523139775563 0 0.35613397368114941 0.35296939807249628 0 0.36143556578496122 0.36058754635609552 0 0.37423146865472978 0.35573110865642288 0 0.37484275173419918 0.34129884314659548 0 0.35405576734947591 0.33515486288744728 0 0.34991518076625888 0.33978523139775563 0 0.37484275173419918 0.34129884314659548 0 0.35405576734947591 0.33515486288744728 0 0.37484275173419918 0.34129884314659548 0 0.36617301799765462 0.33143204923777531 0 0.35405576734947591 0.33515486288744728 0 0.36617301799765462 0.33143204923777531 0 0.3672774944111874 0.32408139195737828 0 0.37575503919442549 0.32913182526222517 0 0.37484275173419918 0.34129884314659548 0 0.36617301799765462 0.33143204923777531 0 0.37575503919442549 0.32913182526222517 0 0.36617301799765462 0.33143204923777531 0 0.35833246542315489 0.32550358875337881 0 0.35405576734947591 0.33515486288744728 0 0.37302190852298428 0.31709005754215652 0 0.3672774944111874 0.32408139195737828 0 0.37575503919442549 0.32913182526222517 0 0.3672774944111874 0.32408139195737828 0 0.36095161746539761 0.3137777563083386 0 0.35833246542315489 0.32550358875337881 0 0.36617301799765462 0.33143204923777531 0 0.3672774944111874 0.32408139195737828 0 0.35833246542315489 0.32550358875337881 0 0.37302190852298428 0.31709005754215652 0 0.3672774944111874 0.32408139195737828 0 0.36095161746539761 0.3137777563083386 0 0.36095161746539761 0.3137777563083386 0 0.35833246542315489 0.32550358875337881 0 0.35151498172173712 0.31756409687413539 0 0.36095161746539761 0.3137777563083386 0 0.35151498172173712 0.31756409687413539 0 0.35023758078297429 0.30802941204737189 0 0.35833246542315489 0.32550358875337881 0 0.35214611883526808 0.32617929020781711 0 0.35151498172173712 0.31756409687413539 0 0.35214611883526808 0.32617929020781711 0 0.34468126084670481 0.32649461231630678 0 0.35151498172173712 0.31756409687413539 0 0.34468126084670481 0.32649461231630678 0 0.35405576734947591 0.33515486288744728 0 0.33326878296475271 0.32901088262829897 0 0.35833246542315489 0.32550358875337881 0 0.35214611883526808 0.32617929020781711 0 0.35405576734947591 0.33515486288744728 0 0.35214611883526808 0.32617929020781711 0 0.34468126084670481 0.32649461231630678 0 0.35405576734947591 0.33515486288744728 0 0.35405576734947591 0.33515486288744728 0 0.34991518076625888 0.33978523139775563 0 0.34152934965685028 0.3378534408173971 0 0.34991518076625888 0.33978523139775563 0 0.34152934965685028 0.3378534408173971 0 0.34323575832283038 0.34704683967312022 0 0.35405576734947591 0.33515486288744728 0 0.33326878296475271 0.32901088262829897 0 0.35405576734947591 0.33515486288744728 0 0.34152934965685028 0.3378534408173971 0 0.33326878296475271 0.32901088262829897 0 0.34152934965685028 0.3378534408173971 0 0.33612048527201011 0.34132432046527672 0 0.34323575832283038 0.34704683967312022 0 0.34152934965685028 0.3378534408173971 0 0.33612048527201011 0.34132432046527672 0 0.33338987415993793 0.33635297992587931 0 0.34152934965685028 0.3378534408173971 0 0.33326878296475271 0.32901088262829897 0 0.33338987415993793 0.33635297992587931 0 0.33326878296475271 0.32901088262829897 0 0.33338987415993793 0.33635297992587931 0 0.32735671467570299 0.33400101735882709 0 0.328674038230373 0.33957523835959652 0 0.33338987415993793 0.33635297992587931 0 0.32735671467570299 0.33400101735882709 0 0.33612048527201011 0.34132432046527672 0 0.328674038230373 0.33957523835959652 0 0.33284763329226408 0.34734143382917371 0 0.33612048527201011 0.34132432046527672 0 0.328674038230373 0.33957523835959652 0 0.33338987415993793 0.33635297992587931 0 0.35151498172173712 0.31756409687413539 0 0.33199839015088323 0.32021549962164297 0 0.3421876984749066 0.31066267255465407 0 0.34468126084670481 0.32649461231630678 0 0.35151498172173712 0.31756409687413539 0 0.33199839015088323 0.32021549962164297 0 0.35151498172173712 0.31756409687413539 0 0.33199839015088323 0.32021549962164297 0 0.34468126084670481 0.32649461231630678 0 0.33326878296475271 0.32901088262829897 0 0.33199839015088323 0.32021549962164297 0 0.33199839015088323 0.32021549962164297 0 0.33272829778035801 0.30991178056899582 0 0.3421876984749066 0.31066267255465407 0 0.33199839015088323 0.32021549962164297 0 0.32491099881883512 0.31235209566326189 0 0.33272829778035801 0.30991178056899582 0 0.33199839015088323 0.32021549962164297 0 0.31248179858002939 0.32286690236915072 0 0.33326878296475271 0.32901088262829897 0 0.33199839015088323 0.32021549962164297 0 0.31248179858002939 0.32286690236915072 0 0.33199839015088323 0.32021549962164297 0 0.32044353590665697 0.31701450652592961 0 0.31248179858002939 0.32286690236915072 0 0.33326878296475271 0.32901088262829897 0 0.31248179858002939 0.32286690236915072 0 0.33326878296475271 0.32901088262829897 0 0.32144263132468298 0.33093810828180109 0 0.31248179858002939 0.32286690236915072 0 0.33199839015088323 0.32021549962164297 0 0.32044353590665697 0.31701450652592961 0 0.32491099881883512 0.31235209566326189 0 0.32044353590665697 0.31701450652592961 0 0.31853047402505091 0.31242401551197252 0 0.32491099881883512 0.31235209566326189 0 0.32044353590665697 0.31701450652592961 0 0.31429601795848622 0.31721401946361982 0 0.31248179858002939 0.32286690236915072 0 0.31429601795848622 0.31721401946361982 0 0.31853047402505091 0.31242401551197252 0 0.31352345225364919 0.30899693970393022 0 0.32044353590665697 0.31701450652592961 0 0.31429601795848622 0.31721401946361982 0 0.31853047402505091 0.31242401551197252 0 0.328674038230373 0.33957523835959652 0 0.32063910695375242 0.33680590759552459 0 0.32735671467570299 0.33400101735882709 0 0.32063910695375242 0.33680590759552459 0 0.31858607760659291 0.34292399296466491 0 0.32418323241696889 0.34502259354020998 0 0.328674038230373 0.33957523835959652 0 0.32063910695375242 0.33680590759552459 0 0.32418323241696889 0.34502259354020998 0 0.33326878296475271 0.32901088262829897 0 0.32735671467570299 0.33400101735882709 0 0.32144263132468298 0.33093810828180109 0 0.32063910695375242 0.33680590759552459 0 0.32735671467570299 0.33400101735882709 0 0.32144263132468298 0.33093810828180109 0 0.32063910695375242 0.33680590759552459 0 0.32144263132468298 0.33093810828180109 0 0.31346675344917779 0.33200583145720453 0 0.32144263132468298 0.33093810828180109 0 0.31346675344917779 0.33200583145720453 0 0.31248179858002939 0.32286690236915072 0 0.32063910695375242 0.33680590759552459 0 0.31346675344917779 0.33200583145720453 0 0.31292197000169958 0.33938673636739458 0 0.32063910695375242 0.33680590759552459 0 0.31292197000169958 0.33938673636739458 0 0.31858607760659291 0.34292399296466491 0 0.31292197000169958 0.33938673636739458 0 0.31858607760659291 0.34292399296466491 0 0.31660000105395047 0.35048073435553029 0 0.31858607760659291 0.34292399296466491 0 0.31660000105395047 0.35048073435553029 0 0.32418323241696889 0.34502259354020998 0 0.31660000105395047 0.35048073435553029 0 0.32587863845982229 0.36292843421553589 0 0.3130936187719397 0.36327065740186898 0 0.31660000105395047 0.35048073435553029 0 0.3130936187719397 0.36327065740186898 0 0.30850769695047908 0.35193407353077671 0 0.31660000105395047 0.35048073435553029 0 0.32727233231668912 0.35275015822697681 0 0.32587863845982229 0.36292843421553589 0 0.31660000105395047 0.35048073435553029 0 0.32727233231668912 0.35275015822697681 0 0.32418323241696889 0.34502259354020998 0 0.32727233231668912 0.35275015822697681 0 0.32418323241696889 0.34502259354020998 0 0.33284763329226408 0.34734143382917371 0 0.35010440123723008 0.36316433422236422 0 0.33685215636043958 0.35797759519443401 0 0.34323575832283038 0.34704683967312022 0 0.328674038230373 0.33957523835959652 0 0.32418323241696889 0.34502259354020998 0 0.33284763329226408 0.34734143382917371 0 0.32727233231668912 0.35275015822697681 0 0.33284763329226408 0.34734143382917371 0 0.33685215636043958 0.35797759519443401 0 0.32727233231668912 0.35275015822697681 0 0.33685215636043958 0.35797759519443401 0 0.32587863845982229 0.36292843421553589 0 0.33284763329226408 0.34734143382917371 0 0.33685215636043958 0.35797759519443401 0 0.34323575832283038 0.34704683967312022 0 0.33612048527201011 0.34132432046527672 0 0.33284763329226408 0.34734143382917371 0 0.34323575832283038 0.34704683967312022 0 0.33685215636043958 0.35797759519443401 0 0.33581017480710212 0.37430744675231742 0 0.32587863845982229 0.36292843421553589 0 0.35010440123723008 0.36316433422236422 0 0.33685215636043958 0.35797759519443401 0 0.33581017480710212 0.37430744675231742 0 0.32061406952607252 0.37851981779320448 0 0.33581017480710212 0.37430744675231742 0 0.32587863845982229 0.36292843421553589 0 0.30581500257232769 0.37582932693955301 0 0.32061406952607252 0.37851981779320448 0 0.3130936187719397 0.36327065740186898 0 0.32061406952607252 0.37851981779320448 0 0.32587863845982229 0.36292843421553589 0 0.3130936187719397 0.36327065740186898 0 0.30581500257232769 0.37582932693955301 0 0.3130936187719397 0.36327065740186898 0 0.30334852578774751 0.36556858311058787 0 0.3130936187719397 0.36327065740186898 0 0.30334852578774751 0.36556858311058787 0 0.30295020748880158 0.35736922054048459 0 0.30334852578774751 0.36556858311058787 0 0.29592449394281062 0.36924747941366282 0 0.29684277243989748 0.35973412968445251 0 0.30334852578774751 0.36556858311058787 0 0.30295020748880158 0.35736922054048459 0 0.29684277243989748 0.35973412968445251 0 0.30581500257232769 0.37582932693955301 0 0.30334852578774751 0.36556858311058787 0 0.29592449394281062 0.36924747941366282 0 0.31292197000169958 0.33938673636739458 0 0.31660000105395047 0.35048073435553029 0 0.3064222474616064 0.34438857639467102 0 0.31660000105395047 0.35048073435553029 0 0.3064222474616064 0.34438857639467102 0 0.30850769695047908 0.35193407353077671 0 0.3064222474616064 0.34438857639467102 0 0.30850769695047908 0.35193407353077671 0 0.30231067060964101 0.35008178746936908 0 0.3130936187719397 0.36327065740186898 0 0.30850769695047908 0.35193407353077671 0 0.30295020748880158 0.35736922054048459 0 0.30295020748880158 0.35736922054048459 0 0.29629308619899769 0.3525518371948505 0 0.29684277243989748 0.35973412968445251 0 0.30295020748880158 0.35736922054048459 0 0.30231067060964101 0.35008178746936908 0 0.29629308619899769 0.3525518371948505 0 0.30850769695047908 0.35193407353077671 0 0.30295020748880158 0.35736922054048459 0 0.30231067060964101 0.35008178746936908 0 0.29738011494832017 0.34416522968606278 0 0.30231067060964101 0.35008178746936908 0 0.29629308619899769 0.3525518371948505 0 0.3064222474616064 0.34438857639467102 0 0.29738011494832017 0.34416522968606278 0 0.30231067060964101 0.35008178746936908 0 0.28850183994036321 0.3471122666085753 0 0.2842987371892608 0.36234934512222589 0 0.27774728655223813 0.34541255080062672 0 0.29738011494832017 0.34416522968606278 0 0.28850183994036321 0.3471122666085753 0 0.29196103858734451 0.34055515538070719 0 0.29738011494832017 0.34416522968606278 0 0.29629308619899769 0.3525518371948505 0 0.28850183994036321 0.3471122666085753 0 0.29629308619899769 0.3525518371948505 0 0.29158151817008482 0.35706234600622999 0 0.28850183994036321 0.3471122666085753 0 0.29629308619899769 0.3525518371948505 0 0.29158151817008482 0.35706234600622999 0 0.29684277243989748 0.35973412968445251 0 0.29158151817008482 0.35706234600622999 0 0.28850183994036321 0.3471122666085753 0 0.2842987371892608 0.36234934512222589 0 0.29494787720314941 0.38987947609778129 0 0.29592449394281062 0.36924747941366282 0 0.2842987371892608 0.36234934512222589 0 0.29592449394281062 0.36924747941366282 0 0.29029404846448031 0.3621240155273765 0 0.2842987371892608 0.36234934512222589 0 0.29592449394281062 0.36924747941366282 0 0.29684277243989748 0.35973412968445251 0 0.29029404846448031 0.3621240155273765 0 0.29158151817008482 0.35706234600622999 0 0.29684277243989748 0.35973412968445251 0 0.29029404846448031 0.3621240155273765 0 0.29029404846448031 0.3621240155273765 0 0.2842987371892608 0.36234934512222589 0 0.29158151817008482 0.35706234600622999 0 0.29029404846448031 0.3621240155273765 0 0.2842987371892608 0.36234934512222589 0 0.26934552241690951 0.38641429155500778 0 0.27648167010992503 0.37417026719607138 0 0.26779934750437168 0.362969463181543 0 0.2842987371892608 0.36234934512222589 0 0.26779934750437168 0.362969463181543 0 0.2842987371892608 0.36234934512222589 0 0.27648167010992503 0.37417026719607138 0 0.26779934750437168 0.362969463181543 0 0.2842987371892608 0.36234934512222589 0 0.27774728655223813 0.34541255080062672 0 0.26779934750437168 0.362969463181543 0 0.27774728655223813 0.34541255080062672 0 0.26304427533009372 0.34879241369253022 0 0.2842987371892608 0.36234934512222589 0 0.26779934750437168 0.362969463181543 0 0.27774728655223813 0.34541255080062672 0 0.27774728655223813 0.34541255080062672 0 0.26304427533009372 0.34879241369253022 0 0.26715791754237111 0.33930200970935331 0 0.26779934750437168 0.362969463181543 0 0.26304427533009372 0.34879241369253022 0 0.25630035840621962 0.35549909445953209 0 0.24819205505449121 0.35052763600723369 0 0.26304427533009372 0.34879241369253022 0 0.25786204442318528 0.33476587005469932 0 0.24819205505449121 0.35052763600723369 0 0.25630035840621962 0.35549909445953209 0 0.25129995781948239 0.36358958124085561 0 0.24819205505449121 0.35052763600723369 0 0.26304427533009372 0.34879241369253022 0 0.25630035840621962 0.35549909445953209 0 0.26779934750437168 0.362969463181543 0 0.25630035840621962 0.35549909445953209 0 0.25129995781948239 0.36358958124085561 0 0.26779934750437168 0.362969463181543 0 0.25129995781948239 0.36358958124085561 0 0.26934552241690951 0.38641429155500778 0 0.26779934750437168 0.362969463181543 0 0.25129995781948239 0.36358958124085561 0 0.26934552241690951 0.38641429155500778 0 0.25129995781948239 0.36358958124085561 0 0.25183242829235308 0.36582745696640578 0 0.25129995781948239 0.36358958124085561 0 0.25183242829235308 0.36582745696640578 0 0.26018463714650741 0.31952255250017653 0 0.25786204442318528 0.33476587005469932 0 0.26753203379187518 0.31900410410216251 0 0.25786204442318528 0.33476587005469932 0 0.26753203379187518 0.31900410410216251 0 0.25786204442318528 0.33476587005469932 0 0.2639942282968149 0.3294541220997142 0 0.26753203379187518 0.31900410410216251 0 0.26463857124487072 0.31688866937927862 0 0.26018463714650741 0.31952255250017653 0 0.26753203379187518 0.31900410410216251 0 0.26463857124487072 0.31688866937927862 0 0.26358957808755612 0.31280891701441499 0 0.26018463714650741 0.31952255250017653 0 0.26463857124487072 0.31688866937927862 0 0.26358957808755612 0.31280891701441499 0 0.26642741735105052 0.31478224243593911 0 0.26358957808755612 0.31280891701441499 0 0.26018463714650741 0.31952255250017653 0 0.25720587426967922 0.31417611785015809 0 0.24922446385908911 0.31055272940810158 0 0.25720587426967922 0.31417611785015809 0 0.25268802066888468 0.32026758447247022 0 0.26018463714650741 0.31952255250017653 0 0.25720587426967922 0.31417611785015809 0 0.25268802066888468 0.32026758447247022 0 0.26018463714650741 0.31952255250017653 0 0.25268802066888468 0.32026758447247022 0 0.25786204442318528 0.33476587005469932 0 0.24240589367588089 0.32620946109790611 0 0.25268802066888468 0.32026758447247022 0 0.25786204442318528 0.33476587005469932 0 0.24819205505449121 0.35052763600723369 0 0.25786204442318528 0.33476587005469932 0 0.26304427533009372 0.34879241369253022 0 0.25786204442318528 0.33476587005469932 0 0.26715791754237111 0.33930200970935331 0 0.25786204442318528 0.33476587005469932 0 0.2639942282968149 0.3294541220997142 0 0.26715791754237111 0.33930200970935331 0 0.27774728655223813 0.34541255080062672 0 0.27119583591521418 0.32847575647902788 0 0.26715791754237111 0.33930200970935331 0 0.2639942282968149 0.3294541220997142 0 0.27119583591521418 0.32847575647902788 0 0.2639942282968149 0.3294541220997142 0 0.27119583591521418 0.32847575647902788 0 0.26715791754237111 0.33930200970935331 0 0.27774728655223813 0.34541255080062672 0 0.27119583591521418 0.32847575647902788 0 0.27774728655223813 0.34541255080062672 0 0.27119583591521418 0.32847575647902788 0 0.28567039964146301 0.33629025236978938 0 0.27119583591521418 0.32847575647902788 0 0.27381596447230078 0.31864211696870282 0 0.28237437344001259 0.31953235338459041 0 0.27119583591521418 0.32847575647902788 0 0.26753203379187518 0.31900410410216251 0 0.27381596447230078 0.31864211696870282 0 0.2639942282968149 0.3294541220997142 0 0.27119583591521418 0.32847575647902788 0 0.26753203379187518 0.31900410410216251 0 0.27119583591521418 0.32847575647902788 0 0.26753203379187518 0.31900410410216251 0 0.26642741735105052 0.31478224243593911 0 0.26961350770576992 0.31561136979644733 0 0.26827072202398339 0.31083485523110149 0 0.26358957808755612 0.31280891701441499 0 0.26642741735105052 0.31478224243593911 0 0.26827072202398339 0.31083485523110149 0 0.26642741735105052 0.31478224243593911 0 0.26753203379187518 0.31900410410216251 0 0.26961350770576992 0.31561136979644733 0 0.26463857124487072 0.31688866937927862 0 0.26642741735105052 0.31478224243593911 0 0.26753203379187518 0.31900410410216251 0 0.26753203379187518 0.31900410410216251 0 0.26961350770576992 0.31561136979644733 0 0.26753203379187518 0.31900410410216251 0 0.26961350770576992 0.31561136979644733 0 0.27381596447230078 0.31864211696870282 0 0.26961350770576992 0.31561136979644733 0 0.27435521668882262 0.31159788122818499 0 0.26827072202398339 0.31083485523110149 0 0.26961350770576992 0.31561136979644733 0 0.27381596447230078 0.31864211696870282 0 0.27435521668882262 0.31159788122818499 0 0.27381596447230078 0.31864211696870282 0 0.28237437344001259 0.31953235338459041 0 0.27435521668882262 0.31159788122818499 0 0.28237437344001259 0.31953235338459041 0 0.29341850763442601 0.31723239179866791 0 0.27435521668882262 0.31159788122818499 0 0.27119583591521418 0.32847575647902788 0 0.28237437344001259 0.31953235338459041 0 0.29183881724762178 0.32567132942408927 0 0.29341850763442601 0.31723239179866791 0 0.29379553081456411 0.31060621590657178 0 0.27435521668882262 0.31159788122818499 0 0.29341850763442601 0.31723239179866791 0 0.27435521668882262 0.31159788122818499 0 0.27119583591521418 0.32847575647902788 0 0.29183881724762178 0.32567132942408927 0 0.28237437344001259 0.31953235338459041 0 0.29183881724762178 0.32567132942408927 0 0.29341850763442601 0.31723239179866791 0 0.27119583591521418 0.32847575647902788 0 0.29183881724762178 0.32567132942408927 0 0.28567039964146301 0.33629025236978938 0 0.28850183994036321 0.3471122666085753 0 0.28567039964146301 0.33629025236978938 0 0.29196103858734451 0.34055515538070719 0 0.28850183994036321 0.3471122666085753 0 0.27774728655223813 0.34541255080062672 0 0.28567039964146301 0.33629025236978938 0 0.29183881724762178 0.32567132942408927 0 0.29629179981923182 0.3346528728584014 0 0.30082469637776332 0.33251644108614342 0 0.29183881724762178 0.32567132942408927 0 0.28567039964146301 0.33629025236978938 0 0.29629179981923182 0.3346528728584014 0 0.29738011494832017 0.34416522968606278 0 0.29629179981923182 0.3346528728584014 0 0.29196103858734451 0.34055515538070719 0 0.28567039964146301 0.33629025236978938 0 0.29629179981923182 0.3346528728584014 0 0.29196103858734451 0.34055515538070719 0 0.29738011494832017 0.34416522968606278 0 0.29629179981923182 0.3346528728584014 0 0.30162601951859103 0.33867567876518018 0 0.3064222474616064 0.34438857639467102 0 0.29738011494832017 0.34416522968606278 0 0.30162601951859103 0.33867567876518018 0 0.29183881724762178 0.32567132942408927 0 0.30082469637776332 0.33251644108614342 0 0.30688042728313469 0.32816760187025917 0 0.30162601951859103 0.33867567876518018 0 0.30082469637776332 0.33251644108614342 0 0.30748641802023718 0.33541472251278731 0 0.29629179981923182 0.3346528728584014 0 0.30162601951859103 0.33867567876518018 0 0.30082469637776332 0.33251644108614342 0 0.31346675344917779 0.33200583145720453 0 0.30688042728313469 0.32816760187025917 0 0.30748641802023718 0.33541472251278731 0 0.31346675344917779 0.33200583145720453 0 0.31292197000169958 0.33938673636739458 0 0.30748641802023718 0.33541472251278731 0 0.30082469637776332 0.33251644108614342 0 0.30688042728313469 0.32816760187025917 0 0.30748641802023718 0.33541472251278731 0 0.31292197000169958 0.33938673636739458 0 0.3064222474616064 0.34438857639467102 0 0.30748641802023718 0.33541472251278731 0 0.3064222474616064 0.34438857639467102 0 0.30162601951859103 0.33867567876518018 0 0.30748641802023718 0.33541472251278731 0 0.29341850763442601 0.31723239179866791 0 0.31248179858002939 0.32286690236915072 0 0.29341850763442601 0.31723239179866791 0 0.30349796374687638 0.31697988238450248 0 0.31248179858002939 0.32286690236915072 0 0.29183881724762178 0.32567132942408927 0 0.30688042728313469 0.32816760187025917 0 0.31248179858002939 0.32286690236915072 0 0.29183881724762178 0.32567132942408927 0 0.29341850763442601 0.31723239179866791 0 0.31248179858002939 0.32286690236915072 0 0.31429601795848622 0.31721401946361982 0 0.29379553081456411 0.31060621590657178 0 0.31429601795848622 0.31721401946361982 0 0.30349796374687638 0.31697988238450248 0 0.29379553081456411 0.31060621590657178 0 0.31429601795848622 0.31721401946361982 0 0.30534239959038151 0.30988738182549441 0 0.29379553081456411 0.31060621590657178 0 0.29183881724762178 0.32567132942408927 0 0.31248179858002939 0.32286690236915072 0 0.29341850763442601 0.31723239179866791 0 0.30349796374687638 0.31697988238450248 0 0.29379553081456411 0.31060621590657178 0 0.31346675344917779 0.33200583145720453 0 0.30688042728313469 0.32816760187025917 0 0.31248179858002939 0.32286690236915072 0 0.31429601795848622 0.31721401946361982 0 0.30349796374687638 0.31697988238450248 0 0.31248179858002939 0.32286690236915072 0 0.31429601795848622 0.31721401946361982 0 0.30534239959038151 0.30988738182549441 0 0.31352345225364919 0.30899693970393022 0 0.30534239959038151 0.30988738182549441 0 0.30892579758494759 0.30483780258744853 0 0.31352345225364919 0.30899693970393022 0 0.30534239959038151 0.30988738182549441 0 0.30892579758494759 0.30483780258744853 0 0.30395441681617591 0.30350851143386282 0 0.30892579758494759 0.30483780258744853 0 0.31352345225364919 0.30899693970393022 0 0.31446660992211689 0.3019499571308506 0 0.30892579758494759 0.30483780258744853 0 0.30759408463550653 0.29850737988544901 0 0.31446660992211689 0.3019499571308506 0 0.30892579758494759 0.30483780258744853 0 0.30759408463550653 0.29850737988544901 0 0.30395441681617591 0.30350851143386282 0 0.30759408463550653 0.29850737988544901 0 0.30395441681617591 0.30350851143386282 0 0.29910240461630561 0.29876443063801078 0 0.30395441681617591 0.30350851143386282 0 0.29910240461630561 0.29876443063801078 0 0.29880739765373843 0.30554556223291113 0 0.30534239959038151 0.30988738182549441 0 0.29880739765373843 0.30554556223291113 0 0.29379553081456411 0.31060621590657178 0 0.30534239959038151 0.30988738182549441 0 0.30395441681617591 0.30350851143386282 0 0.29880739765373843 0.30554556223291113 0 0.3065733436439933 0.28186517086237928 0 0.30986842677000798 0.28980602033589992 0 0.30178950298104767 0.28934972057157488 0 0.3065733436439933 0.28186517086237928 0 0.30986842677000798 0.28980602033589992 0 0.31665490986542899 0.28530550918560188 0 0.30759408463550653 0.29850737988544901 0 0.30986842677000798 0.28980602033589992 0 0.31673029272406361 0.29400232117449421 0 0.30759408463550653 0.29850737988544901 0 0.30986842677000798 0.28980602033589992 0 0.30178950298104767 0.28934972057157488 0 0.29910240461630561 0.29876443063801078 0 0.30178950298104767 0.28934972057157488 0 0.29064574571043078 0.28685843922092208 0 0.30759408463550653 0.29850737988544901 0 0.29910240461630561 0.29876443063801078 0 0.30178950298104767 0.28934972057157488 0 0.30178950298104767 0.28934972057157488 0 0.29064574571043078 0.28685843922092208 0 0.2991991428216611 0.2758214958226074 0 0.3065733436439933 0.28186517086237928 0 0.30178950298104767 0.28934972057157488 0 0.2991991428216611 0.2758214958226074 0 0.29910240461630561 0.29876443063801078 0 0.29064574571043078 0.28685843922092208 0 0.29263855728370242 0.30246668823221451 0 0.29064574571043078 0.28685843922092208 0 0.29263855728370242 0.30246668823221451 0 0.28558840090096599 0.30048073887375037 0 0.29064574571043078 0.28685843922092208 0 0.28558840090096599 0.30048073887375037 0 0.28031233535015337 0.29586552861272419 0 0.29379553081456411 0.31060621590657178 0 0.28558840090096599 0.30048073887375037 0 0.27329504367064178 0.30399841234952379 0 0.29379553081456411 0.31060621590657178 0 0.27329504367064178 0.30399841234952379 0 0.29880739765373843 0.30554556223291113 0 0.29379553081456411 0.31060621590657178 0 0.29263855728370242 0.30246668823221451 0 0.29910240461630561 0.29876443063801078 0 0.29880739765373843 0.30554556223291113 0 0.29263855728370242 0.30246668823221451 0 0.29379553081456411 0.31060621590657178 0 0.29263855728370242 0.30246668823221451 0 0.28558840090096599 0.30048073887375037 0 0.29379553081456411 0.31060621590657178 0 0.27435521668882262 0.31159788122818499 0 0.27329504367064178 0.30399841234952379 0 0.27329504367064178 0.30399841234952379 0 0.27172015111857523 0.29212452400670019 0 0.25279455652671928 0.29739060879247697 0 0.26827072202398339 0.31083485523110149 0 0.27329504367064178 0.30399841234952379 0 0.26034267158635888 0.3077288058556274 0 0.27435521668882262 0.31159788122818499 0 0.26827072202398339 0.31083485523110149 0 0.27329504367064178 0.30399841234952379 0 0.27329504367064178 0.30399841234952379 0 0.28031233535015337 0.29586552861272419 0 0.27172015111857523 0.29212452400670019 0 0.28558840090096599 0.30048073887375037 0 0.27329504367064178 0.30399841234952379 0 0.28031233535015337 0.29586552861272419 0 0.29064574571043078 0.28685843922092208 0 0.28031233535015337 0.29586552861272419 0 0.27172015111857523 0.29212452400670019 0 0.29064574571043078 0.28685843922092208 0 0.27279422699126449 0.28183374064655481 0 0.27172015111857523 0.29212452400670019 0 0.29064574571043078 0.28685843922092208 0 0.27172015111857523 0.29212452400670019 0 0.27279422699126449 0.28183374064655481 0 0.27172015111857523 0.29212452400670019 0 0.26066338764889041 0.28239648693970559 0 0.2459560110871154 0.28044065192532458 0 0.26066338764889041 0.28239648693970559 0 0.25279455652671928 0.29739060879247697 0 0.27172015111857523 0.29212452400670019 0 0.25279455652671928 0.29739060879247697 0 0.27172015111857523 0.29212452400670019 0 0.26066338764889041 0.28239648693970559 0 0.25279455652671928 0.29739060879247697 0 0.27329504367064178 0.30399841234952379 0 0.25279455652671928 0.29739060879247697 0 0.26034267158635888 0.3077288058556274 0 0.27329504367064178 0.30399841234952379 0 0.25279455652671928 0.29739060879247697 0 0.24922446385908911 0.31055272940810158 0 0.25720587426967922 0.31417611785015809 0 0.26034267158635888 0.3077288058556274 0 0.24922446385908911 0.31055272940810158 0 0.25279455652671928 0.29739060879247697 0 0.26034267158635888 0.3077288058556274 0 0.26358957808755612 0.31280891701441499 0 0.26827072202398339 0.31083485523110149 0 0.26034267158635888 0.3077288058556274 0 0.26358957808755612 0.31280891701441499 0 0.25720587426967922 0.31417611785015809 0 0.26034267158635888 0.3077288058556274 0 0.25441855054454432 0.25563729412123742 0 0.2667221708860909 0.25716103573333499 0 0.26031403403548131 0.2402604575509816 0 0.25441855054454432 0.25563729412123742 0 0.25616004720769131 0.26912097196986329 0 0.2667221708860909 0.25716103573333499 0 0.2420987772361087 0.26631129006276572 0 0.25441855054454432 0.25563729412123742 0 0.25616004720769131 0.26912097196986329 0 0.2459560110871154 0.28044065192532458 0 0.26066338764889041 0.28239648693970559 0 0.25616004720769131 0.26912097196986329 0 0.26066338764889041 0.28239648693970559 0 0.25616004720769131 0.26912097196986329 0 0.26856145263663073 0.27108666602127529 0 0.25616004720769131 0.26912097196986329 0 0.26856145263663073 0.27108666602127529 0 0.2667221708860909 0.25716103573333499 0 0.29064574571043078 0.28685843922092208 0 0.27279422699126449 0.28183374064655481 0 0.27888155031670941 0.27423723597352317 0 0.27279422699126449 0.28183374064655481 0 0.26066338764889041 0.28239648693970559 0 0.26856145263663073 0.27108666602127529 0 0.27279422699126449 0.28183374064655481 0 0.26856145263663073 0.27108666602127529 0 0.27888155031670941 0.27423723597352317 0 0.26856145263663073 0.27108666602127529 0 0.27888155031670941 0.27423723597352317 0 0.27702159914609131 0.26417280055534931 0 0.2667221708860909 0.25716103573333499 0 0.28350982114301537 0.25340827336100907 0 0.26031403403548131 0.2402604575509816 0 0.27702159914609131 0.26417280055534931 0 0.2667221708860909 0.25716103573333499 0 0.28350982114301537 0.25340827336100907 0 0.26856145263663073 0.27108666602127529 0 0.27702159914609131 0.26417280055534931 0 0.2667221708860909 0.25716103573333499 0 0.27702159914609131 0.26417280055534931 0 0.28350982114301537 0.25340827336100907 0 0.28918153350191728 0.26977534306896139 0 0.28350982114301537 0.25340827336100907 0 0.30642368583217472 0.253973570375916 0 0.29769131417516809 0.24543768908422581 0 0.28350982114301537 0.25340827336100907 0 0.28918153350191728 0.26977534306896139 0 0.30670560825054971 0.26655608917103668 0 0.28350982114301537 0.25340827336100907 0 0.30670560825054971 0.26655608917103668 0 0.29064574571043078 0.28685843922092208 0 0.28918153350191728 0.26977534306896139 0 0.2991991428216611 0.2758214958226074 0 0.29064574571043078 0.28685843922092208 0 0.27888155031670941 0.27423723597352317 0 0.28918153350191728 0.26977534306896139 0 0.27888155031670941 0.27423723597352317 0 0.27702159914609131 0.26417280055534931 0 0.28918153350191728 0.26977534306896139 0 0.3065733436439933 0.28186517086237928 0 0.30670560825054971 0.26655608917103668 0 0.31665490986542899 0.28530550918560188 0 0.28918153350191728 0.26977534306896139 0 0.2991991428216611 0.2758214958226074 0 0.30670560825054971 0.26655608917103668 0 0.3065733436439933 0.28186517086237928 0 0.2991991428216611 0.2758214958226074 0 0.30670560825054971 0.26655608917103668 0 0.28350982114301537 0.25340827336100907 0 0.30670560825054971 0.26655608917103668 0 0.30642368583217472 0.253973570375916 0 0.30670560825054971 0.26655608917103668 0 0.30642368583217472 0.253973570375916 0 0.31796767809076099 0.2637123738068729 0 0.30642368583217472 0.253973570375916 0 0.31779452277496761 0.25393542713122691 0 0.31796767809076099 0.2637123738068729 0 0.31779452277496761 0.25393542713122691 0 0.31796767809076099 0.2637123738068729 0 0.32901317823802939 0.26439287737511979 0 0.31779452277496761 0.25393542713122691 0 0.32851575443267339 0.25368014921509868 0 0.3322433811071151 0.24362456497306439 0 0.31779452277496761 0.25393542713122691 0 0.32851575443267339 0.25368014921509868 0 0.32901317823802939 0.26439287737511979 0 0.32851575443267339 0.25368014921509868 0 0.32901317823802939 0.26439287737511979 0 0.34361429855155301 0.25969992717376572 0 0.32851575443267339 0.25368014921509868 0 0.34361429855155301 0.25969992717376572 0 0.34225011193596688 0.24554605033966259 0 0.34361429855155301 0.25969992717376572 0 0.32990139535808338 0.2797039049810649 0 0.32901317823802939 0.26439287737511979 0 0.34361429855155301 0.25969992717376572 0 0.32990139535808338 0.2797039049810649 0 0.34361429855155301 0.25969992717376572 0 0.32990139535808338 0.2797039049810649 0 0.34469680888834142 0.27443361327585558 0 0.30670560825054971 0.26655608917103668 0 0.32990139535808338 0.2797039049810649 0 0.31665490986542899 0.28530550918560188 0 0.31796767809076099 0.2637123738068729 0 0.32901317823802939 0.26439287737511979 0 0.32990139535808338 0.2797039049810649 0 0.30670560825054971 0.26655608917103668 0 0.32990139535808338 0.2797039049810649 0 0.30670560825054971 0.26655608917103668 0 0.31796767809076099 0.2637123738068729 0 0.32990139535808338 0.2797039049810649 0 0.31665490986542899 0.28530550918560188 0 0.31673029272406361 0.29400232117449421 0 0.32441144175356468 0.28771248700913571 0 0.30986842677000798 0.28980602033589992 0 0.31665490986542899 0.28530550918560188 0 0.31673029272406361 0.29400232117449421 0 0.32441144175356468 0.28771248700913571 0 0.32522033212370283 0.29755915780397763 0 0.33036147648750791 0.29421103015776923 0 0.31673029272406361 0.29400232117449421 0 0.32441144175356468 0.28771248700913571 0 0.32522033212370283 0.29755915780397763 0 0.32990139535808338 0.2797039049810649 0 0.32441144175356468 0.28771248700913571 0 0.32990139535808338 0.2797039049810649 0 0.31665490986542899 0.28530550918560188 0 0.32441144175356468 0.28771248700913571 0 0.31853047402505091 0.31242401551197252 0 0.31352345225364919 0.30899693970393022 0 0.32036537141965887 0.30573167234587662 0 0.31352345225364919 0.30899693970393022 0 0.31446660992211689 0.3019499571308506 0 0.32036537141965887 0.30573167234587662 0 0.30759408463550653 0.29850737988544901 0 0.31673029272406361 0.29400232117449421 0 0.31446660992211689 0.3019499571308506 0 0.31673029272406361 0.29400232117449421 0 0.31446660992211689 0.3019499571308506 0 0.31930982488521742 0.29965544982636189 0 0.31446660992211689 0.3019499571308506 0 0.31930982488521742 0.29965544982636189 0 0.32036537141965887 0.30573167234587662 0 0.31673029272406361 0.29400232117449421 0 0.31930982488521742 0.29965544982636189 0 0.32522033212370283 0.29755915780397763 0 0.32522033212370283 0.29755915780397763 0 0.32036537141965887 0.30573167234587662 0 0.32707784670554813 0.30552214869972327 0 0.31930982488521742 0.29965544982636189 0 0.32522033212370283 0.29755915780397763 0 0.32036537141965887 0.30573167234587662 0 0.32036537141965887 0.30573167234587662 0 0.32707784670554813 0.30552214869972327 0 0.32491099881883512 0.31235209566326189 0 0.31853047402505091 0.31242401551197252 0 0.32036537141965887 0.30573167234587662 0 0.32491099881883512 0.31235209566326189 0 0.33272829778035801 0.30991178056899582 0 0.33216423338518541 0.30205603711650492 0 0.33953053981004883 0.3043435964177893 0 0.32707784670554813 0.30552214869972327 0 0.32491099881883512 0.31235209566326189 0 0.33272829778035801 0.30991178056899582 0 0.32707784670554813 0.30552214869972327 0 0.33272829778035801 0.30991178056899582 0 0.33216423338518541 0.30205603711650492 0 0.33216423338518541 0.30205603711650492 0 0.33571406082174943 0.29753790917151768 0 0.33036147648750791 0.29421103015776923 0 0.32522033212370283 0.29755915780397763 0 0.32707784670554813 0.30552214869972327 0 0.33216423338518541 0.30205603711650492 0 0.32522033212370283 0.29755915780397763 0 0.33216423338518541 0.30205603711650492 0 0.33036147648750791 0.29421103015776923 0 0.33216423338518541 0.30205603711650492 0 0.33571406082174943 0.29753790917151768 0 0.33953053981004883 0.3043435964177893 0 0.34101753954911329 0.29819624987115262 0 0.33953053981004883 0.3043435964177893 0 0.34909472845644812 0.29943140968975729 0 0.33571406082174943 0.29753790917151768 0 0.34101753954911329 0.29819624987115262 0 0.33953053981004883 0.3043435964177893 0 0.33571406082174943 0.29753790917151768 0 0.34101753954911329 0.29819624987115262 0 0.33848717940555162 0.29525005689364658 0 0.33272829778035801 0.30991178056899582 0 0.33953053981004883 0.3043435964177893 0 0.3421876984749066 0.31066267255465407 0 0.32990139535808338 0.2797039049810649 0 0.33479481016680512 0.28947684146712599 0 0.34772931370392612 0.28980911010304278 0 0.32990139535808338 0.2797039049810649 0 0.34772931370392612 0.28980911010304278 0 0.34469680888834142 0.27443361327585558 0 0.32990139535808338 0.2797039049810649 0 0.34772931370392612 0.28980911010304278 0 0.32990139535808338 0.2797039049810649 0 0.32441144175356468 0.28771248700913571 0 0.33479481016680512 0.28947684146712599 0 0.32441144175356468 0.28771248700913571 0 0.33036147648750791 0.29421103015776923 0 0.33479481016680512 0.28947684146712599 0 0.33571406082174943 0.29753790917151768 0 0.33036147648750791 0.29421103015776923 0 0.33525228080207259 0.29306671959905461 0 0.33036147648750791 0.29421103015776923 0 0.33525228080207259 0.29306671959905461 0 0.33479481016680512 0.28947684146712599 0 0.33479481016680512 0.28947684146712599 0 0.34111295289567639 0.29235779695268899 0 0.34772931370392612 0.28980911010304278 0 0.33525228080207259 0.29306671959905461 0 0.33479481016680512 0.28947684146712599 0 0.34111295289567639 0.29235779695268899 0 0.33571406082174943 0.29753790917151768 0 0.33525228080207259 0.29306671959905461 0 0.33848717940555162 0.29525005689364658 0 0.33525228080207259 0.29306671959905461 0 0.33848717940555162 0.29525005689364658 0 0.34111295289567639 0.29235779695268899 0 0.34101753954911329 0.29819624987115262 0 0.33848717940555162 0.29525005689364658 0 0.34111295289567639 0.29235779695268899 0 0.34101753954911329 0.29819624987115262 0 0.34111295289567639 0.29235779695268899 0 0.34446975161280058 0.29533266062561958 0 0.34111295289567639 0.29235779695268899 0 0.34466376525287662 0.29247391179380472 0 0.34446975161280058 0.29533266062561958 0 0.34689760215594861 0.29156126125139148 0 0.34824017483828218 0.2939758134459084 0 0.34772931370392612 0.28980911010304278 0 0.34111295289567639 0.29235779695268899 0 0.34466376525287662 0.29247391179380472 0 0.34772931370392612 0.28980911010304278 0 0.34466376525287662 0.29247391179380472 0 0.34689760215594861 0.29156126125139148 0 0.34772931370392612 0.28980911010304278 0 0.34466376525287662 0.29247391179380472 0 0.34689760215594861 0.29156126125139148 0 0.34824017483828218 0.2939758134459084 0 0.34689760215594861 0.29156126125139148 0 0.34772931370392612 0.28980911010304278 0 0.34446975161280058 0.29533266062561958 0 0.34824017483828218 0.2939758134459084 0 0.34909472845644812 0.29943140968975729 0 0.34466376525287662 0.29247391179380472 0 0.34446975161280058 0.29533266062561958 0 0.34824017483828218 0.2939758134459084 0 0.34824017483828218 0.2939758134459084 0 0.35527484712623147 0.29408606277401389 0 0.34909472845644812 0.29943140968975729 0 0.34824017483828218 0.2939758134459084 0 0.34772931370392612 0.28980911010304278 0 0.35527484712623147 0.29408606277401389 0 0.34772931370392612 0.28980911010304278 0 0.35527484712623147 0.29408606277401389 0 0.35527484712623147 0.29408606277401389 0 0.35586514006528158 0.28842442188692902 0 0.36479342988713021 0.29187454911648608 0 0.34772931370392612 0.28980911010304278 0 0.35527484712623147 0.29408606277401389 0 0.35586514006528158 0.28842442188692902 0 0.34772931370392612 0.28980911010304278 0 0.35586514006528158 0.28842442188692902 0 0.35800453213486461 0.28047575811749648 0 0.33953053981004883 0.3043435964177893 0 0.3421876984749066 0.31066267255465407 0 0.35023758078297429 0.30802941204737189 0 0.35151498172173712 0.31756409687413539 0 0.3421876984749066 0.31066267255465407 0 0.35023758078297429 0.30802941204737189 0 0.34101753954911329 0.29819624987115262 0 0.34446975161280058 0.29533266062561958 0 0.34909472845644812 0.29943140968975729 0 0.33953053981004883 0.3043435964177893 0 0.35023758078297429 0.30802941204737189 0 0.34909472845644812 0.29943140968975729 0 0.35527484712623147 0.29408606277401389 0 0.35814591876930779 0.302396940439557 0 0.36150688891513072 0.29776438437414088 0 0.35527484712623147 0.29408606277401389 0 0.34909472845644812 0.29943140968975729 0 0.35814591876930779 0.302396940439557 0 0.35023758078297429 0.30802941204737189 0 0.34909472845644812 0.29943140968975729 0 0.35814591876930779 0.302396940439557 0 0.36095161746539761 0.3137777563083386 0 0.35023758078297429 0.30802941204737189 0 0.35814591876930779 0.302396940439557 0 0.36095161746539761 0.3137777563083386 0 0.35814591876930779 0.302396940439557 0 0.36781335987785352 0.30269998516650659 0 0.35814591876930779 0.302396940439557 0 0.36150688891513072 0.29776438437414088 0 0.36781335987785352 0.30269998516650659 0 0.36150688891513072 0.29776438437414088 0 0.36781335987785352 0.30269998516650659 0 0.36479342988713021 0.29187454911648608 0 0.36781335987785352 0.30269998516650659 0 0.36479342988713021 0.29187454911648608 0 0.37722208914542582 0.29958875219635028 0 0.37302190852298428 0.31709005754215652 0 0.36781335987785352 0.30269998516650659 0 0.37998594236581662 0.30927504867216532 0 0.37302190852298428 0.31709005754215652 0 0.36095161746539761 0.3137777563083386 0 0.36781335987785352 0.30269998516650659 0 0.36479342988713021 0.29187454911648608 0 0.36912642802107543 0.28416235758397929 0 0.35800453213486461 0.28047575811749648 0 0.35586514006528158 0.28842442188692902 0 0.36479342988713021 0.29187454911648608 0 0.35800453213486461 0.28047575811749648 0 0.35527484712623147 0.29408606277401389 0 0.36150688891513072 0.29776438437414088 0 0.36479342988713021 0.29187454911648608 0 0.36479342988713021 0.29187454911648608 0 0.37514976041025022 0.28965247107150671 0 0.37722208914542582 0.29958875219635028 0 0.36479342988713021 0.29187454911648608 0 0.36912642802107543 0.28416235758397929 0 0.37514976041025022 0.28965247107150671 0 0.36912642802107543 0.28416235758397929 0 0.37678656735923372 0.28367546688784001 0 0.37514976041025022 0.28965247107150671 0 0.36912642802107543 0.28416235758397929 0 0.371360058165775 0.27502180372513629 0 0.37678656735923372 0.28367546688784001 0 0.36912642802107543 0.28416235758397929 0 0.371360058165775 0.27502180372513629 0 0.35800453213486461 0.28047575811749648 0 0.371360058165775 0.27502180372513629 0 0.35800453213486461 0.28047575811749648 0 0.35873962363736528 0.26661389628105681 0 0.371360058165775 0.27502180372513629 0 0.37293787395815842 0.26127074722223992 0 0.35873962363736528 0.26661389628105681 0 0.35569285218755903 0.25327773526953179 0 0.35873962363736528 0.26661389628105681 0 0.36974993357080471 0.24341868245907089 0 0.37293787395815842 0.26127074722223992 0 0.35873962363736528 0.26661389628105681 0 0.36974993357080471 0.24341868245907089 0 0.35873962363736528 0.26661389628105681 0 0.36974993357080471 0.24341868245907089 0 0.34361429855155301 0.25969992717376572 0 0.35569285218755903 0.25327773526953179 0 0.35873962363736528 0.26661389628105681 0 0.34361429855155301 0.25969992717376572 0 0.35569285218755903 0.25327773526953179 0 0.35732720174502253 0.2396959493664664 0 0.34772931370392612 0.28980911010304278 0 0.35800453213486461 0.28047575811749648 0 0.35873962363736528 0.26661389628105681 0 0.34772931370392612 0.28980911010304278 0 0.34469680888834142 0.27443361327585558 0 0.35873962363736528 0.26661389628105681 0 0.34361429855155301 0.25969992717376572 0 0.34469680888834142 0.27443361327585558 0 0.35873962363736528 0.26661389628105681 0 0.34772931370392612 0.28980911010304278 0 0.35873962363736528 0.26661389628105681 0 0.39248939350051659 0.27574953490451742 0 0.39863758833667479 0.2707375214346176 0 0.39187553093117222 0.26396458929953648 0 0.39248939350051659 0.27574953490451742 0 0.40275071125601097 0.27937970635757298 0 0.39863758833667479 0.2707375214346176 0 0.39248939350051659 0.27574953490451742 0 0.38383366625453369 0.27988570212326319 0 0.39566959796774592 0.28648720872322397 0 0.39248939350051659 0.27574953490451742 0 0.40275071125601097 0.27937970635757298 0 0.39566959796774592 0.28648720872322397 0 0.40275071125601097 0.27937970635757298 0 0.39863758833667479 0.2707375214346176 0 0.41274192034078039 0.27085888931392449 0 0.39863758833667479 0.2707375214346176 0 0.4044679409571878 0.26117564424635642 0 0.41274192034078039 0.27085888931392449 0 0.4044679409571878 0.26117564424635642 0 0.39567832587374102 0.25400701171074253 0 0.40754113612963189 0.246839457821182 0 0.39863758833667479 0.2707375214346176 0 0.4044679409571878 0.26117564424635642 0 0.39187553093117222 0.26396458929953648 0 0.4044679409571878 0.26117564424635642 0 0.39567832587374102 0.25400701171074253 0 0.39187553093117222 0.26396458929953648 0 0.39187553093117222 0.26396458929953648 0 0.38274786304311942 0.25292179484764721 0 0.38209189137372768 0.26837755879828812 0 0.37293787395815842 0.26127074722223992 0 0.38274786304311942 0.25292179484764721 0 0.36974993357080471 0.24341868245907089 0 0.39567832587374102 0.25400701171074253 0 0.39187553093117222 0.26396458929953648 0 0.38274786304311942 0.25292179484764721 0 0.37293787395815842 0.26127074722223992 0 0.38274786304311942 0.25292179484764721 0 0.38209189137372768 0.26837755879828812 0 0.371360058165775 0.27502180372513629 0 0.37293787395815842 0.26127074722223992 0 0.38209189137372768 0.26837755879828812 0 0.39248939350051659 0.27574953490451742 0 0.39187553093117222 0.26396458929953648 0 0.38209189137372768 0.26837755879828812 0 0.39248939350051659 0.27574953490451742 0 0.38209189137372768 0.26837755879828812 0 0.38383366625453369 0.27988570212326319 0 0.371360058165775 0.27502180372513629 0 0.38209189137372768 0.26837755879828812 0 0.38383366625453369 0.27988570212326319 0 0.371360058165775 0.27502180372513629 0 0.38383366625453369 0.27988570212326319 0 0.37678656735923372 0.28367546688784001 0 0.38383366625453369 0.27988570212326319 0 0.37678656735923372 0.28367546688784001 0 0.38446292394453402 0.28965499993531402 0 0.37678656735923372 0.28367546688784001 0 0.37514976041025022 0.28965247107150671 0 0.38446292394453402 0.28965499993531402 0 0.37514976041025022 0.28965247107150671 0 0.38446292394453402 0.28965499993531402 0 0.37722208914542582 0.29958875219635028 0 0.38446292394453402 0.28965499993531402 0 0.38753516813738892 0.30199986757746983 0 0.39410748963890108 0.2955640527176801 0 0.38383366625453369 0.27988570212326319 0 0.38446292394453402 0.28965499993531402 0 0.39566959796774592 0.28648720872322397 0 0.37998594236581662 0.30927504867216532 0 0.37722208914542582 0.29958875219635028 0 0.38753516813738892 0.30199986757746983 0 0.36781335987785352 0.30269998516650659 0 0.37998594236581662 0.30927504867216532 0 0.37722208914542582 0.29958875219635028 0 0.38446292394453402 0.28965499993531402 0 0.37722208914542582 0.29958875219635028 0 0.38753516813738892 0.30199986757746983 0 0.37998594236581662 0.30927504867216532 0 0.38753516813738892 0.30199986757746983 0 0.39044665743362073 0.31291507673879898 0 0.38753516813738892 0.30199986757746983 0 0.3979016482081229 0.30417423703416602 0 0.39044665743362073 0.31291507673879898 0 0.3979016482081229 0.30417423703416602 0 0.40156093075114491 0.31750113488738668 0 0.39044665743362073 0.31291507673879898 0 0.38753516813738892 0.30199986757746983 0 0.3979016482081229 0.30417423703416602 0 0.39410748963890108 0.2955640527176801 0 0.3979016482081229 0.30417423703416602 0 0.40496810993671362 0.29550395031822663 0 0.40798185198282472 0.30578497682145339 0 0.3979016482081229 0.30417423703416602 0 0.39410748963890108 0.2955640527176801 0 0.40496810993671362 0.29550395031822663 0 0.3979016482081229 0.30417423703416602 0 0.40798185198282472 0.30578497682145339 0 0.40156093075114491 0.31750113488738668 0 0.38446292394453402 0.28965499993531402 0 0.39566959796774592 0.28648720872322397 0 0.39410748963890108 0.2955640527176801 0 0.39566959796774592 0.28648720872322397 0 0.39410748963890108 0.2955640527176801 0 0.40496810993671362 0.29550395031822663 0 0.39566959796774592 0.28648720872322397 0 0.40496810993671362 0.29550395031822663 0 0.41081127132350409 0.28535349298561152 0 0.40275071125601097 0.27937970635757298 0 0.39566959796774592 0.28648720872322397 0 0.41081127132350409 0.28535349298561152 0 0.40496810993671362 0.29550395031822663 0 0.41081127132350409 0.28535349298561152 0 0.42035770799925731 0.29772621354516748 0 0.41081127132350409 0.28535349298561152 0 0.42035770799925731 0.29772621354516748 0 0.42434335213425689 0.28614863634830062 0 0.41081127132350409 0.28535349298561152 0 0.42434335213425689 0.28614863634830062 0 0.42274689909491447 0.27622649405033228 0 0.40798185198282472 0.30578497682145339 0 0.42035770799925731 0.29772621354516748 0 0.41574865387928661 0.31370289353735298 0 0.40798185198282472 0.30578497682145339 0 0.41574865387928661 0.31370289353735298 0 0.40156093075114491 0.31750113488738668 0 0.40496810993671362 0.29550395031822663 0 0.40798185198282472 0.30578497682145339 0 0.42035770799925731 0.29772621354516748 0 0.42035770799925731 0.29772621354516748 0 0.43191122018887401 0.30926646631787291 0 0.43754814168937878 0.29879090876172321 0 0.42035770799925731 0.29772621354516748 0 0.43191122018887401 0.30926646631787291 0 0.41574865387928661 0.31370289353735298 0 0.42035770799925731 0.29772621354516748 0 0.43275556760223771 0.29000473586690972 0 0.43754814168937878 0.29879090876172321 0 0.42035770799925731 0.29772621354516748 0 0.42434335213425689 0.28614863634830062 0 0.43275556760223771 0.29000473586690972 0 0.42434335213425689 0.28614863634830062 0 0.43275556760223771 0.29000473586690972 0 0.43556407436591738 0.27911116701335448 0 0.43556407436591738 0.27911116701335448 0 0.42833434115884389 0.26672955608571242 0 0.44174642944027509 0.26491600711757551 0 0.42434335213425689 0.28614863634830062 0 0.43556407436591738 0.27911116701335448 0 0.42274689909491447 0.27622649405033228 0 0.43556407436591738 0.27911116701335448 0 0.42833434115884389 0.26672955608571242 0 0.42274689909491447 0.27622649405033228 0 0.41081127132350409 0.28535349298561152 0 0.42274689909491447 0.27622649405033228 0 0.41274192034078039 0.27085888931392449 0 0.42833434115884389 0.26672955608571242 0 0.42274689909491447 0.27622649405033228 0 0.41274192034078039 0.27085888931392449 0 0.40275071125601097 0.27937970635757298 0 0.41081127132350409 0.28535349298561152 0 0.41274192034078039 0.27085888931392449 0 0.4044679409571878 0.26117564424635642 0 0.4182419991507712 0.25735599640832502 0 0.40754113612963189 0.246839457821182 0 0.4044679409571878 0.26117564424635642 0 0.41274192034078039 0.27085888931392449 0 0.4182419991507712 0.25735599640832502 0 0.42833434115884389 0.26672955608571242 0 0.41274192034078039 0.27085888931392449 0 0.4182419991507712 0.25735599640832502 0 0.4182419991507712 0.25735599640832502 0 0.43248491923257842 0.25319244582003908 0 0.42199558299019008 0.24569146256226659 0 0.42833434115884389 0.26672955608571242 0 0.4182419991507712 0.25735599640832502 0 0.43248491923257842 0.25319244582003908 0 0.42833434115884389 0.26672955608571242 0 0.43248491923257842 0.25319244582003908 0 0.44174642944027509 0.26491600711757551 0 0.43248491923257842 0.25319244582003908 0 0.44174642944027509 0.26491600711757551 0 0.44788526557016878 0.25020789551764 0 0.44174642944027509 0.26491600711757551 0 0.44788526557016878 0.25020789551764 0 0.45655858182448111 0.26534480755249162 0 0.43556407436591738 0.27911116701335448 0 0.44174642944027509 0.26491600711757551 0 0.44752591000311559 0.27678982065315599 0 0.44174642944027509 0.26491600711757551 0 0.44752591000311559 0.27678982065315599 0 0.45655858182448111 0.26534480755249162 0 0.44752591000311559 0.27678982065315599 0 0.45655858182448111 0.26534480755249162 0 0.45978069088433948 0.28459156019592008 0 0.45655858182448111 0.26534480755249162 0 0.47902351714129782 0.26830615939274788 0 0.45978069088433948 0.28459156019592008 0 0.44788526557016878 0.25020789551764 0 0.45655858182448111 0.26534480755249162 0 0.47348108634361091 0.24801343307443799 0 0.45655858182448111 0.26534480755249162 0 0.47902351714129782 0.26830615939274788 0 0.47348108634361091 0.24801343307443799 0 0.47902351714129782 0.26830615939274788 0 0.4880543619955422 0.24607784998085619 0 0.47348108634361091 0.24801343307443799 0 0.47902351714129782 0.26830615939274788 0 0.47727061725723519 0.28827712183477983 0 0.45978069088433948 0.28459156019592008 0 0.47902351714129782 0.26830615939274788 0 0.5 0.25993336992503602 0 0.500000000000001 0.28823975784905742 0 0.47902351714129782 0.26830615939274788 0 0.5 0.25993336992503602 0 0.4880543619955422 0.24607784998085619 0 0.48197448657339709 0.30051234434679541 0 0.48348447871644412 0.3180101078017229 0 0.5 0.31421137154141993 0 0.500000000000001 0.28823975784905742 0 0.48197448657339709 0.30051234434679541 0 0.5 0.31421137154141993 0 0.500000000000001 0.28823975784905742 0 0.47727061725723519 0.28827712183477983 0 0.48197448657339709 0.30051234434679541 0 0.500000000000001 0.28823975784905742 0 0.48197448657339709 0.30051234434679541 0 0.47902351714129782 0.26830615939274788 0 0.500000000000001 0.28823975784905742 0 0.47727061725723519 0.28827712183477983 0 0.47727061725723519 0.28827712183477983 0 0.48197448657339709 0.30051234434679541 0 0.46557439168714132 0.29973578738937828 0 0.48197448657339709 0.30051234434679541 0 0.46557439168714132 0.29973578738937828 0 0.46394897314679301 0.31278493084453268 0 0.48197448657339709 0.30051234434679541 0 0.46394897314679301 0.31278493084453268 0 0.47362542423666798 0.31621415828313992 0 0.48197448657339709 0.30051234434679541 0 0.47362542423666798 0.31621415828313992 0 0.48348447871644412 0.3180101078017229 0 0.48197448657339709 0.30051234434679541 0 0.46394897314679301 0.31278493084453268 0 0.46557439168714132 0.29973578738937828 0 0.45469936348261603 0.3085567918636537 0 0.46394897314679301 0.31278493084453268 0 0.46557439168714132 0.29973578738937828 0 0.45469936348261603 0.3085567918636537 0 0.45201550091125647 0.2990892228864232 0 0.47727061725723519 0.28827712183477983 0 0.46557439168714132 0.29973578738937828 0 0.45978069088433948 0.28459156019592008 0 0.46557439168714132 0.29973578738937828 0 0.45978069088433948 0.28459156019592008 0 0.45201550091125647 0.2990892228864232 0 0.44752591000311559 0.27678982065315599 0 0.45978069088433948 0.28459156019592008 0 0.44596456182237793 0.28824675366600239 0 0.45978069088433948 0.28459156019592008 0 0.44596456182237793 0.28824675366600239 0 0.45201550091125647 0.2990892228864232 0 0.43275556760223771 0.29000473586690972 0 0.44596456182237793 0.28824675366600239 0 0.43754814168937878 0.29879090876172321 0 0.44596456182237793 0.28824675366600239 0 0.45201550091125647 0.2990892228864232 0 0.43754814168937878 0.29879090876172321 0 0.43556407436591738 0.27911116701335448 0 0.44752591000311559 0.27678982065315599 0 0.44596456182237793 0.28824675366600239 0 0.43275556760223771 0.29000473586690972 0 0.43556407436591738 0.27911116701335448 0 0.44596456182237793 0.28824675366600239 0 0.45469936348261603 0.3085567918636537 0 0.44376901021643039 0.30652275271224072 0 0.44543953504141592 0.31666756211984809 0 0.45469936348261603 0.3085567918636537 0 0.45201550091125647 0.2990892228864232 0 0.44376901021643039 0.30652275271224072 0 0.45201550091125647 0.2990892228864232 0 0.43754814168937878 0.29879090876172321 0 0.44376901021643039 0.30652275271224072 0 0.43191122018887401 0.30926646631787291 0 0.44376901021643039 0.30652275271224072 0 0.44543953504141592 0.31666756211984809 0 0.43191122018887401 0.30926646631787291 0 0.43754814168937878 0.29879090876172321 0 0.44376901021643039 0.30652275271224072 0 0.44543953504141592 0.31666756211984809 0 0.44257020435793321 0.33665364845929419 0 0.45424517514217122 0.32463369919780949 0 0.44543953504141592 0.31666756211984809 0 0.44257020435793321 0.33665364845929419 0 0.42860427230747539 0.32218846723090511 0 0.44543953504141592 0.31666756211984809 0 0.45744876989265859 0.31654049522949979 0 0.45424517514217122 0.32463369919780949 0 0.45469936348261603 0.3085567918636537 0 0.44543953504141592 0.31666756211984809 0 0.45744876989265859 0.31654049522949979 0 0.44257020435793321 0.33665364845929419 0 0.45689553987369869 0.33358485780245573 0 0.45653613640839091 0.35111882968768338 0 0.44257020435793321 0.33665364845929419 0 0.45689553987369869 0.33358485780245573 0 0.45424517514217122 0.32463369919780949 0 0.46716399060695191 0.34283180243565792 0 0.46382591275505652 0.32007959395524238 0 0.47489326999164938 0.32968381446740602 0 0.46716399060695191 0.34283180243565792 0 0.46382591275505652 0.32007959395524238 0 0.46716399060695191 0.34283180243565792 0 0.45689553987369869 0.33358485780245573 0 0.46382591275505652 0.32007959395524238 0 0.46716399060695191 0.34283180243565792 0 0.45689553987369869 0.33358485780245573 0 0.45653613640839091 0.35111882968768338 0 0.45469936348261603 0.3085567918636537 0 0.45744876989265859 0.31654049522949979 0 0.46394897314679301 0.31278493084453268 0 0.45689553987369869 0.33358485780245573 0 0.45424517514217122 0.32463369919780949 0 0.46382591275505652 0.32007959395524238 0 0.45744876989265859 0.31654049522949979 0 0.45424517514217122 0.32463369919780949 0 0.46382591275505652 0.32007959395524238 0 0.46382591275505652 0.32007959395524238 0 0.46394897314679301 0.31278493084453268 0 0.47362542423666798 0.31621415828313992 0 0.45744876989265859 0.31654049522949979 0 0.46382591275505652 0.32007959395524238 0 0.46394897314679301 0.31278493084453268 0 0.47362542423666798 0.31621415828313992 0 0.48348447871644412 0.3180101078017229 0 0.47489326999164938 0.32968381446740602 0 0.48348447871644412 0.3180101078017229 0 0.47489326999164938 0.32968381446740602 0 0.48830863285995402 0.32924757222372908 0 0.46382591275505652 0.32007959395524238 0 0.47362542423666798 0.31621415828313992 0 0.47489326999164938 0.32968381446740602 0 0.46716399060695191 0.34283180243565792 0 0.47489326999164938 0.32968381446740602 0 0.48316541559167642 0.34414958207431418 0 0.47489326999164938 0.32968381446740602 0 0.48830863285995402 0.32924757222372908 0 0.48316541559167642 0.34414958207431418 0 0.48830863285995402 0.32924757222372908 0 0.5 0.34018298523378232 0 0.48316541559167642 0.34414958207431418 0 0.48348447871644412 0.3180101078017229 0 0.48830863285995402 0.32924757222372908 0 0.5 0.31421137154141993 0 0.48830863285995402 0.32924757222372908 0 0.5 0.34018298523378232 0 0.5 0.31421137154141993 0 0.48640059536559199 0.36319241239761602 0 0.48292898413899299 0.37845515956363512 0 0.48758600672376579 0.38178438639747231 0 0.49999999999999623 0.36615459892614483 0 0.48640059536559199 0.36319241239761602 0 0.48758600672376579 0.38178438639747231 0 0.49999999999999623 0.36615459892614483 0 0.48758600672376579 0.38178438639747231 0 0.5 0.34018298523378232 0 0.48640059536559199 0.36319241239761602 0 0.48316541559167642 0.34414958207431418 0 0.5 0.34018298523378232 0 0.49999999999999623 0.36615459892614483 0 0.48640059536559199 0.36319241239761602 0 0.46716399060695191 0.34283180243565792 0 0.47050206845884812 0.36558401091607318 0 0.46716399060695191 0.34283180243565792 0 0.48316541559167642 0.34414958207431418 0 0.47050206845884812 0.36558401091607318 0 0.48640059536559199 0.36319241239761602 0 0.48316541559167642 0.34414958207431418 0 0.47050206845884812 0.36558401091607318 0 0.47050206845884812 0.36558401091607318 0 0.47283704095319162 0.38149909239243718 0 0.48640059536559199 0.36319241239761602 0 0.47050206845884812 0.36558401091607318 0 0.48292898413899299 0.37845515956363512 0 0.47050206845884812 0.36558401091607318 0 0.48292898413899299 0.37845515956363512 0 0.47050206845884812 0.36558401091607318 0 0.45714468107918838 0.36433986445942129 0 0.46057222873200832 0.37906575395452807 0 0.47050206845884812 0.36558401091607318 0 0.45714468107918838 0.36433986445942129 0 0.45653613640839091 0.35111882968768338 0 0.45714468107918838 0.36433986445942129 0 0.4495579792964649 0.37314688040072252 0 0.46057222873200832 0.37906575395452807 0 0.46716399060695191 0.34283180243565792 0 0.47050206845884812 0.36558401091607318 0 0.45653613640839091 0.35111882968768338 0 0.47050206845884812 0.36558401091607318 0 0.45653613640839091 0.35111882968768338 0 0.44257020435793321 0.33665364845929419 0 0.45653613640839091 0.35111882968768338 0 0.44124510463397942 0.35839417272234009 0 0.45714468107918838 0.36433986445942129 0 0.45653613640839091 0.35111882968768338 0 0.44124510463397942 0.35839417272234009 0 0.44257020435793321 0.33665364845929419 0 0.45653613640839091 0.35111882968768338 0 0.45714468107918838 0.36433986445942129 0 0.44124510463397942 0.35839417272234009 0 0.4495579792964649 0.37314688040072252 0 0.44124510463397942 0.35839417272234009 0 0.4495579792964649 0.37314688040072252 0 0.43202728635656862 0.37343319421170462 0 0.44124510463397942 0.35839417272234009 0 0.43202728635656862 0.37343319421170462 0 0.42431881728001242 0.35889122946854152 0 0.43202728635656862 0.37343319421170462 0 0.41702867676469868 0.37022354078881159 0 0.42431881728001242 0.35889122946854152 0 0.41702867676469868 0.37022354078881159 0 0.40777386762573792 0.35921131176911009 0 0.39854775654320063 0.37167698591509041 0 0.41702867676469868 0.37022354078881159 0 0.40777386762573792 0.35921131176911009 0 0.42431881728001242 0.35889122946854152 0 0.41253718014815122 0.34470854235263448 0 0.42431881728001242 0.35889122946854152 0 0.42810286762690652 0.34276053940587098 0 0.41253718014815122 0.34470854235263448 0 0.40777386762573792 0.35921131176911009 0 0.42431881728001242 0.35889122946854152 0 0.44124510463397942 0.35839417272234009 0 0.42431881728001242 0.35889122946854152 0 0.42810286762690652 0.34276053940587098 0 0.44257020435793321 0.33665364845929419 0 0.44124510463397942 0.35839417272234009 0 0.42810286762690652 0.34276053940587098 0 0.42810286762690652 0.34276053940587098 0 0.42860427230747539 0.32218846723090511 0 0.41431194774180302 0.32894976871354581 0 0.44257020435793321 0.33665364845929419 0 0.42810286762690652 0.34276053940587098 0 0.42860427230747539 0.32218846723090511 0 0.44257020435793321 0.33665364845929419 0 0.42860427230747539 0.32218846723090511 0 0.43191122018887401 0.30926646631787291 0 0.44543953504141592 0.31666756211984809 0 0.42860427230747539 0.32218846723090511 0 0.43191122018887401 0.30926646631787291 0 0.42860427230747539 0.32218846723090511 0 0.41574865387928661 0.31370289353735298 0 0.42860427230747539 0.32218846723090511 0 0.41574865387928661 0.31370289353735298 0 0.41431194774180302 0.32894976871354581 0 0.41574865387928661 0.31370289353735298 0 0.41431194774180302 0.32894976871354581 0 0.40156093075114491 0.31750113488738668 0 0.41253718014815122 0.34470854235263448 0 0.41431194774180302 0.32894976871354581 0 0.39994557259825481 0.33252058008215751 0 0.41253718014815122 0.34470854235263448 0 0.42810286762690652 0.34276053940587098 0 0.41431194774180302 0.32894976871354581 0 0.41253718014815122 0.34470854235263448 0 0.39994557259825481 0.33252058008215751 0 0.39741345787776872 0.34803921187177739 0 0.39994557259825481 0.33252058008215751 0 0.38634799782322599 0.32357433788632539 0 0.38689900690283591 0.33782963351874529 0 0.39994557259825481 0.33252058008215751 0 0.38689900690283591 0.33782963351874529 0 0.39741345787776872 0.34803921187177739 0 0.41431194774180302 0.32894976871354581 0 0.39994557259825481 0.33252058008215751 0 0.40156093075114491 0.31750113488738668 0 0.39994557259825481 0.33252058008215751 0 0.40156093075114491 0.31750113488738668 0 0.38634799782322599 0.32357433788632539 0 0.40156093075114491 0.31750113488738668 0 0.39044665743362073 0.31291507673879898 0 0.38634799782322599 0.32357433788632539 0 0.37998594236581662 0.30927504867216532 0 0.39044665743362073 0.31291507673879898 0 0.38634799782322599 0.32357433788632539 0 0.37302190852298428 0.31709005754215652 0 0.38634799782322599 0.32357433788632539 0 0.37575503919442549 0.32913182526222517 0 0.37302190852298428 0.31709005754215652 0 0.37998594236581662 0.30927504867216532 0 0.38634799782322599 0.32357433788632539 0 0.38634799782322599 0.32357433788632539 0 0.38689900690283591 0.33782963351874529 0 0.37575503919442549 0.32913182526222517 0 0.37484275173419918 0.34129884314659548 0 0.38689900690283591 0.33782963351874529 0 0.37575503919442549 0.32913182526222517 0 0.37484275173419918 0.34129884314659548 0 0.38689900690283591 0.33782963351874529 0 0.38606956259201392 0.34875387061004898 0 0.37423146865472978 0.35573110865642288 0 0.37484275173419918 0.34129884314659548 0 0.38606956259201392 0.34875387061004898 0 0.37423146865472978 0.35573110865642288 0 0.38606956259201392 0.34875387061004898 0 0.39280722265869022 0.35668249776449001 0 0.38689900690283591 0.33782963351874529 0 0.38606956259201392 0.34875387061004898 0 0.39741345787776872 0.34803921187177739 0 0.37423146865472978 0.35573110865642288 0 0.39854775654320063 0.37167698591509041 0 0.3801807417636644 0.37252583622892033 0 0.39854775654320063 0.37167698591509041 0 0.38747672977173048 0.37919240755817307 0 0.37423146865472978 0.35573110865642288 0 0.3801807417636644 0.37252583622892033 0 0.39854775654320063 0.37167698591509041 0 0.37423146865472978 0.35573110865642288 0 0.39854775654320063 0.37167698591509041 0 0.39280722265869022 0.35668249776449001 0 0.40777386762573792 0.35921131176911009 0 0.39854775654320063 0.37167698591509041 0 0.39280722265869022 0.35668249776449001 0 0.40777386762573792 0.35921131176911009 0 0.39741345787776872 0.34803921187177739 0 0.39280722265869022 0.35668249776449001 0 0.41253718014815122 0.34470854235263448 0 0.40777386762573792 0.35921131176911009 0 0.39741345787776872 0.34803921187177739 0 0.38606956259201392 0.34875387061004898 0 0.39741345787776872 0.34803921187177739 0 0.39280722265869022 0.35668249776449001 0 0.39271968863736001 0.40305723954585859 0 0.40189373127834788 0.39701001224913002 0 0.39801415507057653 0.38672989042081241 0 0.39271968863736001 0.40305723954585859 0 0.40189373127834788 0.39701001224913002 0 0.40981198229553939 0.40462797242136289 0 0.40189373127834788 0.39701001224913002 0 0.39801415507057653 0.38672989042081241 0 0.41066761517003908 0.39510114342900471 0 0.39854775654320063 0.37167698591509041 0 0.39801415507057653 0.38672989042081241 0 0.38747672977173048 0.37919240755817307 0 0.37316426570948041 0.38583691766786932 0 0.39801415507057653 0.38672989042081241 0 0.37316426570948041 0.38583691766786932 0 0.39801415507057653 0.38672989042081241 0 0.38747672977173048 0.37919240755817307 0 0.37316426570948041 0.38583691766786932 0 0.3801807417636644 0.37252583622892033 0 0.38747672977173048 0.37919240755817307 0 0.37316426570948041 0.38583691766786932 0 0.39271968863736001 0.40305723954585859 0 0.3753335618341983 0.40308257339433501 0 0.37316426570948041 0.38583691766786932 0 0.39271968863736001 0.40305723954585859 0 0.39801415507057653 0.38672989042081241 0 0.39271968863736001 0.40305723954585859 0 0.37994859105186052 0.42257609133380858 0 0.39543060900748189 0.41962980952528989 0 0.39271968863736001 0.40305723954585859 0 0.3753335618341983 0.40308257339433501 0 0.37994859105186052 0.42257609133380858 0 0.36930359675366592 0.44331647074245623 0 0.37994859105186052 0.42257609133380858 0 0.38530416484543473 0.43712297988043552 0 0.37994859105186052 0.42257609133380858 0 0.39545040771175011 0.4313002001606131 0 0.39543060900748189 0.41962980952528989 0 0.37994859105186052 0.42257609133380858 0 0.38530416484543473 0.43712297988043552 0 0.39545040771175011 0.4313002001606131 0 0.39545040771175011 0.4313002001606131 0 0.39543060900748189 0.41962980952528989 0 0.40919291933795759 0.4261877608054131 0 0.39545040771175011 0.4313002001606131 0 0.40565875072197999 0.4371642889812199 0 0.40919291933795759 0.4261877608054131 0 0.39271968863736001 0.40305723954585859 0 0.39543060900748189 0.41962980952528989 0 0.40446303320865112 0.41378899035835998 0 0.39271968863736001 0.40305723954585859 0 0.40446303320865112 0.41378899035835998 0 0.40981198229553939 0.40462797242136289 0 0.39543060900748189 0.41962980952528989 0 0.40446303320865112 0.41378899035835998 0 0.40919291933795759 0.4261877608054131 0 0.40446303320865112 0.41378899035835998 0 0.41990446415474619 0.41196159202923538 0 0.40981198229553939 0.40462797242136289 0 0.40446303320865112 0.41378899035835998 0 0.41990446415474619 0.41196159202923538 0 0.40919291933795759 0.4261877608054131 0 0.41990446415474619 0.41196159202923538 0 0.40919291933795759 0.4261877608054131 0 0.42678139410462851 0.43047337416899317 0 0.40919291933795759 0.4261877608054131 0 0.42678139410462851 0.43047337416899317 0 0.41372582558853721 0.43840324655333829 0 0.40565875072197999 0.4371642889812199 0 0.40919291933795759 0.4261877608054131 0 0.41372582558853721 0.43840324655333829 0 0.42678139410462851 0.43047337416899317 0 0.44097848113949339 0.42232159526397772 0 0.44258040570712598 0.43844850432127891 0 0.42678139410462851 0.43047337416899317 0 0.435152458313804 0.40940420351943091 0 0.41990446415474619 0.41196159202923538 0 0.42678139410462851 0.43047337416899317 0 0.435152458313804 0.40940420351943091 0 0.42678139410462851 0.43047337416899317 0 0.435152458313804 0.40940420351943091 0 0.44097848113949339 0.42232159526397772 0 0.41990446415474619 0.41196159202923538 0 0.435152458313804 0.40940420351943091 0 0.42975010970778771 0.40158516786352449 0 0.435152458313804 0.40940420351943091 0 0.42975010970778771 0.40158516786352449 0 0.44360715218083679 0.38836826005509367 0 0.42975010970778771 0.40158516786352449 0 0.43081994732287171 0.39284010075405079 0 0.44360715218083679 0.38836826005509367 0 0.42975010970778771 0.40158516786352449 0 0.43081994732287171 0.39284010075405079 0 0.42075416277405919 0.39951497887996118 0 0.43081994732287171 0.39284010075405079 0 0.42075416277405919 0.39951497887996118 0 0.42286404443167253 0.3876228631737566 0 0.41990446415474619 0.41196159202923538 0 0.42975010970778771 0.40158516786352449 0 0.42075416277405919 0.39951497887996118 0 0.41990446415474619 0.41196159202923538 0 0.42075416277405919 0.39951497887996118 0 0.40981198229553939 0.40462797242136289 0 0.42075416277405919 0.39951497887996118 0 0.41066761517003908 0.39510114342900471 0 0.42286404443167253 0.3876228631737566 0 0.40189373127834788 0.39701001224913002 0 0.41066761517003908 0.39510114342900471 0 0.40981198229553939 0.40462797242136289 0 0.42075416277405919 0.39951497887996118 0 0.41066761517003908 0.39510114342900471 0 0.40981198229553939 0.40462797242136289 0 0.39801415507057653 0.38672989042081241 0 0.42286404443167253 0.3876228631737566 0 0.39801415507057653 0.38672989042081241 0 0.41066761517003908 0.39510114342900471 0 0.42286404443167253 0.3876228631737566 0 0.39854775654320063 0.37167698591509041 0 0.42286404443167253 0.3876228631737566 0 0.41702867676469868 0.37022354078881159 0 0.39854775654320063 0.37167698591509041 0 0.42286404443167253 0.3876228631737566 0 0.39854775654320063 0.37167698591509041 0 0.39801415507057653 0.38672989042081241 0 0.42286404443167253 0.3876228631737566 0 0.43081994732287171 0.39284010075405079 0 0.42286404443167253 0.3876228631737566 0 0.44360715218083679 0.38836826005509367 0 0.42286404443167253 0.3876228631737566 0 0.44360715218083679 0.38836826005509367 0 0.43202728635656862 0.37343319421170462 0 0.41702867676469868 0.37022354078881159 0 0.42286404443167253 0.3876228631737566 0 0.43202728635656862 0.37343319421170462 0 0.42286404443167253 0.3876228631737566 0 0.44360715218083679 0.38836826005509367 0 0.43081994732287171 0.39284010075405079 0 0.42286404443167253 0.3876228631737566 0 0.4495579792964649 0.37314688040072252 0 0.44360715218083679 0.38836826005509367 0 0.46057222873200832 0.37906575395452807 0 0.4495579792964649 0.37314688040072252 0 0.43202728635656862 0.37343319421170462 0 0.44360715218083679 0.38836826005509367 0 0.4495579792964649 0.37314688040072252 0 0.44360715218083679 0.38836826005509367 0 0.435152458313804 0.40940420351943091 0 0.44360715218083679 0.38836826005509367 0 0.44858288739052832 0.40425622043845749 0 0.44360715218083679 0.38836826005509367 0 0.44858288739052832 0.40425622043845749 0 0.46003823429700808 0.39451626446463822 0 0.435152458313804 0.40940420351943091 0 0.44360715218083679 0.38836826005509367 0 0.46003823429700808 0.39451626446463822 0 0.47517201344753679 0.39741417386880101 0 0.45887620957733188 0.41793133909504032 0 0.44858288739052832 0.40425622043845749 0 0.46003823429700808 0.39451626446463822 0 0.45887620957733188 0.41793133909504032 0 0.47050206845884812 0.36558401091607318 0 0.46057222873200832 0.37906575395452807 0 0.47283704095319162 0.38149909239243718 0 0.44360715218083679 0.38836826005509367 0 0.46003823429700808 0.39451626446463822 0 0.46057222873200832 0.37906575395452807 0 0.46003823429700808 0.39451626446463822 0 0.46057222873200832 0.37906575395452807 0 0.47283704095319162 0.38149909239243718 0 0.47283704095319162 0.38149909239243718 0 0.47517201344753679 0.39741417386880101 0 0.48758600672376579 0.38178438639747231 0 0.47283704095319162 0.38149909239243718 0 0.47517201344753679 0.39741417386880101 0 0.47517201344753679 0.39741417386880101 0 0.48758600672376579 0.38178438639747231 0 0.47050206845884812 0.36558401091607318 0 0.47283704095319162 0.38149909239243718 0 0.48292898413899299 0.37845515956363512 0 0.47283704095319162 0.38149909239243718 0 0.48292898413899299 0.37845515956363512 0 0.48758600672376579 0.38178438639747231 0 0.46003823429700808 0.39451626446463822 0 0.47283704095319162 0.38149909239243718 0 0.47517201344753679 0.39741417386880101 0 0.47517201344753679 0.39741417386880101 0 0.48762831132951462 0.40504568384161821 0 0.48758600672376579 0.38178438639747231 0 0.47517201344753679 0.39741417386880101 0 0.47714463437485072 0.41085948119307808 0 0.47517201344753679 0.39741417386880101 0 0.48762831132951462 0.40504568384161821 0 0.47714463437485072 0.41085948119307808 0 0.5 0.39477073583484268 0 0.48762831132951462 0.40504568384161821 0 0.48758600672376579 0.38178438639747231 0 0.49999999999999623 0.36615459892614483 0 0.5 0.39477073583484268 0 0.48758600672376579 0.38178438639747231 0 0.5 0.42338687274354059 0 0.48345378561813268 0.42187049405942351 0 0.4805237158268213 0.44209792854251873 0 0.48762831132951462 0.40504568384161821 0 0.5 0.42338687274354059 0 0.48345378561813268 0.42187049405942351 0 0.5 0.39477073583484268 0 0.48762831132951462 0.40504568384161821 0 0.5 0.42338687274354059 0 0.48762831132951462 0.40504568384161821 0 0.48345378561813268 0.42187049405942351 0 0.47714463437485072 0.41085948119307808 0 0.47517201344753679 0.39741417386880101 0 0.47714463437485072 0.41085948119307808 0 0.45887620957733188 0.41793133909504032 0 0.47714463437485072 0.41085948119307808 0 0.47197226655947699 0.42796250397636187 0 0.45887620957733188 0.41793133909504032 0 0.48345378561813268 0.42187049405942351 0 0.47714463437485072 0.41085948119307808 0 0.47197226655947699 0.42796250397636187 0 0.48345378561813268 0.42187049405942351 0 0.47197226655947699 0.42796250397636187 0 0.4805237158268213 0.44209792854251873 0 0.47197226655947699 0.42796250397636187 0 0.45887620957733188 0.41793133909504032 0 0.45744955958744787 0.44686531803919838 0 0.47517201344753679 0.39741417386880101 0 0.45887620957733188 0.41793133909504032 0 0.44858288739052832 0.40425622043845749 0 0.45887620957733188 0.41793133909504032 0 0.44097848113949339 0.42232159526397772 0 0.435152458313804 0.40940420351943091 0 0.44858288739052832 0.40425622043845749 0 0.44097848113949339 0.42232159526397772 0 0.45887620957733188 0.41793133909504032 0 0.44097848113949339 0.42232159526397772 0 0.44258040570712598 0.43844850432127891 0 0.45887620957733188 0.41793133909504032 0 0.44258040570712598 0.43844850432127891 0 0.45744955958744787 0.44686531803919838 0 0.45887620957733188 0.41793133909504032 0 0.44258040570712598 0.43844850432127891 0 0.44258040570712598 0.43844850432127891 0 0.45744955958744787 0.44686531803919838 0 0.42628460183692019 0.4589656695475175 0 0.45744955958744787 0.44686531803919838 0 0.44581470458121247 0.47485968622698671 0 0.42628460183692019 0.4589656695475175 0 0.45744955958744787 0.44686531803919838 0 0.46901802637812079 0.46675324631702292 0 0.44581470458121247 0.47485968622698671 0 0.47197226655947699 0.42796250397636187 0 0.45744955958744787 0.44686531803919838 0 0.4805237158268213 0.44209792854251873 0 0.45744955958744787 0.44686531803919838 0 0.4805237158268213 0.44209792854251873 0 0.46901802637812079 0.46675324631702292 0 0.4805237158268213 0.44209792854251873 0 0.46901802637812079 0.46675324631702292 0 0.48639342135533381 0.46559198351611658 0 0.48639342135533381 0.46559198351611658 0 0.5 0.45200300965223872 0 0.50000000000000022 0.48061914656093668 0 0.4805237158268213 0.44209792854251873 0 0.48639342135533381 0.46559198351611658 0 0.5 0.45200300965223872 0 0.5 0.42338687274354059 0 0.4805237158268213 0.44209792854251873 0 0.5 0.45200300965223872 0 0.49510141749675768 0.49999999999999978 0 0.50000000000000022 0.48061914656093668 0 0.49510141749675768 0.49999999999999978 0 0.5 0.5 0 0.50000000000000022 0.48061914656093668 0 0.49510141749675768 0.49999999999999978 0 0.50000000000000022 0.48061914656093668 0 0.48242536457172691 0.48648658650786619 0 0.48639342135533381 0.46559198351611658 0 0.50000000000000022 0.48061914656093668 0 0.48242536457172691 0.48648658650786619 0 0.46901802637812079 0.46675324631702292 0 0.48639342135533381 0.46559198351611658 0 0.48242536457172691 0.48648658650786619 0 0.46901802637812079 0.46675324631702292 0 0.48242536457172691 0.48648658650786619 0 0.46221389443570948 0.48321050605080451 0 0.48242536457172691 0.48648658650786619 0 0.46974931164669581 0.5 0 0.46221389443570948 0.48321050605080451 0 0.49510141749675768 0.49999999999999978 0 0.48242536457172691 0.48648658650786619 0 0.46974931164669581 0.5 0 0.46974931164669581 0.5 0 0.46221389443570948 0.48321050605080451 0 0.44439720579663389 0.5 0 0.46901802637812079 0.46675324631702292 0 0.46221389443570948 0.48321050605080451 0 0.44581470458121247 0.47485968622698671 0 0.46221389443570948 0.48321050605080451 0 0.44581470458121247 0.47485968622698671 0 0.44439720579663389 0.5 0 0.44581470458121247 0.47485968622698671 0 0.44439720579663389 0.5 0 0.42891459484108341 0.48305968796575571 0 0.44439720579663389 0.5 0 0.41904509994657207 0.5 0 0.42891459484108341 0.48305968796575571 0 0.41904509994657207 0.5 0 0.40998879796671428 0.47948283477375608 0 0.42891459484108341 0.48305968796575571 0 0.41904509994657207 0.5 0 0.40998879796671428 0.47948283477375608 0 0.39369299409651037 0.49999999999999611 0 0.41003926568627741 0.47261171546811781 0 0.40998879796671428 0.47948283477375608 0 0.42628460183692019 0.4589656695475175 0 0.40998879796671428 0.47948283477375608 0 0.42628460183692019 0.4589656695475175 0 0.40998879796671428 0.47948283477375608 0 0.42891459484108341 0.48305968796575571 0 0.42628460183692019 0.4589656695475175 0 0.44581470458121247 0.47485968622698671 0 0.42891459484108341 0.48305968796575571 0 0.42628460183692019 0.4589656695475175 0 0.42678139410462851 0.43047337416899317 0 0.44258040570712598 0.43844850432127891 0 0.42891278283903289 0.44458785363271369 0 0.42678139410462851 0.43047337416899317 0 0.42891278283903289 0.44458785363271369 0 0.4184103298954529 0.45154254481855549 0 0.44258040570712598 0.43844850432127891 0 0.42628460183692019 0.4589656695475175 0 0.42678139410462851 0.43047337416899317 0 0.4184103298954529 0.45154254481855549 0 0.44258040570712598 0.43844850432127891 0 0.42628460183692019 0.4589656695475175 0 0.42891278283903289 0.44458785363271369 0 0.42628460183692019 0.4589656695475175 0 0.42891278283903289 0.44458785363271369 0 0.4184103298954529 0.45154254481855549 0 0.42678139410462851 0.43047337416899317 0 0.4184103298954529 0.45154254481855549 0 0.41372582558853721 0.43840324655333829 0 0.4184103298954529 0.45154254481855549 0 0.408585733882667 0.44664826399251001 0 0.40479763141772579 0.45745523203322841 0 0.4184103298954529 0.45154254481855549 0 0.408585733882667 0.44664826399251001 0 0.41372582558853721 0.43840324655333829 0 0.40565875072197999 0.4371642889812199 0 0.408585733882667 0.44664826399251001 0 0.41372582558853721 0.43840324655333829 0 0.41003926568627741 0.47261171546811781 0 0.4184103298954529 0.45154254481855549 0 0.40479763141772579 0.45745523203322841 0 0.41003926568627741 0.47261171546811781 0 0.42628460183692019 0.4589656695475175 0 0.4184103298954529 0.45154254481855549 0 0.41003926568627741 0.47261171546811781 0 0.4184103298954529 0.45154254481855549 0 0.41003926568627741 0.47261171546811781 0 0.40479763141772579 0.45745523203322841 0 0.39707772752838549 0.46797368292669839 0 0.40479763141772579 0.45745523203322841 0 0.3933108675383955 0.45527147038996552 0 0.39707772752838549 0.46797368292669839 0 0.3933108675383955 0.45527147038996552 0 0.39707772752838549 0.46797368292669839 0 0.38712882876624038 0.46232087861505761 0 0.39545040771175011 0.4313002001606131 0 0.40565875072197999 0.4371642889812199 0 0.39716741130578592 0.44512027043751162 0 0.40565875072197999 0.4371642889812199 0 0.408585733882667 0.44664826399251001 0 0.39716741130578592 0.44512027043751162 0 0.408585733882667 0.44664826399251001 0 0.40479763141772579 0.45745523203322841 0 0.39716741130578592 0.44512027043751162 0 0.3933108675383955 0.45527147038996552 0 0.39716741130578592 0.44512027043751162 0 0.38353556889095308 0.45027906574205429 0 0.40479763141772579 0.45745523203322841 0 0.3933108675383955 0.45527147038996552 0 0.39716741130578592 0.44512027043751162 0 0.38530416484543473 0.43712297988043552 0 0.39545040771175011 0.4313002001606131 0 0.39716741130578592 0.44512027043751162 0 0.37446310876981698 0.46179544865201161 0 0.36930359675366592 0.44331647074245623 0 0.38353556889095308 0.45027906574205429 0 0.36930359675366592 0.44331647074245623 0 0.38530416484543473 0.43712297988043552 0 0.38353556889095308 0.45027906574205429 0 0.38530416484543473 0.43712297988043552 0 0.39716741130578592 0.44512027043751162 0 0.38353556889095308 0.45027906574205429 0 0.37446310876981698 0.46179544865201161 0 0.38712882876624038 0.46232087861505761 0 0.38725687110365092 0.47628472536455801 0 0.3933108675383955 0.45527147038996552 0 0.38353556889095308 0.45027906574205429 0 0.38712882876624038 0.46232087861505761 0 0.37446310876981698 0.46179544865201161 0 0.38353556889095308 0.45027906574205429 0 0.38712882876624038 0.46232087861505761 0 0.37122403352689548 0.48327155723405818 0 0.37446310876981698 0.46179544865201161 0 0.38725687110365092 0.47628472536455801 0 0.39707772752838549 0.46797368292669839 0 0.38712882876624038 0.46232087861505761 0 0.38725687110365092 0.47628472536455801 0 0.37122403352689548 0.48327155723405818 0 0.38725687110365092 0.47628472536455801 0 0.39369299409651037 0.49999999999999611 0 0.36561871567760679 0.5 0 0.37122403352689548 0.48327155723405818 0 0.39369299409651037 0.49999999999999611 0 0.40998879796671428 0.47948283477375608 0 0.39369299409651037 0.49999999999999611 0 0.40998879796671428 0.47948283477375608 0 0.39369299409651037 0.49999999999999611 0 0.39815794911071201 0.48057437153101068 0 0.38725687110365092 0.47628472536455801 0 0.39369299409651037 0.49999999999999611 0 0.39815794911071201 0.48057437153101068 0 0.41003926568627741 0.47261171546811781 0 0.40998879796671428 0.47948283477375608 0 0.39815794911071201 0.48057437153101068 0 0.41003926568627741 0.47261171546811781 0 0.39707772752838549 0.46797368292669839 0 0.39815794911071201 0.48057437153101068 0 0.39707772752838549 0.46797368292669839 0 0.38725687110365092 0.47628472536455801 0 0.39815794911071201 0.48057437153101068 0 0.34361895886170157 0.091088154256767917 0 0.32886883765544722 0.067095972163839085 0 0.32382280671286279 0.093932047451942668 0 0.34361895886170157 0.091088154256767917 0 0.32886883765544722 0.067095972163839085 0 0.34949249712230462 0.065391925764556047 0 0.32886883765544722 0.067095972163839085 0 0.30959574977650522 0.057966396663958877 0 0.30230219705414912 0.071746527319131503 0 0.32886883765544722 0.067095972163839085 0 0.31282448825785342 0.082827052692920192 0 0.30230219705414912 0.071746527319131503 0 0.31282448825785342 0.082827052692920192 0 0.32382280671286279 0.093932047451942668 0 0.30674272259986107 0.097183250263304349 0 0.32886883765544722 0.067095972163839085 0 0.31282448825785342 0.082827052692920192 0 0.32382280671286279 0.093932047451942668 0 0.32382280671286279 0.093932047451942668 0 0.31649764268325109 0.1098146278671457 0 0.30674272259986107 0.097183250263304349 0 0.32382280671286279 0.093932047451942668 0 0.31649764268325109 0.1098146278671457 0 0.33196275168909822 0.1159268179707673 0 0.31649764268325109 0.1098146278671457 0 0.33196275168909822 0.1159268179707673 0 0.31396210421308041 0.13422422663755931 0 0.33196275168909822 0.1159268179707673 0 0.34873393740756869 0.10861544637620441 0 0.34300547457560498 0.1261953155474812 0 0.33196275168909822 0.1159268179707673 0 0.34300547457560498 0.1261953155474812 0 0.3316647045693828 0.12937438664084749 0 0.34361895886170157 0.091088154256767917 0 0.33196275168909822 0.1159268179707673 0 0.34873393740756869 0.10861544637620441 0 0.34361895886170157 0.091088154256767917 0 0.32382280671286279 0.093932047451942668 0 0.33196275168909822 0.1159268179707673 0 0.34361895886170157 0.091088154256767917 0 0.34873393740756869 0.10861544637620441 0 0.3672052178403214 0.1057772944198308 0 0.34873393740756869 0.10861544637620441 0 0.3562282042250135 0.1244219162018769 0 0.34300547457560498 0.1261953155474812 0 0.34873393740756869 0.10861544637620441 0 0.3562282042250135 0.1244219162018769 0 0.3672052178403214 0.1057772944198308 0 0.3562282042250135 0.1244219162018769 0 0.37136760853144618 0.12137785530437591 0 0.3672052178403214 0.1057772944198308 0 0.3672052178403214 0.1057772944198308 0 0.36549606767850967 0.07753637651995357 0 0.39147939873960508 0.092712021452525856 0 0.3672052178403214 0.1057772944198308 0 0.36549606767850967 0.07753637651995357 0 0.34361895886170157 0.091088154256767917 0 0.3672052178403214 0.1057772944198308 0 0.36549606767850967 0.07753637651995357 0 0.34361895886170157 0.091088154256767917 0 0.34949249712230462 0.065391925764556047 0 0.36549606767850967 0.07753637651995357 0 0.34949249712230462 0.065391925764556047 0 0.36549606767850967 0.07753637651995357 0 0.36378691751669823 0.04929545862007656 0 0.36549606767850967 0.07753637651995357 0 0.36378691751669823 0.04929545862007656 0 0.36378691751669823 0.04929545862007656 0 0.37916896144966111 0.035338684217319317 0 0.38120215829722798 0.056318902399087253 0 0.36549606767850967 0.07753637651995357 0 0.36378691751669823 0.04929545862007656 0 0.38120215829722798 0.056318902399087253 0 0.36378691751669823 0.04929545862007656 0 0.37061114034258608 0.03135097082081667 0 0.37916896144966111 0.035338684217319317 0 0.36378691751669823 0.04929545862007656 0 0.36207776735488728 0.021054540720199511 0 0.36378691751669823 0.04929545862007656 0 0.37061114034258608 0.03135097082081667 0 0.36207776735488728 0.021054540720199511 0 0.34547330250516739 0.044075256442019463 0 0.36207776735488728 0.021054540720199511 0 0.36378691751669823 0.04929545862007656 0 0.34547330250516739 0.044075256442019463 0 0.36207776735488728 0.021054540720199511 0 0.34949249712230462 0.065391925764556047 0 0.36378691751669823 0.04929545862007656 0 0.34547330250516739 0.044075256442019463 0 0.37412568492071102 0.0043511005411320889 0 0.36207776735488728 0.021054540720199511 0 0.37412568492071102 0.0043511005411320889 0 0.36136103913589501 0.0092117762625625113 0 0.36207776735488728 0.021054540720199511 0 0.37412568492071102 0.0043511005411320889 0 0.36207776735488728 0.021054540720199511 0 0.37741091504909807 0.01971519972567131 0 0.37412568492071102 0.0043511005411320889 0 0.36136103913589501 0.0092117762625625113 0 0.36485191508087789 -0.00056254974709944543 0 0.36136103913589501 0.0092117762625625113 0 0.36485191508087789 -0.00056254974709944543 0 0.35440879702384648 -0.00048039270676468113 0 0.36136103913589501 0.0092117762625625113 0 0.36207776735488728 0.021054540720199511 0 0.37061114034258608 0.03135097082081667 0 0.36207776735488728 0.021054540720199511 0 0.37741091504909807 0.01971519972567131 0 0.34547330250516739 0.044075256442019463 0 0.36207776735488728 0.021054540720199511 0 0.33883017348229222 0.02842346752549739 0 0.36207776735488728 0.021054540720199511 0 0.3467186018506504 0.01287849036533636 0 0.33883017348229222 0.02842346752549739 0 0.36136103913589501 0.0092117762625625113 0 0.36207776735488728 0.021054540720199511 0 0.3467186018506504 0.01287849036533636 0 0.3467186018506504 0.01287849036533636 0 0.35440879702384648 -0.00048039270676468113 0 0.34280495454637833 -0.00089195243633867017 0 0.36136103913589501 0.0092117762625625113 0 0.3467186018506504 0.01287849036533636 0 0.35440879702384648 -0.00048039270676468113 0 0.3467186018506504 0.01287849036533636 0 0.33213259873031198 0.0057252787566607144 0 0.34280495454637833 -0.00089195243633867017 0 0.3467186018506504 0.01287849036533636 0 0.33213259873031198 0.0057252787566607144 0 0.33206566559664641 0.018671869617535031 0 0.3467186018506504 0.01287849036533636 0 0.33206566559664641 0.018671869617535031 0 0.33883017348229222 0.02842346752549739 0 0.33206566559664641 0.018671869617535031 0 0.33883017348229222 0.02842346752549739 0 0.32374203095036252 0.02889796878460835 0 0.32374203095036252 0.02889796878460835 0 0.31815442228492202 0.01401489569737864 0 0.30838235410660769 0.02824363800946034 0 0.33206566559664641 0.018671869617535031 0 0.32374203095036252 0.02889796878460835 0 0.31815442228492202 0.01401489569737864 0 0.33213259873031198 0.0057252787566607144 0 0.33206566559664641 0.018671869617535031 0 0.31815442228492202 0.01401489569737864 0 0.31815442228492202 0.01401489569737864 0 0.30783172406616738 0.0037925172524494039 0 0.32069338199699532 -0.00142713013918547 0 0.33213259873031198 0.0057252787566607144 0 0.31815442228492202 0.01401489569737864 0 0.32069338199699532 -0.00142713013918547 0 0.32886883765544722 0.067095972163839085 0 0.34547330250516739 0.044075256442019463 0 0.32302678994030137 0.044192441954215053 0 0.32886883765544722 0.067095972163839085 0 0.34547330250516739 0.044075256442019463 0 0.32886883765544722 0.067095972163839085 0 0.34949249712230462 0.065391925764556047 0 0.34547330250516739 0.044075256442019463 0 0.34547330250516739 0.044075256442019463 0 0.33883017348229222 0.02842346752549739 0 0.32302678994030137 0.044192441954215053 0 0.33883017348229222 0.02842346752549739 0 0.32374203095036252 0.02889796878460835 0 0.32302678994030137 0.044192441954215053 0 0.32374203095036252 0.02889796878460835 0 0.32302678994030137 0.044192441954215053 0 0.30838235410660769 0.02824363800946034 0 0.32886883765544722 0.067095972163839085 0 0.32302678994030137 0.044192441954215053 0 0.30959574977650522 0.057966396663958877 0 0.30959574977650522 0.057966396663958877 0 0.30257361057158799 0.044061311658584991 0 0.29072380465454478 0.062763462821851079 0 0.32302678994030137 0.044192441954215053 0 0.30959574977650522 0.057966396663958877 0 0.30257361057158799 0.044061311658584991 0 0.32302678994030137 0.044192441954215053 0 0.30257361057158799 0.044061311658584991 0 0.30838235410660769 0.02824363800946034 0 0.30257361057158799 0.044061311658584991 0 0.29654422356260102 0.031855874836598679 0 0.30838235410660769 0.02824363800946034 0 0.28693294053151652 0.043417134512612032 0 0.29654422356260102 0.031855874836598679 0 0.28211497234319233 0.027663126044512942 0 0.30257361057158799 0.044061311658584991 0 0.28693294053151652 0.043417134512612032 0 0.29654422356260102 0.031855874836598679 0 0.28693294053151652 0.043417134512612032 0 0.27543725901668681 0.059962216550301387 0 0.29072380465454478 0.062763462821851079 0 0.30257361057158799 0.044061311658584991 0 0.28693294053151652 0.043417134512612032 0 0.29072380465454478 0.062763462821851079 0 0.31815442228492202 0.01401489569737864 0 0.30783172406616738 0.0037925172524494039 0 0.30104397984569348 0.01860299657288576 0 0.30783172406616738 0.0037925172524494039 0 0.30104397984569348 0.01860299657288576 0 0.29323618271067059 0.0060479275969145367 0 0.31815442228492202 0.01401489569737864 0 0.30104397984569348 0.01860299657288576 0 0.30838235410660769 0.02824363800946034 0 0.29654422356260102 0.031855874836598679 0 0.30104397984569348 0.01860299657288576 0 0.30838235410660769 0.02824363800946034 0 0.28211497234319233 0.027663126044512942 0 0.29323618271067059 0.0060479275969145367 0 0.27158170799109088 0.01346569036181695 0 0.28211497234319233 0.027663126044512942 0 0.29323618271067059 0.0060479275969145367 0 0.30104397984569348 0.01860299657288576 0 0.28211497234319233 0.027663126044512942 0 0.29323618271067059 0.0060479275969145367 0 0.29654422356260102 0.031855874836598679 0 0.30104397984569348 0.01860299657288576 0 0.28211497234319233 0.027663126044512942 0 0.27713155365912651 0.00074104223111566114 0 0.27158170799109088 0.01346569036181695 0 0.26426219591019201 -0.002359750825380944 0 0.29323618271067059 0.0060479275969145367 0 0.27713155365912651 0.00074104223111566114 0 0.27158170799109088 0.01346569036181695 0 0.28211497234319233 0.027663126044512942 0 0.27158170799109088 0.01346569036181695 0 0.26911834987289501 0.02415714922601115 0 0.28211497234319233 0.027663126044512942 0 0.26911834987289501 0.02415714922601115 0 0.27276831536202989 0.033460388041782141 0 0.26911834987289501 0.02415714922601115 0 0.26079215273048761 0.027896482712477778 0 0.27276831536202989 0.033460388041782141 0 0.27158170799109088 0.01346569036181695 0 0.26911834987289501 0.02415714922601115 0 0.25489883525781248 0.020703345573159691 0 0.24553547460543171 0.043766441971699953 0 0.26079215273048761 0.027896482712477778 0 0.25489883525781248 0.020703345573159691 0 0.26911834987289501 0.02415714922601115 0 0.26079215273048761 0.027896482712477778 0 0.25489883525781248 0.020703345573159691 0 0.24666420319168639 0.01542139876343003 0 0.26426219591019201 -0.002359750825380944 0 0.24311130928645741 -0.005463409046427151 0 0.25489883525781248 0.020703345573159691 0 0.26426219591019201 -0.002359750825380944 0 0.27158170799109088 0.01346569036181695 0 0.25489883525781248 0.020703345573159691 0 0.26426219591019201 -0.002359750825380944 0 0.24666420319168639 0.01542139876343003 0 0.26426219591019201 -0.002359750825380944 0 0.24666420319168639 0.01542139876343003 0 0.25489883525781248 0.020703345573159691 0 0.26426219591019201 -0.002359750825380944 0 0.27543725901668681 0.059962216550301387 0 0.26667166701610973 0.044588416333238748 0 0.25656045389062482 0.059112627339890603 0 0.28693294053151652 0.043417134512612032 0 0.27543725901668681 0.059962216550301387 0 0.26667166701610973 0.044588416333238748 0 0.28693294053151652 0.043417134512612032 0 0.27543725901668681 0.059962216550301387 0 0.28693294053151652 0.043417134512612032 0 0.26667166701610973 0.044588416333238748 0 0.27276831536202989 0.033460388041782141 0 0.28693294053151652 0.043417134512612032 0 0.28211497234319233 0.027663126044512942 0 0.27276831536202989 0.033460388041782141 0 0.26079215273048761 0.027896482712477778 0 0.26667166701610973 0.044588416333238748 0 0.27276831536202989 0.033460388041782141 0 0.24553547460543171 0.043766441971699953 0 0.26079215273048761 0.027896482712477778 0 0.24553547460543171 0.043766441971699953 0 0.25489883525781248 0.020703345573159691 0 0.24553547460543171 0.043766441971699953 0 0.26079215273048761 0.027896482712477778 0 0.26667166701610973 0.044588416333238748 0 0.24553547460543171 0.043766441971699953 0 0.26667166701610973 0.044588416333238748 0 0.25656045389062482 0.059112627339890603 0 0.2477663946351947 0.078357918266048876 0 0.2509897177165582 0.070498448047813717 0 0.26394157750185693 0.076507298587990713 0 0.27543725901668681 0.059962216550301387 0 0.25656045389062482 0.059112627339890603 0 0.26394157750185693 0.076507298587990713 0 0.25656045389062482 0.059112627339890603 0 0.2509897177165582 0.070498448047813717 0 0.26394157750185693 0.076507298587990713 0 0.25244589598702583 0.093052380625679054 0 0.27402009665386662 0.093690613915195356 0 0.26394157750185693 0.076507298587990713 0 0.25244589598702583 0.093052380625679054 0 0.26699388614920511 0.080673758461395628 0 0.26394157750185693 0.076507298587990713 0 0.25244589598702583 0.093052380625679054 0 0.2477663946351947 0.078357918266048876 0 0.26394157750185693 0.076507298587990713 0 0.25244589598702583 0.093052380625679054 0 0.25244589598702583 0.093052380625679054 0 0.26699388614920511 0.080673758461395628 0 0.27402009665386662 0.093690613915195356 0 0.26699388614920511 0.080673758461395628 0 0.27402009665386662 0.093690613915195356 0 0.27754652050913542 0.098224621748377983 0 0.26699388614920511 0.080673758461395628 0 0.27754652050913542 0.098224621748377983 0 0.26699388614920511 0.080673758461395628 0 0.27840240357192031 0.090992580046082169 0 0.27754652050913542 0.098224621748377983 0 0.27448758316834893 0.079370743651532932 0 0.27946083869133032 0.08512574774471883 0 0.2877026173516235 0.080423000810432188 0 0.26699388614920511 0.080673758461395628 0 0.27448758316834893 0.079370743651532932 0 0.27946083869133032 0.08512574774471883 0 0.26699388614920511 0.080673758461395628 0 0.27946083869133032 0.08512574774471883 0 0.27840240357192031 0.090992580046082169 0 0.27946083869133032 0.08512574774471883 0 0.27840240357192031 0.090992580046082169 0 0.28500093438269519 0.092923449129578631 0 0.27543725901668681 0.059962216550301387 0 0.26394157750185693 0.076507298587990713 0 0.27543725901668681 0.059962216550301387 0 0.27477769329259172 0.071770139812017825 0 0.29072380465454478 0.062763462821851079 0 0.27543725901668681 0.059962216550301387 0 0.26394157750185693 0.076507298587990713 0 0.27477769329259172 0.071770139812017825 0 0.26394157750185693 0.076507298587990713 0 0.26699388614920511 0.080673758461395628 0 0.27477769329259172 0.071770139812017825 0 0.26699388614920511 0.080673758461395628 0 0.27448758316834893 0.079370743651532932 0 0.27477769329259172 0.071770139812017825 0 0.27448758316834893 0.079370743651532932 0 0.27477769329259172 0.071770139812017825 0 0.2877026173516235 0.080423000810432188 0 0.29072380465454478 0.062763462821851079 0 0.2877026173516235 0.080423000810432188 0 0.30230219705414912 0.071746527319131503 0 0.27477769329259172 0.071770139812017825 0 0.29072380465454478 0.062763462821851079 0 0.2877026173516235 0.080423000810432188 0 0.2877026173516235 0.080423000810432188 0 0.28500093438269519 0.092923449129578631 0 0.29409229964354061 0.093384966592278643 0 0.27946083869133032 0.08512574774471883 0 0.2877026173516235 0.080423000810432188 0 0.28500093438269519 0.092923449129578631 0 0.27840240357192031 0.090992580046082169 0 0.28500093438269519 0.092923449129578631 0 0.28195796542923129 0.096003941137239659 0 0.2877026173516235 0.080423000810432188 0 0.29409229964354061 0.093384966592278643 0 0.30090931343286398 0.084908081040913824 0 0.2877026173516235 0.080423000810432188 0 0.30090931343286398 0.084908081040913824 0 0.30230219705414912 0.071746527319131503 0 0.29409229964354061 0.093384966592278643 0 0.30090931343286398 0.084908081040913824 0 0.30674272259986107 0.097183250263304349 0 0.31282448825785342 0.082827052692920192 0 0.30090931343286398 0.084908081040913824 0 0.30674272259986107 0.097183250263304349 0 0.31282448825785342 0.082827052692920192 0 0.30090931343286398 0.084908081040913824 0 0.30230219705414912 0.071746527319131503 0 0.30959574977650522 0.057966396663958877 0 0.29072380465454478 0.062763462821851079 0 0.30230219705414912 0.071746527319131503 0 0.30289357098572861 0.1122338061762158 0 0.29196109770817991 0.11853031336423681 0 0.31396210421308041 0.13422422663755931 0 0.31649764268325109 0.1098146278671457 0 0.30289357098572861 0.1122338061762158 0 0.31396210421308041 0.13422422663755931 0 0.31649764268325109 0.1098146278671457 0 0.30289357098572861 0.1122338061762158 0 0.30674272259986107 0.097183250263304349 0 0.29409229964354061 0.093384966592278643 0 0.30674272259986107 0.097183250263304349 0 0.29615893648292779 0.1031821700217137 0 0.30289357098572861 0.1122338061762158 0 0.30674272259986107 0.097183250263304349 0 0.29615893648292779 0.1031821700217137 0 0.28809915486906712 0.1157754850353595 0 0.27754652050913542 0.098224621748377983 0 0.29615893648292779 0.1031821700217137 0 0.2868820032531742 0.1018751136249199 0 0.29056235839298961 0.1111988636778647 0 0.30289357098572861 0.1122338061762158 0 0.29615893648292779 0.1031821700217137 0 0.29056235839298961 0.1111988636778647 0 0.2868820032531742 0.1018751136249199 0 0.28809915486906712 0.1157754850353595 0 0.27754652050913542 0.098224621748377983 0 0.29409229964354061 0.093384966592278643 0 0.29615893648292779 0.1031821700217137 0 0.2868820032531742 0.1018751136249199 0 0.28500093438269519 0.092923449129578631 0 0.28195796542923129 0.096003941137239659 0 0.2868820032531742 0.1018751136249199 0 0.28195796542923129 0.096003941137239659 0 0.2868820032531742 0.1018751136249199 0 0.27754652050913542 0.098224621748377983 0 0.28500093438269519 0.092923449129578631 0 0.29409229964354061 0.093384966592278643 0 0.2868820032531742 0.1018751136249199 0 0.28809915486906712 0.1157754850353595 0 0.27669509691515898 0.1076406619102107 0 0.2868820032531742 0.1018751136249199 0 0.28809915486906712 0.1157754850353595 0 0.29056235839298961 0.1111988636778647 0 0.28137790105769878 0.11669947007703869 0 0.28809915486906712 0.1157754850353595 0 0.27669509691515898 0.1076406619102107 0 0.30289357098572861 0.1122338061762158 0 0.29056235839298961 0.1111988636778647 0 0.29196109770817991 0.11853031336423681 0 0.28809915486906712 0.1157754850353595 0 0.29056235839298961 0.1111988636778647 0 0.29196109770817991 0.11853031336423681 0 0.29056235839298961 0.1111988636778647 0 0.29196109770817991 0.11853031336423681 0 0.28809915486906712 0.1157754850353595 0 0.29196109770817991 0.11853031336423681 0 0.28809915486906712 0.1157754850353595 0 0.29298623737555418 0.1239035518306328 0 0.29196109770817991 0.11853031336423681 0 0.29298623737555418 0.1239035518306328 0 0.29196109770817991 0.11853031336423681 0 0.29646833903449982 0.12969489151729729 0 0.28809915486906712 0.1157754850353595 0 0.29298623737555418 0.1239035518306328 0 0.29298623737555418 0.1239035518306328 0 0.29196109770817991 0.11853031336423681 0 0.28809915486906712 0.1157754850353595 0 0.29298623737555418 0.1239035518306328 0 0.28445144074759782 0.1224495902802 0 0.28137790105769878 0.11669947007703869 0 0.28809915486906712 0.1157754850353595 0 0.28445144074759782 0.1224495902802 0 0.28137790105769878 0.11669947007703869 0 0.28445144074759782 0.1224495902802 0 0.27626591169897052 0.1209321430823858 0 0.27626591169897052 0.1209321430823858 0 0.27002057018966907 0.11363421084942869 0 0.27669509691515898 0.1076406619102107 0 0.28137790105769878 0.11669947007703869 0 0.27626591169897052 0.1209321430823858 0 0.27669509691515898 0.1076406619102107 0 0.27002057018966907 0.11363421084942869 0 0.26759354674999308 0.1025869313407171 0 0.26100290195474102 0.1152153917037496 0 0.27002057018966907 0.11363421084942869 0 0.26767372264660572 0.12163298614487381 0 0.26100290195474102 0.1152153917037496 0 0.27626591169897052 0.1209321430823858 0 0.26767372264660572 0.12163298614487381 0 0.26990215010366497 0.13072478078345409 0 0.27626591169897052 0.1209321430823858 0 0.27002057018966907 0.11363421084942869 0 0.26767372264660572 0.12163298614487381 0 0.28809915486906712 0.1157754850353595 0 0.27754652050913542 0.098224621748377983 0 0.27669509691515898 0.1076406619102107 0 0.27840240357192031 0.090992580046082169 0 0.28195796542923129 0.096003941137239659 0 0.27754652050913542 0.098224621748377983 0 0.27754652050913542 0.098224621748377983 0 0.27669509691515898 0.1076406619102107 0 0.26759354674999308 0.1025869313407171 0 0.27002057018966907 0.11363421084942869 0 0.27669509691515898 0.1076406619102107 0 0.26759354674999308 0.1025869313407171 0 0.27402009665386662 0.093690613915195356 0 0.27754652050913542 0.098224621748377983 0 0.26759354674999308 0.1025869313407171 0 0.25244589598702583 0.093052380625679054 0 0.27402009665386662 0.093690613915195356 0 0.26759354674999308 0.1025869313407171 0 0.25244589598702583 0.093052380625679054 0 0.26759354674999308 0.1025869313407171 0 0.25513117456964352 0.1062350585458208 0 0.26759354674999308 0.1025869313407171 0 0.25513117456964352 0.1062350585458208 0 0.26100290195474102 0.1152153917037496 0 0.24304896194163839 0.1065768545320899 0 0.25244589598702583 0.093052380625679054 0 0.25513117456964352 0.1062350585458208 0 0.26767372264660572 0.12163298614487381 0 0.26100290195474102 0.1152153917037496 0 0.25943373732023012 0.12733252417493771 0 0.2485501070929089 0.1191882429421139 0 0.25513117456964352 0.1062350585458208 0 0.26100290195474102 0.1152153917037496 0 0.2485501070929089 0.1191882429421139 0 0.26100290195474102 0.1152153917037496 0 0.25943373732023012 0.12733252417493771 0 0.24689748716589169 0.13668034068660331 0 0.2485501070929089 0.1191882429421139 0 0.25943373732023012 0.12733252417493771 0 0.24689748716589169 0.13668034068660331 0 0.26200995305086672 0.14008888835075761 0 0.25943373732023012 0.12733252417493771 0 0.26200995305086672 0.14008888835075761 0 0.25943373732023012 0.12733252417493771 0 0.26990215010366497 0.13072478078345409 0 0.26200995305086672 0.14008888835075761 0 0.26990215010366497 0.13072478078345409 0 0.27801496966330269 0.14816267448439091 0 0.26767372264660572 0.12163298614487381 0 0.25943373732023012 0.12733252417493771 0 0.26990215010366497 0.13072478078345409 0 0.26990215010366497 0.13072478078345409 0 0.27801496966330269 0.14816267448439091 0 0.28298295275883112 0.13216087998166831 0 0.28445144074759782 0.1224495902802 0 0.27626591169897052 0.1209321430823858 0 0.28298295275883112 0.13216087998166831 0 0.27626591169897052 0.1209321430823858 0 0.26990215010366497 0.13072478078345409 0 0.28298295275883112 0.13216087998166831 0 0.26200995305086672 0.14008888835075761 0 0.27801496966330269 0.14816267448439091 0 0.2601429464355336 0.15325935293470719 0 0.24689748716589169 0.13668034068660331 0 0.26200995305086672 0.14008888835075761 0 0.2601429464355336 0.15325935293470719 0 0.24689748716589169 0.13668034068660331 0 0.2601429464355336 0.15325935293470719 0 0.2601429464355336 0.15325935293470719 0 0.25680141540481938 0.16796710591659411 0 0.27338840570517542 0.16983836518281109 0 0.2570848785433778 0.1721788521524327 0 0.27338840570517542 0.16983836518281109 0 0.25680141540481938 0.16796710591659411 0 0.2570848785433778 0.1721788521524327 0 0.27338840570517542 0.16983836518281109 0 0.23732753427187131 0.15397795512720039 0 0.2601429464355336 0.15325935293470719 0 0.25680141540481938 0.16796710591659411 0 0.24689640026790671 0.16831138779212901 0 0.25680141540481938 0.16796710591659411 0 0.2570848785433778 0.1721788521524327 0 0.2570848785433778 0.1721788521524327 0 0.26369281015497842 0.17823019687912131 0 0.27338840570517542 0.16983836518281109 0 0.25096185484086497 0.18748103319587661 0 0.25440344022390288 0.1802081938823456 0 0.26059471761324948 0.18634998854587631 0 0.24826796332043391 0.17979306739518369 0 0.25096185484086497 0.18748103319587661 0 0.25440344022390288 0.1802081938823456 0 0.24826796332043391 0.17979306739518369 0 0.25440344022390288 0.1802081938823456 0 0.2570848785433778 0.1721788521524327 0 0.25440344022390288 0.1802081938823456 0 0.2570848785433778 0.1721788521524327 0 0.26369281015497842 0.17823019687912131 0 0.25440344022390288 0.1802081938823456 0 0.26369281015497842 0.17823019687912131 0 0.26059471761324948 0.18634998854587631 0 0.27299260868918629 0.18257558463214049 0 0.27338840570517542 0.16983836518281109 0 0.29130974552872813 0.19227006093518831 0 0.26369281015497842 0.17823019687912131 0 0.26059471761324948 0.18634998854587631 0 0.27299260868918629 0.18257558463214049 0 0.26369281015497842 0.17823019687912131 0 0.27299260868918629 0.18257558463214049 0 0.27338840570517542 0.16983836518281109 0 0.2601429464355336 0.15325935293470719 0 0.27338840570517542 0.16983836518281109 0 0.27801496966330269 0.14816267448439091 0 0.2601429464355336 0.15325935293470719 0 0.27338840570517542 0.16983836518281109 0 0.27801496966330269 0.14816267448439091 0 0.27338840570517542 0.16983836518281109 0 0.30099388665163013 0.16587540257943609 0 0.27338840570517542 0.16983836518281109 0 0.30099388665163013 0.16587540257943609 0 0.27338840570517542 0.16983836518281109 0 0.30099388665163013 0.16587540257943609 0 0.29130974552872813 0.19227006093518831 0 0.27338840570517542 0.16983836518281109 0 0.29130974552872813 0.19227006093518831 0 0.30099388665163013 0.16587540257943609 0 0.29130974552872813 0.19227006093518831 0 0.30616761181993402 0.1929933260913973 0 0.30099388665163013 0.16587540257943609 0 0.30616761181993402 0.1929933260913973 0 0.31613382636025222 0.18162839877561079 0 0.30099388665163013 0.16587540257943609 0 0.30616761181993402 0.1929933260913973 0 0.30099388665163013 0.16587540257943609 0 0.31685332771610841 0.16359866731911291 0 0.30099388665163013 0.16587540257943609 0 0.31685332771610841 0.16359866731911291 0 0.31613382636025222 0.18162839877561079 0 0.30099388665163013 0.16587540257943609 0 0.30491978254583241 0.14375110957487219 0 0.31685332771610841 0.16359866731911291 0 0.30491978254583241 0.14375110957487219 0 0.31685332771610841 0.16359866731911291 0 0.30099388665163013 0.16587540257943609 0 0.29699006201359229 0.14488947720503451 0 0.30491978254583241 0.14375110957487219 0 0.31396210421308041 0.13422422663755931 0 0.31545911466106319 0.15092559070470751 0 0.30099388665163013 0.16587540257943609 0 0.29699006201359229 0.14488947720503451 0 0.30491978254583241 0.14375110957487219 0 0.30491978254583241 0.14375110957487219 0 0.31545911466106319 0.15092559070470751 0 0.31685332771610841 0.16359866731911291 0 0.29196109770817991 0.11853031336423681 0 0.29646833903449982 0.12969489151729729 0 0.31396210421308041 0.13422422663755931 0 0.29196109770817991 0.11853031336423681 0 0.31396210421308041 0.13422422663755931 0 0.29646833903449982 0.12969489151729729 0 0.31396210421308041 0.13422422663755931 0 0.30491978254583241 0.14375110957487219 0 0.29646833903449982 0.12969489151729729 0 0.31396210421308041 0.13422422663755931 0 0.30491978254583241 0.14375110957487219 0 0.29646833903449982 0.12969489151729729 0 0.29699006201359229 0.14488947720503451 0 0.30491978254583241 0.14375110957487219 0 0.29646833903449982 0.12969489151729729 0 0.29298623737555418 0.1239035518306328 0 0.29699006201359229 0.14488947720503451 0 0.28298295275883112 0.13216087998166831 0 0.29298623737555418 0.1239035518306328 0 0.29699006201359229 0.14488947720503451 0 0.29646833903449982 0.12969489151729729 0 0.29298623737555418 0.1239035518306328 0 0.29699006201359229 0.14488947720503451 0 0.29298623737555418 0.1239035518306328 0 0.29646833903449982 0.12969489151729729 0 0.29298623737555418 0.1239035518306328 0 0.28445144074759782 0.1224495902802 0 0.28298295275883112 0.13216087998166831 0 0.27801496966330269 0.14816267448439091 0 0.29699006201359229 0.14488947720503451 0 0.28298295275883112 0.13216087998166831 0 0.27801496966330269 0.14816267448439091 0 0.30099388665163013 0.16587540257943609 0 0.29699006201359229 0.14488947720503451 0 0.28350982114301537 0.25340827336100907 0 0.27624493267844091 0.23818714613855491 0 0.26031403403548131 0.2402604575509816 0 0.28350982114301537 0.25340827336100907 0 0.26031403403548131 0.2402604575509816 0 0.27624493267844091 0.23818714613855491 0 0.26031403403548131 0.2402604575509816 0 0.25556301788750557 0.2273286642810339 0 0.25441855054454432 0.25563729412123742 0 0.25010503738555478 0.24259371671335209 0 0.26031403403548131 0.2402604575509816 0 0.25010503738555478 0.24259371671335209 0 0.26031403403548131 0.2402604575509816 0 0.25556301788750557 0.2273286642810339 0 0.25556301788750557 0.2273286642810339 0 0.26815316520424037 0.21674503407463491 0 0.25140047973087548 0.2169793571628218 0 0.27624493267844091 0.23818714613855491 0 0.25556301788750557 0.2273286642810339 0 0.28345217743787099 0.22371995694219651 0 0.25556301788750557 0.2273286642810339 0 0.26815316520424037 0.21674503407463491 0 0.28345217743787099 0.22371995694219651 0 0.25556301788750557 0.2273286642810339 0 0.28345217743787099 0.22371995694219651 0 0.26815316520424037 0.21674503407463491 0 0.27923403192877089 0.20564186907518209 0 0.25957836326763301 0.20786486517659269 0 0.26815316520424037 0.21674503407463491 0 0.27923403192877089 0.20564186907518209 0 0.28345217743787099 0.22371995694219651 0 0.24157592692321239 0.20102918882948601 0 0.25140047973087548 0.2169793571628218 0 0.25957836326763301 0.20786486517659269 0 0.26815316520424037 0.21674503407463491 0 0.25140047973087548 0.2169793571628218 0 0.25957836326763301 0.20786486517659269 0 0.24157592692321239 0.20102918882948601 0 0.25957836326763301 0.20786486517659269 0 0.25692254755214899 0.19625362416250361 0 0.25957836326763301 0.20786486517659269 0 0.25692254755214899 0.19625362416250361 0 0.26849726052659212 0.19458761874194899 0 0.25096185484086497 0.18748103319587661 0 0.26059471761324948 0.18634998854587631 0 0.25692254755214899 0.19625362416250361 0 0.26059471761324948 0.18634998854587631 0 0.25692254755214899 0.19625362416250361 0 0.26849726052659212 0.19458761874194899 0 0.26059471761324948 0.18634998854587631 0 0.27299260868918629 0.18257558463214049 0 0.26849726052659212 0.19458761874194899 0 0.27299260868918629 0.18257558463214049 0 0.26849726052659212 0.19458761874194899 0 0.27800841166831941 0.193768783346115 0 0.27299260868918629 0.18257558463214049 0 0.27800841166831941 0.193768783346115 0 0.29130974552872813 0.19227006093518831 0 0.27923403192877089 0.20564186907518209 0 0.25957836326763301 0.20786486517659269 0 0.26849726052659212 0.19458761874194899 0 0.27923403192877089 0.20564186907518209 0 0.26849726052659212 0.19458761874194899 0 0.27800841166831941 0.193768783346115 0 0.27923403192877089 0.20564186907518209 0 0.27800841166831941 0.193768783346115 0 0.29130974552872813 0.19227006093518831 0 0.27923403192877089 0.20564186907518209 0 0.29130974552872813 0.19227006093518831 0 0.294416118584021 0.2070395946948283 0 0.29130974552872813 0.19227006093518831 0 0.30616761181993402 0.1929933260913973 0 0.294416118584021 0.2070395946948283 0 0.30616761181993402 0.1929933260913973 0 0.294416118584021 0.2070395946948283 0 0.31134133698823618 0.22011124960335879 0 0.30616761181993402 0.1929933260913973 0 0.31134133698823618 0.22011124960335879 0 0.27923403192877089 0.20564186907518209 0 0.294416118584021 0.2070395946948283 0 0.28345217743787099 0.22371995694219651 0 0.294416118584021 0.2070395946948283 0 0.28345217743787099 0.22371995694219651 0 0.31134133698823618 0.22011124960335879 0 0.28345217743787099 0.22371995694219651 0 0.30187452637369511 0.2321566267123156 0 0.29769131417516809 0.24543768908422581 0 0.28345217743787099 0.22371995694219651 0 0.31134133698823618 0.22011124960335879 0 0.28345217743787099 0.22371995694219651 0 0.30187452637369511 0.2321566267123156 0 0.31134133698823618 0.22011124960335879 0 0.30187452637369511 0.2321566267123156 0 0.31134133698823618 0.22011124960335879 0 0.31501327689350489 0.23935761121948129 0 0.30187452637369511 0.2321566267123156 0 0.29769131417516809 0.24543768908422581 0 0.31501327689350489 0.23935761121948129 0 0.29769131417516809 0.24543768908422581 0 0.31501327689350489 0.23935761121948129 0 0.30642368583217472 0.253973570375916 0 0.29769131417516809 0.24543768908422581 0 0.31501327689350489 0.23935761121948129 0 0.27624493267844091 0.23818714613855491 0 0.28345217743787099 0.22371995694219651 0 0.29769131417516809 0.24543768908422581 0 0.28350982114301537 0.25340827336100907 0 0.27624493267844091 0.23818714613855491 0 0.29769131417516809 0.24543768908422581 0 0.31501327689350489 0.23935761121948129 0 0.34302669091599919 0.22952479138932511 0 0.3322433811071151 0.24362456497306439 0 0.31501327689350489 0.23935761121948129 0 0.34302669091599919 0.22952479138932511 0 0.34225011193596688 0.24554605033966259 0 0.3322433811071151 0.24362456497306439 0 0.34302669091599919 0.22952479138932511 0 0.32851575443267339 0.25368014921509868 0 0.34225011193596688 0.24554605033966259 0 0.3322433811071151 0.24362456497306439 0 0.31779452277496761 0.25393542713122691 0 0.3322433811071151 0.24362456497306439 0 0.31501327689350489 0.23935761121948129 0 0.31779452277496761 0.25393542713122691 0 0.31501327689350489 0.23935761121948129 0 0.30642368583217472 0.253973570375916 0 0.31779452277496761 0.25393542713122691 0 0.31501327689350489 0.23935761121948129 0 0.31501327689350489 0.23935761121948129 0 0.32552222976179701 0.22658505509594221 0 0.34302669091599919 0.22952479138932511 0 0.31134133698823618 0.22011124960335879 0 0.31501327689350489 0.23935761121948129 0 0.31134133698823618 0.22011124960335879 0 0.31501327689350489 0.23935761121948129 0 0.32552222976179701 0.22658505509594221 0 0.31134133698823618 0.22011124960335879 0 0.32552222976179701 0.22658505509594221 0 0.33270761424944773 0.2173465681716035 0 0.34302669091599919 0.22952479138932511 0 0.33270761424944773 0.2173465681716035 0 0.35407389151065921 0.21458188673984771 0 0.32552222976179701 0.22658505509594221 0 0.34302669091599919 0.22952479138932511 0 0.33270761424944773 0.2173465681716035 0 0.33270761424944773 0.2173465681716035 0 0.35407389151065921 0.21458188673984771 0 0.33270761424944773 0.2173465681716035 0 0.34129312360522501 0.20225678361807439 0 0.35407389151065921 0.21458188673984771 0 0.33270761424944773 0.2173465681716035 0 0.32340433315755213 0.20021706265887751 0 0.34129312360522501 0.20225678361807439 0 0.31134133698823618 0.22011124960335879 0 0.33270761424944773 0.2173465681716035 0 0.31134133698823618 0.22011124960335879 0 0.33270761424944773 0.2173465681716035 0 0.32340433315755213 0.20021706265887751 0 0.30616761181993402 0.1929933260913973 0 0.31134133698823618 0.22011124960335879 0 0.32340433315755213 0.20021706265887751 0 0.30616761181993402 0.1929933260913973 0 0.32340433315755213 0.20021706265887751 0 0.31613382636025222 0.18162839877561079 0 0.32340433315755213 0.20021706265887751 0 0.33162783018138559 0.1881712303452559 0 0.31613382636025222 0.18162839877561079 0 0.32340433315755213 0.20021706265887751 0 0.33162783018138559 0.1881712303452559 0 0.34129312360522501 0.20225678361807439 0 0.33162783018138559 0.1881712303452559 0 0.34129312360522501 0.20225678361807439 0 0.3471889900873964 0.1913196059300096 0 0.34129312360522501 0.20225678361807439 0 0.3471889900873964 0.1913196059300096 0 0.35420219925029622 0.19985293616278449 0 0.3471889900873964 0.1913196059300096 0 0.35420219925029622 0.19985293616278449 0 0.36051456065791981 0.1890387808722877 0 0.36051456065791981 0.1890387808722877 0 0.36843849743940038 0.2012677426138611 0 0.37550762071605498 0.19038468057255989 0 0.36843849743940038 0.2012677426138611 0 0.37821721130733332 0.19796982392945101 0 0.37550762071605498 0.19038468057255989 0 0.35420219925029622 0.19985293616278449 0 0.36051456065791981 0.1890387808722877 0 0.36843849743940038 0.2012677426138611 0 0.36843849743940038 0.2012677426138611 0 0.35407389151065921 0.21458188673984771 0 0.37544016877187059 0.211817205308092 0 0.35407389151065921 0.21458188673984771 0 0.37544016877187059 0.211817205308092 0 0.35407389151065921 0.21458188673984771 0 0.3710401049384931 0.21969197155916789 0 0.37544016877187059 0.211817205308092 0 0.36843849743940038 0.2012677426138611 0 0.37544016877187059 0.211817205308092 0 0.37998761067079001 0.2066396146968501 0 0.35420219925029622 0.19985293616278449 0 0.36843849743940038 0.2012677426138611 0 0.35407389151065921 0.21458188673984771 0 0.34129312360522501 0.20225678361807439 0 0.35420219925029622 0.19985293616278449 0 0.35407389151065921 0.21458188673984771 0 0.34302669091599919 0.22952479138932511 0 0.3710401049384931 0.21969197155916789 0 0.34302669091599919 0.22952479138932511 0 0.3710401049384931 0.21969197155916789 0 0.35732720174502253 0.2396959493664664 0 0.34302669091599919 0.22952479138932511 0 0.35407389151065921 0.21458188673984771 0 0.3710401049384931 0.21969197155916789 0 0.3710401049384931 0.21969197155916789 0 0.35732720174502253 0.2396959493664664 0 0.3710401049384931 0.21969197155916789 0 0.36974993357080471 0.24341868245907089 0 0.35732720174502253 0.2396959493664664 0 0.3710401049384931 0.21969197155916789 0 0.36974993357080471 0.24341868245907089 0 0.38076024350424392 0.22022346863708511 0 0.35569285218755903 0.25327773526953179 0 0.36974993357080471 0.24341868245907089 0 0.35732720174502253 0.2396959493664664 0 0.34361429855155301 0.25969992717376572 0 0.35732720174502253 0.2396959493664664 0 0.34361429855155301 0.25969992717376572 0 0.34225011193596688 0.24554605033966259 0 0.35732720174502253 0.2396959493664664 0 0.34225011193596688 0.24554605033966259 0 0.34302669091599919 0.22952479138932511 0 0.35732720174502253 0.2396959493664664 0 0.33338243930738221 0.14807727716235949 0 0.33772848779974779 0.14115118640758201 0 0.31396210421308041 0.13422422663755931 0 0.33338243930738221 0.14807727716235949 0 0.35280277440168412 0.16193032768715929 0 0.33338243930738221 0.14807727716235949 0 0.33772848779974779 0.14115118640758201 0 0.34635214322380731 0.14980923435867649 0 0.33772848779974779 0.14115118640758201 0 0.34300547457560498 0.1261953155474812 0 0.3316647045693828 0.12937438664084749 0 0.33772848779974779 0.14115118640758201 0 0.3316647045693828 0.12937438664084749 0 0.31396210421308041 0.13422422663755931 0 0.33196275168909822 0.1159268179707673 0 0.3316647045693828 0.12937438664084749 0 0.31396210421308041 0.13422422663755931 0 0.33772848779974779 0.14115118640758201 0 0.31396210421308041 0.13422422663755931 0 0.33338243930738221 0.14807727716235949 0 0.32539581156127662 0.155636945704307 0 0.31545911466106319 0.15092559070470751 0 0.33338243930738221 0.14807727716235949 0 0.31396210421308041 0.13422422663755931 0 0.33338243930738221 0.14807727716235949 0 0.31396210421308041 0.13422422663755931 0 0.31545911466106319 0.15092559070470751 0 0.32539581156127662 0.155636945704307 0 0.31545911466106319 0.15092559070470751 0 0.31957477151240471 0.1588937594474667 0 0.31545911466106319 0.15092559070470751 0 0.31957477151240471 0.1588937594474667 0 0.31685332771610841 0.16359866731911291 0 0.31957477151240471 0.1588937594474667 0 0.31685332771610841 0.16359866731911291 0 0.32247924947515089 0.1608285130433435 0 0.32539581156127662 0.155636945704307 0 0.32655502194073788 0.16448712371995761 0 0.32247924947515089 0.1608285130433435 0 0.31685332771610841 0.16359866731911291 0 0.32655502194073788 0.16448712371995761 0 0.32247924947515089 0.1608285130433435 0 0.32539581156127662 0.155636945704307 0 0.31957477151240471 0.1588937594474667 0 0.32247924947515089 0.1608285130433435 0 0.33162783018138559 0.1881712303452559 0 0.31685332771610841 0.16359866731911291 0 0.32655502194073788 0.16448712371995761 0 0.33162783018138559 0.1881712303452559 0 0.31685332771610841 0.16359866731911291 0 0.31613382636025222 0.18162839877561079 0 0.33162783018138559 0.1881712303452559 0 0.31685332771610841 0.16359866731911291 0 0.33162783018138559 0.1881712303452559 0 0.3471889900873964 0.1913196059300096 0 0.34830723674215552 0.17727829865164521 0 0.33162783018138559 0.1881712303452559 0 0.32655502194073788 0.16448712371995761 0 0.33609915353536329 0.16574361579028021 0 0.33162783018138559 0.1881712303452559 0 0.33609915353536329 0.16574361579028021 0 0.34830723674215552 0.17727829865164521 0 0.33338243930738221 0.14807727716235949 0 0.32539581156127662 0.155636945704307 0 0.33609915353536329 0.16574361579028021 0 0.33338243930738221 0.14807727716235949 0 0.33609915353536329 0.16574361579028021 0 0.35280277440168412 0.16193032768715929 0 0.32539581156127662 0.155636945704307 0 0.32655502194073788 0.16448712371995761 0 0.33609915353536329 0.16574361579028021 0 0.33609915353536329 0.16574361579028021 0 0.35280277440168412 0.16193032768715929 0 0.34830723674215552 0.17727829865164521 0 0.35280277440168412 0.16193032768715929 0 0.34830723674215552 0.17727829865164521 0 0.37222310949598603 0.17578337821195911 0 0.3471889900873964 0.1913196059300096 0 0.36051456065791981 0.1890387808722877 0 0.34830723674215552 0.17727829865164521 0 0.36051456065791981 0.1890387808722877 0 0.34830723674215552 0.17727829865164521 0 0.37222310949598603 0.17578337821195911 0 0.36051456065791981 0.1890387808722877 0 0.37222310949598603 0.17578337821195911 0 0.37550762071605498 0.19038468057255989 0 0.35280277440168412 0.16193032768715929 0 0.37222310949598603 0.17578337821195911 0 0.35280277440168412 0.16193032768715929 0 0.37222310949598603 0.17578337821195911 0 0.36768039965118537 0.16161268965241229 0 0.35280277440168412 0.16193032768715929 0 0.36768039965118537 0.16161268965241229 0 0.36149487138641512 0.14807814617760531 0 0.36149487138641512 0.14807814617760531 0 0.38526125497308239 0.1550051059476287 0 0.36149487138641512 0.14807814617760531 0 0.36801772990287029 0.13573164014417749 0 0.38526125497308239 0.1550051059476287 0 0.36768039965118537 0.16161268965241229 0 0.36149487138641512 0.14807814617760531 0 0.38526125497308239 0.1550051059476287 0 0.33772848779974779 0.14115118640758201 0 0.36149487138641512 0.14807814617760531 0 0.33338243930738221 0.14807727716235949 0 0.35280277440168412 0.16193032768715929 0 0.34635214322380731 0.14980923435867649 0 0.35280277440168412 0.16193032768715929 0 0.36149487138641512 0.14807814617760531 0 0.34635214322380731 0.14980923435867649 0 0.33772848779974779 0.14115118640758201 0 0.36149487138641512 0.14807814617760531 0 0.34635214322380731 0.14980923435867649 0 0.33772848779974779 0.14115118640758201 0 0.36149487138641512 0.14807814617760531 0 0.35238397481876121 0.13570835584716701 0 0.3562282042250135 0.1244219162018769 0 0.35238397481876121 0.13570835584716701 0 0.36801772990287029 0.13573164014417749 0 0.3562282042250135 0.1244219162018769 0 0.34300547457560498 0.1261953155474812 0 0.35238397481876121 0.13570835584716701 0 0.33772848779974779 0.14115118640758201 0 0.34300547457560498 0.1261953155474812 0 0.35238397481876121 0.13570835584716701 0 0.36149487138641512 0.14807814617760531 0 0.35238397481876121 0.13570835584716701 0 0.36801772990287029 0.13573164014417749 0 0.3562282042250135 0.1244219162018769 0 0.37136760853144618 0.12137785530437591 0 0.36801772990287029 0.13573164014417749 0 0.37136760853144618 0.12137785530437591 0 0.36801772990287029 0.13573164014417749 0 0.38273142935887489 0.130070280736651 0 0.36801772990287029 0.13573164014417749 0 0.38273142935887489 0.130070280736651 0 0.38526125497308239 0.1550051059476287 0 0.38273142935887489 0.130070280736651 0 0.40855144916943159 0.120187835557726 0 0.38273142935887489 0.130070280736651 0 0.40149415297584989 0.1424153400345628 0 0.40855144916943159 0.120187835557726 0 0.40149415297584989 0.1424153400345628 0 0.38526125497308239 0.1550051059476287 0 0.40743938623163661 0.16659377601903799 0 0.38273142935887489 0.130070280736651 0 0.40149415297584989 0.1424153400345628 0 0.38526125497308239 0.1550051059476287 0 0.37222310949598603 0.17578337821195911 0 0.36768039965118537 0.16161268965241229 0 0.38779193799272949 0.17125499050404111 0 0.36768039965118537 0.16161268965241229 0 0.38526125497308239 0.1550051059476287 0 0.38779193799272949 0.17125499050404111 0 0.37222310949598603 0.17578337821195911 0 0.38779193799272949 0.17125499050404111 0 0.39164344459028799 0.18963642873675879 0 0.37222310949598603 0.17578337821195911 0 0.39164344459028799 0.18963642873675879 0 0.37222310949598603 0.17578337821195911 0 0.37550762071605498 0.19038468057255989 0 0.39164344459028799 0.18963642873675879 0 0.40603801895816238 0.1860803154579489 0 0.40743938623163661 0.16659377601903799 0 0.39164344459028799 0.18963642873675879 0 0.40743938623163661 0.16659377601903799 0 0.39164344459028799 0.18963642873675879 0 0.38779193799272949 0.17125499050404111 0 0.40743938623163661 0.16659377601903799 0 0.39164344459028799 0.18963642873675879 0 0.38526125497308239 0.1550051059476287 0 0.38779193799272949 0.17125499050404111 0 0.40743938623163661 0.16659377601903799 0 0.40743938623163661 0.16659377601903799 0 0.42118830261595019 0.1706280855537691 0 0.41951270505417909 0.15378246473873891 0 0.40603801895816238 0.1860803154579489 0 0.40743938623163661 0.16659377601903799 0 0.41488638459616001 0.18155432119510159 0 0.40603801895816238 0.1860803154579489 0 0.41488638459616001 0.18155432119510159 0 0.41388613001438829 0.19164380792279459 0 0.42118830261595019 0.1706280855537691 0 0.41488638459616001 0.18155432119510159 0 0.42395162147912419 0.18537572570669739 0 0.40743938623163661 0.16659377601903799 0 0.42118830261595019 0.1706280855537691 0 0.41488638459616001 0.18155432119510159 0 0.41488638459616001 0.18155432119510159 0 0.42395162147912419 0.18537572570669739 0 0.41388613001438829 0.19164380792279459 0 0.42395162147912419 0.18537572570669739 0 0.43609354115983168 0.17224857173352701 0 0.43539097016498862 0.1922407333120775 0 0.42118830261595019 0.1706280855537691 0 0.42395162147912419 0.18537572570669739 0 0.43609354115983168 0.17224857173352701 0 0.43609354115983168 0.17224857173352701 0 0.43040582145679351 0.15441983656717051 0 0.43773094645600691 0.15613183731627209 0 0.42118830261595019 0.1706280855537691 0 0.43609354115983168 0.17224857173352701 0 0.41951270505417909 0.15378246473873891 0 0.43609354115983168 0.17224857173352701 0 0.41951270505417909 0.15378246473873891 0 0.43609354115983168 0.17224857173352701 0 0.43040582145679351 0.15441983656717051 0 0.41951270505417909 0.15378246473873891 0 0.43040582145679351 0.15441983656717051 0 0.43545658674096749 0.14638518574599929 0 0.43773094645600691 0.15613183731627209 0 0.43040582145679351 0.15441983656717051 0 0.42323532787298218 0.14355112330131509 0 0.41951270505417909 0.15378246473873891 0 0.43040582145679351 0.15441983656717051 0 0.42323532787298218 0.14355112330131509 0 0.43545658674096749 0.14638518574599929 0 0.42323532787298218 0.14355112330131509 0 0.43545658674096749 0.14638518574599929 0 0.43885798777158203 0.1323601782504274 0 0.42323532787298218 0.14355112330131509 0 0.43897663710487478 0.1203888476831413 0 0.4369486270834988 0.120454896195849 0 0.42323532787298218 0.14355112330131509 0 0.43885798777158203 0.1323601782504274 0 0.43897663710487478 0.1203888476831413 0 0.42323532787298218 0.14355112330131509 0 0.43897663710487478 0.1203888476831413 0 0.42323532787298218 0.14355112330131509 0 0.4369486270834988 0.120454896195849 0 0.40855144916943159 0.120187835557726 0 0.40149415297584989 0.1424153400345628 0 0.42323532787298218 0.14355112330131509 0 0.40855144916943159 0.120187835557726 0 0.40743938623163661 0.16659377601903799 0 0.42323532787298218 0.14355112330131509 0 0.41951270505417909 0.15378246473873891 0 0.40743938623163661 0.16659377601903799 0 0.42323532787298218 0.14355112330131509 0 0.40149415297584989 0.1424153400345628 0 0.40743938623163661 0.16659377601903799 0 0.42323532787298218 0.14355112330131509 0 0.39032076234519641 0.2392124451987841 0 0.40406249975237918 0.23147131974123761 0 0.40754113612963189 0.246839457821182 0 0.39567832587374102 0.25400701171074253 0 0.39032076234519641 0.2392124451987841 0 0.40754113612963189 0.246839457821182 0 0.38274786304311942 0.25292179484764721 0 0.38146020636658812 0.2416568598164425 0 0.39032076234519641 0.2392124451987841 0 0.39567832587374102 0.25400701171074253 0 0.38274786304311942 0.25292179484764721 0 0.39032076234519641 0.2392124451987841 0 0.38274786304311942 0.25292179484764721 0 0.36974993357080471 0.24341868245907089 0 0.38146020636658812 0.2416568598164425 0 0.36974993357080471 0.24341868245907089 0 0.38146020636658812 0.2416568598164425 0 0.38302226650723198 0.23107451676026769 0 0.38146020636658812 0.2416568598164425 0 0.39032076234519641 0.2392124451987841 0 0.38302226650723198 0.23107451676026769 0 0.39032076234519641 0.2392124451987841 0 0.38302226650723198 0.23107451676026769 0 0.39236259892496339 0.2255269677199295 0 0.36974993357080471 0.24341868245907089 0 0.38076024350424392 0.22022346863708511 0 0.36974993357080471 0.24341868245907089 0 0.38302226650723198 0.23107451676026769 0 0.38076024350424392 0.22022346863708511 0 0.38302226650723198 0.23107451676026769 0 0.38076024350424392 0.22022346863708511 0 0.39236259892496339 0.2255269677199295 0 0.38076024350424392 0.22022346863708511 0 0.39236259892496339 0.2255269677199295 0 0.39185465904044048 0.21363987609932211 0 0.39236259892496339 0.2255269677199295 0 0.4027630420493773 0.21894434950505551 0 0.39185465904044048 0.21363987609932211 0 0.39032076234519641 0.2392124451987841 0 0.39236259892496339 0.2255269677199295 0 0.40406249975237918 0.23147131974123761 0 0.39236259892496339 0.2255269677199295 0 0.40406249975237918 0.23147131974123761 0 0.4027630420493773 0.21894434950505551 0 0.4027630420493773 0.21894434950505551 0 0.4005177151368905 0.2087753460612442 0 0.40861238855959958 0.21205651161504521 0 0.4005177151368905 0.2087753460612442 0 0.40132460234923251 0.196542260532244 0 0.40861238855959958 0.21205651161504521 0 0.4005177151368905 0.2087753460612442 0 0.39252394072008839 0.2038368710448388 0 0.39185465904044048 0.21363987609932211 0 0.4027630420493773 0.21894434950505551 0 0.4005177151368905 0.2087753460612442 0 0.39185465904044048 0.21363987609932211 0 0.38076024350424392 0.22022346863708511 0 0.39185465904044048 0.21363987609932211 0 0.37998761067079001 0.2066396146968501 0 0.3710401049384931 0.21969197155916789 0 0.37998761067079001 0.2066396146968501 0 0.3710401049384931 0.21969197155916789 0 0.38076024350424392 0.22022346863708511 0 0.37998761067079001 0.2066396146968501 0 0.3710401049384931 0.21969197155916789 0 0.37544016877187059 0.211817205308092 0 0.37998761067079001 0.2066396146968501 0 0.39252394072008839 0.2038368710448388 0 0.39185465904044048 0.21363987609932211 0 0.37998761067079001 0.2066396146968501 0 0.37998761067079001 0.2066396146968501 0 0.38893511640308881 0.1935872578345337 0 0.39252394072008839 0.2038368710448388 0 0.37998761067079001 0.2066396146968501 0 0.38893511640308881 0.1935872578345337 0 0.37550762071605498 0.19038468057255989 0 0.38893511640308881 0.1935872578345337 0 0.39164344459028799 0.18963642873675879 0 0.37998761067079001 0.2066396146968501 0 0.37821721130733332 0.19796982392945101 0 0.38893511640308881 0.1935872578345337 0 0.36843849743940038 0.2012677426138611 0 0.37998761067079001 0.2066396146968501 0 0.37821721130733332 0.19796982392945101 0 0.37550762071605498 0.19038468057255989 0 0.38893511640308881 0.1935872578345337 0 0.37821721130733332 0.19796982392945101 0 0.37550762071605498 0.19038468057255989 0 0.38893511640308881 0.1935872578345337 0 0.38893511640308881 0.1935872578345337 0 0.39164344459028799 0.18963642873675879 0 0.39164344459028799 0.18963642873675879 0 0.40132460234923251 0.196542260532244 0 0.38893511640308881 0.1935872578345337 0 0.40132460234923251 0.196542260532244 0 0.38893511640308881 0.1935872578345337 0 0.39164344459028799 0.18963642873675879 0 0.40132460234923251 0.196542260532244 0 0.39252394072008839 0.2038368710448388 0 0.38893511640308881 0.1935872578345337 0 0.40132460234923251 0.196542260532244 0 0.4005177151368905 0.2087753460612442 0 0.39252394072008839 0.2038368710448388 0 0.40132460234923251 0.196542260532244 0 0.40603801895816238 0.1860803154579489 0 0.39164344459028799 0.18963642873675879 0 0.40132460234923251 0.196542260532244 0 0.40132460234923251 0.196542260532244 0 0.42180385146214411 0.2014267437657514 0 0.41388613001438829 0.19164380792279459 0 0.42395162147912419 0.18537572570669739 0 0.42180385146214411 0.2014267437657514 0 0.41388613001438829 0.19164380792279459 0 0.40132460234923251 0.196542260532244 0 0.42180385146214411 0.2014267437657514 0 0.40603801895816238 0.1860803154579489 0 0.40132460234923251 0.196542260532244 0 0.41388613001438829 0.19164380792279459 0 0.42395162147912419 0.18537572570669739 0 0.42180385146214411 0.2014267437657514 0 0.43539097016498862 0.1922407333120775 0 0.42180385146214411 0.2014267437657514 0 0.43539097016498862 0.1922407333120775 0 0.4422831005750556 0.20631122699925911 0 0.42180385146214411 0.2014267437657514 0 0.42537676368069183 0.2136993180463089 0 0.4422831005750556 0.20631122699925911 0 0.42180385146214411 0.2014267437657514 0 0.4422831005750556 0.20631122699925911 0 0.40132460234923251 0.196542260532244 0 0.42537676368069183 0.2136993180463089 0 0.40132460234923251 0.196542260532244 0 0.42180385146214411 0.2014267437657514 0 0.42537676368069183 0.2136993180463089 0 0.40132460234923251 0.196542260532244 0 0.42537676368069183 0.2136993180463089 0 0.40861238855959958 0.21205651161504521 0 0.42537676368069183 0.2136993180463089 0 0.40861238855959958 0.21205651161504521 0 0.41458127236701747 0.22227905260385339 0 0.4027630420493773 0.21894434950505551 0 0.40861238855959958 0.21205651161504521 0 0.41458127236701747 0.22227905260385339 0 0.40406249975237918 0.23147131974123761 0 0.4027630420493773 0.21894434950505551 0 0.41458127236701747 0.22227905260385339 0 0.40406249975237918 0.23147131974123761 0 0.41809820887005272 0.232145108780864 0 0.41458127236701747 0.22227905260385339 0 0.41809820887005272 0.232145108780864 0 0.41458127236701747 0.22227905260385339 0 0.42821936429956597 0.22758083179446451 0 0.42537676368069183 0.2136993180463089 0 0.44942892501215143 0.23085637556037361 0 0.42537676368069183 0.2136993180463089 0 0.42821936429956597 0.22758083179446451 0 0.44942892501215143 0.23085637556037361 0 0.42821936429956597 0.22758083179446451 0 0.43361165156791631 0.23892430398092271 0 0.44942892501215143 0.23085637556037361 0 0.42537676368069183 0.2136993180463089 0 0.41458127236701747 0.22227905260385339 0 0.42821936429956597 0.22758083179446451 0 0.41809820887005272 0.232145108780864 0 0.42821936429956597 0.22758083179446451 0 0.43361165156791631 0.23892430398092271 0 0.41809820887005272 0.232145108780864 0 0.43361165156791631 0.23892430398092271 0 0.42199558299019008 0.24569146256226659 0 0.43248491923257842 0.25319244582003908 0 0.43361165156791631 0.23892430398092271 0 0.42199558299019008 0.24569146256226659 0 0.4182419991507712 0.25735599640832502 0 0.42199558299019008 0.24569146256226659 0 0.40754113612963189 0.246839457821182 0 0.41809820887005272 0.232145108780864 0 0.42199558299019008 0.24569146256226659 0 0.40754113612963189 0.246839457821182 0 0.40406249975237918 0.23147131974123761 0 0.41809820887005272 0.232145108780864 0 0.40754113612963189 0.246839457821182 0 0.44788526557016878 0.25020789551764 0 0.44942892501215143 0.23085637556037361 0 0.47348108634361091 0.24801343307443799 0 0.44942892501215143 0.23085637556037361 0 0.47348108634361091 0.24801343307443799 0 0.44788526557016878 0.25020789551764 0 0.43361165156791631 0.23892430398092271 0 0.44942892501215143 0.23085637556037361 0 0.43248491923257842 0.25319244582003908 0 0.44788526557016878 0.25020789551764 0 0.43361165156791631 0.23892430398092271 0 0.42537676368069183 0.2136993180463089 0 0.44942892501215143 0.23085637556037361 0 0.45050061044108258 0.2172316204491648 0 0.44942892501215143 0.23085637556037361 0 0.45937975197325243 0.22399743949242121 0 0.45050061044108258 0.2172316204491648 0 0.45937975197325243 0.22399743949242121 0 0.47171210239081401 0.22918768712806251 0 0.47348108634361091 0.24801343307443799 0 0.44942892501215143 0.23085637556037361 0 0.45937975197325243 0.22399743949242121 0 0.47348108634361091 0.24801343307443799 0 0.45937975197325243 0.22399743949242121 0 0.46978909337999192 0.22024170305884899 0 0.47171210239081401 0.22918768712806251 0 0.46276234968796698 0.2111957102327669 0 0.45536982848929691 0.2035994002141768 0 0.4422831005750556 0.20631122699925911 0 0.45937975197325243 0.22399743949242121 0 0.46276234968796698 0.2111957102327669 0 0.46978909337999192 0.22024170305884899 0 0.46276234968796698 0.2111957102327669 0 0.46925521337113668 0.2091807857231032 0 0.46978909337999192 0.22024170305884899 0 0.46276234968796698 0.2111957102327669 0 0.45536982848929691 0.2035994002141768 0 0.46925521337113668 0.2091807857231032 0 0.45937975197325243 0.22399743949242121 0 0.46276234968796698 0.2111957102327669 0 0.45050061044108258 0.2172316204491648 0 0.46276234968796698 0.2111957102327669 0 0.4422831005750556 0.20631122699925911 0 0.42537676368069183 0.2136993180463089 0 0.45050061044108258 0.2172316204491648 0 0.4422831005750556 0.20631122699925911 0 0.46276234968796698 0.2111957102327669 0 0.45050061044108258 0.2172316204491648 0 0.4422831005750556 0.20631122699925911 0 0.43539097016498862 0.1922407333120775 0 0.4422831005750556 0.20631122699925911 0 0.45267437726548421 0.1907146787283151 0 0.45536982848929691 0.2035994002141768 0 0.4422831005750556 0.20631122699925911 0 0.45267437726548421 0.1907146787283151 0 0.45536982848929691 0.2035994002141768 0 0.45267437726548421 0.1907146787283151 0 0.46925521337113668 0.2091807857231032 0 0.45267437726548421 0.1907146787283151 0 0.46609751495037438 0.1960393140295518 0 0.46925521337113668 0.2091807857231032 0 0.45267437726548421 0.1907146787283151 0 0.46925521337113668 0.2091807857231032 0 0.45267437726548421 0.1907146787283151 0 0.46609751495037438 0.1960393140295518 0 0.46475578522026711 0.18017675231680111 0 0.47770468394460958 0.20408503934998801 0 0.46475578522026711 0.18017675231680111 0 0.47770468394460958 0.20408503934998801 0 0.46475578522026711 0.18017675231680111 0 0.48107312616680947 0.18499577283407931 0 0.46609751495037438 0.1960393140295518 0 0.47770468394460958 0.20408503934998801 0 0.46475578522026711 0.18017675231680111 0 0.48913650349071819 0.19592130344743461 0 0.47770468394460958 0.20408503934998801 0 0.48107312616680947 0.18499577283407931 0 0.46609751495037438 0.1960393140295518 0 0.47770468394460958 0.20408503934998801 0 0.46925521337113668 0.2091807857231032 0 0.48913650349071819 0.19592130344743461 0 0.5 0.2033205940769931 0 0.5 0.1750142061529717 0 0.48913650349071819 0.19592130344743461 0 0.48690470734217223 0.21219090482314071 0 0.5 0.2033205940769931 0 0.48690470734217223 0.21219090482314071 0 0.5 0.2033205940769931 0 0.5 0.2316269820010145 0 0.48913650349071819 0.19592130344743461 0 0.48690470734217223 0.21219090482314071 0 0.47770468394460958 0.20408503934998801 0 0.48690470734217223 0.21219090482314071 0 0.47770468394460958 0.20408503934998801 0 0.46925521337113668 0.2091807857231032 0 0.48690470734217223 0.21219090482314071 0 0.46925521337113668 0.2091807857231032 0 0.48583604947678932 0.2276468927178914 0 0.46925521337113668 0.2091807857231032 0 0.48583604947678932 0.2276468927178914 0 0.46925521337113668 0.2091807857231032 0 0.46978909337999192 0.22024170305884899 0 0.48583604947678932 0.2276468927178914 0 0.46978909337999192 0.22024170305884899 0 0.47171210239081401 0.22918768712806251 0 0.48583604947678932 0.2276468927178914 0 0.48690470734217223 0.21219090482314071 0 0.48583604947678932 0.2276468927178914 0 0.5 0.2316269820010145 0 0.5 0.25993336992503602 0 0.5 0.2316269820010145 0 0.4880543619955422 0.24607784998085619 0 0.48583604947678932 0.2276468927178914 0 0.5 0.2316269820010145 0 0.4880543619955422 0.24607784998085619 0 0.47171210239081401 0.22918768712806251 0 0.48583604947678932 0.2276468927178914 0 0.47348108634361091 0.24801343307443799 0 0.48583604947678932 0.2276468927178914 0 0.4880543619955422 0.24607784998085619 0 0.47348108634361091 0.24801343307443799 0 0.46385712017945713 0.15161562527267919 0 0.46366981913808031 0.13749744641264591 0 0.4783313204046587 0.15348302543812331 0 0.44925340193949448 0.14289080996257511 0 0.45947553436466038 0.16527314934155779 0 0.44925340193949448 0.14289080996257511 0 0.45180688649592449 0.15626846528361421 0 0.45947553436466038 0.16527314934155779 0 0.46385712017945713 0.15161562527267919 0 0.44925340193949448 0.14289080996257511 0 0.45947553436466038 0.16527314934155779 0 0.46385712017945713 0.15161562527267919 0 0.46366981913808031 0.13749744641264591 0 0.44925340193949448 0.14289080996257511 0 0.46366981913808031 0.13749744641264591 0 0.47960189246587581 0.1190657587108479 0 0.45935914233515379 0.1197250274152253 0 0.46366981913808031 0.13749744641264591 0 0.45008600502629781 0.1282012100987287 0 0.45935914233515379 0.1197250274152253 0 0.46366981913808031 0.13749744641264591 0 0.45008600502629781 0.1282012100987287 0 0.44925340193949448 0.14289080996257511 0 0.43885798777158203 0.1323601782504274 0 0.44925340193949448 0.14289080996257511 0 0.43897663710487478 0.1203888476831413 0 0.45008600502629781 0.1282012100987287 0 0.44925340193949448 0.14289080996257511 0 0.43897663710487478 0.1203888476831413 0 0.44925340193949448 0.14289080996257511 0 0.43897663710487478 0.1203888476831413 0 0.43885798777158203 0.1323601782504274 0 0.44925340193949448 0.14289080996257511 0 0.45180688649592449 0.15626846528361421 0 0.43545658674096749 0.14638518574599929 0 0.43885798777158203 0.1323601782504274 0 0.45180688649592449 0.15626846528361421 0 0.43885798777158203 0.1323601782504274 0 0.45180688649592449 0.15626846528361421 0 0.43545658674096749 0.14638518574599929 0 0.43773094645600691 0.15613183731627209 0 0.45180688649592449 0.15626846528361421 0 0.43609354115983168 0.17224857173352701 0 0.43773094645600691 0.15613183731627209 0 0.44395160936203559 0.16423342539491759 0 0.43773094645600691 0.15613183731627209 0 0.44395160936203559 0.16423342539491759 0 0.45180688649592449 0.15626846528361421 0 0.44395160936203559 0.16423342539491759 0 0.45180688649592449 0.15626846528361421 0 0.45017506333637952 0.17228482724625729 0 0.43609354115983168 0.17224857173352701 0 0.44395160936203559 0.16423342539491759 0 0.45017506333637952 0.17228482724625729 0 0.43609354115983168 0.17224857173352701 0 0.45267437726548421 0.1907146787283151 0 0.43609354115983168 0.17224857173352701 0 0.43539097016498862 0.1922407333120775 0 0.45267437726548421 0.1907146787283151 0 0.43609354115983168 0.17224857173352701 0 0.45267437726548421 0.1907146787283151 0 0.45017506333637952 0.17228482724625729 0 0.45267437726548421 0.1907146787283151 0 0.45017506333637952 0.17228482724625729 0 0.46475578522026711 0.18017675231680111 0 0.45180688649592449 0.15626846528361421 0 0.46475578522026711 0.18017675231680111 0 0.45180688649592449 0.15626846528361421 0 0.45017506333637952 0.17228482724625729 0 0.46475578522026711 0.18017675231680111 0 0.45180688649592449 0.15626846528361421 0 0.46475578522026711 0.18017675231680111 0 0.45947553436466038 0.16527314934155779 0 0.45947553436466038 0.16527314934155779 0 0.4692572975374768 0.16000447506692461 0 0.47536521520113117 0.16964610021533791 0 0.46475578522026711 0.18017675231680111 0 0.45947553436466038 0.16527314934155779 0 0.47536521520113117 0.16964610021533791 0 0.46385712017945713 0.15161562527267919 0 0.45947553436466038 0.16527314934155779 0 0.4692572975374768 0.16000447506692461 0 0.4692572975374768 0.16000447506692461 0 0.47536521520113117 0.16964610021533791 0 0.4783313204046587 0.15348302543812331 0 0.46475578522026711 0.18017675231680111 0 0.47536521520113117 0.16964610021533791 0 0.48107312616680947 0.18499577283407931 0 0.48913650349071819 0.19592130344743461 0 0.48107312616680947 0.18499577283407931 0 0.5 0.1750142061529717 0 0.47536521520113117 0.16964610021533791 0 0.48107312616680947 0.18499577283407931 0 0.5 0.1750142061529717 0 0.47536521520113117 0.16964610021533791 0 0.5 0.1750142061529717 0 0.4783313204046587 0.15348302543812331 0 0.5 0.1750142061529717 0 0.5 0.1467078182289504 0 0.4783313204046587 0.15348302543812331 0 0.5 0.1467078182289504 0 0.4783313204046587 0.15348302543812331 0 0.48280586505346512 0.1357862729409659 0 0.46366981913808031 0.13749744641264591 0 0.4783313204046587 0.15348302543812331 0 0.48280586505346512 0.1357862729409659 0 0.46385712017945713 0.15161562527267919 0 0.4692572975374768 0.16000447506692461 0 0.4783313204046587 0.15348302543812331 0 0.46366981913808031 0.13749744641264591 0 0.48280586505346512 0.1357862729409659 0 0.47960189246587581 0.1190657587108479 0 0.46366981913808031 0.13749744641264591 0 0.47960189246587581 0.1190657587108479 0 0.5 0.1467078182289504 0 0.48280586505346512 0.1357862729409659 0 0.49999999999999928 0.118401430304929 0 0.49999999999999928 0.118401430304929 0 0.48980094623293652 0.1072665553039472 0 0.47960189246587581 0.1190657587108479 0 0.48280586505346512 0.1357862729409659 0 0.49999999999999928 0.118401430304929 0 0.47960189246587581 0.1190657587108479 0 0.49999999999999928 0.118401430304929 0 0.47960189246587581 0.1190657587108479 0 0.48980094623293652 0.1072665553039472 0 0.47960189246587581 0.1190657587108479 0 0.49999999999999928 0.118401430304929 0 0.49999999999999822 0.095467351897047595 0 0.48980094623293652 0.1072665553039472 0 0.49999999999999822 0.095467351897047595 0 0.48980094623293652 0.1072665553039472 0 0.49999999999999822 0.095467351897047595 0 0.4852915859832998 0.096060894430836416 0 0.48980094623293652 0.1072665553039472 0 0.4852915859832998 0.096060894430836416 0 0.48980094623293652 0.1072665553039472 0 0.47668423400522902 0.1062427761392251 0 0.47668423400522902 0.1062427761392251 0 0.47429499221740051 0.08980481155148401 0 0.46705507295815718 0.097688261595837336 0 0.4852915859832998 0.096060894430836416 0 0.47668423400522902 0.1062427761392251 0 0.47429499221740051 0.08980481155148401 0 0.47668423400522902 0.1062427761392251 0 0.46797499302744772 0.10481925541629809 0 0.46705507295815718 0.097688261595837336 0 0.47668423400522902 0.1062427761392251 0 0.46453558389340238 0.1112778444987957 0 0.46797499302744772 0.10481925541629809 0 0.47960189246587581 0.1190657587108479 0 0.45935914233515379 0.1197250274152253 0 0.47668423400522902 0.1062427761392251 0 0.47960189246587581 0.1190657587108479 0 0.46453558389340238 0.1112778444987957 0 0.48980094623293652 0.1072665553039472 0 0.47668423400522902 0.1062427761392251 0 0.47960189246587581 0.1190657587108479 0 0.5 0.067140365789127077 0 0.48567775746093611 0.081522977262479174 0 0.47866597650437598 0.064798259165582031 0 0.49999999999999822 0.095467351897047595 0 0.5 0.067140365789127077 0 0.48567775746093611 0.081522977262479174 0 0.49999999999999822 0.095467351897047595 0 0.4852915859832998 0.096060894430836416 0 0.48567775746093611 0.081522977262479174 0 0.48567775746093611 0.081522977262479174 0 0.47429499221740051 0.08980481155148401 0 0.46743876535387058 0.076713002712112816 0 0.4852915859832998 0.096060894430836416 0 0.48567775746093611 0.081522977262479174 0 0.47429499221740051 0.08980481155148401 0 0.48567775746093611 0.081522977262479174 0 0.47866597650437598 0.064798259165582031 0 0.46743876535387058 0.076713002712112816 0 0.47866597650437598 0.064798259165582031 0 0.46743876535387058 0.076713002712112816 0 0.46150941275584062 0.059317552991295368 0 0.46743876535387058 0.076713002712112816 0 0.45509014604755083 0.083274232772162046 0 0.45166470941654779 0.071157071373394429 0 0.46743876535387058 0.076713002712112816 0 0.45166470941654779 0.071157071373394429 0 0.46150941275584062 0.059317552991295368 0 0.47429499221740051 0.08980481155148401 0 0.46743876535387058 0.076713002712112816 0 0.46431354429771449 0.086613918523404457 0 0.46743876535387058 0.076713002712112816 0 0.45509014604755083 0.083274232772162046 0 0.46431354429771449 0.086613918523404457 0 0.46431354429771449 0.086613918523404457 0 0.46705507295815718 0.097688261595837336 0 0.45849964651001562 0.09409907081959018 0 0.47429499221740051 0.08980481155148401 0 0.46431354429771449 0.086613918523404457 0 0.46705507295815718 0.097688261595837336 0 0.45509014604755083 0.083274232772162046 0 0.4493313781410434 0.089695457283978347 0 0.45849964651001562 0.09409907081959018 0 0.45509014604755083 0.083274232772162046 0 0.46431354429771449 0.086613918523404457 0 0.45849964651001562 0.09409907081959018 0 0.4493313781410434 0.089695457283978347 0 0.44416937515081473 0.080465581687353432 0 0.4363781146764289 0.089021482020548909 0 0.44416937515081473 0.080465581687353432 0 0.4363781146764289 0.089021482020548909 0 0.43280914428297718 0.076206305582412689 0 0.45509014604755083 0.083274232772162046 0 0.4493313781410434 0.089695457283978347 0 0.44416937515081473 0.080465581687353432 0 0.45509014604755083 0.083274232772162046 0 0.44416937515081473 0.080465581687353432 0 0.45166470941654779 0.071157071373394429 0 0.45166470941654779 0.071157071373394429 0 0.44350909680963718 0.057134763567170239 0 0.46150941275584062 0.059317552991295368 0 0.44416937515081473 0.080465581687353432 0 0.4382714603815735 0.070037294510272685 0 0.43280914428297718 0.076206305582412689 0 0.44416937515081473 0.080465581687353432 0 0.45166470941654779 0.071157071373394429 0 0.4382714603815735 0.070037294510272685 0 0.45166470941654779 0.071157071373394429 0 0.4382714603815735 0.070037294510272685 0 0.44350909680963718 0.057134763567170239 0 0.47960189246587581 0.1190657587108479 0 0.45935914233515379 0.1197250274152253 0 0.46453558389340238 0.1112778444987957 0 0.45642895282333817 0.11284185682001049 0 0.46453558389340238 0.1112778444987957 0 0.45423390753686738 0.1085830134085904 0 0.45642895282333817 0.11284185682001049 0 0.45935914233515379 0.1197250274152253 0 0.46453558389340238 0.1112778444987957 0 0.45642895282333817 0.11284185682001049 0 0.45423390753686738 0.1085830134085904 0 0.45170523043769267 0.1133869852266232 0 0.45642895282333817 0.11284185682001049 0 0.45935914233515379 0.1197250274152253 0 0.45170523043769267 0.1133869852266232 0 0.46453558389340238 0.1112778444987957 0 0.46797499302744772 0.10481925541629809 0 0.4624618670243914 0.10223538900881229 0 0.46797499302744772 0.10481925541629809 0 0.4624618670243914 0.10223538900881229 0 0.46705507295815718 0.097688261595837336 0 0.4624618670243914 0.10223538900881229 0 0.46705507295815718 0.097688261595837336 0 0.45849964651001562 0.09409907081959018 0 0.4624618670243914 0.10223538900881229 0 0.45849964651001562 0.09409907081959018 0 0.45394111836089962 0.102815233957675 0 0.4493313781410434 0.089695457283978347 0 0.45849964651001562 0.09409907081959018 0 0.45394111836089962 0.102815233957675 0 0.46453558389340238 0.1112778444987957 0 0.4624618670243914 0.10223538900881229 0 0.45394111836089962 0.102815233957675 0 0.46453558389340238 0.1112778444987957 0 0.45394111836089962 0.102815233957675 0 0.45423390753686738 0.1085830134085904 0 0.46453558389340238 0.1112778444987957 0 0.45394111836089962 0.102815233957675 0 0.45394111836089962 0.102815233957675 0 0.4363781146764289 0.089021482020548909 0 0.45423390753686738 0.1085830134085904 0 0.44938775728867247 0.1054007323696874 0 0.45170523043769267 0.1133869852266232 0 0.4493313781410434 0.089695457283978347 0 0.45394111836089962 0.102815233957675 0 0.4363781146764289 0.089021482020548909 0 0.45394111836089962 0.102815233957675 0 0.44938775728867247 0.1054007323696874 0 0.43437146897998852 0.1103053903788009 0 0.45394111836089962 0.102815233957675 0 0.43437146897998852 0.1103053903788009 0 0.4363781146764289 0.089021482020548909 0 0.45394111836089962 0.102815233957675 0 0.45423390753686738 0.1085830134085904 0 0.44938775728867247 0.1054007323696874 0 0.45394111836089962 0.102815233957675 0 0.43437146897998852 0.1103053903788009 0 0.45935914233515379 0.1197250274152253 0 0.45170523043769267 0.1133869852266232 0 0.43897663710487478 0.1203888476831413 0 0.45935914233515379 0.1197250274152253 0 0.43897663710487478 0.1203888476831413 0 0.44938775728867247 0.1054007323696874 0 0.43897663710487478 0.1203888476831413 0 0.43437146897998852 0.1103053903788009 0 0.44938775728867247 0.1054007323696874 0 0.43897663710487478 0.1203888476831413 0 0.45008600502629781 0.1282012100987287 0 0.45935914233515379 0.1197250274152253 0 0.43897663710487478 0.1203888476831413 0 0.44938775728867247 0.1054007323696874 0 0.45170523043769267 0.1133869852266232 0 0.43897663710487478 0.1203888476831413 0 0.43897663710487478 0.1203888476831413 0 0.4369486270834988 0.120454896195849 0 0.4369486270834988 0.120454896195849 0 0.43437146897998852 0.1103053903788009 0 0.40855144916943159 0.120187835557726 0 0.43897663710487478 0.1203888476831413 0 0.43437146897998852 0.1103053903788009 0 0.43897663710487478 0.1203888476831413 0 0.4369486270834988 0.120454896195849 0 0.43437146897998852 0.1103053903788009 0 0.43437146897998852 0.1103053903788009 0 0.40855144916943159 0.120187835557726 0 0.41515438785708558 0.1033037992821022 0 0.43437146897998852 0.1103053903788009 0 0.40855144916943159 0.120187835557726 0 0.43437146897998852 0.1103053903788009 0 0.41515438785708558 0.1033037992821022 0 0.42365369010491061 0.086837785558861125 0 0.43437146897998852 0.1103053903788009 0 0.42365369010491061 0.086837785558861125 0 0.4363781146764289 0.089021482020548909 0 0.43437146897998852 0.1103053903788009 0 0.42365369010491061 0.086837785558861125 0 0.42365369010491061 0.086837785558861125 0 0.4363781146764289 0.089021482020548909 0 0.41885815606898219 0.075173271928707264 0 0.4363781146764289 0.089021482020548909 0 0.41885815606898219 0.075173271928707264 0 0.4363781146764289 0.089021482020548909 0 0.43280914428297718 0.076206305582412689 0 0.41885815606898219 0.075173271928707264 0 0.4382714603815735 0.070037294510272685 0 0.42636861513708663 0.066333897765181088 0 0.44350909680963718 0.057134763567170239 0 0.4382714603815735 0.070037294510272685 0 0.43280914428297718 0.076206305582412689 0 0.42636861513708663 0.066333897765181088 0 0.43280914428297718 0.076206305582412689 0 0.42636861513708663 0.066333897765181088 0 0.41885815606898219 0.075173271928707264 0 0.41885815606898219 0.075173271928707264 0 0.40133819746153548 0.061325061836865598 0 0.41685040144699159 0.059767456743349309 0 0.41885815606898219 0.075173271928707264 0 0.40598401568747539 0.082201908046744668 0 0.40133819746153548 0.061325061836865598 0 0.41885815606898219 0.075173271928707264 0 0.40133819746153548 0.061325061836865598 0 0.42636861513708663 0.066333897765181088 0 0.41885815606898219 0.075173271928707264 0 0.41685040144699159 0.059767456743349309 0 0.42365369010491061 0.086837785558861125 0 0.41885815606898219 0.075173271928707264 0 0.40598401568747539 0.082201908046744668 0 0.41515438785708558 0.1033037992821022 0 0.42365369010491061 0.086837785558861125 0 0.40598401568747539 0.082201908046744668 0 0.40598401568747539 0.082201908046744668 0 0.39147939873960508 0.092712021452525856 0 0.38542026389273321 0.073859508221405953 0 0.41515438785708558 0.1033037992821022 0 0.40598401568747539 0.082201908046744668 0 0.39147939873960508 0.092712021452525856 0 0.40598401568747539 0.082201908046744668 0 0.38542026389273321 0.073859508221405953 0 0.40133819746153548 0.061325061836865598 0 0.36549606767850967 0.07753637651995357 0 0.38542026389273321 0.073859508221405953 0 0.38120215829722798 0.056318902399087253 0 0.38542026389273321 0.073859508221405953 0 0.38120215829722798 0.056318902399087253 0 0.40133819746153548 0.061325061836865598 0 0.36549606767850967 0.07753637651995357 0 0.39147939873960508 0.092712021452525856 0 0.38542026389273321 0.073859508221405953 0 0.3672052178403214 0.1057772944198308 0 0.39147939873960508 0.092712021452525856 0 0.38918808793673232 0.1121928779004953 0 0.37136760853144618 0.12137785530437591 0 0.3672052178403214 0.1057772944198308 0 0.38918808793673232 0.1121928779004953 0 0.37136760853144618 0.12137785530437591 0 0.38273142935887489 0.130070280736651 0 0.38918808793673232 0.1121928779004953 0 0.38273142935887489 0.130070280736651 0 0.40855144916943159 0.120187835557726 0 0.38918808793673232 0.1121928779004953 0 0.40855144916943159 0.120187835557726 0 0.41515438785708558 0.1033037992821022 0 0.38918808793673232 0.1121928779004953 0 0.41515438785708558 0.1033037992821022 0 0.39147939873960508 0.092712021452525856 0 0.38918808793673232 0.1121928779004953 0 0.39885055245392559 0.02752749120114395 0 0.38833888461775568 0.023239261798380911 0 0.39200254178423077 0.040558324978902563 0 0.39885055245392559 0.02752749120114395 0 0.39195966781183039 0.01114124921769084 0 0.38833888461775568 0.023239261798380911 0 0.39885055245392559 0.02752749120114395 0 0.39195966781183039 0.01114124921769084 0 0.41040902823848169 0.019914676199454789 0 0.39195966781183039 0.01114124921769084 0 0.39875453789319659 -0.0063613703873574854 0 0.38775337327806803 -0.0008053400666175538 0 0.39195966781183039 0.01114124921769084 0 0.41040902823848169 0.019914676199454789 0 0.40701902590320221 0.0058690553273170534 0 0.39195966781183039 0.01114124921769084 0 0.40701902590320221 0.0058690553273170534 0 0.39875453789319659 -0.0063613703873574854 0 0.37412568492071102 0.0043511005411320889 0 0.39195966781183039 0.01114124921769084 0 0.37741091504909807 0.01971519972567131 0 0.37412568492071102 0.0043511005411320889 0 0.39195966781183039 0.01114124921769084 0 0.38775337327806803 -0.0008053400666175538 0 0.39195966781183039 0.01114124921769084 0 0.37741091504909807 0.01971519972567131 0 0.38833888461775568 0.023239261798380911 0 0.37061114034258608 0.03135097082081667 0 0.37741091504909807 0.01971519972567131 0 0.37916896144966111 0.035338684217319317 0 0.37741091504909807 0.01971519972567131 0 0.38833888461775568 0.023239261798380911 0 0.37916896144966111 0.035338684217319317 0 0.38833888461775568 0.023239261798380911 0 0.37916896144966111 0.035338684217319317 0 0.39200254178423077 0.040558324978902563 0 0.37916896144966111 0.035338684217319317 0 0.38120215829722798 0.056318902399087253 0 0.39200254178423077 0.040558324978902563 0 0.40133819746153548 0.061325061836865598 0 0.39200254178423077 0.040558324978902563 0 0.40880296271091432 0.04495413794626113 0 0.38120215829722798 0.056318902399087253 0 0.40133819746153548 0.061325061836865598 0 0.39200254178423077 0.040558324978902563 0 0.39885055245392559 0.02752749120114395 0 0.39200254178423077 0.040558324978902563 0 0.40880296271091432 0.04495413794626113 0 0.40880296271091432 0.04495413794626113 0 0.42080338640373399 0.031683147167159247 0 0.42893552360241072 0.05127774239429269 0 0.39885055245392559 0.02752749120114395 0 0.40880296271091432 0.04495413794626113 0 0.42080338640373399 0.031683147167159247 0 0.40880296271091432 0.04495413794626113 0 0.41685040144699159 0.059767456743349309 0 0.42893552360241072 0.05127774239429269 0 0.40133819746153548 0.061325061836865598 0 0.40880296271091432 0.04495413794626113 0 0.41685040144699159 0.059767456743349309 0 0.42636861513708663 0.066333897765181088 0 0.42893552360241072 0.05127774239429269 0 0.44350909680963718 0.057134763567170239 0 0.42636861513708663 0.066333897765181088 0 0.41685040144699159 0.059767456743349309 0 0.42893552360241072 0.05127774239429269 0 0.42893552360241072 0.05127774239429269 0 0.44350909680963718 0.057134763567170239 0 0.43907715870027569 0.041780267808646243 0 0.42080338640373399 0.031683147167159247 0 0.44177234452609943 0.02817683230561378 0 0.43907715870027569 0.041780267808646243 0 0.42080338640373399 0.031683147167159247 0 0.42893552360241072 0.05127774239429269 0 0.43907715870027569 0.041780267808646243 0 0.42080338640373399 0.031683147167159247 0 0.43424837286191748 0.015656527938261128 0 0.42057363675451259 0.010521378140308849 0 0.42080338640373399 0.031683147167159247 0 0.43424837286191748 0.015656527938261128 0 0.44177234452609943 0.02817683230561378 0 0.39885055245392559 0.02752749120114395 0 0.42080338640373399 0.031683147167159247 0 0.41040902823848169 0.019914676199454789 0 0.42080338640373399 0.031683147167159247 0 0.41040902823848169 0.019914676199454789 0 0.42057363675451259 0.010521378140308849 0 0.41040902823848169 0.019914676199454789 0 0.40701902590320221 0.0058690553273170534 0 0.42057363675451259 0.010521378140308849 0 0.42057363675451259 0.010521378140308849 0 0.41502170974868019 -0.0023034730313485799 0 0.42919212377447558 -0.0023867331313195939 0 0.40701902590320221 0.0058690553273170534 0 0.42057363675451259 0.010521378140308849 0 0.41502170974868019 -0.0023034730313485799 0 0.43424837286191748 0.015656527938261128 0 0.42057363675451259 0.010521378140308849 0 0.42919212377447558 -0.0023867331313195939 0 0.43424837286191748 0.015656527938261128 0 0.44454660696380771 0.003786342695909206 0 0.42919212377447558 -0.0023867331313195939 0 0.44454660696380771 0.003786342695909206 0 0.45232860713863848 0.01888377072794788 0 0.46094292829637101 0.0063287172841708546 0 0.43424837286191748 0.015656527938261128 0 0.44454660696380771 0.003786342695909206 0 0.45232860713863848 0.01888377072794788 0 0.43424837286191748 0.015656527938261128 0 0.45232860713863848 0.01888377072794788 0 0.44177234452609943 0.02817683230561378 0 0.45232860713863848 0.01888377072794788 0 0.44177234452609943 0.02817683230561378 0 0.45539851563449951 0.038445791955246653 0 0.45232860713863848 0.01888377072794788 0 0.45539851563449951 0.038445791955246653 0 0.47050169233669459 0.018066106468571871 0 0.45232860713863848 0.01888377072794788 0 0.46094292829637101 0.0063287172841708546 0 0.47050169233669459 0.018066106468571871 0 0.46094292829637101 0.0063287172841708546 0 0.47292530472960598 0.00054744320256952961 0 0.47050169233669459 0.018066106468571871 0 0.44177234452609943 0.02817683230561378 0 0.43907715870027569 0.041780267808646243 0 0.45539851563449951 0.038445791955246653 0 0.44350909680963718 0.057134763567170239 0 0.43907715870027569 0.041780267808646243 0 0.45539851563449951 0.038445791955246653 0 0.45539851563449951 0.038445791955246653 0 0.47536453233850789 0.043384421723934988 0 0.47050169233669459 0.018066106468571871 0 0.45539851563449951 0.038445791955246653 0 0.46150941275584062 0.059317552991295368 0 0.47536453233850789 0.043384421723934988 0 0.44350909680963718 0.057134763567170239 0 0.45539851563449951 0.038445791955246653 0 0.46150941275584062 0.059317552991295368 0 0.47866597650437598 0.064798259165582031 0 0.46150941275584062 0.059317552991295368 0 0.47536453233850789 0.043384421723934988 0 0.47866597650437598 0.064798259165582031 0 0.47536453233850789 0.043384421723934988 0 0.48850762721072089 0.05353410658996266 0 0.47536453233850789 0.043384421723934988 0 0.5 0.038813379681206572 0 0.48850762721072089 0.05353410658996266 0 0.47536453233850789 0.043384421723934988 0 0.5 0.038813379681206572 0 0.48701153120534307 0.023029273052286591 0 0.5 0.067140365789127077 0 0.47866597650437598 0.064798259165582031 0 0.48850762721072089 0.05353410658996266 0 0.5 0.067140365789127077 0 0.5 0.038813379681206572 0 0.48850762721072089 0.05353410658996266 0 0.47292530472960598 0.00054744320256952961 0 0.47050169233669459 0.018066106468571871 0 0.48746757962295623 0.0048757471253267591 0 0.47050169233669459 0.018066106468571871 0 0.48701153120534307 0.023029273052286591 0 0.48746757962295623 0.0048757471253267591 0 0.47536453233850789 0.043384421723934988 0 0.47050169233669459 0.018066106468571871 0 0.48701153120534307 0.023029273052286591 0 0.5 0.038813379681206572 0 0.48701153120534307 0.023029273052286591 0 0.5 0.010486393573286181 0 0.48701153120534307 0.023029273052286591 0 0.48746757962295623 0.0048757471253267591 0 0.5 0.010486393573286181 0 0.48746757962295623 0.0048757471253267591 0 0.5 0.010486393573286181 0 0.49605759899658308 -0.0059370390433930156 0 0.48746757962295623 0.0048757471253267591 0 0.49605759899658308 -0.0059370390433930156 0 0.48027096598188901 -0.01191828833617203 0 0.5 0.010486393573286181 0 0.49605759899658308 -0.0059370390433930156 0 0.5 -0.017840592534634329 0 0.47292530472960598 0.00054744320256952961 0 0.48027096598188901 -0.01191828833617203 0 0.46167860439125719 -0.010824370724108299 0 0.47292530472960598 0.00054744320256952961 0 0.48746757962295623 0.0048757471253267591 0 0.48027096598188901 -0.01191828833617203 0 0.48027096598188901 -0.01191828833617203 0 0.46954283884200781 -0.024778454105632251 0 0.46167860439125719 -0.010824370724108299 0 0.48027096598188901 -0.01191828833617203 0 0.46954283884200781 -0.024778454105632251 0 0.48519612925174332 -0.029385176525714849 0 0.48519612925174332 -0.029385176525714849 0 0.5 -0.017840592534634329 0 0.5 -0.04616757864255483 0 0.49605759899658308 -0.0059370390433930156 0 0.48519612925174332 -0.029385176525714849 0 0.49605759899658308 -0.0059370390433930156 0 0.48519612925174332 -0.029385176525714849 0 0.5 -0.017840592534634329 0 0.49605759899658308 -0.0059370390433930156 0 0.48027096598188901 -0.01191828833617203 0 0.48519612925174332 -0.029385176525714849 0 0.48519612925174332 -0.029385176525714849 0 0.5 -0.04616757864255483 0 0.48651711093130251 -0.047180659518320317 0 0.5 -0.04616757864255483 0 0.48653765496656098 -0.060336568896974391 0 0.5 -0.074494564750475334 0 0.5 -0.04616757864255483 0 0.48651711093130251 -0.047180659518320317 0 0.48653765496656098 -0.060336568896974391 0 0.48653765496656098 -0.060336568896974391 0 0.47433465950690529 -0.052833314008037369 0 0.48651711093130251 -0.047180659518320317 0 0.48653765496656098 -0.060336568896974391 0 0.47433465950690529 -0.052833314008037369 0 0.48519612925174332 -0.029385176525714849 0 0.48651711093130251 -0.047180659518320317 0 0.47433465950690529 -0.052833314008037369 0 0.48519612925174332 -0.029385176525714849 0 0.47433465950690529 -0.052833314008037369 0 0.46290162850488359 -0.040866976222037943 0 0.48519612925174332 -0.029385176525714849 0 0.47433465950690529 -0.052833314008037369 0 0.46954283884200781 -0.024778454105632251 0 0.48519612925174332 -0.029385176525714849 0 0.46290162850488359 -0.040866976222037943 0 0.46119859746764902 -0.044756344542360521 0 0.46290162850488359 -0.040866976222037943 0 0.45473607927667248 -0.028594043455467032 0 0.46954283884200781 -0.024778454105632251 0 0.46290162850488359 -0.040866976222037943 0 0.45473607927667248 -0.028594043455467032 0 0.47433465950690529 -0.052833314008037369 0 0.46119859746764902 -0.044756344542360521 0 0.46290162850488359 -0.040866976222037943 0 0.46119859746764902 -0.044756344542360521 0 0.46290162850488359 -0.040866976222037943 0 0.47433465950690529 -0.052833314008037369 0 0.46288636374172931 -0.056731897842554599 0 0.46435474898804202 -0.074378309243945034 0 0.46119859746764902 -0.044756344542360521 0 0.45294147966596082 -0.063613882480814288 0 0.46119859746764902 -0.044756344542360521 0 0.46288636374172931 -0.056731897842554599 0 0.45294147966596082 -0.063613882480814288 0 0.47433465950690529 -0.052833314008037369 0 0.46119859746764902 -0.044756344542360521 0 0.47433465950690529 -0.052833314008037369 0 0.46119859746764902 -0.044756344542360521 0 0.46288636374172931 -0.056731897842554599 0 0.46119859746764902 -0.044756344542360521 0 0.44140819716629592 -0.04878958047797808 0 0.45294147966596082 -0.063613882480814288 0 0.44140819716629592 -0.04878958047797808 0 0.45294147966596082 -0.063613882480814288 0 0.43332563153032327 -0.065089361023907902 0 0.46119859746764902 -0.044756344542360521 0 0.44038391094283158 -0.031958019824026053 0 0.46119859746764902 -0.044756344542360521 0 0.44140819716629592 -0.04878958047797808 0 0.44038391094283158 -0.031958019824026053 0 0.46119859746764902 -0.044756344542360521 0 0.44038391094283158 -0.031958019824026053 0 0.45473607927667248 -0.028594043455467032 0 0.44038391094283158 -0.031958019824026053 0 0.4435504262982029 -0.01390055666043153 0 0.45473607927667248 -0.028594043455467032 0 0.44454660696380771 0.003786342695909206 0 0.4435504262982029 -0.01390055666043153 0 0.42919212377447558 -0.0023867331313195939 0 0.44454660696380771 0.003786342695909206 0 0.4435504262982029 -0.01390055666043153 0 0.46167860439125719 -0.010824370724108299 0 0.46094292829637101 0.0063287172841708546 0 0.47292530472960598 0.00054744320256952961 0 0.46167860439125719 -0.010824370724108299 0 0.44454660696380771 0.003786342695909206 0 0.46094292829637101 0.0063287172841708546 0 0.46167860439125719 -0.010824370724108299 0 0.46954283884200781 -0.024778454105632251 0 0.46167860439125719 -0.010824370724108299 0 0.45473607927667248 -0.028594043455467032 0 0.4435504262982029 -0.01390055666043153 0 0.46167860439125719 -0.010824370724108299 0 0.45473607927667248 -0.028594043455467032 0 0.47167733895191821 -0.11387638027445179 0 0.48119395052623348 -0.12409287947154329 0 0.46927091164766771 -0.12876981279759611 0 0.47167733895191821 -0.11387638027445179 0 0.48119395052623348 -0.12409287947154329 0 0.4864159190111696 -0.11132723666022561 0 0.48119395052623348 -0.12409287947154329 0 0.4864159190111696 -0.11132723666022561 0 0.5 -0.13114853696631629 0 0.4864159190111696 -0.11132723666022561 0 0.5 -0.1028215508583958 0 0.5 -0.13114853696631629 0 0.4864159190111696 -0.11132723666022561 0 0.5 -0.1028215508583958 0 0.48630813842114767 -0.092273235945569687 0 0.4864159190111696 -0.11132723666022561 0 0.47754165752739519 -0.09965256111092935 0 0.48630813842114767 -0.092273235945569687 0 0.47167733895191821 -0.11387638027445179 0 0.4864159190111696 -0.11132723666022561 0 0.47754165752739519 -0.09965256111092935 0 0.47167733895191821 -0.11387638027445179 0 0.47754165752739519 -0.09965256111092935 0 0.46676304261335511 -0.10137627750423341 0 0.47754165752739519 -0.09965256111092935 0 0.47138437383297188 -0.087801298034674763 0 0.46676304261335511 -0.10137627750423341 0 0.47138437383297188 -0.087801298034674763 0 0.48250688015535032 -0.077542204258717232 0 0.46435474898804202 -0.074378309243945034 0 0.47138437383297188 -0.087801298034674763 0 0.48630813842114767 -0.092273235945569687 0 0.48250688015535032 -0.077542204258717232 0 0.47754165752739519 -0.09965256111092935 0 0.47138437383297188 -0.087801298034674763 0 0.48630813842114767 -0.092273235945569687 0 0.5 -0.1028215508583958 0 0.48630813842114767 -0.092273235945569687 0 0.5 -0.074494564750475334 0 0.48630813842114767 -0.092273235945569687 0 0.5 -0.074494564750475334 0 0.48250688015535032 -0.077542204258717232 0 0.48653765496656098 -0.060336568896974391 0 0.5 -0.074494564750475334 0 0.48250688015535032 -0.077542204258717232 0 0.47433465950690529 -0.052833314008037369 0 0.46435474898804202 -0.074378309243945034 0 0.48653765496656098 -0.060336568896974391 0 0.48250688015535032 -0.077542204258717232 0 0.46435474898804202 -0.074378309243945034 0 0.48653765496656098 -0.060336568896974391 0 0.47433465950690529 -0.052833314008037369 0 0.46435474898804202 -0.074378309243945034 0 0.46288636374172931 -0.056731897842554599 0 0.46435474898804202 -0.074378309243945034 0 0.45294147966596082 -0.063613882480814288 0 0.46435474898804202 -0.074378309243945034 0 0.45294147966596082 -0.063613882480814288 0 0.44468436186427412 -0.082471420419268707 0 0.45294147966596082 -0.063613882480814288 0 0.44468436186427412 -0.082471420419268707 0 0.45294147966596082 -0.063613882480814288 0 0.44468436186427412 -0.082471420419268707 0 0.43332563153032327 -0.065089361023907902 0 0.44468436186427412 -0.082471420419268707 0 0.43642724406258931 -0.1013289583577239 0 0.44468436186427412 -0.082471420419268707 0 0.45437483846917959 -0.095923304479853241 0 0.43642724406258931 -0.1013289583577239 0 0.47138437383297188 -0.087801298034674763 0 0.46435474898804202 -0.074378309243945034 0 0.45850567405270498 -0.094679133986299568 0 0.46435474898804202 -0.074378309243945034 0 0.45437483846917959 -0.095923304479853241 0 0.46435474898804202 -0.074378309243945034 0 0.44468436186427412 -0.082471420419268707 0 0.45437483846917959 -0.095923304479853241 0 0.46435474898804202 -0.074378309243945034 0 0.45850567405270498 -0.094679133986299568 0 0.45437483846917959 -0.095923304479853241 0 0.47138437383297188 -0.087801298034674763 0 0.46676304261335511 -0.10137627750423341 0 0.45850567405270498 -0.094679133986299568 0 0.46676304261335511 -0.10137627750423341 0 0.45863846070397501 -0.1025995928725367 0 0.45850567405270498 -0.094679133986299568 0 0.47167733895191821 -0.11387638027445179 0 0.46676304261335511 -0.10137627750423341 0 0.4597754004462018 -0.1108635691170036 0 0.46676304261335511 -0.10137627750423341 0 0.45863846070397501 -0.1025995928725367 0 0.4597754004462018 -0.1108635691170036 0 0.45863846070397501 -0.1025995928725367 0 0.45850567405270498 -0.094679133986299568 0 0.45437483846917959 -0.095923304479853241 0 0.45850567405270498 -0.094679133986299568 0 0.45437483846917959 -0.095923304479853241 0 0.45863846070397501 -0.1025995928725367 0 0.45437483846917959 -0.095923304479853241 0 0.44535660401639121 -0.1153921983095558 0 0.45437483846917959 -0.095923304479853241 0 0.44535660401639121 -0.1153921983095558 0 0.43642724406258931 -0.1013289583577239 0 0.45437483846917959 -0.095923304479853241 0 0.43642724406258931 -0.1013289583577239 0 0.45437483846917959 -0.095923304479853241 0 0.44535660401639121 -0.1153921983095558 0 0.44535660401639121 -0.1153921983095558 0 0.43579387810232112 -0.1198995719363402 0 0.43633836956360222 -0.13486109213925801 0 0.44535660401639121 -0.1153921983095558 0 0.43579387810232112 -0.1198995719363402 0 0.43642724406258931 -0.1013289583577239 0 0.44535660401639121 -0.1153921983095558 0 0.45736570140182758 -0.1215679641272253 0 0.44628230128707952 -0.12764411908660139 0 0.44535660401639121 -0.1153921983095558 0 0.45736570140182758 -0.1215679641272253 0 0.4597754004462018 -0.1108635691170036 0 0.45863846070397501 -0.1025995928725367 0 0.44535660401639121 -0.1153921983095558 0 0.4597754004462018 -0.1108635691170036 0 0.47167733895191821 -0.11387638027445179 0 0.45736570140182758 -0.1215679641272253 0 0.4597754004462018 -0.1108635691170036 0 0.47167733895191821 -0.11387638027445179 0 0.45736570140182758 -0.1215679641272253 0 0.46927091164766771 -0.12876981279759611 0 0.42054220145236382 -0.12270036502654021 0 0.40512144879147921 -0.11075798209056729 0 0.41173423350123989 -0.1350053997602299 0 0.40512144879147921 -0.11075798209056729 0 0.41173423350123989 -0.1350053997602299 0 0.42054220145236382 -0.12270036502654021 0 0.41141298447622948 -0.10886302817632609 0 0.40512144879147921 -0.11075798209056729 0 0.41141298447622948 -0.10886302817632609 0 0.40512144879147921 -0.11075798209056729 0 0.42054220145236382 -0.12270036502654021 0 0.41141298447622948 -0.10886302817632609 0 0.42627861905085612 -0.1245063049547135 0 0.43642724406258931 -0.1013289583577239 0 0.42054220145236382 -0.12270036502654021 0 0.43642724406258931 -0.1013289583577239 0 0.41141298447622948 -0.10886302817632609 0 0.42054220145236382 -0.12270036502654021 0 0.42627861905085612 -0.1245063049547135 0 0.43642724406258931 -0.1013289583577239 0 0.42627861905085612 -0.1245063049547135 0 0.43579387810232112 -0.1198995719363402 0 0.43642724406258931 -0.1013289583577239 0 0.42627861905085612 -0.1245063049547135 0 0.43579387810232112 -0.1198995719363402 0 0.43145601916892268 -0.12954037707870139 0 0.43642724406258931 -0.1013289583577239 0 0.41141298447622948 -0.10886302817632609 0 0.42031236658795562 -0.093117721337129838 0 0.43642724406258931 -0.1013289583577239 0 0.41141298447622948 -0.10886302817632609 0 0.41141298447622948 -0.10886302817632609 0 0.42031236658795562 -0.093117721337129838 0 0.39980717187580989 -0.091271865780708533 0 0.41776664034313871 -0.077282459532429071 0 0.40632994363830521 -0.068488028996441699 0 0.39980717187580989 -0.091271865780708533 0 0.42031236658795562 -0.093117721337129838 0 0.41776664034313871 -0.077282459532429071 0 0.39980717187580989 -0.091271865780708533 0 0.44468436186427412 -0.082471420419268707 0 0.43642724406258931 -0.1013289583577239 0 0.43033212408960919 -0.083286031254830306 0 0.42031236658795562 -0.093117721337129838 0 0.43033212408960919 -0.083286031254830306 0 0.41776664034313871 -0.077282459532429071 0 0.43642724406258931 -0.1013289583577239 0 0.42031236658795562 -0.093117721337129838 0 0.43033212408960919 -0.083286031254830306 0 0.43332563153032327 -0.065089361023907902 0 0.41692041630694793 -0.063871630999710494 0 0.41776664034313871 -0.077282459532429071 0 0.43033212408960919 -0.083286031254830306 0 0.43332563153032327 -0.065089361023907902 0 0.41776664034313871 -0.077282459532429071 0 0.44468436186427412 -0.082471420419268707 0 0.43033212408960919 -0.083286031254830306 0 0.43332563153032327 -0.065089361023907902 0 0.41692041630694793 -0.063871630999710494 0 0.40632994363830521 -0.068488028996441699 0 0.40446452167462738 -0.055552105667156883 0 0.41692041630694793 -0.063871630999710494 0 0.41776664034313871 -0.077282459532429071 0 0.40632994363830521 -0.068488028996441699 0 0.40632994363830521 -0.068488028996441699 0 0.39408228944218132 -0.0702801623500839 0 0.39980717187580989 -0.091271865780708533 0 0.39408228944218132 -0.0702801623500839 0 0.38756794344768808 -0.072720622340101182 0 0.39980717187580989 -0.091271865780708533 0 0.40632994363830521 -0.068488028996441699 0 0.39408228944218132 -0.0702801623500839 0 0.39830854044091679 -0.060902188983285387 0 0.38756794344768808 -0.072720622340101182 0 0.37532871501956561 -0.054169378899494448 0 0.38756794344768808 -0.072720622340101182 0 0.38660117891331658 -0.061297947619334318 0 0.37532871501956561 -0.054169378899494448 0 0.38756794344768808 -0.072720622340101182 0 0.37532871501956561 -0.054169378899494448 0 0.37236651337125187 -0.069058058894657853 0 0.39408228944218132 -0.0702801623500839 0 0.38756794344768808 -0.072720622340101182 0 0.38660117891331658 -0.061297947619334318 0 0.38756794344768808 -0.072720622340101182 0 0.3773649077660835 -0.081648997678125945 0 0.37236651337125187 -0.069058058894657853 0 0.3773649077660835 -0.081648997678125945 0 0.39980717187580989 -0.091271865780708533 0 0.37842937288882972 -0.094907128826883527 0 0.38756794344768808 -0.072720622340101182 0 0.3773649077660835 -0.081648997678125945 0 0.39980717187580989 -0.091271865780708533 0 0.38756794344768808 -0.072720622340101182 0 0.39980717187580989 -0.091271865780708533 0 0.39408228944218132 -0.0702801623500839 0 0.39980717187580989 -0.091271865780708533 0 0.41141298447622948 -0.10886302817632609 0 0.39980717187580989 -0.091271865780708533 0 0.40512144879147921 -0.11075798209056729 0 0.39980717187580989 -0.091271865780708533 0 0.39043593199019339 -0.1042953176450407 0 0.40512144879147921 -0.11075798209056729 0 0.39980717187580989 -0.091271865780708533 0 0.40512144879147921 -0.11075798209056729 0 0.41141298447622948 -0.10886302817632609 0 0.39980717187580989 -0.091271865780708533 0 0.39043593199019339 -0.1042953176450407 0 0.37842937288882972 -0.094907128826883527 0 0.3661274085625173 -0.1081782937899825 0 0.39980717187580989 -0.091271865780708533 0 0.39043593199019339 -0.1042953176450407 0 0.37842937288882972 -0.094907128826883527 0 0.39043593199019339 -0.1042953176450407 0 0.38176244380710711 -0.1177935041230158 0 0.3661274085625173 -0.1081782937899825 0 0.39043593199019339 -0.1042953176450407 0 0.38176244380710711 -0.1177935041230158 0 0.40512144879147921 -0.11075798209056729 0 0.38176244380710711 -0.1177935041230158 0 0.40512144879147921 -0.11075798209056729 0 0.38176244380710711 -0.1177935041230158 0 0.40512144879147921 -0.11075798209056729 0 0.39542128097473328 -0.12822417885975421 0 0.40512144879147921 -0.11075798209056729 0 0.39542128097473328 -0.12822417885975421 0 0.41173423350123989 -0.1350053997602299 0 0.41956922441801409 -0.019159695105691731 0 0.40763663668272848 -0.029253966602544468 0 0.42325102941431558 -0.035945914699606139 0 0.41956922441801409 -0.019159695105691731 0 0.40763663668272848 -0.029253966602544468 0 0.3974235472884991 -0.01952133804493188 0 0.41956922441801409 -0.019159695105691731 0 0.41502170974868019 -0.0023034730313485799 0 0.42919212377447558 -0.0023867331313195939 0 0.40701902590320221 0.0058690553273170534 0 0.41502170974868019 -0.0023034730313485799 0 0.39875453789319659 -0.0063613703873574854 0 0.41956922441801409 -0.019159695105691731 0 0.41502170974868019 -0.0023034730313485799 0 0.39875453789319659 -0.0063613703873574854 0 0.41956922441801409 -0.019159695105691731 0 0.39875453789319659 -0.0063613703873574854 0 0.4435504262982029 -0.01390055666043153 0 0.41956922441801409 -0.019159695105691731 0 0.42919212377447558 -0.0023867331313195939 0 0.44038391094283158 -0.031958019824026053 0 0.41956922441801409 -0.019159695105691731 0 0.42325102941431558 -0.035945914699606139 0 0.44038391094283158 -0.031958019824026053 0 0.4435504262982029 -0.01390055666043153 0 0.41956922441801409 -0.019159695105691731 0 0.44038391094283158 -0.031958019824026053 0 0.41956922441801409 -0.019159695105691731 0 0.44140819716629592 -0.04878958047797808 0 0.42325102941431558 -0.035945914699606139 0 0.41979664501851938 -0.052111338658927288 0 0.44140819716629592 -0.04878958047797808 0 0.44038391094283158 -0.031958019824026053 0 0.42325102941431558 -0.035945914699606139 0 0.43332563153032327 -0.065089361023907902 0 0.41692041630694793 -0.063871630999710494 0 0.41979664501851938 -0.052111338658927288 0 0.44140819716629592 -0.04878958047797808 0 0.43332563153032327 -0.065089361023907902 0 0.41979664501851938 -0.052111338658927288 0 0.41979664501851938 -0.052111338658927288 0 0.40676135528921592 -0.040785698117685787 0 0.40446452167462738 -0.055552105667156883 0 0.41692041630694793 -0.063871630999710494 0 0.41979664501851938 -0.052111338658927288 0 0.40446452167462738 -0.055552105667156883 0 0.40763663668272848 -0.029253966602544468 0 0.42325102941431558 -0.035945914699606139 0 0.40676135528921592 -0.040785698117685787 0 0.42325102941431558 -0.035945914699606139 0 0.41979664501851938 -0.052111338658927288 0 0.40676135528921592 -0.040785698117685787 0 0.40763663668272848 -0.029253966602544468 0 0.40676135528921592 -0.040785698117685787 0 0.39172483156644788 -0.035100524499642162 0 0.40676135528921592 -0.040785698117685787 0 0.39782702888471111 -0.045181696800985979 0 0.39172483156644788 -0.035100524499642162 0 0.39782702888471111 -0.045181696800985979 0 0.39172483156644788 -0.035100524499642162 0 0.38835740700855342 -0.049288458919459092 0 0.39408228944218132 -0.0702801623500839 0 0.38835740700855342 -0.049288458919459092 0 0.39408228944218132 -0.0702801623500839 0 0.39830854044091679 -0.060902188983285387 0 0.38835740700855342 -0.049288458919459092 0 0.40446452167462738 -0.055552105667156883 0 0.39830854044091679 -0.060902188983285387 0 0.38835740700855342 -0.049288458919459092 0 0.39782702888471111 -0.045181696800985979 0 0.40446452167462738 -0.055552105667156883 0 0.38835740700855342 -0.049288458919459092 0 0.40632994363830521 -0.068488028996441699 0 0.40446452167462738 -0.055552105667156883 0 0.39830854044091679 -0.060902188983285387 0 0.40676135528921592 -0.040785698117685787 0 0.39782702888471111 -0.045181696800985979 0 0.40446452167462738 -0.055552105667156883 0 0.39408228944218132 -0.0702801623500839 0 0.38660117891331658 -0.061297947619334318 0 0.38835740700855342 -0.049288458919459092 0 0.38660117891331658 -0.061297947619334318 0 0.38835740700855342 -0.049288458919459092 0 0.37532871501956561 -0.054169378899494448 0 0.38835740700855342 -0.049288458919459092 0 0.37532871501956561 -0.054169378899494448 0 0.378720016280293 -0.042921114927424731 0 0.39172483156644788 -0.035100524499642162 0 0.378720016280293 -0.042921114927424731 0 0.37440595423719542 -0.031580705047194048 0 0.39172483156644788 -0.035100524499642162 0 0.38835740700855342 -0.049288458919459092 0 0.378720016280293 -0.042921114927424731 0 0.38455005682641291 -0.023127633067942521 0 0.37364634227924121 -0.018143298440582649 0 0.37440595423719542 -0.031580705047194048 0 0.39172483156644788 -0.035100524499642162 0 0.38455005682641291 -0.023127633067942521 0 0.37440595423719542 -0.031580705047194048 0 0.38455005682641291 -0.023127633067942521 0 0.38617360248653432 -0.01235233963793566 0 0.37364634227924121 -0.018143298440582649 0 0.38455005682641291 -0.023127633067942521 0 0.3974235472884991 -0.01952133804493188 0 0.38617360248653432 -0.01235233963793566 0 0.39172483156644788 -0.035100524499642162 0 0.38455005682641291 -0.023127633067942521 0 0.3974235472884991 -0.01952133804493188 0 0.40763663668272848 -0.029253966602544468 0 0.39172483156644788 -0.035100524499642162 0 0.3974235472884991 -0.01952133804493188 0 0.41956922441801409 -0.019159695105691731 0 0.3974235472884991 -0.01952133804493188 0 0.39875453789319659 -0.0063613703873574854 0 0.3974235472884991 -0.01952133804493188 0 0.39875453789319659 -0.0063613703873574854 0 0.38617360248653432 -0.01235233963793566 0 0.39875453789319659 -0.0063613703873574854 0 0.38775337327806803 -0.0008053400666175538 0 0.38617360248653432 -0.01235233963793566 0 0.37412568492071102 0.0043511005411320889 0 0.38617360248653432 -0.01235233963793566 0 0.37231672019312911 -0.0073806293677801671 0 0.37412568492071102 0.0043511005411320889 0 0.38617360248653432 -0.01235233963793566 0 0.37412568492071102 0.0043511005411320889 0 0.38775337327806803 -0.0008053400666175538 0 0.38617360248653432 -0.01235233963793566 0 0.38617360248653432 -0.01235233963793566 0 0.37231672019312911 -0.0073806293677801671 0 0.37364634227924121 -0.018143298440582649 0 0.37412568492071102 0.0043511005411320889 0 0.37231672019312911 -0.0073806293677801671 0 0.36485191508087789 -0.00056254974709944543 0 0.37231672019312911 -0.0073806293677801671 0 0.36298045674235319 -0.010638547999091001 0 0.37364634227924121 -0.018143298440582649 0 0.36298045674235319 -0.010638547999091001 0 0.36485191508087789 -0.00056254974709944543 0 0.35440879702384648 -0.00048039270676468113 0 0.37231672019312911 -0.0073806293677801671 0 0.36298045674235319 -0.010638547999091001 0 0.36485191508087789 -0.00056254974709944543 0 0.37364634227924121 -0.018143298440582649 0 0.36206135781512622 -0.022668595868759332 0 0.37440595423719542 -0.031580705047194048 0 0.36298045674235319 -0.010638547999091001 0 0.37364634227924121 -0.018143298440582649 0 0.36206135781512622 -0.022668595868759332 0 0.36206135781512622 -0.022668595868759332 0 0.35976031892787369 -0.033445645965485223 0 0.37440595423719542 -0.031580705047194048 0 0.36298045674235319 -0.010638547999091001 0 0.36206135781512622 -0.022668595868759332 0 0.3472715541633713 -0.015465639178850309 0 0.36206135781512622 -0.022668595868759332 0 0.35242212984959942 -0.02741263740853252 0 0.35976031892787369 -0.033445645965485223 0 0.36206135781512622 -0.022668595868759332 0 0.35242212984959942 -0.02741263740853252 0 0.3472715541633713 -0.015465639178850309 0 0.35242212984959942 -0.02741263740853252 0 0.3472715541633713 -0.015465639178850309 0 0.34225955704586741 -0.0288834877708356 0 0.36298045674235319 -0.010638547999091001 0 0.35440879702384648 -0.00048039270676468113 0 0.3472715541633713 -0.015465639178850309 0 0.35440879702384648 -0.00048039270676468113 0 0.3472715541633713 -0.015465639178850309 0 0.34280495454637833 -0.00089195243633867017 0 0.33213259873031198 0.0057252787566607144 0 0.33235856610628012 -0.0088945005647616 0 0.32069338199699532 -0.00142713013918547 0 0.33213259873031198 0.0057252787566607144 0 0.34280495454637833 -0.00089195243633867017 0 0.33235856610628012 -0.0088945005647616 0 0.3472715541633713 -0.015465639178850309 0 0.34280495454637833 -0.00089195243633867017 0 0.33235856610628012 -0.0088945005647616 0 0.3472715541633713 -0.015465639178850309 0 0.33235856610628012 -0.0088945005647616 0 0.33147084600949828 -0.023122047974329641 0 0.34225955704586741 -0.0288834877708356 0 0.33147084600949828 -0.023122047974329641 0 0.33359811010202289 -0.040360272675314092 0 0.3472715541633713 -0.015465639178850309 0 0.34225955704586741 -0.0288834877708356 0 0.33147084600949828 -0.023122047974329641 0 0.33235856610628012 -0.0088945005647616 0 0.33147084600949828 -0.023122047974329641 0 0.31947529226358662 -0.016456783001185079 0 0.33147084600949828 -0.023122047974329641 0 0.31947529226358662 -0.016456783001185079 0 0.31547860344562728 -0.037182469298282013 0 0.31947529226358662 -0.016456783001185079 0 0.31547860344562728 -0.037182469298282013 0 0.30435739307814902 -0.01556727085068379 0 0.31947529226358662 -0.016456783001185079 0 0.32069338199699532 -0.00142713013918547 0 0.30435739307814902 -0.01556727085068379 0 0.33235856610628012 -0.0088945005647616 0 0.31947529226358662 -0.016456783001185079 0 0.32069338199699532 -0.00142713013918547 0 0.32659981381310549 -0.058797667745880251 0 0.31547860344562728 -0.037182469298282013 0 0.32659981381310549 -0.058797667745880251 0 0.31547860344562728 -0.037182469298282013 0 0.3069278376347982 -0.054013379474550899 0 0.32659981381310549 -0.058797667745880251 0 0.31547860344562728 -0.037182469298282013 0 0.33359811010202289 -0.040360272675314092 0 0.33147084600949828 -0.023122047974329641 0 0.31547860344562728 -0.037182469298282013 0 0.33359811010202289 -0.040360272675314092 0 0.34225955704586741 -0.0288834877708356 0 0.33359811010202289 -0.040360272675314092 0 0.34799540654183703 -0.039384454360178157 0 0.33359811010202289 -0.040360272675314092 0 0.33811414807846152 -0.053644857335152743 0 0.34799540654183703 -0.039384454360178157 0 0.32659981381310549 -0.058797667745880251 0 0.33811414807846152 -0.053644857335152743 0 0.34293740579946641 -0.06831245254873955 0 0.32659981381310549 -0.058797667745880251 0 0.33359811010202289 -0.040360272675314092 0 0.33811414807846152 -0.053644857335152743 0 0.35043947564845612 -0.050958289078885777 0 0.36378317356970258 -0.044466507271333902 0 0.36064762250437632 -0.060866656189315929 0 0.35043947564845612 -0.050958289078885777 0 0.36064762250437632 -0.060866656189315929 0 0.34293740579946641 -0.06831245254873955 0 0.33811414807846152 -0.053644857335152743 0 0.35043947564845612 -0.050958289078885777 0 0.34293740579946641 -0.06831245254873955 0 0.33811414807846152 -0.053644857335152743 0 0.35043947564845612 -0.050958289078885777 0 0.34799540654183703 -0.039384454360178157 0 0.35043947564845612 -0.050958289078885777 0 0.34799540654183703 -0.039384454360178157 0 0.36378317356970258 -0.044466507271333902 0 0.34799540654183703 -0.039384454360178157 0 0.35976031892787369 -0.033445645965485223 0 0.36378317356970258 -0.044466507271333902 0 0.35242212984959942 -0.02741263740853252 0 0.34225955704586741 -0.0288834877708356 0 0.34799540654183703 -0.039384454360178157 0 0.35242212984959942 -0.02741263740853252 0 0.34799540654183703 -0.039384454360178157 0 0.35976031892787369 -0.033445645965485223 0 0.35976031892787369 -0.033445645965485223 0 0.36378317356970258 -0.044466507271333902 0 0.37440595423719542 -0.031580705047194048 0 0.378720016280293 -0.042921114927424731 0 0.36378317356970258 -0.044466507271333902 0 0.37440595423719542 -0.031580705047194048 0 0.37532871501956561 -0.054169378899494448 0 0.36378317356970258 -0.044466507271333902 0 0.36064762250437632 -0.060866656189315929 0 0.37532871501956561 -0.054169378899494448 0 0.378720016280293 -0.042921114927424731 0 0.36378317356970258 -0.044466507271333902 0 0.37532871501956561 -0.054169378899494448 0 0.36064762250437632 -0.060866656189315929 0 0.37236651337125187 -0.069058058894657853 0 0.3773649077660835 -0.081648997678125945 0 0.37236651337125187 -0.069058058894657853 0 0.35903045161781549 -0.078235250442784107 0 0.36064762250437632 -0.060866656189315929 0 0.37236651337125187 -0.069058058894657853 0 0.35903045161781549 -0.078235250442784107 0 0.35903045161781549 -0.078235250442784107 0 0.34124490509342059 -0.1012238105951625 0 0.34293740579946641 -0.06831245254873955 0 0.3773649077660835 -0.081648997678125945 0 0.36443940918573331 -0.092838696266587709 0 0.35903045161781549 -0.078235250442784107 0 0.3773649077660835 -0.081648997678125945 0 0.37842937288882972 -0.094907128826883527 0 0.36443940918573331 -0.092838696266587709 0 0.36443940918573331 -0.092838696266587709 0 0.35903045161781549 -0.078235250442784107 0 0.34124490509342059 -0.1012238105951625 0 0.36064762250437632 -0.060866656189315929 0 0.35903045161781549 -0.078235250442784107 0 0.34293740579946641 -0.06831245254873955 0 0.38176244380710711 -0.1177935041230158 0 0.3661274085625173 -0.1081782937899825 0 0.3584034388227354 -0.1248290261554658 0 0.38176244380710711 -0.1177935041230158 0 0.3584034388227354 -0.1248290261554658 0 0.37842937288882972 -0.094907128826883527 0 0.36443940918573331 -0.092838696266587709 0 0.3661274085625173 -0.1081782937899825 0 0.36443940918573331 -0.092838696266587709 0 0.3661274085625173 -0.1081782937899825 0 0.34124490509342059 -0.1012238105951625 0 0.3584034388227354 -0.1248290261554658 0 0.3390235230428954 -0.1181737811818627 0 0.34124490509342059 -0.1012238105951625 0 0.3584034388227354 -0.1248290261554658 0 0.34124490509342059 -0.1012238105951625 0 0.3661274085625173 -0.1081782937899825 0 0.3584034388227354 -0.1248290261554658 0 0.34124490509342059 -0.1012238105951625 0 0.3584034388227354 -0.1248290261554658 0 0.3390235230428954 -0.1181737811818627 0 0.3390780878831704 -0.13064964789903061 0 0.3390235230428954 -0.1181737811818627 0 0.34124490509342059 -0.1012238105951625 0 0.32629414614325092 -0.1164467595299755 0 0.3390235230428954 -0.1181737811818627 0 0.32629414614325092 -0.1164467595299755 0 0.32797175721685567 -0.12870323563834779 0 0.34124490509342059 -0.1012238105951625 0 0.31636088248721722 -0.1056529433529851 0 0.31860616005357612 -0.091605255645908906 0 0.34124490509342059 -0.1012238105951625 0 0.31636088248721722 -0.1056529433529851 0 0.32629414614325092 -0.1164467595299755 0 0.31636088248721722 -0.1056529433529851 0 0.31860616005357612 -0.091605255645908906 0 0.30396075939563472 -0.093710937742837064 0 0.31636088248721722 -0.1056529433529851 0 0.31623945397289349 -0.1155462361429275 0 0.30690978776479277 -0.1167182027235818 0 0.31636088248721722 -0.1056529433529851 0 0.32629414614325092 -0.1164467595299755 0 0.31623945397289349 -0.1155462361429275 0 0.31623945397289349 -0.1155462361429275 0 0.31121921875145098 -0.1234645790202354 0 0.31894633486345109 -0.12508239065771809 0 0.32629414614325092 -0.1164467595299755 0 0.32797175721685567 -0.12870323563834779 0 0.31894633486345109 -0.12508239065771809 0 0.32629414614325092 -0.1164467595299755 0 0.31623945397289349 -0.1155462361429275 0 0.31894633486345109 -0.12508239065771809 0 0.34124490509342059 -0.1012238105951625 0 0.34293740579946641 -0.06831245254873955 0 0.32408637136410928 -0.077618595034856575 0 0.32659981381310549 -0.058797667745880251 0 0.34293740579946641 -0.06831245254873955 0 0.32408637136410928 -0.077618595034856575 0 0.34124490509342059 -0.1012238105951625 0 0.32408637136410928 -0.077618595034856575 0 0.31860616005357612 -0.091605255645908906 0 0.32408637136410928 -0.077618595034856575 0 0.30737788192749838 -0.07981999150370328 0 0.34124490509342059 -0.1012238105951625 0 0.31860616005357612 -0.091605255645908906 0 0.32408637136410928 -0.077618595034856575 0 0.32408637136410928 -0.077618595034856575 0 0.3069278376347982 -0.054013379474550899 0 0.32659981381310549 -0.058797667745880251 0 0.32408637136410928 -0.077618595034856575 0 0.3069278376347982 -0.054013379474550899 0 0.32408637136410928 -0.077618595034856575 0 0.30034554166289629 -0.068939686798087166 0 0.30737788192749838 -0.07981999150370328 0 0.32408637136410928 -0.077618595034856575 0 0.30034554166289629 -0.068939686798087166 0 0.3069278376347982 -0.054013379474550899 0 0.30034554166289629 -0.068939686798087166 0 0.30737788192749838 -0.07981999150370328 0 0.29184900026759802 -0.076806939402409846 0 0.31860616005357612 -0.091605255645908906 0 0.30737788192749838 -0.07981999150370328 0 0.30396075939563472 -0.093710937742837064 0 0.30396075939563472 -0.093710937742837064 0 0.29888232612573218 -0.084144105788719226 0 0.29141107686779633 -0.087392750171788672 0 0.30737788192749838 -0.07981999150370328 0 0.29888232612573218 -0.084144105788719226 0 0.29184900026759802 -0.076806939402409846 0 0.30737788192749838 -0.07981999150370328 0 0.30396075939563472 -0.093710937742837064 0 0.29888232612573218 -0.084144105788719226 0 0.29888232612573218 -0.084144105788719226 0 0.29141107686779633 -0.087392750171788672 0 0.29184900026759802 -0.076806939402409846 0 0.29141107686779633 -0.087392750171788672 0 0.28338620378523188 -0.073615699419970135 0 0.27846723598592699 -0.094859863865091917 0 0.29141107686779633 -0.087392750171788672 0 0.28338620378523188 -0.073615699419970135 0 0.29184900026759802 -0.076806939402409846 0 0.28338620378523188 -0.073615699419970135 0 0.2884459549981423 -0.05176351595303201 0 0.30034554166289629 -0.068939686798087166 0 0.28338620378523188 -0.073615699419970135 0 0.29184900026759802 -0.076806939402409846 0 0.30034554166289629 -0.068939686798087166 0 0.28338620378523188 -0.073615699419970135 0 0.2884459549981423 -0.05176351595303201 0 0.28338620378523188 -0.073615699419970135 0 0.29184900026759802 -0.076806939402409846 0 0.29813166874930042 -0.11825256238717941 0 0.30385630769775768 -0.12483859266061791 0 0.29608016981327001 -0.12674323955998179 0 0.29813166874930042 -0.11825256238717941 0 0.30385630769775768 -0.12483859266061791 0 0.30690978776479277 -0.1167182027235818 0 0.30385630769775768 -0.12483859266061791 0 0.31121921875145098 -0.1234645790202354 0 0.30690978776479277 -0.1167182027235818 0 0.31623945397289349 -0.1155462361429275 0 0.31121921875145098 -0.1234645790202354 0 0.30690978776479277 -0.1167182027235818 0 0.31636088248721722 -0.1056529433529851 0 0.30690978776479277 -0.1167182027235818 0 0.30135970003291612 -0.10724107713638301 0 0.29813166874930042 -0.11825256238717941 0 0.30690978776479277 -0.1167182027235818 0 0.30135970003291612 -0.10724107713638301 0 0.31636088248721722 -0.1056529433529851 0 0.30396075939563472 -0.093710937742837064 0 0.30135970003291612 -0.10724107713638301 0 0.30396075939563472 -0.093710937742837064 0 0.30135970003291612 -0.10724107713638301 0 0.28977464861742619 -0.10220072826102609 0 0.30396075939563472 -0.093710937742837064 0 0.29141107686779633 -0.087392750171788672 0 0.28977464861742619 -0.10220072826102609 0 0.29141107686779633 -0.087392750171788672 0 0.28977464861742619 -0.10220072826102609 0 0.27846723598592699 -0.094859863865091917 0 0.30135970003291612 -0.10724107713638301 0 0.28977464861742619 -0.10220072826102609 0 0.28990085123566361 -0.1138957123398424 0 0.28990085123566361 -0.1138957123398424 0 0.28209503651692741 -0.1191302229402873 0 0.27354826818661759 -0.1161040283102127 0 0.28977464861742619 -0.10220072826102609 0 0.28990085123566361 -0.1138957123398424 0 0.27354826818661759 -0.1161040283102127 0 0.29813166874930042 -0.11825256238717941 0 0.30135970003291612 -0.10724107713638301 0 0.28990085123566361 -0.1138957123398424 0 0.28990085123566361 -0.1138957123398424 0 0.28209503651692741 -0.1191302229402873 0 0.29047214473022798 -0.12117289405680411 0 0.28209503651692741 -0.1191302229402873 0 0.2871088405583439 -0.1232108497833892 0 0.28589172947458968 -0.12736370491429269 0 0.28209503651692741 -0.1191302229402873 0 0.2871088405583439 -0.1232108497833892 0 0.29047214473022798 -0.12117289405680411 0 0.29813166874930042 -0.11825256238717941 0 0.28990085123566361 -0.1138957123398424 0 0.29047214473022798 -0.12117289405680411 0 0.29047214473022798 -0.12117289405680411 0 0.29608016981327001 -0.12674323955998179 0 0.2899764515116306 -0.12517657722217279 0 0.29813166874930042 -0.11825256238717941 0 0.29047214473022798 -0.12117289405680411 0 0.29608016981327001 -0.12674323955998179 0 0.2871088405583439 -0.1232108497833892 0 0.29047214473022798 -0.12117289405680411 0 0.2899764515116306 -0.12517657722217279 0 0.27260607975951329 -0.12017317588350659 0 0.27354826818661759 -0.1161040283102127 0 0.25662204245081038 -0.107465994320195 0 0.27260607975951329 -0.12017317588350659 0 0.26132635943505761 -0.1184934598302292 0 0.2667019946038241 -0.1261911117869528 0 0.27260607975951329 -0.12017317588350659 0 0.27354826818661759 -0.1161040283102127 0 0.27260607975951329 -0.12017317588350659 0 0.27354826818661759 -0.1161040283102127 0 0.28589172947458968 -0.12736370491429269 0 0.28209503651692741 -0.1191302229402873 0 0.27354826818661759 -0.1161040283102127 0 0.28589172947458968 -0.12736370491429269 0 0.27354826818661759 -0.1161040283102127 0 0.28589172947458968 -0.12736370491429269 0 0.28977464861742619 -0.10220072826102609 0 0.27354826818661759 -0.1161040283102127 0 0.27846723598592699 -0.094859863865091917 0 0.27354826818661759 -0.1161040283102127 0 0.27846723598592699 -0.094859863865091917 0 0.25834843152813058 -0.10223877275372401 0 0.27354826818661759 -0.1161040283102127 0 0.27846723598592699 -0.094859863865091917 0 0.27846723598592699 -0.094859863865091917 0 0.25834843152813058 -0.10223877275372401 0 0.26075688810030268 -0.084334427714400792 0 0.27354826818661759 -0.1161040283102127 0 0.25834843152813058 -0.10223877275372401 0 0.25662204245081038 -0.107465994320195 0 0.25834843152813058 -0.10223877275372401 0 0.24063800514210851 -0.094758812756882166 0 0.27354826818661759 -0.1161040283102127 0 0.25662204245081038 -0.107465994320195 0 0.25834843152813058 -0.10223877275372401 0 0.25834843152813058 -0.10223877275372401 0 0.24314859486964441 -0.088373517197234339 0 0.27260607975951329 -0.12017317588350659 0 0.25662204245081038 -0.107465994320195 0 0.27260607975951329 -0.12017317588350659 0 0.25662204245081038 -0.107465994320195 0 0.26132635943505761 -0.1184934598302292 0 0.25662204245081038 -0.107465994320195 0 0.26132635943505761 -0.1184934598302292 0 0.24708412451599479 -0.1140119489509321 0 0.26132635943505761 -0.1184934598302292 0 0.25037543618636982 -0.12803796267140971 0 0.24708412451599479 -0.1140119489509321 0 0.28338620378523188 -0.073615699419970135 0 0.26839181284893687 -0.067961457353776566 0 0.27691632741168332 -0.057654505037432038 0 0.26839181284893687 -0.067961457353776566 0 0.27247821160953611 -0.07983361371406382 0 0.26075688810030268 -0.084334427714400792 0 0.28338620378523188 -0.073615699419970135 0 0.26839181284893687 -0.067961457353776566 0 0.27247821160953611 -0.07983361371406382 0 0.28338620378523188 -0.073615699419970135 0 0.26839181284893687 -0.067961457353776566 0 0.28338620378523188 -0.073615699419970135 0 0.27846723598592699 -0.094859863865091917 0 0.28338620378523188 -0.073615699419970135 0 0.27846723598592699 -0.094859863865091917 0 0.27247821160953611 -0.07983361371406382 0 0.27846723598592699 -0.094859863865091917 0 0.27247821160953611 -0.07983361371406382 0 0.26075688810030268 -0.084334427714400792 0 0.25834843152813058 -0.10223877275372401 0 0.26075688810030268 -0.084334427714400792 0 0.24314859486964441 -0.088373517197234339 0 0.26075688810030268 -0.084334427714400792 0 0.25339742191264197 -0.062307215287582728 0 0.24314859486964441 -0.088373517197234339 0 0.26839181284893687 -0.067961457353776566 0 0.26075688810030268 -0.084334427714400792 0 0.25339742191264197 -0.062307215287582728 0 0.26839181284893687 -0.067961457353776566 0 0.25339742191264197 -0.062307215287582728 0 0.25339742191264197 -0.062307215287582728 0 0.26248204170994649 -0.039201893929570478 0 0.25339742191264197 -0.062307215287582728 0 0.26248204170994649 -0.039201893929570478 0 0.24497482797645989 -0.044171703177150967 0 0.25339742191264197 -0.062307215287582728 0 0.26771473896047032 -0.053855908079712168 0 0.26248204170994649 -0.039201893929570478 0 0.26839181284893687 -0.067961457353776566 0 0.25339742191264197 -0.062307215287582728 0 0.26771473896047032 -0.053855908079712168 0 0.26839181284893687 -0.067961457353776566 0 0.26771473896047032 -0.053855908079712168 0 0.27691632741168332 -0.057654505037432038 0 0.26771473896047032 -0.053855908079712168 0 0.27691632741168332 -0.057654505037432038 0 0.27738609091914268 -0.042154468790199039 0 0.27691632741168332 -0.057654505037432038 0 0.27738609091914268 -0.042154468790199039 0 0.2884459549981423 -0.05176351595303201 0 0.26771473896047032 -0.053855908079712168 0 0.27738609091914268 -0.042154468790199039 0 0.26248204170994649 -0.039201893929570478 0 0.27738609091914268 -0.042154468790199039 0 0.26248204170994649 -0.039201893929570478 0 0.27733692379703989 -0.0291896943392146 0 0.26248204170994649 -0.039201893929570478 0 0.24497482797645989 -0.044171703177150967 0 0.2489274880079777 -0.029376254438568099 0 0.26248204170994649 -0.039201893929570478 0 0.26089507403984158 -0.02193576135406268 0 0.27156666150725473 -0.01609657257155957 0 0.26248204170994649 -0.039201893929570478 0 0.26089507403984158 -0.02193576135406268 0 0.2489274880079777 -0.029376254438568099 0 0.26089507403984158 -0.02193576135406268 0 0.25354681507058452 -0.01533907888604962 0 0.2489274880079777 -0.029376254438568099 0 0.26089507403984158 -0.02193576135406268 0 0.25354681507058452 -0.01533907888604962 0 0.26847244579186053 -0.01273010848731515 0 0.25354681507058452 -0.01533907888604962 0 0.26426219591019201 -0.002359750825380944 0 0.24311130928645741 -0.005463409046427151 0 0.25354681507058452 -0.01533907888604962 0 0.26426219591019201 -0.002359750825380944 0 0.26847244579186053 -0.01273010848731515 0 0.26426219591019201 -0.002359750825380944 0 0.26847244579186053 -0.01273010848731515 0 0.27713155365912651 0.00074104223111566114 0 0.26426219591019201 -0.002359750825380944 0 0.27489707436752581 -0.005782216797989426 0 0.26426219591019201 -0.002359750825380944 0 0.27566213416375968 -0.013878337668342259 0 0.27489707436752581 -0.005782216797989426 0 0.26426219591019201 -0.002359750825380944 0 0.27566213416375968 -0.013878337668342259 0 0.26426219591019201 -0.002359750825380944 0 0.26847244579186053 -0.01273010848731515 0 0.27566213416375968 -0.013878337668342259 0 0.26847244579186053 -0.01273010848731515 0 0.27566213416375968 -0.013878337668342259 0 0.27156666150725473 -0.01609657257155957 0 0.27566213416375968 -0.013878337668342259 0 0.27489707436752581 -0.005782216797989426 0 0.28253241373702531 -0.0076318209293499781 0 0.27566213416375968 -0.013878337668342259 0 0.28182773337711181 -0.019055961013801321 0 0.28253241373702531 -0.0076318209293499781 0 0.27713155365912651 0.00074104223111566114 0 0.27489707436752581 -0.005782216797989426 0 0.28253241373702531 -0.0076318209293499781 0 0.26248204170994649 -0.039201893929570478 0 0.27156666150725473 -0.01609657257155957 0 0.26248204170994649 -0.039201893929570478 0 0.27156666150725473 -0.01609657257155957 0 0.27733692379703989 -0.0291896943392146 0 0.26089507403984158 -0.02193576135406268 0 0.26847244579186053 -0.01273010848731515 0 0.27156666150725473 -0.01609657257155957 0 0.27156666150725473 -0.01609657257155957 0 0.27733692379703989 -0.0291896943392146 0 0.28182773337711181 -0.019055961013801321 0 0.27566213416375968 -0.013878337668342259 0 0.27156666150725473 -0.01609657257155957 0 0.28182773337711181 -0.019055961013801321 0 0.27733692379703989 -0.0291896943392146 0 0.29350570621105049 -0.029911332486093269 0 0.28182773337711181 -0.019055961013801321 0 0.29350570621105049 -0.029911332486093269 0 0.29136685141555502 -0.013299325303722969 0 0.30435739307814902 -0.01556727085068379 0 0.29350570621105049 -0.029911332486093269 0 0.28182773337711181 -0.019055961013801321 0 0.29136685141555502 -0.013299325303722969 0 0.29323618271067059 0.0060479275969145367 0 0.27713155365912651 0.00074104223111566114 0 0.28253241373702531 -0.0076318209293499781 0 0.29323618271067059 0.0060479275969145367 0 0.29136685141555502 -0.013299325303722969 0 0.30435739307814902 -0.01556727085068379 0 0.29323618271067059 0.0060479275969145367 0 0.28253241373702531 -0.0076318209293499781 0 0.29136685141555502 -0.013299325303722969 0 0.28182773337711181 -0.019055961013801321 0 0.28253241373702531 -0.0076318209293499781 0 0.29136685141555502 -0.013299325303722969 0 0.30783172406616738 0.0037925172524494039 0 0.29323618271067059 0.0060479275969145367 0 0.30435739307814902 -0.01556727085068379 0 0.30783172406616738 0.0037925172524494039 0 0.32069338199699532 -0.00142713013918547 0 0.30435739307814902 -0.01556727085068379 0 0.29323618271067059 0.0060479275969145367 0 0.30435739307814902 -0.01556727085068379 0 0.31547860344562728 -0.037182469298282013 0 0.30435739307814902 -0.01556727085068379 0 0.31547860344562728 -0.037182469298282013 0 0.29350570621105049 -0.029911332486093269 0 0.30435739307814902 -0.01556727085068379 0 0.31547860344562728 -0.037182469298282013 0 0.29350570621105049 -0.029911332486093269 0 0.30108952557240448 -0.043217674302989541 0 0.31547860344562728 -0.037182469298282013 0 0.30108952557240448 -0.043217674302989541 0 0.3069278376347982 -0.054013379474550899 0 0.30108952557240448 -0.043217674302989541 0 0.3069278376347982 -0.054013379474550899 0 0.2884459549981423 -0.05176351595303201 0 0.30034554166289629 -0.068939686798087166 0 0.3069278376347982 -0.054013379474550899 0 0.2884459549981423 -0.05176351595303201 0 0.28338620378523188 -0.073615699419970135 0 0.27691632741168332 -0.057654505037432038 0 0.2884459549981423 -0.05176351595303201 0 0.29350570621105049 -0.029911332486093269 0 0.2884459549981423 -0.05176351595303201 0 0.29350570621105049 -0.029911332486093269 0 0.30108952557240448 -0.043217674302989541 0 0.2884459549981423 -0.05176351595303201 0 0.27738609091914268 -0.042154468790199039 0 0.29350570621105049 -0.029911332486093269 0 0.2884459549981423 -0.05176351595303201 0 0.27738609091914268 -0.042154468790199039 0 0.27733692379703989 -0.0291896943392146 0 0.29350570621105049 -0.029911332486093269 0 0.28976477093230618 -0.20735492776785311 0 0.30087637118683591 -0.21849622575568009 0 0.28182266069576689 -0.22074398864360631 0 0.28976477093230618 -0.20735492776785311 0 0.28566265744389652 -0.19115575740164331 0 0.30274197358392207 -0.19377253734405331 0 0.28976477093230618 -0.20735492776785311 0 0.30274197358392207 -0.19377253734405331 0 0.31173061651572381 -0.20710405566344819 0 0.30274197358392207 -0.19377253734405331 0 0.31173061651572381 -0.20710405566344819 0 0.32299843735962303 -0.18817055637257049 0 0.31173061651572381 -0.20710405566344819 0 0.30087637118683591 -0.21849622575568009 0 0.31842953066615243 -0.2259134122472887 0 0.28976477093230618 -0.20735492776785311 0 0.31173061651572381 -0.20710405566344819 0 0.28976477093230618 -0.20735492776785311 0 0.31173061651572381 -0.20710405566344819 0 0.30087637118683591 -0.21849622575568009 0 0.30087637118683591 -0.21849622575568009 0 0.29480803106572878 -0.23764551999912459 0 0.31842953066615243 -0.2259134122472887 0 0.29480803106572878 -0.23764551999912459 0 0.31842953066615243 -0.2259134122472887 0 0.31775413561175558 -0.25357528519619238 0 0.28137194016209788 -0.2472511684138568 0 0.29480803106572878 -0.23764551999912459 0 0.26975606651410311 -0.23455113057212029 0 0.28137194016209788 -0.2472511684138568 0 0.29480803106572878 -0.23764551999912459 0 0.29200938186405961 -0.26078129464479338 0 0.29480803106572878 -0.23764551999912459 0 0.28182266069576689 -0.22074398864360631 0 0.26975606651410311 -0.23455113057212029 0 0.30087637118683591 -0.21849622575568009 0 0.29480803106572878 -0.23764551999912459 0 0.28182266069576689 -0.22074398864360631 0 0.28182266069576689 -0.22074398864360631 0 0.26975606651410311 -0.23455113057212029 0 0.26779892534888861 -0.2076057998722575 0 0.26975606651410311 -0.23455113057212029 0 0.26779892534888861 -0.2076057998722575 0 0.26975606651410311 -0.23455113057212029 0 0.26082319034914581 -0.24804312499437539 0 0.2717132076793175 -0.26149646127198323 0 0.26975606651410311 -0.23455113057212029 0 0.2717132076793175 -0.26149646127198323 0 0.28137194016209788 -0.2472511684138568 0 0.26975606651410311 -0.23455113057212029 0 0.2717132076793175 -0.26149646127198323 0 0.26975606651410311 -0.23455113057212029 0 0.26082319034914581 -0.24804312499437539 0 0.25206177602816038 -0.23646078922060901 0 0.26082319034914581 -0.24804312499437539 0 0.25206177602816038 -0.23646078922060901 0 0.25039127449398407 -0.24989370801593011 0 0.26975606651410311 -0.23455113057212029 0 0.25194222904351782 -0.2214602506750131 0 0.26779892534888861 -0.2076057998722575 0 0.26975606651410311 -0.23455113057212029 0 0.25206177602816038 -0.23646078922060901 0 0.25194222904351782 -0.2214602506750131 0 0.25046899035022402 -0.20780372520346391 0 0.26779892534888861 -0.2076057998722575 0 0.25194222904351782 -0.2214602506750131 0 0.26779892534888861 -0.2076057998722575 0 0.25194222904351782 -0.2214602506750131 0 0.25046899035022402 -0.20780372520346391 0 0.26779892534888861 -0.2076057998722575 0 0.25046899035022402 -0.20780372520346391 0 0.26779892534888861 -0.2076057998722575 0 0.25934777405738352 -0.1977072126463236 0 0.28976477093230618 -0.20735492776785311 0 0.28182266069576689 -0.22074398864360631 0 0.26779892534888861 -0.2076057998722575 0 0.28976477093230618 -0.20735492776785311 0 0.26779892534888861 -0.2076057998722575 0 0.28566265744389652 -0.19115575740164331 0 0.26779892534888861 -0.2076057998722575 0 0.26581343413576752 -0.18027015424275081 0 0.28566265744389652 -0.19115575740164331 0 0.26779892534888861 -0.2076057998722575 0 0.28976477093230618 -0.20735492776785311 0 0.28566265744389652 -0.19115575740164331 0 0.26779892534888861 -0.2076057998722575 0 0.26779892534888861 -0.2076057998722575 0 0.26581343413576752 -0.18027015424275081 0 0.26779892534888861 -0.2076057998722575 0 0.25934777405738352 -0.1977072126463236 0 0.26581343413576752 -0.18027015424275081 0 0.25934777405738352 -0.1977072126463236 0 0.26581343413576752 -0.18027015424275081 0 0.24533182821253949 -0.18561716214836391 0 0.25046899035022402 -0.20780372520346391 0 0.25934777405738352 -0.1977072126463236 0 0.24533182821253949 -0.18561716214836391 0 0.25168293139397369 -0.17096036420933389 0 0.26581343413576752 -0.18027015424275081 0 0.24533182821253949 -0.18561716214836391 0 0.25168293139397369 -0.17096036420933389 0 0.26385493905181429 -0.1533061831969682 0 0.24081778075798779 -0.160244767903367 0 0.25168293139397369 -0.17096036420933389 0 0.26581343413576752 -0.18027015424275081 0 0.26385493905181429 -0.1533061831969682 0 0.26581343413576752 -0.18027015424275081 0 0.26385493905181429 -0.1533061831969682 0 0.26385493905181429 -0.1533061831969682 0 0.24081778075798779 -0.160244767903367 0 0.26581343413576752 -0.18027015424275081 0 0.26385493905181429 -0.1533061831969682 0 0.28346299498683059 -0.16880404598953491 0 0.26385493905181429 -0.1533061831969682 0 0.28214116252792792 -0.14779853729156631 0 0.28346299498683059 -0.16880404598953491 0 0.28566265744389652 -0.19115575740164331 0 0.26581343413576752 -0.18027015424275081 0 0.28346299498683059 -0.16880404598953491 0 0.26132635943505761 -0.1184934598302292 0 0.25037543618636982 -0.12803796267140971 0 0.26259064924343273 -0.13589982151359889 0 0.26132635943505761 -0.1184934598302292 0 0.26259064924343273 -0.13589982151359889 0 0.2667019946038241 -0.1261911117869528 0 0.26132635943505761 -0.1184934598302292 0 0.26259064924343273 -0.13589982151359889 0 0.25037543618636982 -0.12803796267140971 0 0.26259064924343273 -0.13589982151359889 0 0.25236900696121861 -0.1424270533323797 0 0.26259064924343273 -0.13589982151359889 0 0.26385493905181429 -0.1533061831969682 0 0.25236900696121861 -0.1424270533323797 0 0.26385493905181429 -0.1533061831969682 0 0.25236900696121861 -0.1424270533323797 0 0.24081778075798779 -0.160244767903367 0 0.26259064924343273 -0.13589982151359889 0 0.26385493905181429 -0.1533061831969682 0 0.26259064924343273 -0.13589982151359889 0 0.26385493905181429 -0.1533061831969682 0 0.27286009875352002 -0.14053066439874781 0 0.26385493905181429 -0.1533061831969682 0 0.27286009875352002 -0.14053066439874781 0 0.28214116252792792 -0.14779853729156631 0 0.26385493905181429 -0.1533061831969682 0 0.28214116252792792 -0.14779853729156631 0 0.27286009875352002 -0.14053066439874781 0 0.27028488997729377 -0.1301979899204751 0 0.2865167328817762 -0.13123203363483699 0 0.27260607975951329 -0.12017317588350659 0 0.27028488997729377 -0.1301979899204751 0 0.2865167328817762 -0.13123203363483699 0 0.27286009875352002 -0.14053066439874781 0 0.2865167328817762 -0.13123203363483699 0 0.28214116252792792 -0.14779853729156631 0 0.26259064924343273 -0.13589982151359889 0 0.27286009875352002 -0.14053066439874781 0 0.27028488997729377 -0.1301979899204751 0 0.27260607975951329 -0.12017317588350659 0 0.2865167328817762 -0.13123203363483699 0 0.27260607975951329 -0.12017317588350659 0 0.27028488997729377 -0.1301979899204751 0 0.26259064924343273 -0.13589982151359889 0 0.27028488997729377 -0.1301979899204751 0 0.2667019946038241 -0.1261911117869528 0 0.27260607975951329 -0.12017317588350659 0 0.27028488997729377 -0.1301979899204751 0 0.2667019946038241 -0.1261911117869528 0 0.2865167328817762 -0.13123203363483699 0 0.28214116252792792 -0.14779853729156631 0 0.30042738600404151 -0.14229089138616419 0 0.28589172947458968 -0.12736370491429269 0 0.2865167328817762 -0.13123203363483699 0 0.29823519076256261 -0.13862338151837181 0 0.29188373162203651 -0.12807595081235701 0 0.28589172947458968 -0.12736370491429269 0 0.29586106351334668 -0.13315880417110509 0 0.29608016981327001 -0.12674323955998179 0 0.29188373162203651 -0.12807595081235701 0 0.29586106351334668 -0.13315880417110509 0 0.29188373162203651 -0.12807595081235701 0 0.2899764515116306 -0.12517657722217279 0 0.28589172947458968 -0.12736370491429269 0 0.29608016981327001 -0.12674323955998179 0 0.29188373162203651 -0.12807595081235701 0 0.2899764515116306 -0.12517657722217279 0 0.27260607975951329 -0.12017317588350659 0 0.28589172947458968 -0.12736370491429269 0 0.2865167328817762 -0.13123203363483699 0 0.2871088405583439 -0.1232108497833892 0 0.2899764515116306 -0.12517657722217279 0 0.28589172947458968 -0.12736370491429269 0 0.2865167328817762 -0.13123203363483699 0 0.30042738600404151 -0.14229089138616419 0 0.28589172947458968 -0.12736370491429269 0 0.29823519076256261 -0.13862338151837181 0 0.2865167328817762 -0.13123203363483699 0 0.30042738600404151 -0.14229089138616419 0 0.29823519076256261 -0.13862338151837181 0 0.28589172947458968 -0.12736370491429269 0 0.29586106351334668 -0.13315880417110509 0 0.29823519076256261 -0.13862338151837181 0 0.28214116252792792 -0.14779853729156631 0 0.30042738600404151 -0.14229089138616419 0 0.28214116252792792 -0.14779853729156631 0 0.30042738600404151 -0.14229089138616419 0 0.29820580861581808 -0.1585939771619761 0 0.30042738600404151 -0.14229089138616419 0 0.32144411389223021 -0.15899902162786389 0 0.30042738600404151 -0.14229089138616419 0 0.29820580861581808 -0.1585939771619761 0 0.32144411389223021 -0.15899902162786389 0 0.30042738600404151 -0.14229089138616419 0 0.31975273694360568 -0.13647026964259679 0 0.30042738600404151 -0.14229089138616419 0 0.31396307524942257 -0.13191305423683949 0 0.31975273694360568 -0.13647026964259679 0 0.30042738600404151 -0.14229089138616419 0 0.29823519076256261 -0.13862338151837181 0 0.30179444705712533 -0.13261746739779229 0 0.30042738600404151 -0.14229089138616419 0 0.30770460323424759 -0.13029300901450061 0 0.30179444705712533 -0.13261746739779229 0 0.29586106351334668 -0.13315880417110509 0 0.29823519076256261 -0.13862338151837181 0 0.30179444705712533 -0.13261746739779229 0 0.30042738600404151 -0.14229089138616419 0 0.30770460323424759 -0.13029300901450061 0 0.31396307524942257 -0.13191305423683949 0 0.31121921875145098 -0.1234645790202354 0 0.30770460323424759 -0.13029300901450061 0 0.31396307524942257 -0.13191305423683949 0 0.30385630769775768 -0.12483859266061791 0 0.31121921875145098 -0.1234645790202354 0 0.30770460323424759 -0.13029300901450061 0 0.30385630769775768 -0.12483859266061791 0 0.30770460323424759 -0.13029300901450061 0 0.30179444705712533 -0.13261746739779229 0 0.29608016981327001 -0.12674323955998179 0 0.29586106351334668 -0.13315880417110509 0 0.30179444705712533 -0.13261746739779229 0 0.30385630769775768 -0.12483859266061791 0 0.29608016981327001 -0.12674323955998179 0 0.30179444705712533 -0.13261746739779229 0 0.28566265744389652 -0.19115575740164331 0 0.30355338566806123 -0.17507738951475141 0 0.28566265744389652 -0.19115575740164331 0 0.28346299498683059 -0.16880404598953491 0 0.30355338566806123 -0.17507738951475141 0 0.28346299498683059 -0.16880404598953491 0 0.29820580861581808 -0.1585939771619761 0 0.30355338566806123 -0.17507738951475141 0 0.28214116252792792 -0.14779853729156631 0 0.28346299498683059 -0.16880404598953491 0 0.29820580861581808 -0.1585939771619761 0 0.29820580861581808 -0.1585939771619761 0 0.30355338566806123 -0.17507738951475141 0 0.32144411389223021 -0.15899902162786389 0 0.30355338566806123 -0.17507738951475141 0 0.32144411389223021 -0.15899902162786389 0 0.30274197358392207 -0.19377253734405331 0 0.30355338566806123 -0.17507738951475141 0 0.32299843735962303 -0.18817055637257049 0 0.28566265744389652 -0.19115575740164331 0 0.30274197358392207 -0.19377253734405331 0 0.30355338566806123 -0.17507738951475141 0 0.30355338566806123 -0.17507738951475141 0 0.32144411389223021 -0.15899902162786389 0 0.32299843735962303 -0.18817055637257049 0 0.34242439509617528 -0.17567817704767591 0 0.33668948156680001 -0.15579168653400841 0 0.34650230133852922 -0.15798345694140539 0 0.32144411389223021 -0.15899902162786389 0 0.34242439509617528 -0.17567817704767591 0 0.33668948156680001 -0.15579168653400841 0 0.32144411389223021 -0.15899902162786389 0 0.34242439509617528 -0.17567817704767591 0 0.34242439509617528 -0.17567817704767591 0 0.34223553309839749 -0.19544192394495821 0 0.32299843735962303 -0.18817055637257049 0 0.32144411389223021 -0.15899902162786389 0 0.34242439509617528 -0.17567817704767591 0 0.32299843735962303 -0.18817055637257049 0 0.32797175721685567 -0.12870323563834779 0 0.31894633486345109 -0.12508239065771809 0 0.32015847606833381 -0.13054223754387551 0 0.32797175721685567 -0.12870323563834779 0 0.32015847606833381 -0.13054223754387551 0 0.31975273694360568 -0.13647026964259679 0 0.31121921875145098 -0.1234645790202354 0 0.31894633486345109 -0.12508239065771809 0 0.31396307524942257 -0.13191305423683949 0 0.31894633486345109 -0.12508239065771809 0 0.31396307524942257 -0.13191305423683949 0 0.32015847606833381 -0.13054223754387551 0 0.31396307524942257 -0.13191305423683949 0 0.32015847606833381 -0.13054223754387551 0 0.31975273694360568 -0.13647026964259679 0 0.31975273694360568 -0.13647026964259679 0 0.32139393184400489 -0.1373849188924372 0 0.33148322150601828 -0.13729196756511619 0 0.32144411389223021 -0.15899902162786389 0 0.32139393184400489 -0.1373849188924372 0 0.34044946214360322 -0.14191894656465659 0 0.32144411389223021 -0.15899902162786389 0 0.31975273694360568 -0.13647026964259679 0 0.32139393184400489 -0.1373849188924372 0 0.30042738600404151 -0.14229089138616419 0 0.32144411389223021 -0.15899902162786389 0 0.31975273694360568 -0.13647026964259679 0 0.32144411389223021 -0.15899902162786389 0 0.34044946214360322 -0.14191894656465659 0 0.32144411389223021 -0.15899902162786389 0 0.33668948156680001 -0.15579168653400841 0 0.34044946214360322 -0.14191894656465659 0 0.33668948156680001 -0.15579168653400841 0 0.34044946214360322 -0.14191894656465659 0 0.34405848063192512 -0.15140714650779399 0 0.33668948156680001 -0.15579168653400841 0 0.34405848063192512 -0.15140714650779399 0 0.34650230133852922 -0.15798345694140539 0 0.34044946214360322 -0.14191894656465659 0 0.34244069381415249 -0.13956155368629419 0 0.34634518487294402 -0.14059717760950469 0 0.31975273694360568 -0.13647026964259679 0 0.33148322150601828 -0.13729196756511619 0 0.3390780878831704 -0.13064964789903061 0 0.31975273694360568 -0.13647026964259679 0 0.3390780878831704 -0.13064964789903061 0 0.32139393184400489 -0.1373849188924372 0 0.34044946214360322 -0.14191894656465659 0 0.32139393184400489 -0.1373849188924372 0 0.34044946214360322 -0.14191894656465659 0 0.33148322150601828 -0.13729196756511619 0 0.32797175721685567 -0.12870323563834779 0 0.31975273694360568 -0.13647026964259679 0 0.3390780878831704 -0.13064964789903061 0 0.33148322150601828 -0.13729196756511619 0 0.33693994680484318 -0.13771878834696269 0 0.3390780878831704 -0.13064964789903061 0 0.34044946214360322 -0.14191894656465659 0 0.33148322150601828 -0.13729196756511619 0 0.33963267954197202 -0.13903872621637839 0 0.33693994680484318 -0.13771878834696269 0 0.33963267954197202 -0.13903872621637839 0 0.34092260719508999 -0.13745634605734941 0 0.33148322150601828 -0.13729196756511619 0 0.33693994680484318 -0.13771878834696269 0 0.33963267954197202 -0.13903872621637839 0 0.34044946214360322 -0.14191894656465659 0 0.33963267954197202 -0.13903872621637839 0 0.34244069381415249 -0.13956155368629419 0 0.33963267954197202 -0.13903872621637839 0 0.34092260719508999 -0.13745634605734941 0 0.34244069381415249 -0.13956155368629419 0 0.34092260719508999 -0.13745634605734941 0 0.34244069381415249 -0.13956155368629419 0 0.34441849666590157 -0.13578091850759219 0 0.34092260719508999 -0.13745634605734941 0 0.3390780878831704 -0.13064964789903061 0 0.34441849666590157 -0.13578091850759219 0 0.33693994680484318 -0.13771878834696269 0 0.34092260719508999 -0.13745634605734941 0 0.3390780878831704 -0.13064964789903061 0 0.3390235230428954 -0.1181737811818627 0 0.32797175721685567 -0.12870323563834779 0 0.3390780878831704 -0.13064964789903061 0 0.3584034388227354 -0.1248290261554658 0 0.3390780878831704 -0.13064964789903061 0 0.35018866086007888 -0.13287080132335649 0 0.3584034388227354 -0.1248290261554658 0 0.3390780878831704 -0.13064964789903061 0 0.3584034388227354 -0.1248290261554658 0 0.35731815657327892 -0.13271179987334769 0 0.35018866086007888 -0.13287080132335649 0 0.3390780878831704 -0.13064964789903061 0 0.35018866086007888 -0.13287080132335649 0 0.34441849666590157 -0.13578091850759219 0 0.35018866086007888 -0.13287080132335649 0 0.34441849666590157 -0.13578091850759219 0 0.35235689736846432 -0.13853403287815619 0 0.34441849666590157 -0.13578091850759219 0 0.34634518487294402 -0.14059717760950469 0 0.35235689736846432 -0.13853403287815619 0 0.34244069381415249 -0.13956155368629419 0 0.34441849666590157 -0.13578091850759219 0 0.34634518487294402 -0.14059717760950469 0 0.35235689736846432 -0.13853403287815619 0 0.35346625272864729 -0.13540416358738791 0 0.35959309171672788 -0.139401648579869 0 0.35731815657327892 -0.13271179987334769 0 0.35018866086007888 -0.13287080132335649 0 0.35346625272864729 -0.13540416358738791 0 0.35018866086007888 -0.13287080132335649 0 0.35235689736846432 -0.13853403287815619 0 0.35346625272864729 -0.13540416358738791 0 0.35731815657327892 -0.13271179987334769 0 0.35346625272864729 -0.13540416358738791 0 0.35959309171672788 -0.139401648579869 0 0.34044946214360322 -0.14191894656465659 0 0.36187362789495398 -0.14701656173692679 0 0.34044946214360322 -0.14191894656465659 0 0.35106379794565512 -0.15108118242399701 0 0.36187362789495398 -0.14701656173692679 0 0.34044946214360322 -0.14191894656465659 0 0.34634518487294402 -0.14059717760950469 0 0.36187362789495398 -0.14701656173692679 0 0.34634518487294402 -0.14059717760950469 0 0.35235689736846432 -0.13853403287815619 0 0.36187362789495398 -0.14701656173692679 0 0.35235689736846432 -0.13853403287815619 0 0.36187362789495398 -0.14701656173692679 0 0.35959309171672788 -0.139401648579869 0 0.34044946214360322 -0.14191894656465659 0 0.35106379794565512 -0.15108118242399701 0 0.34405848063192512 -0.15140714650779399 0 0.35106379794565512 -0.15108118242399701 0 0.34405848063192512 -0.15140714650779399 0 0.34650230133852922 -0.15798345694140539 0 0.35106379794565512 -0.15108118242399701 0 0.36187362789495398 -0.14701656173692679 0 0.35937735865303799 -0.15937317323498421 0 0.35106379794565512 -0.15108118242399701 0 0.34650230133852922 -0.15798345694140539 0 0.35937735865303799 -0.15937317323498421 0 0.36187362789495398 -0.14701656173692679 0 0.38329779364630501 -0.15211417690919579 0 0.36187362789495398 -0.14701656173692679 0 0.35937735865303799 -0.15937317323498421 0 0.38329779364630501 -0.15211417690919579 0 0.37207282797871799 -0.14164940225790071 0 0.36187362789495398 -0.14701656173692679 0 0.38329779364630501 -0.15211417690919579 0 0.37207282797871799 -0.14164940225790071 0 0.36187362789495398 -0.14701656173692679 0 0.35959309171672788 -0.139401648579869 0 0.38176244380710711 -0.1177935041230158 0 0.3584034388227354 -0.1248290261554658 0 0.36438720196500929 -0.13306096607898199 0 0.37207282797871799 -0.14164940225790071 0 0.36438720196500929 -0.13306096607898199 0 0.38148677408013187 -0.1350005149809487 0 0.37207282797871799 -0.14164940225790071 0 0.35959309171672788 -0.139401648579869 0 0.36438720196500929 -0.13306096607898199 0 0.35731815657327892 -0.13271179987334769 0 0.35959309171672788 -0.139401648579869 0 0.36438720196500929 -0.13306096607898199 0 0.3584034388227354 -0.1248290261554658 0 0.36438720196500929 -0.13306096607898199 0 0.3584034388227354 -0.1248290261554658 0 0.35731815657327892 -0.13271179987334769 0 0.36438720196500929 -0.13306096607898199 0 0.34242439509617528 -0.17567817704767591 0 0.36957335646349693 -0.17351217078359579 0 0.36340467630012119 -0.19235733246748701 0 0.34242439509617528 -0.17567817704767591 0 0.36340467630012119 -0.19235733246748701 0 0.34242439509617528 -0.17567817704767591 0 0.34650230133852922 -0.15798345694140539 0 0.35937735865303799 -0.15937317323498421 0 0.34242439509617528 -0.17567817704767591 0 0.35937735865303799 -0.15937317323498421 0 0.36957335646349693 -0.17351217078359579 0 0.35937735865303799 -0.15937317323498421 0 0.36957335646349693 -0.17351217078359579 0 0.38329779364630501 -0.15211417690919579 0 0.36957335646349693 -0.17351217078359579 0 0.36340467630012119 -0.19235733246748701 0 0.38236584413271801 -0.188425838493088 0 0.36340467630012119 -0.19235733246748701 0 0.38438495750406698 -0.20903648788729809 0 0.36340467630012119 -0.19235733246748701 0 0.36477931646944911 -0.21826522868571011 0 0.38438495750406698 -0.20903648788729809 0 0.36340467630012119 -0.19235733246748701 0 0.36477931646944911 -0.21826522868571011 0 0.34865369463692653 -0.21415037027801431 0 0.36340467630012119 -0.19235733246748701 0 0.34865369463692653 -0.21415037027801431 0 0.34223553309839749 -0.19544192394495821 0 0.34242439509617528 -0.17567817704767591 0 0.36340467630012119 -0.19235733246748701 0 0.34223553309839749 -0.19544192394495821 0 0.34223553309839749 -0.19544192394495821 0 0.33369646209914139 -0.20685318355904331 0 0.32299843735962303 -0.18817055637257049 0 0.34865369463692653 -0.21415037027801431 0 0.33369646209914139 -0.20685318355904331 0 0.33606277552445019 -0.22265466850536131 0 0.34865369463692653 -0.21415037027801431 0 0.34223553309839749 -0.19544192394495821 0 0.33369646209914139 -0.20685318355904331 0 0.33369646209914139 -0.20685318355904331 0 0.31842953066615243 -0.2259134122472887 0 0.33606277552445019 -0.22265466850536131 0 0.31173061651572381 -0.20710405566344819 0 0.33369646209914139 -0.20685318355904331 0 0.31173061651572381 -0.20710405566344819 0 0.33369646209914139 -0.20685318355904331 0 0.31842953066615243 -0.2259134122472887 0 0.31173061651572381 -0.20710405566344819 0 0.33369646209914139 -0.20685318355904331 0 0.32299843735962303 -0.18817055637257049 0 0.31842953066615243 -0.2259134122472887 0 0.33249080529774772 -0.23564174820268249 0 0.31775413561175558 -0.25357528519619238 0 0.31842953066615243 -0.2259134122472887 0 0.33606277552445019 -0.22265466850536131 0 0.33249080529774772 -0.23564174820268249 0 0.33606277552445019 -0.22265466850536131 0 0.33249080529774772 -0.23564174820268249 0 0.34704338492228298 -0.23071462823977751 0 0.34349888935945311 -0.24636927574759651 0 0.31775413561175558 -0.25357528519619238 0 0.34349888935945311 -0.24636927574759651 0 0.33249080529774772 -0.23564174820268249 0 0.34704338492228298 -0.23071462823977751 0 0.34349888935945311 -0.24636927574759651 0 0.33249080529774772 -0.23564174820268249 0 0.31775413561175558 -0.25357528519619238 0 0.34349888935945311 -0.24636927574759651 0 0.34704338492228298 -0.23071462823977751 0 0.34349888935945311 -0.24636927574759651 0 0.36683949366394658 -0.23983619266578879 0 0.34349888935945311 -0.24636927574759651 0 0.36683949366394658 -0.23983619266578879 0 0.35810798723077902 -0.25360210596606603 0 0.34349888935945311 -0.24636927574759651 0 0.34704338492228298 -0.23071462823977751 0 0.36683949366394658 -0.23983619266578879 0 0.34865369463692653 -0.21415037027801431 0 0.33606277552445019 -0.22265466850536131 0 0.34704338492228298 -0.23071462823977751 0 0.36477931646944911 -0.21826522868571011 0 0.34865369463692653 -0.21415037027801431 0 0.34704338492228298 -0.23071462823977751 0 0.36477931646944911 -0.21826522868571011 0 0.34704338492228298 -0.23071462823977751 0 0.36683949366394658 -0.23983619266578879 0 0.36477931646944911 -0.21826522868571011 0 0.36683949366394658 -0.23983619266578879 0 0.37654596640147597 -0.22511025470569579 0 0.36683949366394658 -0.23983619266578879 0 0.38042246715736172 -0.2509321626324551 0 0.35810798723077902 -0.25360210596606603 0 0.36683949366394658 -0.23983619266578879 0 0.39018009796844161 -0.23330310958398609 0 0.38042246715736172 -0.2509321626324551 0 0.36683949366394658 -0.23983619266578879 0 0.39018009796844161 -0.23330310958398609 0 0.40132169558187869 -0.24584169050334639 0 0.39018009796844161 -0.23330310958398609 0 0.38042246715736172 -0.2509321626324551 0 0.40132169558187869 -0.24584169050334639 0 0.40536523870801278 -0.2257156433071093 0 0.39018009796844161 -0.23330310958398609 0 0.40536523870801278 -0.2257156433071093 0 0.39018009796844161 -0.23330310958398609 0 0.38438495750406698 -0.20903648788729809 0 0.36683949366394658 -0.23983619266578879 0 0.37654596640147597 -0.22511025470569579 0 0.39018009796844161 -0.23330310958398609 0 0.37654596640147597 -0.22511025470569579 0 0.39018009796844161 -0.23330310958398609 0 0.38438495750406698 -0.20903648788729809 0 0.36477931646944911 -0.21826522868571011 0 0.37654596640147597 -0.22511025470569579 0 0.38438495750406698 -0.20903648788729809 0 0.36340467630012119 -0.19235733246748701 0 0.38438495750406698 -0.20903648788729809 0 0.38236584413271801 -0.188425838493088 0 0.38438495750406698 -0.20903648788729809 0 0.38236584413271801 -0.188425838493088 0 0.39597402669350501 -0.19633358701328399 0 0.39597402669350501 -0.19633358701328399 0 0.40809633937434853 -0.2071025288269904 0 0.41010901096165842 -0.1865421399786695 0 0.38236584413271801 -0.188425838493088 0 0.39597402669350501 -0.19633358701328399 0 0.39601937898165918 -0.1831511099549821 0 0.39597402669350501 -0.19633358701328399 0 0.39601937898165918 -0.1831511099549821 0 0.41010901096165842 -0.1865421399786695 0 0.40536523870801278 -0.2257156433071093 0 0.38438495750406698 -0.20903648788729809 0 0.40809633937434853 -0.2071025288269904 0 0.40536523870801278 -0.2257156433071093 0 0.38438495750406698 -0.20903648788729809 0 0.38438495750406698 -0.20903648788729809 0 0.39597402669350501 -0.19633358701328399 0 0.40809633937434853 -0.2071025288269904 0 0.40809633937434853 -0.2071025288269904 0 0.42970320282245139 -0.2080371338848877 0 0.41838165943395428 -0.21941497607774521 0 0.40536523870801278 -0.2257156433071093 0 0.40809633937434853 -0.2071025288269904 0 0.41838165943395428 -0.21941497607774521 0 0.40809633937434853 -0.2071025288269904 0 0.42970320282245139 -0.2080371338848877 0 0.41010901096165842 -0.1865421399786695 0 0.42970320282245139 -0.2080371338848877 0 0.41010901096165842 -0.1865421399786695 0 0.42320366293434608 -0.18850392267972529 0 0.42970320282245139 -0.2080371338848877 0 0.41010901096165842 -0.1865421399786695 0 0.42320366293434608 -0.18850392267972529 0 0.42970320282245139 -0.2080371338848877 0 0.4427786058539942 -0.19493194431828831 0 0.42970320282245139 -0.2080371338848877 0 0.42994375826755771 -0.2290243628547701 0 0.44929739468324431 -0.22953212779110579 0 0.42970320282245139 -0.2080371338848877 0 0.42994375826755771 -0.2290243628547701 0 0.41838165943395428 -0.21941497607774521 0 0.4290680870215603 -0.24378797682374939 0 0.4463625531759885 -0.2455109887519985 0 0.43353233089863502 -0.25737658527321228 0 0.42994375826755771 -0.2290243628547701 0 0.4290680870215603 -0.24378797682374939 0 0.43866794828708772 -0.2369638640554059 0 0.42994375826755771 -0.2290243628547701 0 0.4290680870215603 -0.24378797682374939 0 0.41475828604616538 -0.23802627217685901 0 0.40132169558187869 -0.24584169050334639 0 0.40536523870801278 -0.2257156433071093 0 0.41475828604616538 -0.23802627217685901 0 0.40132169558187869 -0.24584169050334639 0 0.41475828604616538 -0.23802627217685901 0 0.41797970346046098 -0.25202085762872067 0 0.4290680870215603 -0.24378797682374939 0 0.41475828604616538 -0.23802627217685901 0 0.41797970346046098 -0.25202085762872067 0 0.40536523870801278 -0.2257156433071093 0 0.41475828604616538 -0.23802627217685901 0 0.41838165943395428 -0.21941497607774521 0 0.42994375826755771 -0.2290243628547701 0 0.41475828604616538 -0.23802627217685901 0 0.41838165943395428 -0.21941497607774521 0 0.39542128097473328 -0.12822417885975421 0 0.39700150469370848 -0.14256349334400931 0 0.41173423350123989 -0.1350053997602299 0 0.39542128097473328 -0.12822417885975421 0 0.38148677408013187 -0.1350005149809487 0 0.39700150469370848 -0.14256349334400931 0 0.38176244380710711 -0.1177935041230158 0 0.36438720196500929 -0.13306096607898199 0 0.38148677408013187 -0.1350005149809487 0 0.38176244380710711 -0.1177935041230158 0 0.39542128097473328 -0.12822417885975421 0 0.38148677408013187 -0.1350005149809487 0 0.38148677408013187 -0.1350005149809487 0 0.38329779364630501 -0.15211417690919579 0 0.39700150469370848 -0.14256349334400931 0 0.37207282797871799 -0.14164940225790071 0 0.38148677408013187 -0.1350005149809487 0 0.38329779364630501 -0.15211417690919579 0 0.38329779364630501 -0.15211417690919579 0 0.40472195939765587 -0.15721179208146491 0 0.38329779364630501 -0.15211417690919579 0 0.39700150469370848 -0.14256349334400931 0 0.40472195939765587 -0.15721179208146491 0 0.39700150469370848 -0.14256349334400931 0 0.40795117895090149 -0.14850837565389899 0 0.41173423350123989 -0.1350053997602299 0 0.39700150469370848 -0.14256349334400931 0 0.40472195939765587 -0.15721179208146491 0 0.40795117895090149 -0.14850837565389899 0 0.38329779364630501 -0.15211417690919579 0 0.40472195939765587 -0.15721179208146491 0 0.3949581877068935 -0.1637799664012527 0 0.40472195939765587 -0.15721179208146491 0 0.3949581877068935 -0.1637799664012527 0 0.40362878384974432 -0.17242127623435241 0 0.3949581877068935 -0.1637799664012527 0 0.38801922927067017 -0.17203270805551649 0 0.40362878384974432 -0.17242127623435241 0 0.36957335646349693 -0.17351217078359579 0 0.38329779364630501 -0.15211417690919579 0 0.38801922927067017 -0.17203270805551649 0 0.38329779364630501 -0.15211417690919579 0 0.3949581877068935 -0.1637799664012527 0 0.38801922927067017 -0.17203270805551649 0 0.36957335646349693 -0.17351217078359579 0 0.38236584413271801 -0.188425838493088 0 0.38801922927067017 -0.17203270805551649 0 0.38236584413271801 -0.188425838493088 0 0.38801922927067017 -0.17203270805551649 0 0.39601937898165918 -0.1831511099549821 0 0.38801922927067017 -0.17203270805551649 0 0.39601937898165918 -0.1831511099549821 0 0.40362878384974432 -0.17242127623435241 0 0.39601937898165918 -0.1831511099549821 0 0.40362878384974432 -0.17242127623435241 0 0.41010901096165842 -0.1865421399786695 0 0.40362878384974432 -0.17242127623435241 0 0.41010901096165842 -0.1865421399786695 0 0.4172489895347678 -0.17384053304011821 0 0.42320366293434608 -0.18850392267972529 0 0.41010901096165842 -0.1865421399786695 0 0.4172489895347678 -0.17384053304011821 0 0.42320366293434608 -0.18850392267972529 0 0.44602216098325331 -0.17699433428909081 0 0.42320366293434608 -0.18850392267972529 0 0.44602216098325331 -0.17699433428909081 0 0.4427786058539942 -0.19493194431828831 0 0.42320366293434608 -0.18850392267972529 0 0.42716238184066252 -0.16704637408237341 0 0.43733781267151012 -0.16961887774133011 0 0.42320366293434608 -0.18850392267972529 0 0.4172489895347678 -0.17384053304011821 0 0.42716238184066252 -0.16704637408237341 0 0.42320366293434608 -0.18850392267972529 0 0.43733781267151012 -0.16961887774133011 0 0.44602216098325331 -0.17699433428909081 0 0.42716238184066252 -0.16704637408237341 0 0.43733781267151012 -0.16961887774133011 0 0.43818976378004759 -0.15785138123070411 0 0.42716238184066252 -0.16704637408237341 0 0.42732013511081318 -0.15432998596896019 0 0.43818976378004759 -0.15785138123070411 0 0.42716238184066252 -0.16704637408237341 0 0.41834701821100162 -0.1592528174298922 0 0.42732013511081318 -0.15432998596896019 0 0.4172489895347678 -0.17384053304011821 0 0.41834701821100162 -0.1592528174298922 0 0.41098668774829239 -0.1656816046964569 0 0.4172489895347678 -0.17384053304011821 0 0.42716238184066252 -0.16704637408237341 0 0.41834701821100162 -0.1592528174298922 0 0.40472195939765587 -0.15721179208146491 0 0.40362878384974432 -0.17242127623435241 0 0.41098668774829239 -0.1656816046964569 0 0.40362878384974432 -0.17242127623435241 0 0.4172489895347678 -0.17384053304011821 0 0.41098668774829239 -0.1656816046964569 0 0.40472195939765587 -0.15721179208146491 0 0.41834701821100162 -0.1592528174298922 0 0.41098668774829239 -0.1656816046964569 0 0.41834701821100162 -0.1592528174298922 0 0.40795117895090149 -0.14850837565389899 0 0.41173423350123989 -0.1350053997602299 0 0.41834701821100162 -0.1592528174298922 0 0.41173423350123989 -0.1350053997602299 0 0.41834701821100162 -0.1592528174298922 0 0.42161391484635852 -0.1434913096213267 0 0.41173423350123989 -0.1350053997602299 0 0.40472195939765587 -0.15721179208146491 0 0.41834701821100162 -0.1592528174298922 0 0.40795117895090149 -0.14850837565389899 0 0.42732013511081318 -0.15432998596896019 0 0.43633836956360222 -0.13486109213925801 0 0.43821643454004838 -0.14670376583336631 0 0.42161391484635852 -0.1434913096213267 0 0.42732013511081318 -0.15432998596896019 0 0.42967141842850781 -0.13653770187674791 0 0.41834701821100162 -0.1592528174298922 0 0.42161391484635852 -0.1434913096213267 0 0.42732013511081318 -0.15432998596896019 0 0.42732013511081318 -0.15432998596896019 0 0.42967141842850781 -0.13653770187674791 0 0.43633836956360222 -0.13486109213925801 0 0.42732013511081318 -0.15432998596896019 0 0.43633836956360222 -0.13486109213925801 0 0.42732013511081318 -0.15432998596896019 0 0.43821643454004838 -0.14670376583336631 0 0.43818976378004759 -0.15785138123070411 0 0.42161391484635852 -0.1434913096213267 0 0.42967141842850781 -0.13653770187674791 0 0.42089044205711751 -0.1344336940712112 0 0.42967141842850781 -0.13653770187674791 0 0.43633836956360222 -0.13486109213925801 0 0.43145601916892268 -0.12954037707870139 0 0.43579387810232112 -0.1198995719363402 0 0.43633836956360222 -0.13486109213925801 0 0.43145601916892268 -0.12954037707870139 0 0.42054220145236382 -0.12270036502654021 0 0.42967141842850781 -0.13653770187674791 0 0.42089044205711751 -0.1344336940712112 0 0.42054220145236382 -0.12270036502654021 0 0.42627861905085612 -0.1245063049547135 0 0.42967141842850781 -0.13653770187674791 0 0.42627861905085612 -0.1245063049547135 0 0.42967141842850781 -0.13653770187674791 0 0.43145601916892268 -0.12954037707870139 0 0.42054220145236382 -0.12270036502654021 0 0.42967141842850781 -0.13653770187674791 0 0.42054220145236382 -0.12270036502654021 0 0.42089044205711751 -0.1344336940712112 0 0.41173423350123989 -0.1350053997602299 0 0.42161391484635852 -0.1434913096213267 0 0.42089044205711751 -0.1344336940712112 0 0.41173423350123989 -0.1350053997602299 0 0.45736570140182758 -0.1215679641272253 0 0.45662087032514542 -0.13511829200537201 0 0.46927091164766771 -0.12876981279759611 0 0.45662087032514542 -0.13511829200537201 0 0.46802084519818549 -0.14138029326978421 0 0.46927091164766771 -0.12876981279759611 0 0.45736570140182758 -0.1215679641272253 0 0.45662087032514542 -0.13511829200537201 0 0.44628230128707952 -0.12764411908660139 0 0.44535660401639121 -0.1153921983095558 0 0.43633836956360222 -0.13486109213925801 0 0.44535660401639121 -0.1153921983095558 0 0.43633836956360222 -0.13486109213925801 0 0.44628230128707952 -0.12764411908660139 0 0.43633836956360222 -0.13486109213925801 0 0.44628230128707952 -0.12764411908660139 0 0.44299786328800522 -0.1348879139042691 0 0.43633836956360222 -0.13486109213925801 0 0.44186753077834179 -0.13995857677197071 0 0.43821643454004838 -0.14670376583336631 0 0.43633836956360222 -0.13486109213925801 0 0.44299786328800522 -0.1348879139042691 0 0.44186753077834179 -0.13995857677197071 0 0.44299786328800522 -0.1348879139042691 0 0.44186753077834179 -0.13995857677197071 0 0.44731172776584838 -0.13892020327371571 0 0.45662087032514542 -0.13511829200537201 0 0.44731172776584838 -0.13892020327371571 0 0.45136386402748557 -0.14467828884563691 0 0.45662087032514542 -0.13511829200537201 0 0.44628230128707952 -0.12764411908660139 0 0.44731172776584838 -0.13892020327371571 0 0.44628230128707952 -0.12764411908660139 0 0.44299786328800522 -0.1348879139042691 0 0.44731172776584838 -0.13892020327371571 0 0.45136386402748557 -0.14467828884563691 0 0.4480743966241818 -0.15212049250964679 0 0.45865829098601479 -0.14699586828419331 0 0.45136386402748557 -0.14467828884563691 0 0.44539828049474339 -0.14470667835520279 0 0.4480743966241818 -0.15212049250964679 0 0.44731172776584838 -0.13892020327371571 0 0.45136386402748557 -0.14467828884563691 0 0.44539828049474339 -0.14470667835520279 0 0.44539828049474339 -0.14470667835520279 0 0.43821643454004838 -0.14670376583336631 0 0.4480743966241818 -0.15212049250964679 0 0.44186753077834179 -0.13995857677197071 0 0.44539828049474339 -0.14470667835520279 0 0.43821643454004838 -0.14670376583336631 0 0.44186753077834179 -0.13995857677197071 0 0.44731172776584838 -0.13892020327371571 0 0.44539828049474339 -0.14470667835520279 0 0.43821643454004838 -0.14670376583336631 0 0.4480743966241818 -0.15212049250964679 0 0.43818976378004759 -0.15785138123070411 0 0.4480743966241818 -0.15212049250964679 0 0.45865829098601479 -0.14699586828419331 0 0.45775861499998499 -0.15988863626524599 0 0.45662087032514542 -0.13511829200537201 0 0.45136386402748557 -0.14467828884563691 0 0.45865829098601479 -0.14699586828419331 0 0.45865829098601479 -0.14699586828419331 0 0.46802084519818549 -0.14138029326978421 0 0.46883398790946867 -0.15427933525052551 0 0.45662087032514542 -0.13511829200537201 0 0.45865829098601479 -0.14699586828419331 0 0.46802084519818549 -0.14138029326978421 0 0.45865829098601479 -0.14699586828419331 0 0.45775861499998499 -0.15988863626524599 0 0.46883398790946867 -0.15427933525052551 0 0.45775861499998499 -0.15988863626524599 0 0.44602216098325331 -0.17699433428909081 0 0.46884065903215838 -0.1654847458984523 0 0.44602216098325331 -0.17699433428909081 0 0.46884065903215838 -0.1654847458984523 0 0.45775861499998499 -0.15988863626524599 0 0.46884065903215838 -0.1654847458984523 0 0.46883398790946867 -0.15427933525052551 0 0.4480743966241818 -0.15212049250964679 0 0.45775861499998499 -0.15988863626524599 0 0.44574193157209341 -0.1630708896879057 0 0.45775861499998499 -0.15988863626524599 0 0.44574193157209341 -0.1630708896879057 0 0.44602216098325331 -0.17699433428909081 0 0.43733781267151012 -0.16961887774133011 0 0.44574193157209341 -0.1630708896879057 0 0.43818976378004759 -0.15785138123070411 0 0.4480743966241818 -0.15212049250964679 0 0.44574193157209341 -0.1630708896879057 0 0.43818976378004759 -0.15785138123070411 0 0.43733781267151012 -0.16961887774133011 0 0.44574193157209341 -0.1630708896879057 0 0.44602216098325331 -0.17699433428909081 0 0.44602216098325331 -0.17699433428909081 0 0.46884065903215838 -0.1654847458984523 0 0.46885763486945148 -0.19399887116474221 0 0.46884065903215838 -0.1654847458984523 0 0.46885763486945148 -0.19399887116474221 0 0.48305470035329612 -0.17874763212780109 0 0.46884065903215838 -0.1654847458984523 0 0.46885763486945148 -0.19399887116474221 0 0.48305470035329612 -0.17874763212780109 0 0.49078371747940969 -0.16776643360756979 0 0.5 -0.18780250918215721 0 0.49078371747940969 -0.16776643360756979 0 0.48237367878991377 -0.1586587275180954 0 0.49590669854766739 -0.15183270913773461 0 0.5 -0.15947552307423671 0 0.49078371747940969 -0.16776643360756979 0 0.5 -0.18780250918215721 0 0.48305470035329612 -0.17874763212780109 0 0.49078371747940969 -0.16776643360756979 0 0.48237367878991377 -0.1586587275180954 0 0.5 -0.15947552307423671 0 0.49078371747940969 -0.16776643360756979 0 0.49590669854766739 -0.15183270913773461 0 0.48305470035329612 -0.17874763212780109 0 0.48237367878991377 -0.1586587275180954 0 0.46884065903215838 -0.1654847458984523 0 0.48237367878991377 -0.1586587275180954 0 0.46884065903215838 -0.1654847458984523 0 0.46884065903215838 -0.1654847458984523 0 0.46883398790946867 -0.15427933525052551 0 0.48237367878991377 -0.1586587275180954 0 0.46884065903215838 -0.1654847458984523 0 0.46883398790946867 -0.15427933525052551 0 0.48237367878991377 -0.1586587275180954 0 0.46883398790946867 -0.15427933525052551 0 0.476781412249627 -0.14749246275887071 0 0.46802084519818549 -0.14138029326978421 0 0.46883398790946867 -0.15427933525052551 0 0.476781412249627 -0.14749246275887071 0 0.46802084519818549 -0.14138029326978421 0 0.476781412249627 -0.14749246275887071 0 0.48074676348269629 -0.13658306763720041 0 0.476781412249627 -0.14749246275887071 0 0.48703251362413652 -0.14519981237624771 0 0.48074676348269629 -0.13658306763720041 0 0.48237367878991377 -0.1586587275180954 0 0.476781412249627 -0.14749246275887071 0 0.48703251362413652 -0.14519981237624771 0 0.5 -0.15947552307423671 0 0.49590669854766739 -0.15183270913773461 0 0.5 -0.13114853696631629 0 0.49590669854766739 -0.15183270913773461 0 0.48703251362413652 -0.14519981237624771 0 0.5 -0.13114853696631629 0 0.48237367878991377 -0.1586587275180954 0 0.49590669854766739 -0.15183270913773461 0 0.48703251362413652 -0.14519981237624771 0 0.48237367878991377 -0.1586587275180954 0 0.49590669854766739 -0.15183270913773461 0 0.48703251362413652 -0.14519981237624771 0 0.5 -0.13114853696631629 0 0.48074676348269629 -0.13658306763720041 0 0.48119395052623348 -0.12409287947154329 0 0.5 -0.13114853696631629 0 0.48074676348269629 -0.13658306763720041 0 0.48119395052623348 -0.12409287947154329 0 0.48074676348269629 -0.13658306763720041 0 0.46927091164766771 -0.12876981279759611 0 0.46802084519818549 -0.14138029326978421 0 0.48074676348269629 -0.13658306763720041 0 0.46927091164766771 -0.12876981279759611 0 0.44929739468324431 -0.22953212779110579 0 0.46887461070674652 -0.22251299643103239 0 0.46889158654403867 -0.25102712169732239 0 0.44929739468324431 -0.22953212779110579 0 0.45137538777565861 -0.20955923697755521 0 0.46887461070674652 -0.22251299643103239 0 0.4463625531759885 -0.2455109887519985 0 0.44929739468324431 -0.22953212779110579 0 0.46889158654403867 -0.25102712169732239 0 0.44929739468324431 -0.22953212779110579 0 0.46889158654403867 -0.25102712169732239 0 0.4463625531759885 -0.2455109887519985 0 0.43866794828708772 -0.2369638640554059 0 0.44929739468324431 -0.22953212779110579 0 0.4290680870215603 -0.24378797682374939 0 0.4463625531759885 -0.2455109887519985 0 0.43866794828708772 -0.2369638640554059 0 0.42994375826755771 -0.2290243628547701 0 0.43866794828708772 -0.2369638640554059 0 0.44929739468324431 -0.22953212779110579 0 0.42970320282245139 -0.2080371338848877 0 0.44929739468324431 -0.22953212779110579 0 0.42970320282245139 -0.2080371338848877 0 0.45137538777565861 -0.20955923697755521 0 0.4427786058539942 -0.19493194431828831 0 0.42970320282245139 -0.2080371338848877 0 0.44929739468324431 -0.22953212779110579 0 0.45137538777565861 -0.20955923697755521 0 0.44602216098325331 -0.17699433428909081 0 0.4427786058539942 -0.19493194431828831 0 0.46885763486945148 -0.19399887116474221 0 0.45137538777565861 -0.20955923697755521 0 0.4427786058539942 -0.19493194431828831 0 0.46885763486945148 -0.19399887116474221 0 0.45137538777565861 -0.20955923697755521 0 0.46885763486945148 -0.19399887116474221 0 0.46887461070674652 -0.22251299643103239 0 0.48259649494500539 -0.2076608290295642 0 0.46885763486945148 -0.19399887116474221 0 0.46887461070674652 -0.22251299643103239 0 0.46885763486945148 -0.19399887116474221 0 0.46887461070674652 -0.22251299643103239 0 0.48305470035329612 -0.17874763212780109 0 0.48259649494500539 -0.2076608290295642 0 0.46885763486945148 -0.19399887116474221 0 0.48305470035329612 -0.17874763212780109 0 0.48259649494500539 -0.2076608290295642 0 0.5 -0.18780250918215721 0 0.48259649494500539 -0.2076608290295642 0 0.5 -0.18780250918215721 0 0.5 -0.21612949529007769 0 0.5 -0.21612949529007769 0 0.48212670425717569 -0.2367621745054814 0 0.5 -0.24445648139799819 0 0.48259649494500539 -0.2076608290295642 0 0.5 -0.21612949529007769 0 0.48212670425717569 -0.2367621745054814 0 0.48259649494500539 -0.2076608290295642 0 0.46887461070674652 -0.22251299643103239 0 0.48212670425717569 -0.2367621745054814 0 0.46887461070674652 -0.22251299643103239 0 0.46889158654403867 -0.25102712169732239 0 0.48212670425717569 -0.2367621745054814 0 0.48600015045998579 -0.25342522836543802 0 0.46889158654403867 -0.25102712169732239 0 0.46887461070674652 -0.22251299643103239 0 0.48212670425717569 -0.2367621745054814 0 0.46889158654403867 -0.25102712169732239 0 0.48212670425717569 -0.2367621745054814 0 0.5 -0.24445648139799819 0 0.48600015045998579 -0.25342522836543802 0 0.48600015045998579 -0.25342522836543802 0 0.49999999999999828 -0.27278346750591881 0 0.47898246149871893 -0.26209689672046599 0 0.5 -0.24445648139799819 0 0.48600015045998579 -0.25342522836543802 0 0.49999999999999828 -0.27278346750591881 0 0.49999999999999828 -0.27278346750591881 0 0.48949123074936102 -0.2736251053145865 0 0.47898246149871893 -0.26209689672046599 0 0.49999999999999828 -0.27278346750591881 0 0.47898246149871893 -0.26209689672046599 0 0.49999999999999828 -0.27278346750591881 0 0.48949123074936102 -0.2736251053145865 0 0.50000000000000255 -0.28515331390870752 0 0.48949123074936102 -0.2736251053145865 0 0.50000000000000255 -0.28515331390870752 0 0.47817319609703562 -0.27408009432260039 0 0.46889512337184508 -0.25696789205975329 0 0.46891312265238638 -0.28720108357138557 0 0.46889512337184508 -0.25696789205975329 0 0.46891312265238638 -0.28720108357138557 0 0.48949123074936102 -0.2736251053145865 0 0.47817319609703562 -0.27408009432260039 0 0.48458404221286561 -0.29050949394680992 0 0.48949123074936102 -0.2736251053145865 0 0.47817319609703562 -0.27408009432260039 0 0.47898246149871893 -0.26209689672046599 0 0.48949123074936102 -0.2736251053145865 0 0.47898246149871893 -0.26209689672046599 0 0.47817319609703562 -0.27408009432260039 0 0.47898246149871893 -0.26209689672046599 0 0.46889512337184508 -0.25696789205975329 0 0.48600015045998579 -0.25342522836543802 0 0.47898246149871893 -0.26209689672046599 0 0.46889158654403867 -0.25102712169732239 0 0.47898246149871893 -0.26209689672046599 0 0.46889512337184508 -0.25696789205975329 0 0.47898246149871893 -0.26209689672046599 0 0.46889158654403867 -0.25102712169732239 0 0.47898246149871893 -0.26209689672046599 0 0.46889512337184508 -0.25696789205975329 0 0.46889158654403867 -0.25102712169732239 0 0.46889512337184508 -0.25696789205975329 0 0.46889158654403867 -0.25102712169732239 0 0.4463625531759885 -0.2455109887519985 0 0.46889512337184508 -0.25696789205975329 0 0.45161664780153532 -0.26306376153444161 0 0.4463625531759885 -0.2455109887519985 0 0.46889512337184508 -0.25696789205975329 0 0.4463625531759885 -0.2455109887519985 0 0.46889512337184508 -0.25696789205975329 0 0.46889158654403867 -0.25102712169732239 0 0.45161664780153532 -0.26306376153444161 0 0.45054903866606799 -0.28291769669437927 0 0.46891312265238638 -0.28720108357138557 0 0.46889512337184508 -0.25696789205975329 0 0.45161664780153532 -0.26306376153444161 0 0.46891312265238638 -0.28720108357138557 0 0.45161664780153532 -0.26306376153444161 0 0.45054903866606799 -0.28291769669437927 0 0.43574655078816821 -0.27222047292404972 0 0.45054903866606799 -0.28291769669437927 0 0.43574655078816821 -0.27222047292404972 0 0.43580288739465589 -0.2868331236569972 0 0.4463625531759885 -0.2455109887519985 0 0.45161664780153532 -0.26306376153444161 0 0.43353233089863502 -0.25737658527321228 0 0.45161664780153532 -0.26306376153444161 0 0.43353233089863502 -0.25737658527321228 0 0.43574655078816821 -0.27222047292404972 0 0.44694185856936791 -0.2976933815288022 0 0.44290227213755268 -0.3107164352195313 0 0.45572183351271378 -0.30837482099367602 0 0.44694185856936791 -0.2976933815288022 0 0.44290227213755268 -0.3107164352195313 0 0.43523959890112912 -0.2995793313938494 0 0.44694185856936791 -0.2976933815288022 0 0.43580288739465589 -0.2868331236569972 0 0.43523959890112912 -0.2995793313938494 0 0.44694185856936791 -0.2976933815288022 0 0.45054903866606799 -0.28291769669437927 0 0.43580288739465589 -0.2868331236569972 0 0.44694185856936791 -0.2976933815288022 0 0.45054903866606799 -0.28291769669437927 0 0.45849963194599391 -0.29603424846312693 0 0.45054903866606799 -0.28291769669437927 0 0.45849963194599391 -0.29603424846312693 0 0.46891312265238638 -0.28720108357138557 0 0.45849963194599391 -0.29603424846312693 0 0.47037230632943339 -0.30398425952739189 0 0.46891312265238638 -0.28720108357138557 0 0.45849963194599391 -0.29603424846312693 0 0.45572183351271378 -0.30837482099367602 0 0.47037230632943339 -0.30398425952739189 0 0.44694185856936791 -0.2976933815288022 0 0.45849963194599391 -0.29603424846312693 0 0.45572183351271378 -0.30837482099367602 0 0.45572183351271378 -0.30837482099367602 0 0.47037230632943339 -0.30398425952739189 0 0.46247083573787101 -0.31880176827870582 0 0.47037230632943339 -0.30398425952739189 0 0.48458404221286561 -0.29050949394680992 0 0.4844417373945451 -0.30649176370915071 0 0.47037230632943339 -0.30398425952739189 0 0.4844417373945451 -0.30649176370915071 0 0.47489084000400478 -0.31891904892152739 0 0.47037230632943339 -0.30398425952739189 0 0.46891312265238638 -0.28720108357138557 0 0.48458404221286561 -0.29050949394680992 0 0.47817319609703562 -0.27408009432260039 0 0.46891312265238638 -0.28720108357138557 0 0.48458404221286561 -0.29050949394680992 0 0.48458404221286561 -0.29050949394680992 0 0.50000000000000255 -0.28515331390870752 0 0.5 -0.30459504986302299 0 0.48949123074936102 -0.2736251053145865 0 0.48458404221286561 -0.29050949394680992 0 0.50000000000000255 -0.28515331390870752 0 0.48458404221286561 -0.29050949394680992 0 0.4844417373945451 -0.30649176370915071 0 0.5 -0.30459504986302299 0 0.4844417373945451 -0.30649176370915071 0 0.5 -0.30459504986302299 0 0.48706588412395851 -0.31760511509500577 0 0.49999999999999739 -0.32403678581733852 0 0.48706588412395851 -0.31760511509500577 0 0.47181186861310942 -0.32698805959673649 0 0.5 -0.30459504986302299 0 0.49999999999999739 -0.32403678581733852 0 0.48706588412395851 -0.31760511509500577 0 0.49999999999999739 -0.32403678581733852 0 0.47181186861310942 -0.32698805959673649 0 0.49999999999999739 -0.32403678581733852 0 0.48715128205830499 -0.33740695661770259 0 0.5 -0.3507771274180671 0 0.49999999999999739 -0.32403678581733852 0 0.48715128205830499 -0.33740695661770259 0 0.47181186861310942 -0.32698805959673649 0 0.48715128205830499 -0.33740695661770259 0 0.47181186861310942 -0.32698805959673649 0 0.4616468228921462 -0.35362743100465521 0 0.47181186861310942 -0.32698805959673649 0 0.47489084000400478 -0.31891904892152739 0 0.47181186861310942 -0.32698805959673649 0 0.47489084000400478 -0.31891904892152739 0 0.46247083573787101 -0.31880176827870582 0 0.47037230632943339 -0.30398425952739189 0 0.47489084000400478 -0.31891904892152739 0 0.46247083573787101 -0.31880176827870582 0 0.4844417373945451 -0.30649176370915071 0 0.48706588412395851 -0.31760511509500577 0 0.47489084000400478 -0.31891904892152739 0 0.48706588412395851 -0.31760511509500577 0 0.47181186861310942 -0.32698805959673649 0 0.47489084000400478 -0.31891904892152739 0 0.5 -0.3507771274180671 0 0.4842506978655805 -0.3589958034093696 0 0.5 -0.37751746901879579 0 0.4842506978655805 -0.3589958034093696 0 0.5 -0.37751746901879579 0 0.47245538437745122 -0.37565003298762722 0 0.48715128205830499 -0.33740695661770259 0 0.5 -0.3507771274180671 0 0.4842506978655805 -0.3589958034093696 0 0.48715128205830499 -0.33740695661770259 0 0.4842506978655805 -0.3589958034093696 0 0.4616468228921462 -0.35362743100465521 0 0.4842506978655805 -0.3589958034093696 0 0.4616468228921462 -0.35362743100465521 0 0.47245538437745122 -0.37565003298762722 0 0.4616468228921462 -0.35362743100465521 0 0.45148177717118348 -0.38026680241257421 0 0.4616468228921462 -0.35362743100465521 0 0.47245538437745122 -0.37565003298762722 0 0.45148177717118348 -0.38026680241257421 0 0.4616468228921462 -0.35362743100465521 0 0.43906407518597468 -0.35372198420295647 0 0.44943794415958749 -0.32933059077326932 0 0.4616468228921462 -0.35362743100465521 0 0.43906407518597468 -0.35372198420295647 0 0.44280863015546479 -0.36717610823048819 0 0.4616468228921462 -0.35362743100465521 0 0.44280863015546479 -0.36717610823048819 0 0.45148177717118348 -0.38026680241257421 0 0.44280863015546479 -0.36717610823048819 0 0.43151829265123448 -0.37293348415709321 0 0.45148177717118348 -0.38026680241257421 0 0.43906407518597468 -0.35372198420295647 0 0.44280863015546479 -0.36717610823048819 0 0.43151829265123448 -0.37293348415709321 0 0.47181186861310942 -0.32698805959673649 0 0.46247083573787101 -0.31880176827870582 0 0.44943794415958749 -0.32933059077326932 0 0.45572183351271378 -0.30837482099367602 0 0.46247083573787101 -0.31880176827870582 0 0.44943794415958749 -0.32933059077326932 0 0.47181186861310942 -0.32698805959673649 0 0.4616468228921462 -0.35362743100465521 0 0.47181186861310942 -0.32698805959673649 0 0.44943794415958749 -0.32933059077326932 0 0.47181186861310942 -0.32698805959673649 0 0.4616468228921462 -0.35362743100465521 0 0.44943794415958749 -0.32933059077326932 0 0.44943794415958749 -0.32933059077326932 0 0.42706401970606528 -0.33167312194980081 0 0.43906407518597468 -0.35372198420295647 0 0.44943794415958749 -0.32933059077326932 0 0.43025940183778499 -0.34324531579301881 0 0.44290227213755268 -0.3107164352195313 0 0.45572183351271378 -0.30837482099367602 0 0.44943794415958749 -0.32933059077326932 0 0.44290227213755268 -0.3107164352195313 0 0.44943794415958749 -0.32933059077326932 0 0.4354483796004992 -0.32137936295326608 0 0.44290227213755268 -0.3107164352195313 0 0.43087826017586062 -0.31279404030695618 0 0.4354483796004992 -0.32137936295326608 0 0.43087826017586062 -0.31279404030695618 0 0.42695940182342967 -0.32238262651677302 0 0.4354483796004992 -0.32137936295326608 0 0.44943794415958749 -0.32933059077326932 0 0.4354483796004992 -0.32137936295326608 0 0.42706401970606528 -0.33167312194980081 0 0.43087826017586062 -0.31279404030695618 0 0.42695940182342967 -0.32238262651677302 0 0.41827676390396717 -0.31525786092548452 0 0.42695940182342967 -0.32238262651677302 0 0.42706401970606528 -0.33167312194980081 0 0.41985301004175968 -0.32815666903158691 0 0.42695940182342967 -0.32238262651677302 0 0.4354483796004992 -0.32137936295326608 0 0.42706401970606528 -0.33167312194980081 0 0.44943794415958749 -0.32933059077326932 0 0.43025940183778499 -0.34324531579301881 0 0.42706401970606528 -0.33167312194980081 0 0.43025940183778499 -0.34324531579301881 0 0.42706401970606528 -0.33167312194980081 0 0.41454008414827592 -0.33865226556897993 0 0.42706401970606528 -0.33167312194980081 0 0.41985301004175968 -0.32815666903158691 0 0.41454008414827592 -0.33865226556897993 0 0.41985301004175968 -0.32815666903158691 0 0.41454008414827592 -0.33865226556897993 0 0.39044459460368219 -0.33140357317753222 0 0.41985301004175968 -0.32815666903158691 0 0.41827676390396717 -0.31525786092548452 0 0.40514281817981962 -0.31562506615190711 0 0.42695940182342967 -0.32238262651677302 0 0.41985301004175968 -0.32815666903158691 0 0.41827676390396717 -0.31525786092548452 0 0.43906407518597468 -0.35372198420295647 0 0.43151829265123448 -0.37293348415709321 0 0.42366218695881253 -0.35862179261573629 0 0.43151829265123448 -0.37293348415709321 0 0.42366218695881253 -0.35862179261573629 0 0.4170336660752953 -0.37144998882358832 0 0.43906407518597468 -0.35372198420295647 0 0.43025940183778499 -0.34324531579301881 0 0.42366218695881253 -0.35862179261573629 0 0.43025940183778499 -0.34324531579301881 0 0.42366218695881253 -0.35862179261573629 0 0.41695843949203731 -0.34939474985740038 0 0.43025940183778499 -0.34324531579301881 0 0.41454008414827592 -0.33865226556897993 0 0.41695843949203731 -0.34939474985740038 0 0.41454008414827592 -0.33865226556897993 0 0.41695843949203731 -0.34939474985740038 0 0.40281320436120532 -0.34957357088815488 0 0.41695843949203731 -0.34939474985740038 0 0.4092751426138076 -0.36089686873501381 0 0.40281320436120532 -0.34957357088815488 0 0.42366218695881253 -0.35862179261573629 0 0.41695843949203731 -0.34939474985740038 0 0.4092751426138076 -0.36089686873501381 0 0.4092751426138076 -0.36089686873501381 0 0.4170336660752953 -0.37144998882358832 0 0.40321592596005817 -0.37796095501956323 0 0.42366218695881253 -0.35862179261573629 0 0.4092751426138076 -0.36089686873501381 0 0.4170336660752953 -0.37144998882358832 0 0.4092751426138076 -0.36089686873501381 0 0.39759063806939948 -0.36560229080059897 0 0.40321592596005817 -0.37796095501956323 0 0.39759063806939948 -0.36560229080059897 0 0.38522986717313429 -0.3724527578816379 0 0.40321592596005817 -0.37796095501956323 0 0.40281320436120532 -0.34957357088815488 0 0.38851248252336501 -0.35426668758887481 0 0.39044459460368219 -0.33140357317753222 0 0.4092751426138076 -0.36089686873501381 0 0.39759063806939948 -0.36560229080059897 0 0.40281320436120532 -0.34957357088815488 0 0.39759063806939948 -0.36560229080059897 0 0.40281320436120532 -0.34957357088815488 0 0.38851248252336501 -0.35426668758887481 0 0.38851248252336501 -0.35426668758887481 0 0.39044459460368219 -0.33140357317753222 0 0.36970547293014538 -0.35306700271307051 0 0.38851248252336501 -0.35426668758887481 0 0.38522986717313429 -0.3724527578816379 0 0.36970547293014538 -0.35306700271307051 0 0.39759063806939948 -0.36560229080059897 0 0.38851248252336501 -0.35426668758887481 0 0.38522986717313429 -0.3724527578816379 0 0.41985301004175968 -0.32815666903158691 0 0.40514281817981962 -0.31562506615190711 0 0.39044459460368219 -0.33140357317753222 0 0.40514281817981962 -0.31562506615190711 0 0.39044459460368219 -0.33140357317753222 0 0.39027170780884818 -0.31338453970657087 0 0.41985301004175968 -0.32815666903158691 0 0.39044459460368219 -0.33140357317753222 0 0.41454008414827592 -0.33865226556897993 0 0.40281320436120532 -0.34957357088815488 0 0.39044459460368219 -0.33140357317753222 0 0.39044459460368219 -0.33140357317753222 0 0.36103617916560471 -0.33465047732347741 0 0.39044459460368219 -0.33140357317753222 0 0.39027170780884818 -0.31338453970657087 0 0.37148926485584349 -0.31542902237567061 0 0.39027170780884818 -0.31338453970657087 0 0.38317160961891461 -0.30267347620165258 0 0.37148926485584349 -0.31542902237567061 0 0.38317160961891461 -0.30267347620165258 0 0.37199997248884548 -0.29419339268505029 0 0.37148926485584349 -0.31542902237567061 0 0.39027170780884818 -0.31338453970657087 0 0.38317160961891461 -0.30267347620165258 0 0.39866201539497831 -0.30264453409552278 0 0.40514281817981962 -0.31562506615190711 0 0.39027170780884818 -0.31338453970657087 0 0.39866201539497831 -0.30264453409552278 0 0.38317160961891461 -0.30267347620165258 0 0.39866201539497831 -0.30264453409552278 0 0.391191317532809 -0.29078302507132392 0 0.39866201539497831 -0.30264453409552278 0 0.41162933571218813 -0.30406515943790929 0 0.40643854764490561 -0.29212459271536723 0 0.40514281817981962 -0.31562506615190711 0 0.39866201539497831 -0.30264453409552278 0 0.41162933571218813 -0.30406515943790929 0 0.40026393516093678 -0.28403407688630411 0 0.391191317532809 -0.29078302507132392 0 0.3944158034366792 -0.27499606809427168 0 0.40026393516093678 -0.28403407688630411 0 0.409604128538399 -0.27929476450541613 0 0.40643854764490561 -0.29212459271536723 0 0.40026393516093678 -0.28403407688630411 0 0.391191317532809 -0.29078302507132392 0 0.40643854764490561 -0.29212459271536723 0 0.39866201539497831 -0.30264453409552278 0 0.391191317532809 -0.29078302507132392 0 0.40643854764490561 -0.29212459271536723 0 0.391191317532809 -0.29078302507132392 0 0.37739707299693331 -0.2793942577831206 0 0.3944158034366792 -0.27499606809427168 0 0.38317160961891461 -0.30267347620165258 0 0.391191317532809 -0.29078302507132392 0 0.37199997248884548 -0.29419339268505029 0 0.391191317532809 -0.29078302507132392 0 0.37739707299693331 -0.2793942577831206 0 0.37199997248884548 -0.29419339268505029 0 0.37739707299693331 -0.2793942577831206 0 0.38296106347013209 -0.26716732787771252 0 0.3670365317362248 -0.26724104531623011 0 0.37739707299693331 -0.2793942577831206 0 0.38296106347013209 -0.26716732787771252 0 0.3944158034366792 -0.27499606809427168 0 0.38296106347013209 -0.26716732787771252 0 0.3932113508824297 -0.25912047788175979 0 0.3944158034366792 -0.27499606809427168 0 0.38296106347013209 -0.26716732787771252 0 0.38042246715736172 -0.2509321626324551 0 0.3932113508824297 -0.25912047788175979 0 0.38296106347013209 -0.26716732787771252 0 0.38042246715736172 -0.2509321626324551 0 0.3670365317362248 -0.26724104531623011 0 0.40132169558187869 -0.24584169050334639 0 0.38042246715736172 -0.2509321626324551 0 0.3932113508824297 -0.25912047788175979 0 0.40132169558187869 -0.24584169050334639 0 0.3932113508824297 -0.25912047788175979 0 0.40622466660203038 -0.2631065064210647 0 0.40622466660203038 -0.2631065064210647 0 0.3944158034366792 -0.27499606809427168 0 0.409604128538399 -0.27929476450541613 0 0.3932113508824297 -0.25912047788175979 0 0.40622466660203038 -0.2631065064210647 0 0.3944158034366792 -0.27499606809427168 0 0.40026393516093678 -0.28403407688630411 0 0.3944158034366792 -0.27499606809427168 0 0.409604128538399 -0.27929476450541613 0 0.40622466660203038 -0.2631065064210647 0 0.409604128538399 -0.27929476450541613 0 0.42081531771233482 -0.26736517991287329 0 0.409604128538399 -0.27929476450541613 0 0.42081531771233482 -0.26736517991287329 0 0.42282878869492541 -0.27927006893271 0 0.40132169558187869 -0.24584169050334639 0 0.40622466660203038 -0.2631065064210647 0 0.41797970346046098 -0.25202085762872067 0 0.40622466660203038 -0.2631065064210647 0 0.42081531771233482 -0.26736517991287329 0 0.41797970346046098 -0.25202085762872067 0 0.4290680870215603 -0.24378797682374939 0 0.41797970346046098 -0.25202085762872067 0 0.43353233089863502 -0.25737658527321228 0 0.42081531771233482 -0.26736517991287329 0 0.41797970346046098 -0.25202085762872067 0 0.43353233089863502 -0.25737658527321228 0 0.42081531771233482 -0.26736517991287329 0 0.42282878869492541 -0.27927006893271 0 0.43574655078816821 -0.27222047292404972 0 0.42081531771233482 -0.26736517991287329 0 0.43353233089863502 -0.25737658527321228 0 0.43574655078816821 -0.27222047292404972 0 0.42282878869492541 -0.27927006893271 0 0.43574655078816821 -0.27222047292404972 0 0.43580288739465589 -0.2868331236569972 0 0.42282878869492541 -0.27927006893271 0 0.43580288739465589 -0.2868331236569972 0 0.42087923823857071 -0.29152536631222259 0 0.43580288739465589 -0.2868331236569972 0 0.43523959890112912 -0.2995793313938494 0 0.42087923823857071 -0.29152536631222259 0 0.43087826017586062 -0.31279404030695618 0 0.43523959890112912 -0.2995793313938494 0 0.42366271195060051 -0.30444353959562809 0 0.44290227213755268 -0.3107164352195313 0 0.43087826017586062 -0.31279404030695618 0 0.43523959890112912 -0.2995793313938494 0 0.43087826017586062 -0.31279404030695618 0 0.41827676390396717 -0.31525786092548452 0 0.42366271195060051 -0.30444353959562809 0 0.43523959890112912 -0.2995793313938494 0 0.42366271195060051 -0.30444353959562809 0 0.42087923823857071 -0.29152536631222259 0 0.42366271195060051 -0.30444353959562809 0 0.41162933571218813 -0.30406515943790929 0 0.42087923823857071 -0.29152536631222259 0 0.41827676390396717 -0.31525786092548452 0 0.42366271195060051 -0.30444353959562809 0 0.41162933571218813 -0.30406515943790929 0 0.41827676390396717 -0.31525786092548452 0 0.40514281817981962 -0.31562506615190711 0 0.41162933571218813 -0.30406515943790929 0 0.41162933571218813 -0.30406515943790929 0 0.40643854764490561 -0.29212459271536723 0 0.42087923823857071 -0.29152536631222259 0 0.409604128538399 -0.27929476450541613 0 0.40643854764490561 -0.29212459271536723 0 0.42087923823857071 -0.29152536631222259 0 0.409604128538399 -0.27929476450541613 0 0.42282878869492541 -0.27927006893271 0 0.42087923823857071 -0.29152536631222259 0 0.43841263565830269 -0.48513913676128978 0 0.44684923544145472 -0.50000000000000244 0 0.46456615696096992 -0.48591283127366303 0 0.43841263565830269 -0.48513913676128978 0 0.46456615696096992 -0.48591283127366303 0 0.44109461261063831 -0.46472026647219239 0 0.46456615696096992 -0.48591283127366303 0 0.46353624852812642 -0.46089415496105179 0 0.44109461261063831 -0.46472026647219239 0 0.44684923544145472 -0.50000000000000244 0 0.46456615696096992 -0.48591283127366303 0 0.5 -0.5 0 0.48228307848048402 -0.47182566254732222 0 0.49999999999999861 -0.45773849382098197 0 0.44684923544145472 -0.50000000000000244 0 0.46456615696096992 -0.48591283127366303 0 0.5 -0.5 0 0.46456615696096992 -0.48591283127366303 0 0.5 -0.5 0 0.48228307848048402 -0.47182566254732222 0 0.46456615696096992 -0.48591283127366303 0 0.48228307848048402 -0.47182566254732222 0 0.46353624852812642 -0.46089415496105179 0 0.46456615696096992 -0.48591283127366303 0 0.48228307848048402 -0.47182566254732222 0 0.48228307848048402 -0.47182566254732222 0 0.4816873957717831 -0.4528919446080783 0 0.46353624852812642 -0.46089415496105179 0 0.48228307848048402 -0.47182566254732222 0 0.49999999999999861 -0.45773849382098197 0 0.48228307848048402 -0.47182566254732222 0 0.49999999999999861 -0.45773849382098197 0 0.4816873957717831 -0.4528919446080783 0 0.4816873957717831 -0.4528919446080783 0 0.47872815218059273 -0.4334631301022519 0 0.5 -0.43099815222025328 0 0.49999999999999861 -0.45773849382098197 0 0.4816873957717831 -0.4528919446080783 0 0.5 -0.43099815222025328 0 0.4816873957717831 -0.4528919446080783 0 0.46460703976652462 -0.44263141047444998 0 0.46353624852812642 -0.46089415496105179 0 0.4816873957717831 -0.4528919446080783 0 0.46460703976652462 -0.44263141047444998 0 0.47872815218059273 -0.4334631301022519 0 0.46460703976652462 -0.44263141047444998 0 0.44300232321247579 -0.44717171129354588 0 0.45335681917987741 -0.43065673573897723 0 0.46460703976652462 -0.44263141047444998 0 0.46353624852812642 -0.46089415496105179 0 0.44300232321247579 -0.44717171129354588 0 0.46353624852812642 -0.46089415496105179 0 0.44109461261063831 -0.46472026647219239 0 0.44300232321247579 -0.44717171129354588 0 0.44300232321247579 -0.44717171129354588 0 0.45335681917987741 -0.43065673573897723 0 0.43619555136855231 -0.42826771547711567 0 0.45499778024230342 -0.41275047063931891 0 0.45335681917987741 -0.43065673573897723 0 0.43619555136855231 -0.42826771547711567 0 0.45499778024230342 -0.41275047063931891 0 0.43619555136855231 -0.42826771547711567 0 0.44131673145022088 -0.40690617382049321 0 0.45499778024230342 -0.41275047063931891 0 0.43619555136855231 -0.42826771547711567 0 0.45499778024230342 -0.41275047063931891 0 0.4681386014843934 -0.4225463080419336 0 0.47380000911605458 -0.39723322580152193 0 0.46460703976652462 -0.44263141047444998 0 0.4681386014843934 -0.4225463080419336 0 0.45335681917987741 -0.43065673573897723 0 0.45499778024230342 -0.41275047063931891 0 0.4681386014843934 -0.4225463080419336 0 0.45335681917987741 -0.43065673573897723 0 0.46460703976652462 -0.44263141047444998 0 0.4681386014843934 -0.4225463080419336 0 0.47872815218059273 -0.4334631301022519 0 0.4681386014843934 -0.4225463080419336 0 0.47872815218059273 -0.4334631301022519 0 0.48334180842100782 -0.41854287549508168 0 0.47872815218059273 -0.4334631301022519 0 0.5 -0.43099815222025328 0 0.48334180842100782 -0.41854287549508168 0 0.48334180842100782 -0.41854287549508168 0 0.47380000911605458 -0.39723322580152193 0 0.5 -0.40425781061952448 0 0.5 -0.43099815222025328 0 0.48334180842100782 -0.41854287549508168 0 0.5 -0.40425781061952448 0 0.4681386014843934 -0.4225463080419336 0 0.48334180842100782 -0.41854287549508168 0 0.47380000911605458 -0.39723322580152193 0 0.47380000911605458 -0.39723322580152193 0 0.5 -0.40425781061952448 0 0.5 -0.37751746901879579 0 0.47380000911605458 -0.39723322580152193 0 0.5 -0.37751746901879579 0 0.47245538437745122 -0.37565003298762722 0 0.47380000911605458 -0.39723322580152193 0 0.47245538437745122 -0.37565003298762722 0 0.45705683452596291 -0.39609548183266058 0 0.47245538437745122 -0.37565003298762722 0 0.45705683452596291 -0.39609548183266058 0 0.45148177717118348 -0.38026680241257421 0 0.45499778024230342 -0.41275047063931891 0 0.47380000911605458 -0.39723322580152193 0 0.45499778024230342 -0.41275047063931891 0 0.47380000911605458 -0.39723322580152193 0 0.45705683452596291 -0.39609548183266058 0 0.44131673145022088 -0.40690617382049321 0 0.45148177717118348 -0.38026680241257421 0 0.43248817173378767 -0.39042347850849712 0 0.44131673145022088 -0.40690617382049321 0 0.45499778024230342 -0.41275047063931891 0 0.45705683452596291 -0.39609548183266058 0 0.44131673145022088 -0.40690617382049321 0 0.45148177717118348 -0.38026680241257421 0 0.44131673145022088 -0.40690617382049321 0 0.45705683452596291 -0.39609548183266058 0 0.45148177717118348 -0.38026680241257421 0 0.43151829265123448 -0.37293348415709321 0 0.45148177717118348 -0.38026680241257421 0 0.43248817173378767 -0.39042347850849712 0 0.43151829265123448 -0.37293348415709321 0 0.43248817173378767 -0.39042347850849712 0 0.41749678219256348 -0.38683684359053511 0 0.43151829265123448 -0.37293348415709321 0 0.4170336660752953 -0.37144998882358832 0 0.41749678219256348 -0.38683684359053511 0 0.43248817173378767 -0.39042347850849712 0 0.42062727520373622 -0.40517408856178988 0 0.41749678219256348 -0.38683684359053511 0 0.44131673145022088 -0.40690617382049321 0 0.43248817173378767 -0.39042347850849712 0 0.42062727520373622 -0.40517408856178988 0 0.42062727520373622 -0.40517408856178988 0 0.41749678219256348 -0.38683684359053511 0 0.40349653014477638 -0.40080782936869952 0 0.41749678219256348 -0.38683684359053511 0 0.40321592596005817 -0.37796095501956323 0 0.40349653014477638 -0.40080782936869952 0 0.4170336660752953 -0.37144998882358832 0 0.41749678219256348 -0.38683684359053511 0 0.40321592596005817 -0.37796095501956323 0 0.38522986717313429 -0.3724527578816379 0 0.40321592596005817 -0.37796095501956323 0 0.38634166044920659 -0.39642651484631308 0 0.38522986717313429 -0.3724527578816379 0 0.38634166044920659 -0.39642651484631308 0 0.37336233695421739 -0.38512757842983403 0 0.38634166044920659 -0.39642651484631308 0 0.38258855209400489 -0.41623212125570552 0 0.35925924365434181 -0.39837752607005411 0 0.40321592596005817 -0.37796095501956323 0 0.38634166044920659 -0.39642651484631308 0 0.40349653014477638 -0.40080782936869952 0 0.38634166044920659 -0.39642651484631308 0 0.40349653014477638 -0.40080782936869952 0 0.38258855209400489 -0.41623212125570552 0 0.40349653014477638 -0.40080782936869952 0 0.38258855209400489 -0.41623212125570552 0 0.40686740706571811 -0.42126333153850842 0 0.38258855209400489 -0.41623212125570552 0 0.3921282874667778 -0.43822595914413681 0 0.36923644656562388 -0.43521317823629208 0 0.40686740706571811 -0.42126333153850842 0 0.41739332249480121 -0.44378496031491249 0 0.3921282874667778 -0.43822595914413681 0 0.38258855209400489 -0.41623212125570552 0 0.40686740706571811 -0.42126333153850842 0 0.3921282874667778 -0.43822595914413681 0 0.40686740706571811 -0.42126333153850842 0 0.42231268372025149 -0.42200214511499218 0 0.41739332249480121 -0.44378496031491249 0 0.42062727520373622 -0.40517408856178988 0 0.40686740706571811 -0.42126333153850842 0 0.42231268372025149 -0.42200214511499218 0 0.42062727520373622 -0.40517408856178988 0 0.40349653014477638 -0.40080782936869952 0 0.40686740706571811 -0.42126333153850842 0 0.44131673145022088 -0.40690617382049321 0 0.43619555136855231 -0.42826771547711567 0 0.42231268372025149 -0.42200214511499218 0 0.44131673145022088 -0.40690617382049321 0 0.42062727520373622 -0.40517408856178988 0 0.42231268372025149 -0.42200214511499218 0 0.43619555136855231 -0.42826771547711567 0 0.42231268372025149 -0.42200214511499218 0 0.41739332249480121 -0.44378496031491249 0 0.43619555136855231 -0.42826771547711567 0 0.41739332249480121 -0.44378496031491249 0 0.44300232321247579 -0.44717171129354588 0 0.42483266853881102 -0.45924673561612162 0 0.41739332249480121 -0.44378496031491249 0 0.44300232321247579 -0.44717171129354588 0 0.43619555136855231 -0.42826771547711567 0 0.41739332249480121 -0.44378496031491249 0 0.44109461261063831 -0.46472026647219239 0 0.42483266853881102 -0.45924673561612162 0 0.41817915520029542 -0.47506258606058988 0 0.44109461261063831 -0.46472026647219239 0 0.44300232321247579 -0.44717171129354588 0 0.42483266853881102 -0.45924673561612162 0 0.42483266853881102 -0.45924673561612162 0 0.41739332249480121 -0.44378496031491249 0 0.39859109362105011 -0.45930220515270931 0 0.42483266853881102 -0.45924673561612162 0 0.39859109362105011 -0.45930220515270931 0 0.41817915520029542 -0.47506258606058988 0 0.41739332249480121 -0.44378496031491249 0 0.39859109362105011 -0.45930220515270931 0 0.41739332249480121 -0.44378496031491249 0 0.3921282874667778 -0.43822595914413681 0 0.39859109362105011 -0.45930220515270931 0 0.3921282874667778 -0.43822595914413681 0 0.37635885623235538 -0.45702513233815539 0 0.39859109362105011 -0.45930220515270931 0 0.3921282874667778 -0.43822595914413681 0 0.37635885623235538 -0.45702513233815539 0 0.36923644656562388 -0.43521317823629208 0 0.37635885623235538 -0.45702513233815539 0 0.39859109362105011 -0.45930220515270931 0 0.38093842062591821 -0.47959035780411707 0 0.39859109362105011 -0.45930220515270931 0 0.40128841183294212 -0.4823934446527493 0 0.41817915520029542 -0.47506258606058988 0 0.39859109362105011 -0.45930220515270931 0 0.40128841183294212 -0.4823934446527493 0 0.38093842062591821 -0.47959035780411707 0 0.38093842062591821 -0.47959035780411707 0 0.39589880071485239 -0.5 0 0.37042358335155101 -0.5 0 0.40128841183294212 -0.4823934446527493 0 0.38093842062591821 -0.47959035780411707 0 0.39589880071485239 -0.5 0 0.40128841183294212 -0.4823934446527493 0 0.39589880071485239 -0.5 0 0.42137401807815361 -0.5 0 0.40128841183294212 -0.4823934446527493 0 0.42137401807815361 -0.5 0 0.41817915520029542 -0.47506258606058988 0 0.43841263565830269 -0.48513913676128978 0 0.44109461261063831 -0.46472026647219239 0 0.41817915520029542 -0.47506258606058988 0 0.43841263565830269 -0.48513913676128978 0 0.44684923544145472 -0.50000000000000244 0 0.42137401807815361 -0.5 0 0.43841263565830269 -0.48513913676128978 0 0.42137401807815361 -0.5 0 0.41817915520029542 -0.47506258606058988 0 0.32622458056751952 -0.49219413110158861 0 0.30900869410147058 -0.48501689905666789 0 0.31092988131424909 -0.50000000000000155 0 0.32622458056751952 -0.49219413110158861 0 0.30900869410147058 -0.48501689905666789 0 0.32622458056751952 -0.49219413110158861 0 0.3254099479737802 -0.49992254082125342 0 0.31092988131424909 -0.50000000000000155 0 0.32622458056751952 -0.49219413110158861 0 0.3254099479737802 -0.49992254082125342 0 0.32622458056751952 -0.49219413110158861 0 0.31538793135946758 -0.47512474493946127 0 0.32889269575763508 -0.46688175405337867 0 0.32622458056751952 -0.49219413110158861 0 0.32889269575763508 -0.46688175405337867 0 0.32622458056751952 -0.49219413110158861 0 0.31538793135946758 -0.47512474493946127 0 0.30900869410147058 -0.48501689905666789 0 0.32622458056751952 -0.49219413110158861 0 0.33783725083873528 -0.4817347642354981 0 0.32889269575763508 -0.46688175405337867 0 0.33783725083873528 -0.4817347642354981 0 0.34417086228937011 -0.46939264926890628 0 0.32889269575763508 -0.46688175405337867 0 0.32622458056751952 -0.49219413110158861 0 0.3254099479737802 -0.49992254082125342 0 0.34494836598824968 -0.49999999999999911 0 0.32622458056751952 -0.49219413110158861 0 0.33783725083873528 -0.4817347642354981 0 0.34494836598824968 -0.49999999999999911 0 0.32622458056751952 -0.49219413110158861 0 0.34494836598824968 -0.49999999999999911 0 0.34494836598824968 -0.49999999999999911 0 0.3627776254280195 -0.48637780103315681 0 0.34971121049364018 -0.48168065089020018 0 0.33783725083873528 -0.4817347642354981 0 0.34494836598824968 -0.49999999999999911 0 0.34971121049364018 -0.48168065089020018 0 0.34494836598824968 -0.49999999999999911 0 0.37042358335155101 -0.5 0 0.3627776254280195 -0.48637780103315681 0 0.38093842062591821 -0.47959035780411707 0 0.37042358335155101 -0.5 0 0.3627776254280195 -0.48637780103315681 0 0.38093842062591821 -0.47959035780411707 0 0.3627776254280195 -0.48637780103315681 0 0.35944902882110508 -0.47190354448443389 0 0.37635885623235538 -0.45702513233815539 0 0.38093842062591821 -0.47959035780411707 0 0.35944902882110508 -0.47190354448443389 0 0.35944902882110508 -0.47190354448443389 0 0.34417086228937011 -0.46939264926890628 0 0.3627776254280195 -0.48637780103315681 0 0.35944902882110508 -0.47190354448443389 0 0.34971121049364018 -0.48168065089020018 0 0.33783725083873528 -0.4817347642354981 0 0.34971121049364018 -0.48168065089020018 0 0.34417086228937011 -0.46939264926890628 0 0.35944902882110508 -0.47190354448443389 0 0.34971121049364018 -0.48168065089020018 0 0.34417086228937011 -0.46939264926890628 0 0.35944902882110508 -0.47190354448443389 0 0.34417086228937011 -0.46939264926890628 0 0.35625961159110242 -0.45341436510020899 0 0.34417086228937011 -0.46939264926890628 0 0.35625961159110242 -0.45341436510020899 0 0.34204267528187288 -0.45286834674449161 0 0.37635885623235538 -0.45702513233815539 0 0.35944902882110508 -0.47190354448443389 0 0.35625961159110242 -0.45341436510020899 0 0.37635885623235538 -0.45702513233815539 0 0.35625961159110242 -0.45341436510020899 0 0.36923644656562388 -0.43521317823629208 0 0.35625961159110242 -0.45341436510020899 0 0.34204267528187288 -0.45286834674449161 0 0.34923392573876938 -0.43398931185222428 0 0.35625961159110242 -0.45341436510020899 0 0.34923392573876938 -0.43398931185222428 0 0.36923644656562388 -0.43521317823629208 0 0.33165628103248768 -0.44066365344773928 0 0.34204267528187288 -0.45286834674449161 0 0.34923392573876938 -0.43398931185222428 0 0.33165628103248768 -0.44066365344773928 0 0.34204267528187288 -0.45286834674449161 0 0.32889269575763508 -0.46688175405337867 0 0.33165628103248768 -0.44066365344773928 0 0.32889269575763508 -0.46688175405337867 0 0.34417086228937011 -0.46939264926890628 0 0.34204267528187288 -0.45286834674449161 0 0.32889269575763508 -0.46688175405337867 0 0.34417086228937011 -0.46939264926890628 0 0.32889269575763508 -0.46688175405337867 0 0.32889269575763508 -0.46688175405337867 0 0.31551754395841403 -0.44873274557316289 0 0.29975856127064748 -0.462093695306934 0 0.32889269575763508 -0.46688175405337867 0 0.29975856127064748 -0.462093695306934 0 0.31538793135946758 -0.47512474493946127 0 0.32889269575763508 -0.46688175405337867 0 0.29975856127064748 -0.462093695306934 0 0.33165628103248768 -0.44066365344773928 0 0.32889269575763508 -0.46688175405337867 0 0.31551754395841403 -0.44873274557316289 0 0.33165628103248768 -0.44066365344773928 0 0.31551754395841403 -0.44873274557316289 0 0.31499124132335532 -0.42254248584164672 0 0.33165628103248768 -0.44066365344773928 0 0.31499124132335532 -0.42254248584164672 0 0.33441986630733922 -0.41444555284209977 0 0.31499124132335532 -0.42254248584164672 0 0.33441986630733922 -0.41444555284209977 0 0.31705577306289873 -0.39909441545144558 0 0.33165628103248768 -0.44066365344773928 0 0.33441986630733922 -0.41444555284209977 0 0.33165628103248768 -0.44066365344773928 0 0.33441986630733922 -0.41444555284209977 0 0.34923392573876938 -0.43398931185222428 0 0.33441986630733922 -0.41444555284209977 0 0.34923392573876938 -0.43398931185222428 0 0.36015018411318073 -0.41907621910936033 0 0.34923392573876938 -0.43398931185222428 0 0.36923644656562388 -0.43521317823629208 0 0.36015018411318073 -0.41907621910936033 0 0.38258855209400489 -0.41623212125570552 0 0.36923644656562388 -0.43521317823629208 0 0.36015018411318073 -0.41907621910936033 0 0.38258855209400489 -0.41623212125570552 0 0.36015018411318073 -0.41907621910936033 0 0.35925924365434181 -0.39837752607005411 0 0.33441986630733922 -0.41444555284209977 0 0.36015018411318073 -0.41907621910936033 0 0.35925924365434181 -0.39837752607005411 0 0.38634166044920659 -0.39642651484631308 0 0.35925924365434181 -0.39837752607005411 0 0.37336233695421739 -0.38512757842983403 0 0.35925924365434181 -0.39837752607005411 0 0.37336233695421739 -0.38512757842983403 0 0.36265532084701252 -0.37269019154064431 0 0.38522986717313429 -0.3724527578816379 0 0.37336233695421739 -0.38512757842983403 0 0.36265532084701252 -0.37269019154064431 0 0.35925924365434181 -0.39837752607005411 0 0.36265532084701252 -0.37269019154064431 0 0.34220561371288472 -0.37199520232022709 0 0.35925924365434181 -0.39837752607005411 0 0.33740500574829102 -0.39314077532295111 0 0.34220561371288472 -0.37199520232022709 0 0.33740500574829102 -0.39314077532295111 0 0.32155828617277532 -0.37923279847128338 0 0.34220561371288472 -0.37199520232022709 0 0.33441986630733922 -0.41444555284209977 0 0.35925924365434181 -0.39837752607005411 0 0.33740500574829102 -0.39314077532295111 0 0.33441986630733922 -0.41444555284209977 0 0.33740500574829102 -0.39314077532295111 0 0.31705577306289873 -0.39909441545144558 0 0.31705577306289873 -0.39909441545144558 0 0.32155828617277532 -0.37923279847128338 0 0.30195491510233319 -0.38572691749899052 0 0.33740500574829102 -0.39314077532295111 0 0.31705577306289873 -0.39909441545144558 0 0.32155828617277532 -0.37923279847128338 0 0.32155828617277532 -0.37923279847128338 0 0.30195491510233319 -0.38572691749899052 0 0.30380832212093029 -0.36787220397075843 0 0.30195491510233319 -0.38572691749899052 0 0.28953541472479288 -0.37536450083403361 0 0.30380832212093029 -0.36787220397075843 0 0.31705577306289873 -0.39909441545144558 0 0.30195491510233319 -0.38572691749899052 0 0.29459430275830251 -0.40257209323896548 0 0.29459430275830251 -0.40257209323896548 0 0.27109161641447832 -0.39556704776790858 0 0.29459430275830251 -0.40257209323896548 0 0.28673553876942021 -0.38714381263954828 0 0.27109161641447832 -0.39556704776790858 0 0.30195491510233319 -0.38572691749899052 0 0.29459430275830251 -0.40257209323896548 0 0.28673553876942021 -0.38714381263954828 0 0.30195491510233319 -0.38572691749899052 0 0.28673553876942021 -0.38714381263954828 0 0.28953541472479288 -0.37536450083403361 0 0.28673553876942021 -0.38714381263954828 0 0.28953541472479288 -0.37536450083403361 0 0.27650144484719419 -0.37648850385784338 0 0.27650144484719419 -0.37648850385784338 0 0.26072890620209388 -0.37735332967840601 0 0.27109161641447832 -0.39556704776790858 0 0.28673553876942021 -0.38714381263954828 0 0.27650144484719419 -0.37648850385784338 0 0.27109161641447832 -0.39556704776790858 0 0.26072890620209388 -0.37735332967840601 0 0.27109161641447832 -0.39556704776790858 0 0.247588930070654 -0.38856200229685162 0 0.27109161641447832 -0.39556704776790858 0 0.247588930070654 -0.38856200229685162 0 0.27109161641447832 -0.39556704776790858 0 0.25830845723407642 -0.40692736577303767 0 0.247588930070654 -0.38856200229685162 0 0.29459430275830251 -0.40257209323896548 0 0.27109161641447832 -0.39556704776790858 0 0.27644556399741382 -0.40958164536603281 0 0.27109161641447832 -0.39556704776790858 0 0.27644556399741382 -0.40958164536603281 0 0.25830845723407642 -0.40692736577303767 0 0.27644556399741382 -0.40958164536603281 0 0.25830845723407642 -0.40692736577303767 0 0.26408180360421041 -0.42038079669865358 0 0.27644556399741382 -0.40958164536603281 0 0.26408180360421041 -0.42038079669865358 0 0.2810027042760741 -0.42486815658811578 0 0.25830845723407642 -0.40692736577303767 0 0.26408180360421041 -0.42038079669865358 0 0.24906811247889871 -0.42018394575197571 0 0.26408180360421041 -0.42038079669865358 0 0.2551075473088158 -0.43171633652827451 0 0.26833939302840598 -0.43843249540782181 0 0.26408180360421041 -0.42038079669865358 0 0.2551075473088158 -0.43171633652827451 0 0.24906811247889871 -0.42018394575197571 0 0.2810027042760741 -0.42486815658811578 0 0.28477754330372401 -0.44530198736224402 0 0.26833939302840598 -0.43843249540782181 0 0.26408180360421041 -0.42038079669865358 0 0.2810027042760741 -0.42486815658811578 0 0.26833939302840598 -0.43843249540782181 0 0.31499124132335532 -0.42254248584164672 0 0.29459430275830251 -0.40257209323896548 0 0.29839785311940298 -0.43434655689330193 0 0.29459430275830251 -0.40257209323896548 0 0.2810027042760741 -0.42486815658811578 0 0.29839785311940298 -0.43434655689330193 0 0.2810027042760741 -0.42486815658811578 0 0.29839785311940298 -0.43434655689330193 0 0.28477754330372401 -0.44530198736224402 0 0.29459430275830251 -0.40257209323896548 0 0.27644556399741382 -0.40958164536603281 0 0.2810027042760741 -0.42486815658811578 0 0.31499124132335532 -0.42254248584164672 0 0.31705577306289873 -0.39909441545144558 0 0.29459430275830251 -0.40257209323896548 0 0.31551754395841403 -0.44873274557316289 0 0.31499124132335532 -0.42254248584164672 0 0.29839785311940298 -0.43434655689330193 0 0.31551754395841403 -0.44873274557316289 0 0.29839785311940298 -0.43434655689330193 0 0.29975856127064748 -0.462093695306934 0 0.29975856127064748 -0.462093695306934 0 0.28477754330372401 -0.44530198736224402 0 0.27062442678365978 -0.45730563656048923 0 0.29975856127064748 -0.462093695306934 0 0.27062442678365978 -0.45730563656048923 0 0.28284642519685088 -0.46929252365605961 0 0.29975856127064748 -0.462093695306934 0 0.27062442678365978 -0.45730563656048923 0 0.29839785311940298 -0.43434655689330193 0 0.29975856127064748 -0.462093695306934 0 0.28477754330372401 -0.44530198736224402 0 0.28477754330372401 -0.44530198736224402 0 0.26833939302840598 -0.43843249540782181 0 0.27062442678365978 -0.45730563656048923 0 0.26833939302840598 -0.43843249540782181 0 0.25491484266253889 -0.44547503661093141 0 0.27062442678365978 -0.45730563656048923 0 0.2551075473088158 -0.43171633652827451 0 0.26833939302840598 -0.43843249540782181 0 0.25491484266253889 -0.44547503661093141 0 0.25491484266253889 -0.44547503661093141 0 0.27062442678365978 -0.45730563656048923 0 0.24149029229667271 -0.45251757781404278 0 0.26833939302840598 -0.43843249540782181 0 0.25491484266253889 -0.44547503661093141 0 0.27062442678365978 -0.45730563656048923 0 0.24149029229667271 -0.45251757781404278 0 0.27062442678365978 -0.45730563656048923 0 0.2483499169893878 -0.46989664361760047 0 0.24149029229667271 -0.45251757781404278 0 0.27062442678365978 -0.45730563656048923 0 0.26920990509767467 -0.47993109574506798 0 0.28284642519685088 -0.46929252365605961 0 0.27062442678365978 -0.45730563656048923 0 0.26920990509767467 -0.47993109574506798 0 0.2483499169893878 -0.46989664361760047 0 0.26920990509767467 -0.47993109574506798 0 0.2483499169893878 -0.46989664361760047 0 0.26920990509767467 -0.47993109574506798 0 0.24523550702771779 -0.48555234717705442 0 0.2483499169893878 -0.46989664361760047 0 0.26920990509767467 -0.47993109574506798 0 0.2541762558513444 -0.5 0 0.24523550702771779 -0.48555234717705442 0 0.26920990509767467 -0.47993109574506798 0 0.2541762558513444 -0.5 0 0.28255306858279677 -0.5 0 0.26920990509767467 -0.47993109574506798 0 0.2900698932059616 -0.48996554787253538 0 0.26920990509767467 -0.47993109574506798 0 0.28255306858279677 -0.5 0 0.2900698932059616 -0.48996554787253538 0 0.28255306858279677 -0.5 0 0.2900698932059616 -0.48996554787253538 0 0.31092988131424909 -0.50000000000000155 0 0.29975856127064748 -0.462093695306934 0 0.29179280763542181 -0.47783966701174718 0 0.28284642519685088 -0.46929252365605961 0 0.26920990509767467 -0.47993109574506798 0 0.29179280763542181 -0.47783966701174718 0 0.28284642519685088 -0.46929252365605961 0 0.26920990509767467 -0.47993109574506798 0 0.2900698932059616 -0.48996554787253538 0 0.29179280763542181 -0.47783966701174718 0 0.29975856127064748 -0.462093695306934 0 0.29179280763542181 -0.47783966701174718 0 0.30418946683337927 -0.47450905829228568 0 0.31538793135946758 -0.47512474493946127 0 0.29975856127064748 -0.462093695306934 0 0.30418946683337927 -0.47450905829228568 0 0.29179280763542181 -0.47783966701174718 0 0.30900869410147058 -0.48501689905666789 0 0.2900698932059616 -0.48996554787253538 0 0.29179280763542181 -0.47783966701174718 0 0.30900869410147058 -0.48501689905666789 0 0.29179280763542181 -0.47783966701174718 0 0.30418946683337927 -0.47450905829228568 0 0.30900869410147058 -0.48501689905666789 0 0.31538793135946758 -0.47512474493946127 0 0.30418946683337927 -0.47450905829228568 0 0.30900869410147058 -0.48501689905666789 0 0.2900698932059616 -0.48996554787253538 0 0.31092988131424909 -0.50000000000000155 0 0.2900698932059616 -0.48996554787253538 0 0.30900869410147058 -0.48501689905666789 0 0.31092988131424909 -0.50000000000000155 0 0.33134580519080298 -0.30004468467996431 0 0.33742234727513343 -0.27320698021378148 0 0.33134580519080298 -0.30004468467996431 0 0.33742234727513343 -0.27320698021378148 0 0.35562271678303958 -0.28405689675645601 0 0.33134580519080298 -0.30004468467996431 0 0.35251460114368 -0.30296716809521301 0 0.34485735052455457 -0.32291774062742029 0 0.33134580519080298 -0.30004468467996431 0 0.31129127062538592 -0.31540084220286069 0 0.30558649223061318 -0.29834475858818132 0 0.33134580519080298 -0.30004468467996431 0 0.31348954990583178 -0.27822513492316098 0 0.30558649223061318 -0.29834475858818132 0 0.33134580519080298 -0.30004468467996431 0 0.31348954990583178 -0.27822513492316098 0 0.33742234727513343 -0.27320698021378148 0 0.31348954990583178 -0.27822513492316098 0 0.31775413561175558 -0.25357528519619238 0 0.33742234727513343 -0.27320698021378148 0 0.34349888935945311 -0.24636927574759651 0 0.31775413561175558 -0.25357528519619238 0 0.33742234727513343 -0.27320698021378148 0 0.34349888935945311 -0.24636927574759651 0 0.33742234727513343 -0.27320698021378148 0 0.33742234727513343 -0.27320698021378148 0 0.3670365317362248 -0.26724104531623011 0 0.35562271678303958 -0.28405689675645601 0 0.34349888935945311 -0.24636927574759651 0 0.33742234727513343 -0.27320698021378148 0 0.35810798723077902 -0.25360210596606603 0 0.33742234727513343 -0.27320698021378148 0 0.35810798723077902 -0.25360210596606603 0 0.3670365317362248 -0.26724104531623011 0 0.38042246715736172 -0.2509321626324551 0 0.35810798723077902 -0.25360210596606603 0 0.3670365317362248 -0.26724104531623011 0 0.37739707299693331 -0.2793942577831206 0 0.3670365317362248 -0.26724104531623011 0 0.35562271678303958 -0.28405689675645601 0 0.37199997248884548 -0.29419339268505029 0 0.35562271678303958 -0.28405689675645601 0 0.35251460114368 -0.30296716809521301 0 0.37739707299693331 -0.2793942577831206 0 0.37199997248884548 -0.29419339268505029 0 0.35562271678303958 -0.28405689675645601 0 0.33134580519080298 -0.30004468467996431 0 0.35562271678303958 -0.28405689675645601 0 0.35251460114368 -0.30296716809521301 0 0.37199997248884548 -0.29419339268505029 0 0.35251460114368 -0.30296716809521301 0 0.37148926485584349 -0.31542902237567061 0 0.39044459460368219 -0.33140357317753222 0 0.37148926485584349 -0.31542902237567061 0 0.36103617916560471 -0.33465047732347741 0 0.39044459460368219 -0.33140357317753222 0 0.36103617916560471 -0.33465047732347741 0 0.36970547293014538 -0.35306700271307051 0 0.36103617916560471 -0.33465047732347741 0 0.34485735052455457 -0.32291774062742029 0 0.33162776372752711 -0.33789738146942261 0 0.36103617916560471 -0.33465047732347741 0 0.33162776372752711 -0.33789738146942261 0 0.36103617916560471 -0.33465047732347741 0 0.34758969826835229 -0.3537304284961108 0 0.33162776372752711 -0.33789738146942261 0 0.35251460114368 -0.30296716809521301 0 0.37148926485584349 -0.31542902237567061 0 0.34485735052455457 -0.32291774062742029 0 0.37148926485584349 -0.31542902237567061 0 0.36103617916560471 -0.33465047732347741 0 0.34485735052455457 -0.32291774062742029 0 0.38522986717313429 -0.3724527578816379 0 0.36265532084701252 -0.37269019154064431 0 0.36970547293014538 -0.35306700271307051 0 0.36265532084701252 -0.37269019154064431 0 0.36970547293014538 -0.35306700271307051 0 0.34758969826835229 -0.3537304284961108 0 0.36103617916560471 -0.33465047732347741 0 0.36970547293014538 -0.35306700271307051 0 0.34758969826835229 -0.3537304284961108 0 0.36265532084701252 -0.37269019154064431 0 0.34758969826835229 -0.3537304284961108 0 0.34220561371288472 -0.37199520232022709 0 0.32155828617277532 -0.37923279847128338 0 0.34220561371288472 -0.37199520232022709 0 0.32267181615787699 -0.36174257208188332 0 0.34220561371288472 -0.37199520232022709 0 0.33343519075219741 -0.35289703250625482 0 0.32267181615787699 -0.36174257208188332 0 0.34758969826835229 -0.3537304284961108 0 0.34220561371288472 -0.37199520232022709 0 0.33343519075219741 -0.35289703250625482 0 0.34758969826835229 -0.3537304284961108 0 0.33343519075219741 -0.35289703250625482 0 0.33162776372752711 -0.33789738146942261 0 0.33343519075219741 -0.35289703250625482 0 0.32198799775242248 -0.34663461408253449 0 0.33162776372752711 -0.33789738146942261 0 0.32198799775242248 -0.34663461408253449 0 0.31233800273046419 -0.34168981845339202 0 0.30903159839039562 -0.35338600029003642 0 0.32198799775242248 -0.34663461408253449 0 0.32267181615787699 -0.36174257208188332 0 0.30903159839039562 -0.35338600029003642 0 0.33343519075219741 -0.35289703250625482 0 0.32198799775242248 -0.34663461408253449 0 0.32267181615787699 -0.36174257208188332 0 0.32155828617277532 -0.37923279847128338 0 0.32267181615787699 -0.36174257208188332 0 0.30380832212093029 -0.36787220397075843 0 0.33134580519080298 -0.30004468467996431 0 0.32526926310647247 -0.32688238914614692 0 0.33134580519080298 -0.30004468467996431 0 0.34485735052455457 -0.32291774062742029 0 0.32526926310647247 -0.32688238914614692 0 0.34485735052455457 -0.32291774062742029 0 0.33162776372752711 -0.33789738146942261 0 0.32526926310647247 -0.32688238914614692 0 0.33162776372752711 -0.33789738146942261 0 0.32113954230022113 -0.33649934204699328 0 0.32526926310647247 -0.32688238914614692 0 0.32198799775242248 -0.34663461408253449 0 0.33162776372752711 -0.33789738146942261 0 0.32113954230022113 -0.33649934204699328 0 0.32198799775242248 -0.34663461408253449 0 0.32113954230022113 -0.33649934204699328 0 0.31233800273046419 -0.34168981845339202 0 0.32113954230022113 -0.33649934204699328 0 0.3121996034144372 -0.33048639587011758 0 0.31233800273046419 -0.34168981845339202 0 0.32113954230022113 -0.33649934204699328 0 0.32526926310647247 -0.32688238914614692 0 0.3121996034144372 -0.33048639587011758 0 0.33134580519080298 -0.30004468467996431 0 0.32526926310647247 -0.32688238914614692 0 0.31129127062538592 -0.31540084220286069 0 0.32526926310647247 -0.32688238914614692 0 0.31129127062538592 -0.31540084220286069 0 0.3121996034144372 -0.33048639587011758 0 0.31129127062538592 -0.31540084220286069 0 0.30028039693234998 -0.32560709399759508 0 0.29175991194600392 -0.31027817210435021 0 0.31129127062538592 -0.31540084220286069 0 0.30028039693234998 -0.32560709399759508 0 0.3121996034144372 -0.33048639587011758 0 0.3121996034144372 -0.33048639587011758 0 0.31233800273046419 -0.34168981845339202 0 0.29847297889970742 -0.33925350413035099 0 0.30028039693234998 -0.32560709399759508 0 0.3121996034144372 -0.33048639587011758 0 0.29847297889970742 -0.33925350413035099 0 0.30028039693234998 -0.32560709399759508 0 0.29847297889970742 -0.33925350413035099 0 0.28691637395816788 -0.32419778276336519 0 0.29847297889970742 -0.33925350413035099 0 0.28270526012022212 -0.34883390959551119 0 0.28011318478740271 -0.33591475318327901 0 0.29847297889970742 -0.33925350413035099 0 0.28691637395816788 -0.32419778276336519 0 0.28011318478740271 -0.33591475318327901 0 0.28691637395816788 -0.32419778276336519 0 0.27713449976423532 -0.31542267608515889 0 0.29175991194600392 -0.31027817210435021 0 0.30028039693234998 -0.32560709399759508 0 0.28691637395816788 -0.32419778276336519 0 0.29175991194600392 -0.31027817210435021 0 0.32267181615787699 -0.36174257208188332 0 0.30380832212093029 -0.36787220397075843 0 0.30903159839039562 -0.35338600029003642 0 0.30380832212093029 -0.36787220397075843 0 0.30903159839039562 -0.35338600029003642 0 0.29487469440909703 -0.3517706658610148 0 0.31233800273046419 -0.34168981845339202 0 0.29847297889970742 -0.33925350413035099 0 0.30903159839039562 -0.35338600029003642 0 0.29847297889970742 -0.33925350413035099 0 0.30903159839039562 -0.35338600029003642 0 0.29487469440909703 -0.3517706658610148 0 0.29847297889970742 -0.33925350413035099 0 0.28270526012022212 -0.34883390959551119 0 0.29487469440909703 -0.3517706658610148 0 0.28270526012022212 -0.34883390959551119 0 0.29487469440909703 -0.3517706658610148 0 0.28515718029878179 -0.36204941281346043 0 0.30380832212093029 -0.36787220397075843 0 0.29487469440909703 -0.3517706658610148 0 0.28515718029878179 -0.36204941281346043 0 0.28953541472479288 -0.37536450083403361 0 0.30380832212093029 -0.36787220397075843 0 0.28515718029878179 -0.36204941281346043 0 0.28953541472479288 -0.37536450083403361 0 0.27650144484719419 -0.37648850385784338 0 0.28515718029878179 -0.36204941281346043 0 0.27650144484719419 -0.37648850385784338 0 0.26072890620209388 -0.37735332967840601 0 0.26731815966871891 -0.3583712390257956 0 0.27650144484719419 -0.37648850385784338 0 0.28515718029878179 -0.36204941281346043 0 0.26731815966871891 -0.3583712390257956 0 0.28270526012022212 -0.34883390959551119 0 0.26731815966871891 -0.3583712390257956 0 0.26225210920119202 -0.34075298106202129 0 0.28270526012022212 -0.34883390959551119 0 0.28515718029878179 -0.36204941281346043 0 0.26731815966871891 -0.3583712390257956 0 0.26731815966871891 -0.3583712390257956 0 0.26225210920119202 -0.34075298106202129 0 0.24280427136988719 -0.35541633036860681 0 0.26072890620209388 -0.37735332967840601 0 0.24280427136988719 -0.35541633036860681 0 0.26072890620209388 -0.37735332967840601 0 0.26731815966871891 -0.3583712390257956 0 0.24280427136988719 -0.35541633036860681 0 0.28691637395816788 -0.32419778276336519 0 0.27025219176556953 -0.32628182985967569 0 0.27713449976423532 -0.31542267608515889 0 0.27025219176556953 -0.32628182985967569 0 0.27713449976423532 -0.31542267608515889 0 0.26406234487108798 -0.31240687417538082 0 0.28691637395816788 -0.32419778276336519 0 0.27025219176556953 -0.32628182985967569 0 0.28011318478740271 -0.33591475318327901 0 0.27025219176556953 -0.32628182985967569 0 0.28011318478740271 -0.33591475318327901 0 0.26225210920119202 -0.34075298106202129 0 0.28270526012022212 -0.34883390959551119 0 0.28011318478740271 -0.33591475318327901 0 0.26225210920119202 -0.34075298106202129 0 0.27025219176556953 -0.32628182985967569 0 0.26225210920119202 -0.34075298106202129 0 0.24924088344910481 -0.32106395363119161 0 0.26225210920119202 -0.34075298106202129 0 0.24924088344910481 -0.32106395363119161 0 0.24479422513946611 -0.33767814903015692 0 0.27025219176556953 -0.32628182985967569 0 0.26406234487108798 -0.31240687417538082 0 0.24924088344910481 -0.32106395363119161 0 0.25410294836481923 -0.29844697569090439 0 0.26406234487108798 -0.31240687417538082 0 0.24924088344910481 -0.32106395363119161 0 0.25410294836481923 -0.29844697569090439 0 0.26406234487108798 -0.31240687417538082 0 0.27376420222457237 -0.30152783728571669 0 0.25410294836481923 -0.29844697569090439 0 0.2673551517156979 -0.28515755056202768 0 0.27376420222457237 -0.30152783728571669 0 0.25410294836481923 -0.29844697569090439 0 0.2673551517156979 -0.28515755056202768 0 0.24051987436866751 -0.2751933135419955 0 0.2673551517156979 -0.28515755056202768 0 0.28665509572862519 -0.2918631248515951 0 0.28213310933306213 -0.27634365895258239 0 0.2673551517156979 -0.28515755056202768 0 0.27376420222457237 -0.30152783728571669 0 0.28665509572862519 -0.2918631248515951 0 0.27713449976423532 -0.31542267608515889 0 0.27376420222457237 -0.30152783728571669 0 0.29175991194600392 -0.31027817210435021 0 0.27713449976423532 -0.31542267608515889 0 0.26406234487108798 -0.31240687417538082 0 0.27376420222457237 -0.30152783728571669 0 0.27376420222457237 -0.30152783728571669 0 0.29175991194600392 -0.31027817210435021 0 0.28665509572862519 -0.2918631248515951 0 0.29175991194600392 -0.31027817210435021 0 0.28665509572862519 -0.2918631248515951 0 0.30558649223061318 -0.29834475858818132 0 0.28665509572862519 -0.2918631248515951 0 0.30558649223061318 -0.29834475858818132 0 0.29597472581243839 -0.28111159439206262 0 0.28665509572862519 -0.2918631248515951 0 0.29597472581243839 -0.28111159439206262 0 0.28213310933306213 -0.27634365895258239 0 0.31348954990583178 -0.27822513492316098 0 0.30558649223061318 -0.29834475858818132 0 0.29597472581243839 -0.28111159439206262 0 0.31129127062538592 -0.31540084220286069 0 0.29175991194600392 -0.31027817210435021 0 0.30558649223061318 -0.29834475858818132 0 0.31775413561175558 -0.25357528519619238 0 0.29200938186405961 -0.26078129464479338 0 0.31348954990583178 -0.27822513492316098 0 0.31775413561175558 -0.25357528519619238 0 0.29200938186405961 -0.26078129464479338 0 0.29480803106572878 -0.23764551999912459 0 0.31775413561175558 -0.25357528519619238 0 0.29200938186405961 -0.26078129464479338 0 0.31348954990583178 -0.27822513492316098 0 0.29597472581243839 -0.28111159439206262 0 0.29200938186405961 -0.26078129464479338 0 0.29597472581243839 -0.28111159439206262 0 0.28213310933306213 -0.27634365895258239 0 0.29200938186405961 -0.26078129464479338 0 0.28137194016209788 -0.2472511684138568 0 0.29200938186405961 -0.26078129464479338 0 0.2717132076793175 -0.26149646127198323 0 0.29200938186405961 -0.26078129464479338 0 0.26626462811636348 -0.2679873040933945 0 0.29200938186405961 -0.26078129464479338 0 0.2717132076793175 -0.26149646127198323 0 0.26626462811636348 -0.2679873040933945 0 0.2717132076793175 -0.26149646127198323 0 0.26626462811636348 -0.2679873040933945 0 0.26019362703016369 -0.25781353589123412 0 0.28213310933306213 -0.27634365895258239 0 0.29200938186405961 -0.26078129464479338 0 0.26626462811636348 -0.2679873040933945 0 0.2673551517156979 -0.28515755056202768 0 0.28213310933306213 -0.27634365895258239 0 0.26626462811636348 -0.2679873040933945 0 0.2673551517156979 -0.28515755056202768 0 0.26626462811636348 -0.2679873040933945 0 0.24051987436866751 -0.2751933135419955 0 0.26626462811636348 -0.2679873040933945 0 0.24051987436866751 -0.2751933135419955 0 0.26626462811636348 -0.2679873040933945 0 0.25073732928497061 -0.26179367332510201 0 0.24051987436866751 -0.2751933135419955 0 0.26082319034914581 -0.24804312499437539 0 0.2717132076793175 -0.26149646127198323 0 0.26019362703016369 -0.25781353589123412 0 0.26626462811636348 -0.2679873040933945 0 0.26019362703016369 -0.25781353589123412 0 0.25073732928497061 -0.26179367332510201 0 0.25039127449398407 -0.24989370801593011 0 0.26019362703016369 -0.25781353589123412 0 0.25073732928497061 -0.26179367332510201 0 0.26082319034914581 -0.24804312499437539 0 0.25039127449398407 -0.24989370801593011 0 0.26019362703016369 -0.25781353589123412 0 0.25073732928497061 -0.26179367332510201 0 0.23631724241567431 -0.25808050508295588 0 0.24051987436866751 -0.2751933135419955 0 0.25039127449398407 -0.24989370801593011 0 0.25073732928497061 -0.26179367332510201 0 0.23631724241567431 -0.25808050508295588 0 0.23631724241567431 -0.25808050508295588 0 0.24051987436866751 -0.2751933135419955 0 0.22121437777098049 -0.26640271091817069 0 0.24051987436866751 -0.2751933135419955 0 0.21477512062097129 -0.28239932299059661 0 0.24051987436866751 -0.2751933135419955 0 0.22121437777098049 -0.26640271091817069 0 0.21477512062097129 -0.28239932299059661 0 0.23631724241567431 -0.25808050508295588 0 0.22121437777098049 -0.26640271091817069 0 0.2211213103932321 -0.2491589593280199 0 0.22121437777098049 -0.26640271091817069 0 0.2048141114297542 -0.25902610868195503 0 0.2211213103932321 -0.2491589593280199 0 0.22121437777098049 -0.26640271091817069 0 0.2048141114297542 -0.25902610868195503 0 0.19947326342044119 -0.27732257601717392 0 0.22121437777098049 -0.26640271091817069 0 0.19947326342044119 -0.27732257601717392 0 0.21477512062097129 -0.28239932299059661 0 0.19947326342044119 -0.27732257601717392 0 0.1859533258564201 -0.25627726493157033 0 0.1853556847974018 -0.28510808611220528 0 0.2048141114297542 -0.25902610868195503 0 0.19947326342044119 -0.27732257601717392 0 0.1859533258564201 -0.25627726493157033 0 0.2048141114297542 -0.25902610868195503 0 0.1859533258564201 -0.25627726493157033 0 0.2048330354356461 -0.23979339380446221 0 0.18903036687327651 -0.28960533243920211 0 0.20695500170547401 -0.31154233174900853 0 0.18490694631705601 -0.3067556932981188 0 0.18903036687327651 -0.28960533243920211 0 0.20695500170547401 -0.31154233174900853 0 0.18903036687327651 -0.28960533243920211 0 0.20965325890731451 -0.29650769563188523 0 0.20695500170547401 -0.31154233174900853 0 0.19947326342044119 -0.27732257601717392 0 0.18903036687327651 -0.28960533243920211 0 0.21477512062097129 -0.28239932299059661 0 0.18903036687327651 -0.28960533243920211 0 0.21477512062097129 -0.28239932299059661 0 0.19947326342044119 -0.27732257601717392 0 0.18903036687327651 -0.28960533243920211 0 0.1853556847974018 -0.28510808611220528 0 0.21477512062097129 -0.28239932299059661 0 0.20965325890731451 -0.29650769563188523 0 0.22785254642953751 -0.30248379534873832 0 0.18903036687327651 -0.28960533243920211 0 0.21477512062097129 -0.28239932299059661 0 0.20965325890731451 -0.29650769563188523 0 0.20965325890731451 -0.29650769563188523 0 0.20695500170547401 -0.31154233174900853 0 0.22785254642953751 -0.30248379534873832 0 0.24051987436866751 -0.2751933135419955 0 0.21477512062097129 -0.28239932299059661 0 0.22785254642953751 -0.30248379534873832 0 0.25410294836481923 -0.29844697569090439 0 0.24051987436866751 -0.2751933135419955 0 0.22785254642953751 -0.30248379534873832 0 0.25410294836481923 -0.29844697569090439 0 0.22785254642953751 -0.30248379534873832 0 0.24924088344910481 -0.32106395363119161 0 0.24924088344910481 -0.32106395363119161 0 0.24479422513946611 -0.33767814903015692 0 0.22487963653768059 -0.33347933105880773 0 0.24479422513946611 -0.33767814903015692 0 0.22487963653768059 -0.33347933105880773 0 0.24280427136988719 -0.35541633036860681 0 0.22785254642953751 -0.30248379534873832 0 0.24924088344910481 -0.32106395363119161 0 0.22487963653768059 -0.33347933105880773 0 0.20695500170547401 -0.31154233174900853 0 0.22785254642953751 -0.30248379534873832 0 0.22487963653768059 -0.33347933105880773 0 0.26072890620209388 -0.37735332967840601 0 0.24016443202273069 -0.37384004815211108 0 0.24280427136988719 -0.35541633036860681 0 0.24016443202273069 -0.37384004815211108 0 0.24280427136988719 -0.35541633036860681 0 0.22660007603868501 -0.36480995988193338 0 0.26225210920119202 -0.34075298106202129 0 0.24479422513946611 -0.33767814903015692 0 0.24280427136988719 -0.35541633036860681 0 0.22487963653768059 -0.33347933105880773 0 0.24280427136988719 -0.35541633036860681 0 0.22487963653768059 -0.33347933105880773 0 0.24280427136988719 -0.35541633036860681 0 0.21700266453967379 -0.34824675128154281 0 0.24280427136988719 -0.35541633036860681 0 0.22660007603868501 -0.36480995988193338 0 0.21700266453967379 -0.34824675128154281 0 0.22660007603868501 -0.36480995988193338 0 0.2109153031232967 -0.36198638936368571 0 0.22408624372682981 -0.38155695682579471 0 0.24016443202273069 -0.37384004815211108 0 0.22660007603868501 -0.36480995988193338 0 0.22408624372682981 -0.38155695682579471 0 0.2109153031232967 -0.36198638936368571 0 0.22408624372682981 -0.38155695682579471 0 0.2109153031232967 -0.36198638936368571 0 0.19959656517642779 -0.37056652653384381 0 0.21194856608894769 -0.37793928595521598 0 0.2109153031232967 -0.36198638936368571 0 0.22408624372682981 -0.38155695682579471 0 0.21194856608894769 -0.37793928595521598 0 0.2109153031232967 -0.36198638936368571 0 0.2014058600287591 -0.35805658027812748 0 0.19959656517642779 -0.37056652653384381 0 0.2109153031232967 -0.36198638936368571 0 0.19774436251976379 -0.34241582190157649 0 0.2109153031232967 -0.36198638936368571 0 0.2014058600287591 -0.35805658027812748 0 0.19774436251976379 -0.34241582190157649 0 0.22660007603868501 -0.36480995988193338 0 0.2109153031232967 -0.36198638936368571 0 0.21700266453967379 -0.34824675128154281 0 0.2109153031232967 -0.36198638936368571 0 0.21700266453967379 -0.34824675128154281 0 0.19774436251976379 -0.34241582190157649 0 0.19680924325647409 -0.34885092866263001 0 0.2014058600287591 -0.35805658027812748 0 0.19774436251976379 -0.34241582190157649 0 0.19680924325647409 -0.34885092866263001 0 0.18810435998225941 -0.34760919834392928 0 0.18425269294686331 -0.33831755076794612 0 0.18810435998225941 -0.34760919834392928 0 0.19219468245116619 -0.35253015180632302 0 0.18401081486589799 -0.34998599890203203 0 0.19680924325647409 -0.34885092866263001 0 0.18810435998225941 -0.34760919834392928 0 0.19219468245116619 -0.35253015180632302 0 0.19219468245116619 -0.35253015180632302 0 0.2014058600287591 -0.35805658027812748 0 0.19187284011706451 -0.3613477431669197 0 0.19219468245116619 -0.35253015180632302 0 0.19187284011706451 -0.3613477431669197 0 0.18401081486589799 -0.34998599890203203 0 0.19680924325647409 -0.34885092866263001 0 0.19219468245116619 -0.35253015180632302 0 0.2014058600287591 -0.35805658027812748 0 0.19187284011706451 -0.3613477431669197 0 0.19959656517642779 -0.37056652653384381 0 0.18347084657675811 -0.37603462617166361 0 0.2014058600287591 -0.35805658027812748 0 0.19187284011706451 -0.3613477431669197 0 0.19959656517642779 -0.37056652653384381 0 0.20695500170547401 -0.31154233174900853 0 0.2082738828703396 -0.33395157606503029 0 0.1983370169453651 -0.32511281496056332 0 0.20695500170547401 -0.31154233174900853 0 0.22487963653768059 -0.33347933105880773 0 0.2082738828703396 -0.33395157606503029 0 0.20695500170547401 -0.31154233174900853 0 0.22487963653768059 -0.33347933105880773 0 0.22487963653768059 -0.33347933105880773 0 0.21700266453967379 -0.34824675128154281 0 0.2082738828703396 -0.33395157606503029 0 0.21700266453967379 -0.34824675128154281 0 0.2082738828703396 -0.33395157606503029 0 0.19774436251976379 -0.34241582190157649 0 0.2082738828703396 -0.33395157606503029 0 0.19774436251976379 -0.34241582190157649 0 0.1983370169453651 -0.32511281496056332 0 0.19774436251976379 -0.34241582190157649 0 0.1845734219162298 -0.32284525443946799 0 0.18425269294686331 -0.33831755076794612 0 0.19774436251976379 -0.34241582190157649 0 0.1845734219162298 -0.32284525443946799 0 0.19774436251976379 -0.34241582190157649 0 0.1983370169453651 -0.32511281496056332 0 0.1845734219162298 -0.32284525443946799 0 0.19680924325647409 -0.34885092866263001 0 0.18425269294686331 -0.33831755076794612 0 0.19680924325647409 -0.34885092866263001 0 0.19774436251976379 -0.34241582190157649 0 0.18425269294686331 -0.33831755076794612 0 0.1983370169453651 -0.32511281496056332 0 0.1845734219162298 -0.32284525443946799 0 0.18490694631705601 -0.3067556932981188 0 0.20695500170547401 -0.31154233174900853 0 0.1983370169453651 -0.32511281496056332 0 0.18490694631705601 -0.3067556932981188 0 0.1845734219162298 -0.32284525443946799 0 0.17551447980917001 -0.30938466396394571 0 0.1845734219162298 -0.32284525443946799 0 0.16308005112817411 -0.32055634790522303 0 0.17551447980917001 -0.30938466396394571 0 0.1845734219162298 -0.32284525443946799 0 0.18490694631705601 -0.3067556932981188 0 0.17551447980917001 -0.30938466396394571 0 0.1845734219162298 -0.32284525443946799 0 0.18425269294686331 -0.33831755076794612 0 0.16308005112817411 -0.32055634790522303 0 0.1845734219162298 -0.32284525443946799 0 0.18490694631705601 -0.3067556932981188 0 0.18425269294686331 -0.33831755076794612 0 0.16308005112817411 -0.32055634790522303 0 0.1845734219162298 -0.32284525443946799 0 0.18425269294686331 -0.33831755076794612 0 0.16763801257919639 -0.34338274619914377 0 0.16308005112817411 -0.32055634790522303 0 0.14427599376702699 -0.34556527269895743 0 0.18425269294686331 -0.33831755076794612 0 0.16763801257919639 -0.34338274619914377 0 0.16308005112817411 -0.32055634790522303 0 0.18401081486589799 -0.34998599890203203 0 0.1639015022358826 -0.36166189940477078 0 0.18347084657675811 -0.37603462617166361 0 0.19187284011706451 -0.3613477431669197 0 0.18401081486589799 -0.34998599890203203 0 0.18347084657675811 -0.37603462617166361 0 0.18401081486589799 -0.34998599890203203 0 0.18347084657675811 -0.37603462617166361 0 0.18425269294686331 -0.33831755076794612 0 0.16763801257919639 -0.34338274619914377 0 0.18401081486589799 -0.34998599890203203 0 0.18401081486589799 -0.34998599890203203 0 0.1639015022358826 -0.36166189940477078 0 0.18810435998225941 -0.34760919834392928 0 0.18425269294686331 -0.33831755076794612 0 0.18401081486589799 -0.34998599890203203 0 0.18425269294686331 -0.33831755076794612 0 0.18401081486589799 -0.34998599890203203 0 0.18810435998225941 -0.34760919834392928 0 0.18401081486589799 -0.34998599890203203 0 0.16763801257919639 -0.34338274619914377 0 0.18401081486589799 -0.34998599890203203 0 0.1639015022358826 -0.36166189940477078 0 0.16763801257919639 -0.34338274619914377 0 0.1639015022358826 -0.36166189940477078 0 0.14427599376702699 -0.34556527269895743 0 0.1639015022358826 -0.36166189940477078 0 0.18347084657675811 -0.37603462617166361 0 0.16173454447914309 -0.38148246462979157 0 0.1639015022358826 -0.36166189940477078 0 0.14379218960586679 -0.37333779990750893 0 0.16173454447914309 -0.38148246462979157 0 0.1639015022358826 -0.36166189940477078 0 0.14379218960586679 -0.37333779990750893 0 0.14427599376702699 -0.34556527269895743 0 0.1639015022358826 -0.36166189940477078 0 0.14379218960586679 -0.37333779990750893 0 0.14427599376702699 -0.34556527269895743 0 0.11670984037207539 -0.33555382011822987 0 0.12019635867396369 -0.36028376026423847 0 0.14379218960586679 -0.37333779990750893 0 0.14427599376702699 -0.34556527269895743 0 0.12019635867396369 -0.36028376026423847 0 0.14379218960586679 -0.37333779990750893 0 0.12368287697585111 -0.38501370041024707 0 0.12019635867396369 -0.36028376026423847 0 0.16308005112817411 -0.32055634790522303 0 0.13527949779796189 -0.32376720443519319 0 0.1419074093094764 -0.30279514504251009 0 0.16308005112817411 -0.32055634790522303 0 0.14427599376702699 -0.34556527269895743 0 0.13527949779796189 -0.32376720443519319 0 0.14427599376702699 -0.34556527269895743 0 0.13527949779796189 -0.32376720443519319 0 0.11670984037207539 -0.33555382011822987 0 0.1419074093094764 -0.30279514504251009 0 0.1132233220702004 -0.31082387997221927 0 0.13527949779796189 -0.32376720443519319 0 0.1419074093094764 -0.30279514504251009 0 0.1132233220702004 -0.31082387997221927 0 0.1419074093094764 -0.30279514504251009 0 0.16645553770210031 -0.29592407348843008 0 0.16308005112817411 -0.32055634790522303 0 0.1419074093094764 -0.30279514504251009 0 0.161739369487231 -0.30716505760002999 0 0.16308005112817411 -0.32055634790522303 0 0.1419074093094764 -0.30279514504251009 0 0.1432549415986106 -0.28618876454712788 0 0.15687054744851961 -0.28168183339121972 0 0.16645553770210031 -0.29592407348843008 0 0.1419074093094764 -0.30279514504251009 0 0.1432549415986106 -0.28618876454712788 0 0.16645553770210031 -0.29592407348843008 0 0.1432549415986106 -0.28618876454712788 0 0.14596572792800699 -0.27732318457291871 0 0.15687054744851961 -0.28168183339121972 0 0.1419074093094764 -0.30279514504251009 0 0.1432549415986106 -0.28618876454712788 0 0.1188668799176622 -0.28346701773098282 0 0.1419074093094764 -0.30279514504251009 0 0.1188668799176622 -0.28346701773098282 0 0.13757577414847849 -0.27160489613457328 0 0.1188668799176622 -0.28346701773098282 0 0.13757577414847849 -0.27160489613457328 0 0.12333783748076731 -0.26381910548914522 0 0.1188668799176622 -0.28346701773098282 0 0.1432549415986106 -0.28618876454712788 0 0.13757577414847849 -0.27160489613457328 0 0.1188668799176622 -0.28346701773098282 0 0.1386522838832262 -0.25990533652016029 0 0.12333783748076731 -0.26381910548914522 0 0.13331006931279599 -0.24555192327291309 0 0.13757577414847849 -0.27160489613457328 0 0.1386522838832262 -0.25990533652016029 0 0.12333783748076731 -0.26381910548914522 0 0.15388576897399511 -0.25446663194545421 0 0.14728555719493 -0.26743959329401529 0 0.15709702533061129 -0.27087915694819592 0 0.1386522838832262 -0.25990533652016029 0 0.15388576897399511 -0.25446663194545421 0 0.13331006931279599 -0.24555192327291309 0 0.1386522838832262 -0.25990533652016029 0 0.15388576897399511 -0.25446663194545421 0 0.14728555719493 -0.26743959329401529 0 0.1432549415986106 -0.28618876454712788 0 0.13757577414847849 -0.27160489613457328 0 0.14596572792800699 -0.27732318457291871 0 0.13757577414847849 -0.27160489613457328 0 0.1386522838832262 -0.25990533652016029 0 0.14728555719493 -0.26743959329401529 0 0.13757577414847849 -0.27160489613457328 0 0.14596572792800699 -0.27732318457291871 0 0.14728555719493 -0.26743959329401529 0 0.14728555719493 -0.26743959329401529 0 0.15709702533061129 -0.27087915694819592 0 0.15687054744851961 -0.28168183339121972 0 0.14596572792800699 -0.27732318457291871 0 0.14728555719493 -0.26743959329401529 0 0.15687054744851961 -0.28168183339121972 0 0.14728555719493 -0.26743959329401529 0 0.15687054744851961 -0.28168183339121972 0 0.15709702533061129 -0.27087915694819592 0 0.16774294085704969 -0.27843211124580569 0 0.15687054744851961 -0.28168183339121972 0 0.15709702533061129 -0.27087915694819592 0 0.16774294085704969 -0.27843211124580569 0 0.1646048863562051 -0.2647584487373022 0 0.16774294085704969 -0.27843211124580569 0 0.1646048863562051 -0.2647584487373022 0 0.17359063427616181 -0.26571297316246728 0 0.15388576897399511 -0.25446663194545421 0 0.1646048863562051 -0.2647584487373022 0 0.17061020394528689 -0.25171616220673199 0 0.15388576897399511 -0.25446663194545421 0 0.15709702533061129 -0.27087915694819592 0 0.1646048863562051 -0.2647584487373022 0 0.1646048863562051 -0.2647584487373022 0 0.17061020394528689 -0.25171616220673199 0 0.17359063427616181 -0.26571297316246728 0 0.17061020394528689 -0.25171616220673199 0 0.1859533258564201 -0.25627726493157033 0 0.17359063427616181 -0.26571297316246728 0 0.1859533258564201 -0.25627726493157033 0 0.17904181436584701 -0.2773808786909262 0 0.17359063427616181 -0.26571297316246728 0 0.1859533258564201 -0.25627726493157033 0 0.1853556847974018 -0.28510808611220528 0 0.1859533258564201 -0.25627726493157033 0 0.17904181436584701 -0.2773808786909262 0 0.1853556847974018 -0.28510808611220528 0 0.16774294085704969 -0.27843211124580569 0 0.17904181436584701 -0.2773808786909262 0 0.17359063427616181 -0.26571297316246728 0 0.16774294085704969 -0.27843211124580569 0 0.17904181436584701 -0.2773808786909262 0 0.17522904049562471 -0.28687371506374271 0 0.17904181436584701 -0.2773808786909262 0 0.1853556847974018 -0.28510808611220528 0 0.17522904049562471 -0.28687371506374271 0 0.1852404707179123 -0.29066613215677028 0 0.16645553770210031 -0.29592407348843008 0 0.1852404707179123 -0.29066613215677028 0 0.16645553770210031 -0.29592407348843008 0 0.17904181436584701 -0.2773808786909262 0 0.1853556847974018 -0.28510808611220528 0 0.17522904049562471 -0.28687371506374271 0 0.1853556847974018 -0.28510808611220528 0 0.17522904049562471 -0.28687371506374271 0 0.1852404707179123 -0.29066613215677028 0 0.18903036687327651 -0.28960533243920211 0 0.1852404707179123 -0.29066613215677028 0 0.18490694631705601 -0.3067556932981188 0 0.18903036687327651 -0.28960533243920211 0 0.1853556847974018 -0.28510808611220528 0 0.1852404707179123 -0.29066613215677028 0 0.1853556847974018 -0.28510808611220528 0 0.1852404707179123 -0.29066613215677028 0 0.18903036687327651 -0.28960533243920211 0 0.1853556847974018 -0.28510808611220528 0 0.18903036687327651 -0.28960533243920211 0 0.1852404707179123 -0.29066613215677028 0 0.1852404707179123 -0.29066613215677028 0 0.17551447980917001 -0.30938466396394571 0 0.16645553770210031 -0.29592407348843008 0 0.1852404707179123 -0.29066613215677028 0 0.18490694631705601 -0.3067556932981188 0 0.17551447980917001 -0.30938466396394571 0 0.1852404707179123 -0.29066613215677028 0 0.18490694631705601 -0.3067556932981188 0 0.1419074093094764 -0.30279514504251009 0 0.161739369487231 -0.30716505760002999 0 0.16645553770210031 -0.29592407348843008 0 0.17551447980917001 -0.30938466396394571 0 0.161739369487231 -0.30716505760002999 0 0.16645553770210031 -0.29592407348843008 0 0.17551447980917001 -0.30938466396394571 0 0.16645553770210031 -0.29592407348843008 0 0.16308005112817411 -0.32055634790522303 0 0.17551447980917001 -0.30938466396394571 0 0.161739369487231 -0.30716505760002999 0 0.16774294085704969 -0.27843211124580569 0 0.17522904049562471 -0.28687371506374271 0 0.16645553770210031 -0.29592407348843008 0 0.16774294085704969 -0.27843211124580569 0 0.15687054744851961 -0.28168183339121972 0 0.16645553770210031 -0.29592407348843008 0 0.15687054744851961 -0.28168183339121972 0 0.16645553770210031 -0.29592407348843008 0 0.19742263038843999 -0.5 0 0.19865134310869681 -0.47499096102107302 0 0.2126546356706569 -0.48415887313332318 0 0.19742263038843999 -0.5 0 0.19865134310869681 -0.47499096102107302 0 0.17877155851943841 -0.4809285805175037 0 0.19865134310869681 -0.47499096102107302 0 0.18551131160143111 -0.45928894678925292 0 0.17877155851943841 -0.4809285805175037 0 0.19865134310869681 -0.47499096102107302 0 0.2126546356706569 -0.48415887313332318 0 0.2130706359948995 -0.46742657625560757 0 0.2126546356706569 -0.48415887313332318 0 0.22864201408028981 -0.47793399652260321 0 0.2130706359948995 -0.46742657625560757 0 0.19865134310869681 -0.47499096102107302 0 0.2130706359948995 -0.46742657625560757 0 0.19742263038843999 -0.5 0 0.2126546356706569 -0.48415887313332318 0 0.2257994431198922 -0.5 0 0.2126546356706569 -0.48415887313332318 0 0.2257994431198922 -0.5 0 0.22864201408028981 -0.47793399652260321 0 0.2257994431198922 -0.5 0 0.24523550702771779 -0.48555234717705442 0 0.22864201408028981 -0.47793399652260321 0 0.2541762558513444 -0.5 0 0.2257994431198922 -0.5 0 0.24523550702771779 -0.48555234717705442 0 0.2483499169893878 -0.46989664361760047 0 0.22864201408028981 -0.47793399652260321 0 0.2274899288810992 -0.45986219149013652 0 0.24523550702771779 -0.48555234717705442 0 0.2483499169893878 -0.46989664361760047 0 0.22864201408028981 -0.47793399652260321 0 0.22864201408028981 -0.47793399652260321 0 0.2274899288810992 -0.45986219149013652 0 0.2130706359948995 -0.46742657625560757 0 0.2274899288810992 -0.45986219149013652 0 0.2130706359948995 -0.46742657625560757 0 0.2274899288810992 -0.45986219149013652 0 0.24149029229667271 -0.45251757781404278 0 0.2314496060121897 -0.45086743798215068 0 0.2483499169893878 -0.46989664361760047 0 0.2274899288810992 -0.45986219149013652 0 0.24149029229667271 -0.45251757781404278 0 0.2483499169893878 -0.46989664361760047 0 0.2274899288810992 -0.45986219149013652 0 0.2274899288810992 -0.45986219149013652 0 0.24149029229667271 -0.45251757781404278 0 0.25491484266253889 -0.44547503661093141 0 0.24149029229667271 -0.45251757781404278 0 0.2397815562044239 -0.43532636780203821 0 0.24149029229667271 -0.45251757781404278 0 0.2314496060121897 -0.45086743798215068 0 0.2397815562044239 -0.43532636780203821 0 0.2551075473088158 -0.43171633652827451 0 0.25491484266253889 -0.44547503661093141 0 0.2397815562044239 -0.43532636780203821 0 0.25491484266253889 -0.44547503661093141 0 0.24149029229667271 -0.45251757781404278 0 0.24149029229667271 -0.45251757781404278 0 0.2314496060121897 -0.45086743798215068 0 0.2274899288810992 -0.45986219149013652 0 0.2314496060121897 -0.45086743798215068 0 0.20248014267802661 -0.44783152775867818 0 0.2206923712066888 -0.43777499566245542 0 0.2314496060121897 -0.45086743798215068 0 0.2397815562044239 -0.43532636780203821 0 0.2206923712066888 -0.43777499566245542 0 0.20248014267802661 -0.44783152775867818 0 0.20482416334148809 -0.42896223053324611 0 0.2206923712066888 -0.43777499566245542 0 0.2314496060121897 -0.45086743798215068 0 0.20248014267802661 -0.44783152775867818 0 0.2130706359948995 -0.46742657625560757 0 0.1999283583457635 -0.46238450295615291 0 0.20248014267802661 -0.44783152775867818 0 0.2274899288810992 -0.45986219149013652 0 0.2130706359948995 -0.46742657625560757 0 0.20248014267802661 -0.44783152775867818 0 0.2274899288810992 -0.45986219149013652 0 0.20248014267802661 -0.44783152775867818 0 0.19865134310869681 -0.47499096102107302 0 0.2130706359948995 -0.46742657625560757 0 0.1999283583457635 -0.46238450295615291 0 0.1999283583457635 -0.46238450295615291 0 0.20248014267802661 -0.44783152775867818 0 0.18551131160143111 -0.45928894678925292 0 0.19865134310869681 -0.47499096102107302 0 0.1999283583457635 -0.46238450295615291 0 0.18551131160143111 -0.45928894678925292 0 0.20248014267802661 -0.44783152775867818 0 0.17747035647495221 -0.4358008640272234 0 0.18551131160143111 -0.45928894678925292 0 0.20248014267802661 -0.44783152775867818 0 0.20482416334148809 -0.42896223053324611 0 0.17747035647495221 -0.4358008640272234 0 0.20248014267802661 -0.44783152775867818 0 0.17747035647495221 -0.4358008640272234 0 0.20482416334148809 -0.42896223053324611 0 0.1829336097517586 -0.41699160424010728 0 0.17747035647495221 -0.4358008640272234 0 0.2024187229094381 -0.41146382350652771 0 0.20482416334148809 -0.42896223053324611 0 0.1829336097517586 -0.41699160424010728 0 0.2024187229094381 -0.41146382350652771 0 0.18982739020597009 -0.40171904433710448 0 0.1829336097517586 -0.41699160424010728 0 0.2024187229094381 -0.41146382350652771 0 0.21370019214275601 -0.41652978291814879 0 0.20899616037558691 -0.39974206439640853 0 0.21370019214275601 -0.41652978291814879 0 0.22599498004542051 -0.40847927054181682 0 0.20899616037558691 -0.39974206439640853 0 0.2024187229094381 -0.41146382350652771 0 0.21370019214275601 -0.41652978291814879 0 0.20482416334148809 -0.42896223053324611 0 0.2206923712066888 -0.43777499566245542 0 0.20482416334148809 -0.42896223053324611 0 0.22433601335253259 -0.42520697676833641 0 0.21370019214275601 -0.41652978291814879 0 0.20482416334148809 -0.42896223053324611 0 0.22433601335253259 -0.42520697676833641 0 0.2206923712066888 -0.43777499566245542 0 0.22433601335253259 -0.42520697676833641 0 0.2397815562044239 -0.43532636780203821 0 0.22433601335253259 -0.42520697676833641 0 0.2397815562044239 -0.43532636780203821 0 0.2364617536912208 -0.42116779443511332 0 0.2397815562044239 -0.43532636780203821 0 0.24906811247889871 -0.42018394575197571 0 0.2364617536912208 -0.42116779443511332 0 0.2551075473088158 -0.43171633652827451 0 0.2397815562044239 -0.43532636780203821 0 0.24906811247889871 -0.42018394575197571 0 0.24222268827320201 -0.40850571638685279 0 0.2364617536912208 -0.42116779443511332 0 0.22599498004542051 -0.40847927054181682 0 0.25830845723407642 -0.40692736577303767 0 0.24222268827320201 -0.40850571638685279 0 0.24906811247889871 -0.42018394575197571 0 0.24222268827320201 -0.40850571638685279 0 0.24906811247889871 -0.42018394575197571 0 0.2364617536912208 -0.42116779443511332 0 0.22433601335253259 -0.42520697676833641 0 0.2364617536912208 -0.42116779443511332 0 0.22599498004542051 -0.40847927054181682 0 0.21370019214275601 -0.41652978291814879 0 0.22433601335253259 -0.42520697676833641 0 0.22599498004542051 -0.40847927054181682 0 0.22599498004542051 -0.40847927054181682 0 0.2214178167834753 -0.39243918007568829 0 0.2331544660000158 -0.39503133660632378 0 0.24222268827320201 -0.40850571638685279 0 0.22599498004542051 -0.40847927054181682 0 0.2331544660000158 -0.39503133660632378 0 0.22599498004542051 -0.40847927054181682 0 0.2214178167834753 -0.39243918007568829 0 0.20899616037558691 -0.39974206439640853 0 0.24222268827320201 -0.40850571638685279 0 0.2331544660000158 -0.39503133660632378 0 0.247588930070654 -0.38856200229685162 0 0.25830845723407642 -0.40692736577303767 0 0.24222268827320201 -0.40850571638685279 0 0.247588930070654 -0.38856200229685162 0 0.24222268827320201 -0.40850571638685279 0 0.2331544660000158 -0.39503133660632378 0 0.24016443202273069 -0.37384004815211108 0 0.247588930070654 -0.38856200229685162 0 0.22408624372682981 -0.38155695682579471 0 0.247588930070654 -0.38856200229685162 0 0.22408624372682981 -0.38155695682579471 0 0.2331544660000158 -0.39503133660632378 0 0.247588930070654 -0.38856200229685162 0 0.22408624372682981 -0.38155695682579471 0 0.26072890620209388 -0.37735332967840601 0 0.24016443202273069 -0.37384004815211108 0 0.247588930070654 -0.38856200229685162 0 0.2331544660000158 -0.39503133660632378 0 0.22408624372682981 -0.38155695682579471 0 0.2214178167834753 -0.39243918007568829 0 0.2331544660000158 -0.39503133660632378 0 0.22408624372682981 -0.38155695682579471 0 0.2214178167834753 -0.39243918007568829 0 0.22408624372682981 -0.38155695682579471 0 0.21194856608894769 -0.37793928595521598 0 0.21194856608894769 -0.37793928595521598 0 0.20899616037558691 -0.39974206439640853 0 0.19853878266731029 -0.38601008798987679 0 0.2214178167834753 -0.39243918007568829 0 0.21194856608894769 -0.37793928595521598 0 0.20899616037558691 -0.39974206439640853 0 0.22408624372682981 -0.38155695682579471 0 0.21194856608894769 -0.37793928595521598 0 0.19959656517642779 -0.37056652653384381 0 0.21194856608894769 -0.37793928595521598 0 0.19853878266731029 -0.38601008798987679 0 0.2024187229094381 -0.41146382350652771 0 0.20899616037558691 -0.39974206439640853 0 0.18982739020597009 -0.40171904433710448 0 0.20899616037558691 -0.39974206439640853 0 0.18982739020597009 -0.40171904433710448 0 0.19853878266731029 -0.38601008798987679 0 0.18982739020597009 -0.40171904433710448 0 0.19853878266731029 -0.38601008798987679 0 0.18347084657675811 -0.37603462617166361 0 0.19959656517642779 -0.37056652653384381 0 0.19853878266731029 -0.38601008798987679 0 0.18347084657675811 -0.37603462617166361 0 0.18347084657675811 -0.37603462617166361 0 0.17060045530682549 -0.40023346274077393 0 0.16173454447914309 -0.38148246462979157 0 0.18982739020597009 -0.40171904433710448 0 0.18347084657675811 -0.37603462617166361 0 0.17060045530682549 -0.40023346274077393 0 0.17060045530682549 -0.40023346274077393 0 0.16173454447914309 -0.38148246462979157 0 0.1469077286703824 -0.3961445349242404 0 0.14379218960586679 -0.37333779990750893 0 0.16173454447914309 -0.38148246462979157 0 0.1469077286703824 -0.3961445349242404 0 0.14379218960586679 -0.37333779990750893 0 0.1469077286703824 -0.3961445349242404 0 0.12368287697585111 -0.38501370041024707 0 0.14379218960586679 -0.37333779990750893 0 0.12368287697585111 -0.38501370041024707 0 0.1469077286703824 -0.3961445349242404 0 0.12745078406880339 -0.41173953656431339 0 0.12368287697585111 -0.38501370041024707 0 0.12745078406880339 -0.41173953656431339 0 0.12368287697585111 -0.38501370041024707 0 0.1469077286703824 -0.3961445349242404 0 0.12745078406880339 -0.41173953656431339 0 0.1524605702718777 -0.42377020029576851 0 0.12745078406880339 -0.41173953656431339 0 0.1524605702718777 -0.42377020029576851 0 0.12745078406880339 -0.41173953656431339 0 0.13036525188636139 -0.43241191182378952 0 0.1524605702718777 -0.42377020029576851 0 0.12745078406880339 -0.41173953656431339 0 0.13036525188636139 -0.43241191182378952 0 0.13036525188636139 -0.43241191182378952 0 0.1524605702718777 -0.42377020029576851 0 0.1557610004673835 -0.44715595876360381 0 0.1524605702718777 -0.42377020029576851 0 0.1829336097517586 -0.41699160424010728 0 0.17747035647495221 -0.4358008640272234 0 0.1524605702718777 -0.42377020029576851 0 0.17747035647495221 -0.4358008640272234 0 0.1524605702718777 -0.42377020029576851 0 0.17747035647495221 -0.4358008640272234 0 0.1557610004673835 -0.44715595876360381 0 0.17060045530682549 -0.40023346274077393 0 0.1524605702718777 -0.42377020029576851 0 0.1829336097517586 -0.41699160424010728 0 0.17060045530682549 -0.40023346274077393 0 0.1469077286703824 -0.3961445349242404 0 0.1524605702718777 -0.42377020029576851 0 0.18982739020597009 -0.40171904433710448 0 0.17060045530682549 -0.40023346274077393 0 0.1829336097517586 -0.41699160424010728 0 0.17747035647495221 -0.4358008640272234 0 0.18551131160143111 -0.45928894678925292 0 0.1557610004673835 -0.44715595876360381 0 0.18551131160143111 -0.45928894678925292 0 0.1650954848410443 -0.46695753813866892 0 0.1557610004673835 -0.44715595876360381 0 0.1650954848410443 -0.46695753813866892 0 0.1557610004673835 -0.44715595876360381 0 0.14863014332184521 -0.46361039004614452 0 0.13036525188636139 -0.43241191182378952 0 0.1557610004673835 -0.44715595876360381 0 0.13327971970391889 -0.45308428708326559 0 0.13036525188636139 -0.43241191182378952 0 0.13327971970391889 -0.45308428708326559 0 0.1177831927022262 -0.44990651191982228 0 0.13036525188636139 -0.43241191182378952 0 0.13327971970391889 -0.45308428708326559 0 0.13327971970391889 -0.45308428708326559 0 0.1363707373993967 -0.47719986636352429 0 0.1132362604826828 -0.46937042041499949 0 0.13327971970391889 -0.45308428708326559 0 0.14863014332184521 -0.46361039004614452 0 0.1363707373993967 -0.47719986636352429 0 0.1557610004673835 -0.44715595876360381 0 0.13327971970391889 -0.45308428708326559 0 0.14863014332184521 -0.46361039004614452 0 0.14863014332184521 -0.46361039004614452 0 0.1363707373993967 -0.47719986636352429 0 0.15647049356090559 -0.48206498083821719 0 0.1363707373993967 -0.47719986636352429 0 0.14066900492553561 -0.5 0 0.1122921921940834 -0.5 0 0.1363707373993967 -0.47719986636352429 0 0.14066900492553561 -0.5 0 0.15647049356090559 -0.48206498083821719 0 0.14066900492553561 -0.5 0 0.16904581765698781 -0.5 0 0.15647049356090559 -0.48206498083821719 0 0.16904581765698781 -0.5 0 0.15647049356090559 -0.48206498083821719 0 0.17877155851943841 -0.4809285805175037 0 0.1650954848410443 -0.46695753813866892 0 0.15647049356090559 -0.48206498083821719 0 0.17877155851943841 -0.4809285805175037 0 0.1650954848410443 -0.46695753813866892 0 0.14863014332184521 -0.46361039004614452 0 0.15647049356090559 -0.48206498083821719 0 0.18551131160143111 -0.45928894678925292 0 0.1650954848410443 -0.46695753813866892 0 0.17877155851943841 -0.4809285805175037 0 0.19742263038843999 -0.5 0 0.16904581765698781 -0.5 0 0.17877155851943841 -0.4809285805175037 0 0.072422486157921295 -0.48063314663010592 0 0.083915379462631168 -0.5 0 0.055538566731178962 -0.5 0 0.072422486157921295 -0.48063314663010592 0 0.068735348342430252 -0.46401812581671209 0 0.056080856556470618 -0.47418746996764899 0 0.072422486157921295 -0.48063314663010592 0 0.088468679434768202 -0.46470538994063543 0 0.068735348342430252 -0.46401812581671209 0 0.072422486157921295 -0.48063314663010592 0 0.09691768442332542 -0.48422203598449032 0 0.088468679434768202 -0.46470538994063543 0 0.072422486157921295 -0.48063314663010592 0 0.083915379462631168 -0.5 0 0.09691768442332542 -0.48422203598449032 0 0.083915379462631168 -0.5 0 0.1122921921940834 -0.5 0 0.09691768442332542 -0.48422203598449032 0 0.1122921921940834 -0.5 0 0.1132362604826828 -0.46937042041499949 0 0.09691768442332542 -0.48422203598449032 0 0.1363707373993967 -0.47719986636352429 0 0.1122921921940834 -0.5 0 0.1132362604826828 -0.46937042041499949 0 0.1132362604826828 -0.46937042041499949 0 0.09691768442332542 -0.48422203598449032 0 0.088468679434768202 -0.46470538994063543 0 0.1132362604826828 -0.46937042041499949 0 0.10349733946441241 -0.45387173280916621 0 0.088468679434768202 -0.46470538994063543 0 0.10349733946441241 -0.45387173280916621 0 0.09173077455676755 -0.44551916144357262 0 0.088468679434768202 -0.46470538994063543 0 0.1132362604826828 -0.46937042041499949 0 0.10349733946441241 -0.45387173280916621 0 0.1177831927022262 -0.44990651191982228 0 0.13327971970391889 -0.45308428708326559 0 0.1132362604826828 -0.46937042041499949 0 0.1177831927022262 -0.44990651191982228 0 0.13036525188636139 -0.43241191182378952 0 0.1177831927022262 -0.44990651191982228 0 0.1060959547558432 -0.43978623641848091 0 0.10349733946441241 -0.45387173280916621 0 0.1177831927022262 -0.44990651191982228 0 0.1060959547558432 -0.43978623641848091 0 0.10349733946441241 -0.45387173280916621 0 0.1060959547558432 -0.43978623641848091 0 0.09173077455676755 -0.44551916144357262 0 0.1060959547558432 -0.43978623641848091 0 0.09173077455676755 -0.44551916144357262 0 0.095448415678705795 -0.43049534407353562 0 0.09173077455676755 -0.44551916144357262 0 0.074304094090028083 -0.44882153338498187 0 0.081942768929505111 -0.43204007214991419 0 0.09173077455676755 -0.44551916144357262 0 0.088468679434768202 -0.46470538994063543 0 0.074304094090028083 -0.44882153338498187 0 0.068735348342430252 -0.46401812581671209 0 0.074304094090028083 -0.44882153338498187 0 0.056131133273125432 -0.45572085478548757 0 0.088468679434768202 -0.46470538994063543 0 0.068735348342430252 -0.46401812581671209 0 0.074304094090028083 -0.44882153338498187 0 0.074304094090028083 -0.44882153338498187 0 0.067791252754704115 -0.43076047887581981 0 0.060618215003787349 -0.44252157086127691 0 0.074304094090028083 -0.44882153338498187 0 0.060618215003787349 -0.44252157086127691 0 0.056131133273125432 -0.45572085478548757 0 0.074304094090028083 -0.44882153338498187 0 0.067791252754704115 -0.43076047887581981 0 0.081942768929505111 -0.43204007214991419 0 0.073021079905570829 -0.41714930683430751 0 0.081942768929505111 -0.43204007214991419 0 0.067791252754704115 -0.43076047887581981 0 0.073021079905570829 -0.41714930683430751 0 0.081942768929505111 -0.43204007214991419 0 0.067791252754704115 -0.43076047887581981 0 0.073021079905570829 -0.41714930683430751 0 0.057017302293320908 -0.4166197849373251 0 0.073021079905570829 -0.41714930683430751 0 0.064099390881637353 -0.40225854151870027 0 0.057017302293320908 -0.4166197849373251 0 0.073021079905570829 -0.41714930683430751 0 0.083766660487544858 -0.41025071856283318 0 0.064099390881637353 -0.40225854151870027 0 0.073021079905570829 -0.41714930683430751 0 0.064099390881637353 -0.40225854151870027 0 0.073021079905570829 -0.41714930683430751 0 0.084538195307102715 -0.42049613969171362 0 0.083766660487544858 -0.41025071856283318 0 0.083766660487544858 -0.41025071856283318 0 0.094648439165594705 -0.41715144388026049 0 0.09508187643691185 -0.4072068948484327 0 0.084538195307102715 -0.42049613969171362 0 0.083766660487544858 -0.41025071856283318 0 0.094648439165594705 -0.41715144388026049 0 0.084538195307102715 -0.42049613969171362 0 0.095448415678705795 -0.43049534407353562 0 0.094648439165594705 -0.41715144388026049 0 0.084538195307102715 -0.42049613969171362 0 0.081942768929505111 -0.43204007214991419 0 0.095448415678705795 -0.43049534407353562 0 0.073021079905570829 -0.41714930683430751 0 0.084538195307102715 -0.42049613969171362 0 0.081942768929505111 -0.43204007214991419 0 0.09173077455676755 -0.44551916144357262 0 0.081942768929505111 -0.43204007214991419 0 0.095448415678705795 -0.43049534407353562 0 0.095448415678705795 -0.43049534407353562 0 0.1111864737817959 -0.42224597723182999 0 0.094648439165594705 -0.41715144388026049 0 0.1060959547558432 -0.43978623641848091 0 0.095448415678705795 -0.43049534407353562 0 0.1111864737817959 -0.42224597723182999 0 0.12745078406880339 -0.41173953656431339 0 0.13036525188636139 -0.43241191182378952 0 0.1111864737817959 -0.42224597723182999 0 0.13036525188636139 -0.43241191182378952 0 0.1060959547558432 -0.43978623641848091 0 0.1111864737817959 -0.42224597723182999 0 0.12745078406880339 -0.41173953656431339 0 0.1111864737817959 -0.42224597723182999 0 0.1132544371503572 -0.4049105507183689 0 0.1111864737817959 -0.42224597723182999 0 0.1049973604849483 -0.41262078559747978 0 0.1132544371503572 -0.4049105507183689 0 0.12745078406880339 -0.41173953656431339 0 0.1132544371503572 -0.4049105507183689 0 0.1111864737817959 -0.42224597723182999 0 0.1049973604849483 -0.41262078559747978 0 0.094648439165594705 -0.41715144388026049 0 0.1049973604849483 -0.41262078559747978 0 0.1030979410760321 -0.40570494900917642 0 0.1132544371503572 -0.4049105507183689 0 0.1049973604849483 -0.41262078559747978 0 0.094648439165594705 -0.41715144388026049 0 0.09508187643691185 -0.4072068948484327 0 0.1049973604849483 -0.41262078559747978 0 0.09508187643691185 -0.4072068948484327 0 0.1030979410760321 -0.40570494900917642 0 0.09508187643691185 -0.4072068948484327 0 0.099058090231911061 -0.39808156487242408 0 0.1030979410760321 -0.40570494900917642 0 0.09508187643691185 -0.4072068948484327 0 0.099058090231911061 -0.39808156487242408 0 0.091914695406366334 -0.39777021706256183 0 0.096814084337649681 -0.39067587779447938 0 0.099058090231911061 -0.39808156487242408 0 0.10681827574106979 -0.39480565151561398 0 0.096814084337649681 -0.39067587779447938 0 0.099058090231911061 -0.39808156487242408 0 0.091914695406366334 -0.39777021706256183 0 0.096814084337649681 -0.39067587779447938 0 0.10681827574106979 -0.39480565151561398 0 0.1028232381679869 -0.38681338924419861 0 0.099058090231911061 -0.39808156487242408 0 0.10681827574106979 -0.39480565151561398 0 0.1132544371503572 -0.4049105507183689 0 0.099058090231911061 -0.39808156487242408 0 0.1132544371503572 -0.4049105507183689 0 0.099058090231911061 -0.39808156487242408 0 0.1030979410760321 -0.40570494900917642 0 0.1132544371503572 -0.4049105507183689 0 0.12745078406880339 -0.41173953656431339 0 0.1132544371503572 -0.4049105507183689 0 0.12368287697585111 -0.38501370041024707 0 0.10681827574106979 -0.39480565151561398 0 0.1132544371503572 -0.4049105507183689 0 0.12368287697585111 -0.38501370041024707 0 0.10681827574106979 -0.39480565151561398 0 0.12368287697585111 -0.38501370041024707 0 0.1102147613698282 -0.38123653097256432 0 0.12368287697585111 -0.38501370041024707 0 0.1102147613698282 -0.38123653097256432 0 0.12019635867396369 -0.36028376026423847 0 0.10681827574106979 -0.39480565151561398 0 0.12368287697585111 -0.38501370041024707 0 0.10681827574106979 -0.39480565151561398 0 0.1102147613698282 -0.38123653097256432 0 0.1028232381679869 -0.38681338924419861 0 0.1102147613698282 -0.38123653097256432 0 0.1028232381679869 -0.38681338924419861 0 0.096242330811393703 -0.38058206078384738 0 0.096814084337649681 -0.39067587779447938 0 0.096242330811393703 -0.38058206078384738 0 0.089081893774689919 -0.38651713342233418 0 0.096814084337649681 -0.39067587779447938 0 0.1028232381679869 -0.38681338924419861 0 0.096242330811393703 -0.38058206078384738 0 0.096242330811393703 -0.38058206078384738 0 0.083853473646309448 -0.3755348833327668 0 0.089081893774689919 -0.38651713342233418 0 0.083853473646309448 -0.3755348833327668 0 0.089081893774689919 -0.38651713342233418 0 0.077592906523296923 -0.38810694195364648 0 0.083766660487544858 -0.41025071856283318 0 0.091914695406366334 -0.39777021706256183 0 0.064099390881637353 -0.40225854151870027 0 0.089081893774689919 -0.38651713342233418 0 0.091914695406366334 -0.39777021706256183 0 0.077592906523296923 -0.38810694195364648 0 0.096814084337649681 -0.39067587779447938 0 0.089081893774689919 -0.38651713342233418 0 0.091914695406366334 -0.39777021706256183 0 0.083766660487544858 -0.41025071856283318 0 0.09508187643691185 -0.4072068948484327 0 0.091914695406366334 -0.39777021706256183 0 0.091914695406366334 -0.39777021706256183 0 0.064099390881637353 -0.40225854151870027 0 0.077592906523296923 -0.38810694195364648 0 0.091914695406366334 -0.39777021706256183 0 0.064099390881637353 -0.40225854151870027 0 0.064099390881637353 -0.40225854151870027 0 0.065677941987698718 -0.387349247244408 0 0.077592906523296923 -0.38810694195364648 0 0.070893113819720549 -0.37841769288884858 0 0.059722780704810997 -0.37895445758325669 0 0.065755205275322956 -0.37019101960397183 0 0.065677941987698718 -0.387349247244408 0 0.070893113819720549 -0.37841769288884858 0 0.059722780704810997 -0.37895445758325669 0 0.083853473646309448 -0.3755348833327668 0 0.070893113819720549 -0.37841769288884858 0 0.077592906523296923 -0.38810694195364648 0 0.065677941987698718 -0.387349247244408 0 0.070893113819720549 -0.37841769288884858 0 0.077592906523296923 -0.38810694195364648 0 0.059722780704810997 -0.37895445758325669 0 0.055218694060393023 -0.38743619433203957 0 0.039729182808249552 -0.36158339041897292 0 0.059722780704810997 -0.37895445758325669 0 0.055218694060393023 -0.38743619433203957 0 0.065677941987698718 -0.387349247244408 0 0.059722780704810997 -0.37895445758325669 0 0.055218694060393023 -0.38743619433203957 0 0.064099390881637353 -0.40225854151870027 0 0.055218694060393023 -0.38743619433203957 0 0.045777561143979559 -0.40521498286988278 0 0.064099390881637353 -0.40225854151870027 0 0.065677941987698718 -0.387349247244408 0 0.055218694060393023 -0.38743619433203957 0 0.064099390881637353 -0.40225854151870027 0 0.045777561143979559 -0.40521498286988278 0 0.055218694060393023 -0.38743619433203957 0 0.044174881026473073 -0.39437667952805588 0 0.045777561143979559 -0.40521498286988278 0 0.055218694060393023 -0.38743619433203957 0 0.045777561143979559 -0.40521498286988278 0 0.064099390881637353 -0.40225854151870027 0 0.055218694060393023 -0.38743619433203957 0 0.044174881026473073 -0.39437667952805588 0 0.034303750940639449 -0.3869604010248387 0 0.029862230517809549 -0.40778310746522589 0 0.044174881026473073 -0.39437667952805588 0 0.045777561143979559 -0.40521498286988278 0 0.029862230517809549 -0.40778310746522589 0 0.055218694060393023 -0.38743619433203957 0 0.034303750940639449 -0.3869604010248387 0 0.039729182808249552 -0.36158339041897292 0 0.055218694060393023 -0.38743619433203957 0 0.044174881026473073 -0.39437667952805588 0 0.034303750940639449 -0.3869604010248387 0 0.034303750940639449 -0.3869604010248387 0 0.016582465561187618 -0.37900705299089033 0 0.02529541385786294 -0.36926246655491041 0 0.034303750940639449 -0.3869604010248387 0 0.016582465561187618 -0.37900705299089033 0 0.020202277279582889 -0.39613647541880531 0 0.016582465561187618 -0.37900705299089033 0 0.0063160394866382131 -0.39658058355250198 0 0.020202277279582889 -0.39613647541880531 0 -0.00049818021965669299 -0.36793998380101861 0 0.016582465561187618 -0.37900705299089033 0 0.0063160394866382131 -0.39658058355250198 0 -0.00049818021965669299 -0.36793998380101861 0 0.0063160394866382131 -0.39658058355250198 0 0.0063160394866382131 -0.39658058355250198 0 0.020202277279582889 -0.39613647541880531 0 0.01394689989163965 -0.41035123206056962 0 0.020202277279582889 -0.39613647541880531 0 0.029862230517809549 -0.40778310746522589 0 0.01394689989163965 -0.41035123206056962 0 0.034303750940639449 -0.3869604010248387 0 0.020202277279582889 -0.39613647541880531 0 0.029862230517809549 -0.40778310746522589 0 0.029862230517809549 -0.40778310746522589 0 0.01394689989163965 -0.41035123206056962 0 0.029862230517809549 -0.40778310746522589 0 0.022450102405996521 -0.41822347644811408 0 0.01394689989163965 -0.41035123206056962 0 0.029862230517809549 -0.40778310746522589 0 0.022450102405996521 -0.41822347644811408 0 0.032861020021603828 -0.42953838296267582 0 0.022450102405996521 -0.41822347644811408 0 0.01394689989163965 -0.41035123206056962 0 0.013130259192933071 -0.42522118330398528 0 0.0063160394866382131 -0.39658058355250198 0 0.013130259192933071 -0.42522118330398528 0 -0.0069005692177502602 -0.41485602653172571 0 0.0063160394866382131 -0.39658058355250198 0 0.013130259192933071 -0.42522118330398528 0 0.0063160394866382131 -0.39658058355250198 0 0.01394689989163965 -0.41035123206056962 0 0.013130259192933071 -0.42522118330398528 0 -0.0069005692177502602 -0.41485602653172571 0 -0.0032746580085849359 -0.4322889095963432 0 0.013130259192933071 -0.42522118330398528 0 -0.0032746580085849359 -0.4322889095963432 0 0.013130259192933071 -0.42522118330398528 0 0.0084874319089191137 -0.44082685020097728 0 0.013130259192933071 -0.42522118330398528 0 0.032861020021603828 -0.42953838296267582 0 0.019944478899227631 -0.45386178305546848 0 0.022450102405996521 -0.41822347644811408 0 0.013130259192933071 -0.42522118330398528 0 0.032861020021603828 -0.42953838296267582 0 0.045407415337893699 -0.42500259301235688 0 0.032861020021603828 -0.42953838296267582 0 0.037433340194923732 -0.44062468901510521 0 0.045407415337893699 -0.42500259301235688 0 0.053947853035640557 -0.43301512527679659 0 0.037433340194923732 -0.44062468901510521 0 0.045777561143979559 -0.40521498286988278 0 0.029862230517809549 -0.40778310746522589 0 0.032861020021603828 -0.42953838296267582 0 0.045777561143979559 -0.40521498286988278 0 0.029862230517809549 -0.40778310746522589 0 0.045777561143979559 -0.40521498286988278 0 0.032861020021603828 -0.42953838296267582 0 0.045777561143979559 -0.40521498286988278 0 0.045407415337893699 -0.42500259301235688 0 0.032861020021603828 -0.42953838296267582 0 0.045777561143979559 -0.40521498286988278 0 0.045407415337893699 -0.42500259301235688 0 0.057017302293320908 -0.4166197849373251 0 0.064099390881637353 -0.40225854151870027 0 0.045777561143979559 -0.40521498286988278 0 0.057017302293320908 -0.4166197849373251 0 0.067791252754704115 -0.43076047887581981 0 0.057017302293320908 -0.4166197849373251 0 0.053947853035640557 -0.43301512527679659 0 0.045407415337893699 -0.42500259301235688 0 0.057017302293320908 -0.4166197849373251 0 0.053947853035640557 -0.43301512527679659 0 0.067791252754704115 -0.43076047887581981 0 0.053947853035640557 -0.43301512527679659 0 0.060618215003787349 -0.44252157086127691 0 0.053947853035640557 -0.43301512527679659 0 0.049893095464332349 -0.44526286896067419 0 0.037433340194923732 -0.44062468901510521 0 0.049893095464332349 -0.44526286896067419 0 0.056131133273125432 -0.45572085478548757 0 0.040121588779976063 -0.45288443190343741 0 0.053947853035640557 -0.43301512527679659 0 0.049893095464332349 -0.44526286896067419 0 0.060618215003787349 -0.44252157086127691 0 0.049893095464332349 -0.44526286896067419 0 0.060618215003787349 -0.44252157086127691 0 0.056131133273125432 -0.45572085478548757 0 0.056131133273125432 -0.45572085478548757 0 0.044391055941606222 -0.46463854574232688 0 0.056080856556470618 -0.47418746996764899 0 0.056131133273125432 -0.45572085478548757 0 0.044391055941606222 -0.46463854574232688 0 0.040121588779976063 -0.45288443190343741 0 0.068735348342430252 -0.46401812581671209 0 0.056131133273125432 -0.45572085478548757 0 0.056080856556470618 -0.47418746996764899 0 0.044391055941606222 -0.46463854574232688 0 0.034882999323715871 -0.45992451587972383 0 0.040121588779976063 -0.45288443190343741 0 0.031956858036418977 -0.46863115343132627 0 0.034882999323715871 -0.45992451587972383 0 0.027141237909342659 -0.46123060160210222 0 0.044391055941606222 -0.46463854574232688 0 0.031956858036418977 -0.46863115343132627 0 0.034882999323715871 -0.45992451587972383 0 0.034882999323715871 -0.45992451587972383 0 0.040121588779976063 -0.45288443190343741 0 0.029152420890266071 -0.45473626185268529 0 0.040121588779976063 -0.45288443190343741 0 0.037433340194923732 -0.44062468901510521 0 0.029152420890266071 -0.45473626185268529 0 0.049893095464332349 -0.44526286896067419 0 0.040121588779976063 -0.45288443190343741 0 0.037433340194923732 -0.44062468901510521 0 0.037433340194923732 -0.44062468901510521 0 0.019944478899227631 -0.45386178305546848 0 0.029152420890266071 -0.45473626185268529 0 0.013130259192933071 -0.42522118330398528 0 0.019944478899227631 -0.45386178305546848 0 0.032861020021603828 -0.42953838296267582 0 0.019944478899227631 -0.45386178305546848 0 0.032861020021603828 -0.42953838296267582 0 0.037433340194923732 -0.44062468901510521 0 0.019944478899227631 -0.45386178305546848 0 0.013130259192933071 -0.42522118330398528 0 0.0084874319089191137 -0.44082685020097728 0 0.019944478899227631 -0.45386178305546848 0 -0.0032746580085849359 -0.4322889095963432 0 0.0084874319089191137 -0.44082685020097728 0 0.001716639485354166 -0.44953294239826891 0 0.0084874319089191137 -0.44082685020097728 0 0.010813012497565109 -0.45099681236545802 0 0.019944478899227631 -0.45386178305546848 0 0.010813012497565109 -0.45099681236545802 0 0.001716639485354166 -0.44953294239826891 0 0.0099762476262518357 -0.45808933940653113 0 0.0084874319089191137 -0.44082685020097728 0 0.010813012497565109 -0.45099681236545802 0 0.001716639485354166 -0.44953294239826891 0 0.001716639485354166 -0.44953294239826891 0 0.0037264172664160612 -0.46476221296183129 0 0.0099762476262518357 -0.45808933940653113 0 0.010813012497565109 -0.45099681236545802 0 0.014481801490379311 -0.4554975510506406 0 0.019944478899227631 -0.45386178305546848 0 0.010813012497565109 -0.45099681236545802 0 0.0099762476262518357 -0.45808933940653113 0 0.014481801490379311 -0.4554975510506406 0 0.0099762476262518357 -0.45808933940653113 0 0.01390350412804028 -0.46349681710624918 0 0.017193466938472641 -0.45904226937510467 0 0.0099762476262518357 -0.45808933940653113 0 0.014481801490379311 -0.4554975510506406 0 0.017193466938472641 -0.45904226937510467 0 0.0037264172664160612 -0.46476221296183129 0 0.01390350412804028 -0.46349681710624918 0 0.017643740041020178 -0.47009056048251557 0 0.0037264172664160612 -0.46476221296183129 0 0.0099762476262518357 -0.45808933940653113 0 0.01390350412804028 -0.46349681710624918 0 0.01390350412804028 -0.46349681710624918 0 0.021324914800428689 -0.45966384313467989 0 0.017643740041020178 -0.47009056048251557 0 0.021324914800428689 -0.45966384313467989 0 0.027141237909342659 -0.46123060160210222 0 0.017643740041020178 -0.47009056048251557 0 0.017193466938472641 -0.45904226937510467 0 0.019944478899227631 -0.45386178305546848 0 0.014481801490379311 -0.4554975510506406 0 0.017193466938472641 -0.45904226937510467 0 0.019944478899227631 -0.45386178305546848 0 0.017193466938472641 -0.45904226937510467 0 0.021324914800428689 -0.45966384313467989 0 0.019944478899227631 -0.45386178305546848 0 0.01390350412804028 -0.46349681710624918 0 0.017193466938472641 -0.45904226937510467 0 0.021324914800428689 -0.45966384313467989 0 0.021324914800428689 -0.45966384313467989 0 0.019944478899227631 -0.45386178305546848 0 0.024390763124816261 -0.45737312241123401 0 0.021324914800428689 -0.45966384313467989 0 0.019944478899227631 -0.45386178305546848 0 0.019944478899227631 -0.45386178305546848 0 0.024390763124816261 -0.45737312241123401 0 0.029152420890266071 -0.45473626185268529 0 0.024390763124816261 -0.45737312241123401 0 0.029152420890266071 -0.45473626185268529 0 0.027141237909342659 -0.46123060160210222 0 0.021324914800428689 -0.45966384313467989 0 0.024390763124816261 -0.45737312241123401 0 0.027141237909342659 -0.46123060160210222 0 0.034882999323715871 -0.45992451587972383 0 0.029152420890266071 -0.45473626185268529 0 0.027141237909342659 -0.46123060160210222 0 0.031956858036418977 -0.46863115343132627 0 0.027141237909342659 -0.46123060160210222 0 0.017643740041020178 -0.47009056048251557 0 0.031956858036418977 -0.46863115343132627 0 0.02579433801394089 -0.47900756737673922 0 0.017643740041020178 -0.47009056048251557 0 0.02579433801394089 -0.47900756737673922 0 0.017643740041020178 -0.47009056048251557 0 0.01058759347603881 -0.48123183552702131 0 0.0037264172664160612 -0.46476221296183129 0 0.017643740041020178 -0.47009056048251557 0 0.01058759347603881 -0.48123183552702131 0 -0.0093166579641743019 -0.47586122067793529 0 0.0037264172664160612 -0.46476221296183129 0 0.01058759347603881 -0.48123183552702131 0 -0.0012150587317253359 -0.49999999999999689 0 -0.0093166579641743019 -0.47586122067793529 0 0.01058759347603881 -0.48123183552702131 0 -0.0012150587317253359 -0.49999999999999689 0 0.01058759347603881 -0.48123183552702131 0 0.027161753999726871 -0.5 0 0.02579433801394089 -0.47900756737673922 0 0.027161753999726871 -0.5 0 0.039694359420103027 -0.48057031261397959 0 0.02579433801394089 -0.47900756737673922 0 0.01058759347603881 -0.48123183552702131 0 0.027161753999726871 -0.5 0 0.027161753999726871 -0.5 0 0.039694359420103027 -0.48057031261397959 0 0.055538566731178962 -0.5 0 0.044391055941606222 -0.46463854574232688 0 0.031956858036418977 -0.46863115343132627 0 0.039694359420103027 -0.48057031261397959 0 0.044391055941606222 -0.46463854574232688 0 0.039694359420103027 -0.48057031261397959 0 0.056080856556470618 -0.47418746996764899 0 0.031956858036418977 -0.46863115343132627 0 0.02579433801394089 -0.47900756737673922 0 0.039694359420103027 -0.48057031261397959 0 0.072422486157921295 -0.48063314663010592 0 0.056080856556470618 -0.47418746996764899 0 0.055538566731178962 -0.5 0 0.039694359420103027 -0.48057031261397959 0 0.056080856556470618 -0.47418746996764899 0 0.055538566731178962 -0.5 0 0.088789839770954337 -0.30253695864136682 0 0.067433679880433459 -0.31607754326001469 0 0.056848029689193842 -0.29711200683874289 0 0.088789839770954337 -0.30253695864136682 0 0.071144434350033592 -0.28055630331440262 0 0.056848029689193842 -0.29711200683874289 0 0.088789839770954337 -0.30253695864136682 0 0.071144434350033592 -0.28055630331440262 0 0.092101597056431839 -0.27953326143221291 0 0.088789839770954337 -0.30253695864136682 0 0.090841388043437943 -0.31708862927436782 0 0.067433679880433459 -0.31607754326001469 0 0.088789839770954337 -0.30253695864136682 0 0.067433679880433459 -0.31607754326001469 0 0.071144434350033592 -0.28055630331440262 0 0.064031874058667074 -0.26136407352184809 0 0.080395875825239785 -0.26737024413027838 0 0.064031874058667074 -0.26136407352184809 0 0.081329954464350651 -0.25197822414875098 0 0.080395875825239785 -0.26737024413027838 0 0.064031874058667074 -0.26136407352184809 0 0.081329954464350651 -0.25197822414875098 0 0.062180769977122588 -0.24315331096981641 0 0.081329954464350651 -0.25197822414875098 0 0.094711051038751895 -0.26320329340646942 0 0.1045966638567058 -0.2496348303797036 0 0.081329954464350651 -0.25197822414875098 0 0.080395875825239785 -0.26737024413027838 0 0.094711051038751895 -0.26320329340646942 0 0.081329954464350651 -0.25197822414875098 0 0.094711051038751895 -0.26320329340646942 0 0.071144434350033592 -0.28055630331440262 0 0.092101597056431839 -0.27953326143221291 0 0.080395875825239785 -0.26737024413027838 0 0.092101597056431839 -0.27953326143221291 0 0.080395875825239785 -0.26737024413027838 0 0.094711051038751895 -0.26320329340646942 0 0.092101597056431839 -0.27953326143221291 0 0.1080921476131535 -0.27442836266418752 0 0.11014599966147461 -0.28899637402271761 0 0.092101597056431839 -0.27953326143221291 0 0.1080921476131535 -0.27442836266418752 0 0.094711051038751895 -0.26320329340646942 0 0.1080921476131535 -0.27442836266418752 0 0.094711051038751895 -0.26320329340646942 0 0.1080921476131535 -0.27442836266418752 0 0.1045966638567058 -0.2496348303797036 0 0.1080921476131535 -0.27442836266418752 0 0.094711051038751895 -0.26320329340646942 0 0.1045966638567058 -0.2496348303797036 0 0.12333783748076731 -0.26381910548914522 0 0.1045966638567058 -0.2496348303797036 0 0.13331006931279599 -0.24555192327291309 0 0.1080921476131535 -0.27442836266418752 0 0.12333783748076731 -0.26381910548914522 0 0.1045966638567058 -0.2496348303797036 0 0.1080921476131535 -0.27442836266418752 0 0.12333783748076731 -0.26381910548914522 0 0.1188668799176622 -0.28346701773098282 0 0.1080921476131535 -0.27442836266418752 0 0.1188668799176622 -0.28346701773098282 0 0.1188668799176622 -0.28346701773098282 0 0.11014599966147461 -0.28899637402271761 0 0.1132233220702004 -0.31082387997221927 0 0.1188668799176622 -0.28346701773098282 0 0.11014599966147461 -0.28899637402271761 0 0.1080921476131535 -0.27442836266418752 0 0.1188668799176622 -0.28346701773098282 0 0.11014599966147461 -0.28899637402271761 0 0.1080921476131535 -0.27442836266418752 0 0.11014599966147461 -0.28899637402271761 0 0.088789839770954337 -0.30253695864136682 0 0.11014599966147461 -0.28899637402271761 0 0.088789839770954337 -0.30253695864136682 0 0.092101597056431839 -0.27953326143221291 0 0.11014599966147461 -0.28899637402271761 0 0.088789839770954337 -0.30253695864136682 0 0.1132233220702004 -0.31082387997221927 0 0.090841388043437943 -0.31708862927436782 0 0.088789839770954337 -0.30253695864136682 0 0.11014599966147461 -0.28899637402271761 0 0.1132233220702004 -0.31082387997221927 0 0.1419074093094764 -0.30279514504251009 0 0.1188668799176622 -0.28346701773098282 0 0.1132233220702004 -0.31082387997221927 0 0.11014599966147461 -0.28899637402271761 0 0.1132233220702004 -0.31082387997221927 0 0.13527949779796189 -0.32376720443519319 0 0.1132233220702004 -0.31082387997221927 0 0.11670984037207539 -0.33555382011822987 0 0.1132233220702004 -0.31082387997221927 0 0.11670984037207539 -0.33555382011822987 0 0.11670984037207539 -0.33555382011822987 0 0.090841388043437943 -0.31708862927436782 0 0.089686219878007706 -0.33829157840515378 0 0.1132233220702004 -0.31082387997221927 0 0.11670984037207539 -0.33555382011822987 0 0.090841388043437943 -0.31708862927436782 0 0.1132233220702004 -0.31082387997221927 0 0.090841388043437943 -0.31708862927436782 0 0.1102147613698282 -0.38123653097256432 0 0.12019635867396369 -0.36028376026423847 0 0.098558492197155165 -0.36079838518024948 0 0.12368287697585111 -0.38501370041024707 0 0.12019635867396369 -0.36028376026423847 0 0.11670984037207539 -0.33555382011822987 0 0.12019635867396369 -0.36028376026423847 0 0.098558492197155165 -0.36079838518024948 0 0.11670984037207539 -0.33555382011822987 0 0.12019635867396369 -0.36028376026423847 0 0.11670984037207539 -0.33555382011822987 0 0.098558492197155165 -0.36079838518024948 0 0.089686219878007706 -0.33829157840515378 0 0.1102147613698282 -0.38123653097256432 0 0.096242330811393703 -0.38058206078384738 0 0.098558492197155165 -0.36079838518024948 0 0.096242330811393703 -0.38058206078384738 0 0.083853473646309448 -0.3755348833327668 0 0.098558492197155165 -0.36079838518024948 0 0.083853473646309448 -0.3755348833327668 0 0.098558492197155165 -0.36079838518024948 0 0.081858210411885235 -0.36331830169918822 0 0.083853473646309448 -0.3755348833327668 0 0.081858210411885235 -0.36331830169918822 0 0.074090960770846481 -0.36926871545909151 0 0.098558492197155165 -0.36079838518024948 0 0.082754809125639706 -0.35216622605556541 0 0.089686219878007706 -0.33829157840515378 0 0.082754809125639706 -0.35216622605556541 0 0.089686219878007706 -0.33829157840515378 0 0.070520119831829833 -0.34296211383255709 0 0.098558492197155165 -0.36079838518024948 0 0.081858210411885235 -0.36331830169918822 0 0.082754809125639706 -0.35216622605556541 0 0.081858210411885235 -0.36331830169918822 0 0.082754809125639706 -0.35216622605556541 0 0.070033316319475417 -0.35882329846826788 0 0.082754809125639706 -0.35216622605556541 0 0.070033316319475417 -0.35882329846826788 0 0.070520119831829833 -0.34296211383255709 0 0.070033316319475417 -0.35882329846826788 0 0.070520119831829833 -0.34296211383255709 0 0.056603055565072537 -0.34972028452138038 0 0.081858210411885235 -0.36331830169918822 0 0.070033316319475417 -0.35882329846826788 0 0.074090960770846481 -0.36926871545909151 0 0.070033316319475417 -0.35882329846826788 0 0.065755205275322956 -0.37019101960397183 0 0.074090960770846481 -0.36926871545909151 0 0.070033316319475417 -0.35882329846826788 0 0.065755205275322956 -0.37019101960397183 0 0.057953622182161497 -0.36367777024591219 0 0.070893113819720549 -0.37841769288884858 0 0.065755205275322956 -0.37019101960397183 0 0.074090960770846481 -0.36926871545909151 0 0.083853473646309448 -0.3755348833327668 0 0.070893113819720549 -0.37841769288884858 0 0.074090960770846481 -0.36926871545909151 0 0.090841388043437943 -0.31708862927436782 0 0.089686219878007706 -0.33829157840515378 0 0.068459454016674914 -0.32335337857651458 0 0.090841388043437943 -0.31708862927436782 0 0.068459454016674914 -0.32335337857651458 0 0.089686219878007706 -0.33829157840515378 0 0.070520119831829833 -0.34296211383255709 0 0.068459454016674914 -0.32335337857651458 0 0.070520119831829833 -0.34296211383255709 0 0.068459454016674914 -0.32335337857651458 0 0.057870095432613927 -0.336981781137553 0 0.090841388043437943 -0.31708862927436782 0 0.067433679880433459 -0.31607754326001469 0 0.068459454016674914 -0.32335337857651458 0 0.067433679880433459 -0.31607754326001469 0 0.046077519989912177 -0.3296181278786619 0 0.047742216749143397 -0.31231664877682852 0 0.068459454016674914 -0.32335337857651458 0 0.046077519989912177 -0.3296181278786619 0 0.067433679880433459 -0.31607754326001469 0 0.046077519989912177 -0.3296181278786619 0 0.067433679880433459 -0.31607754326001469 0 0.068459454016674914 -0.32335337857651458 0 0.046077519989912177 -0.3296181278786619 0 0.068459454016674914 -0.32335337857651458 0 0.057870095432613927 -0.336981781137553 0 0.046077519989912177 -0.3296181278786619 0 0.070520119831829833 -0.34296211383255709 0 0.057870095432613927 -0.336981781137553 0 0.056603055565072537 -0.34972028452138038 0 0.057870095432613927 -0.336981781137553 0 0.047988360900348859 -0.34231788337078778 0 0.046077519989912177 -0.3296181278786619 0 0.057870095432613927 -0.336981781137553 0 0.047988360900348859 -0.34231788337078778 0 0.056603055565072537 -0.34972028452138038 0 0.046077519989912177 -0.3296181278786619 0 0.03259383107485618 -0.32216086160685459 0 0.024239671556122361 -0.33573058650589632 0 0.047988360900348859 -0.34231788337078778 0 0.046077519989912177 -0.3296181278786619 0 0.039661950705896301 -0.33368583289737141 0 0.046077519989912177 -0.3296181278786619 0 0.024239671556122361 -0.33573058650589632 0 0.039661950705896301 -0.33368583289737141 0 0.039729182808249552 -0.36158339041897292 0 0.024239671556122361 -0.33573058650589632 0 0.046077519989912177 -0.3296181278786619 0 0.039661950705896301 -0.33368583289737141 0 0.024239671556122361 -0.33573058650589632 0 0.046077519989912177 -0.3296181278786619 0 0.039661950705896301 -0.33368583289737141 0 0.046077519989912177 -0.3296181278786619 0 0.03259383107485618 -0.32216086160685459 0 0.047742216749143397 -0.31231664877682852 0 0.055218694060393023 -0.38743619433203957 0 0.039729182808249552 -0.36158339041897292 0 0.059722780704810997 -0.37895445758325669 0 0.057953622182161497 -0.36367777024591219 0 0.039729182808249552 -0.36158339041897292 0 0.059722780704810997 -0.37895445758325669 0 0.065755205275322956 -0.37019101960397183 0 0.057953622182161497 -0.36367777024591219 0 0.047988360900348859 -0.34231788337078778 0 0.056603055565072537 -0.34972028452138038 0 0.039729182808249552 -0.36158339041897292 0 0.057953622182161497 -0.36367777024591219 0 0.056603055565072537 -0.34972028452138038 0 0.039729182808249552 -0.36158339041897292 0 0.070033316319475417 -0.35882329846826788 0 0.057953622182161497 -0.36367777024591219 0 0.056603055565072537 -0.34972028452138038 0 0.047988360900348859 -0.34231788337078778 0 0.039661950705896301 -0.33368583289737141 0 0.039729182808249552 -0.36158339041897292 0 0.039729182808249552 -0.36158339041897292 0 0.024239671556122361 -0.33573058650589632 0 0.034303750940639449 -0.3869604010248387 0 0.039729182808249552 -0.36158339041897292 0 0.02529541385786294 -0.36926246655491041 0 0.039729182808249552 -0.36158339041897292 0 0.02529541385786294 -0.36926246655491041 0 0.01555115045683025 -0.35491149912017411 0 0.016582465561187618 -0.37900705299089033 0 0.02529541385786294 -0.36926246655491041 0 0.01244318134584467 -0.3666810622011728 0 0.02529541385786294 -0.36926246655491041 0 0.01555115045683025 -0.35491149912017411 0 0.01244318134584467 -0.3666810622011728 0 0.039729182808249552 -0.36158339041897292 0 0.01555115045683025 -0.35491149912017411 0 0.024239671556122361 -0.33573058650589632 0 -0.0032626783328855158 -0.34342855072419909 0 0.01555115045683025 -0.35491149912017411 0 0.024239671556122361 -0.33573058650589632 0 -0.0032626783328855158 -0.34342855072419909 0 -0.0042055800094244816 -0.35594650712409043 0 0.01555115045683025 -0.35491149912017411 0 -0.0042055800094244816 -0.35594650712409043 0 0.01555115045683025 -0.35491149912017411 0 0.01244318134584467 -0.3666810622011728 0 -0.00049818021965669299 -0.36793998380101861 0 0.016582465561187618 -0.37900705299089033 0 0.01244318134584467 -0.3666810622011728 0 -0.0042055800094244816 -0.35594650712409043 0 -0.00049818021965669299 -0.36793998380101861 0 0.01244318134584467 -0.3666810622011728 0 0.03259383107485618 -0.32216086160685459 0 0.017893646034437459 -0.32513873820492922 0 0.0201729828973666 -0.30912561033607 0 0.03259383107485618 -0.32216086160685459 0 0.017893646034437459 -0.32513873820492922 0 0.024239671556122361 -0.33573058650589632 0 0.017893646034437459 -0.32513873820492922 0 0.024239671556122361 -0.33573058650589632 0 -0.0032626783328855158 -0.34342855072419909 0 0.024239671556122361 -0.33573058650589632 0 0.002036169775394434 -0.33074387099242142 0 0.017893646034437459 -0.32513873820492922 0 0.024239671556122361 -0.33573058650589632 0 0.002036169775394434 -0.33074387099242142 0 -0.0032626783328855158 -0.34342855072419909 0 0.024239671556122361 -0.33573058650589632 0 0.017893646034437459 -0.32513873820492922 0 0.0036753886295589318 -0.31760360145895911 0 0.0201729828973666 -0.30912561033607 0 0.017893646034437459 -0.32513873820492922 0 0.002036169775394434 -0.33074387099242142 0 0.0036753886295589318 -0.31760360145895911 0 0.003323148759076668 -0.3022104613585353 0 0.012301823433282221 -0.28445531933498941 0 0.0201729828973666 -0.30912561033607 0 -0.0067545365319594307 -0.30879114732062579 0 0.0036753886295589318 -0.31760360145895911 0 0.003323148759076668 -0.3022104613585353 0 0.0036753886295589318 -0.31760360145895911 0 0.003323148759076668 -0.3022104613585353 0 0.0201729828973666 -0.30912561033607 0 -0.0111586100417972 -0.29085337535245642 0 0.003323148759076668 -0.3022104613585353 0 0.012301823433282221 -0.28445531933498941 0 0.012301823433282221 -0.28445531933498941 0 0.03575802311132157 -0.29661470429986919 0 0.029741476827077559 -0.274804287757409 0 0.012301823433282221 -0.28445531933498941 0 0.0201729828973666 -0.30912561033607 0 0.03575802311132157 -0.29661470429986919 0 0.03259383107485618 -0.32216086160685459 0 0.0201729828973666 -0.30912561033607 0 0.03575802311132157 -0.29661470429986919 0 0.03575802311132157 -0.29661470429986919 0 0.056848029689193842 -0.29711200683874289 0 0.047742216749143397 -0.31231664877682852 0 0.03259383107485618 -0.32216086160685459 0 0.03575802311132157 -0.29661470429986919 0 0.047742216749143397 -0.31231664877682852 0 0.03575802311132157 -0.29661470429986919 0 0.049764809595150457 -0.27573502196882932 0 0.029741476827077559 -0.274804287757409 0 0.071144434350033592 -0.28055630331440262 0 0.056848029689193842 -0.29711200683874289 0 0.049764809595150457 -0.27573502196882932 0 0.03575802311132157 -0.29661470429986919 0 0.056848029689193842 -0.29711200683874289 0 0.049764809595150457 -0.27573502196882932 0 0.067433679880433459 -0.31607754326001469 0 0.056848029689193842 -0.29711200683874289 0 0.047742216749143397 -0.31231664877682852 0 0.064031874058667074 -0.26136407352184809 0 0.049764809595150457 -0.27573502196882932 0 0.039830911129718843 -0.25040190672810919 0 0.064031874058667074 -0.26136407352184809 0 0.039830911129718843 -0.25040190672810919 0 0.062180769977122588 -0.24315331096981641 0 0.071144434350033592 -0.28055630331440262 0 0.064031874058667074 -0.26136407352184809 0 0.049764809595150457 -0.27573502196882932 0 0.049764809595150457 -0.27573502196882932 0 0.039830911129718843 -0.25040190672810919 0 0.029741476827077559 -0.274804287757409 0 0.039830911129718843 -0.25040190672810919 0 0.029741476827077559 -0.274804287757409 0 0.039830911129718843 -0.25040190672810919 0 0.018291290007705342 -0.25675576675020068 0 0.029741476827077559 -0.274804287757409 0 0.012301823433282221 -0.28445531933498941 0 0.018291290007705342 -0.25675576675020068 0 0.029741476827077559 -0.274804287757409 0 -0.0034336848310450759 -0.26363667258707679 0 0.012301823433282221 -0.28445531933498941 0 0.018291290007705342 -0.25675576675020068 0 -0.0034336848310450759 -0.26363667258707679 0 0.018291290007705342 -0.25675576675020068 0 0.0042912403797070262 -0.2364199698216973 0 -0.0034336848310450759 -0.26363667258707679 0 0.0042912403797070262 -0.2364199698216973 0 0.0042912403797070262 -0.2364199698216973 0 0.01201616559045914 -0.20920326705631781 0 0.0042912403797070262 -0.2364199698216973 0 0.02701597310749149 -0.23081644427192291 0 0.01201616559045914 -0.20920326705631781 0 -0.0070180959367191348 -0.21976330680666231 0 0.0042912403797070262 -0.2364199698216973 0 0.01201616559045914 -0.20920326705631781 0 0.018291290007705342 -0.25675576675020068 0 0.0042912403797070262 -0.2364199698216973 0 0.02701597310749149 -0.23081644427192291 0 0.039830911129718843 -0.25040190672810919 0 0.018291290007705342 -0.25675576675020068 0 0.02701597310749149 -0.23081644427192291 0 -0.0080045448269695854 -0.1952016936299778 0 0.0048857991779218428 -0.18923532338487031 0 0.01201616559045914 -0.20920326705631781 0 0.0048857991779218428 -0.18923532338487031 0 0.01201616559045914 -0.20920326705631781 0 0.019741090801213289 -0.18198656429093879 0 0.01201616559045914 -0.20920326705631781 0 0.039875435268107898 -0.19179185448022429 0 0.037767539826684182 -0.21188164723535691 0 0.02701597310749149 -0.23081644427192291 0 0.01201616559045914 -0.20920326705631781 0 0.037767539826684182 -0.21188164723535691 0 0.01201616559045914 -0.20920326705631781 0 0.039875435268107898 -0.19179185448022429 0 0.019741090801213289 -0.18198656429093879 0 0.01201616559045914 -0.20920326705631781 0 0.019741090801213289 -0.18198656429093879 0 0.039875435268107898 -0.19179185448022429 0 0.037767539826684182 -0.21188164723535691 0 0.060009779735002301 -0.20159714466951009 0 0.060009779735002301 -0.20159714466951009 0 0.049920345432360097 -0.22599952569880949 0 0.066532980788161084 -0.2227213204907583 0 0.060009779735002301 -0.20159714466951009 0 0.049920345432360097 -0.22599952569880949 0 0.037767539826684182 -0.21188164723535691 0 0.060009779735002301 -0.20159714466951009 0 0.049920345432360097 -0.22599952569880949 0 0.039875435268107898 -0.19179185448022429 0 0.060009779735002301 -0.20159714466951009 0 0.039875435268107898 -0.19179185448022429 0 0.060009779735002301 -0.20159714466951009 0 0.054096084517258822 -0.19073830860092339 0 0.060009779735002301 -0.20159714466951009 0 0.054096084517258822 -0.19073830860092339 0 0.065022012213757086 -0.18947452182612501 0 0.039875435268107898 -0.19179185448022429 0 0.054096084517258822 -0.19073830860092339 0 0.051477110852167982 -0.18008971342783411 0 0.039830911129718843 -0.25040190672810919 0 0.02701597310749149 -0.23081644427192291 0 0.049920345432360097 -0.22599952569880949 0 0.039830911129718843 -0.25040190672810919 0 0.049920345432360097 -0.22599952569880949 0 0.02701597310749149 -0.23081644427192291 0 0.037767539826684182 -0.21188164723535691 0 0.049920345432360097 -0.22599952569880949 0 0.049920345432360097 -0.22599952569880949 0 0.062180769977122588 -0.24315331096981641 0 0.066532980788161084 -0.2227213204907583 0 0.039830911129718843 -0.25040190672810919 0 0.049920345432360097 -0.22599952569880949 0 0.062180769977122588 -0.24315331096981641 0 0.062180769977122588 -0.24315331096981641 0 0.075259433769633927 -0.238574145068015 0 0.066532980788161084 -0.2227213204907583 0 0.081329954464350651 -0.25197822414875098 0 0.062180769977122588 -0.24315331096981641 0 0.075259433769633927 -0.238574145068015 0 0.081329954464350651 -0.25197822414875098 0 0.089609924057941548 -0.23795884222035399 0 0.1045966638567058 -0.2496348303797036 0 0.081329954464350651 -0.25197822414875098 0 0.075259433769633927 -0.238574145068015 0 0.089609924057941548 -0.23795884222035399 0 0.075259433769633927 -0.238574145068015 0 0.089609924057941548 -0.23795884222035399 0 0.078146131339848851 -0.2271355022877086 0 0.089609924057941548 -0.23795884222035399 0 0.078146131339848851 -0.2271355022877086 0 0.1011011801002575 -0.22484129809521991 0 0.078146131339848851 -0.2271355022877086 0 0.084116926144081797 -0.21189397272593211 0 0.1011011801002575 -0.22484129809521991 0 0.075259433769633927 -0.238574145068015 0 0.078146131339848851 -0.2271355022877086 0 0.066532980788161084 -0.2227213204907583 0 0.078146131339848851 -0.2271355022877086 0 0.066532980788161084 -0.2227213204907583 0 0.073590951554393588 -0.2155518059391503 0 0.060009779735002301 -0.20159714466951009 0 0.066532980788161084 -0.2227213204907583 0 0.066936493662777791 -0.20497040771423841 0 0.066532980788161084 -0.2227213204907583 0 0.066936493662777791 -0.20497040771423841 0 0.073590951554393588 -0.2155518059391503 0 0.060009779735002301 -0.20159714466951009 0 0.066936493662777791 -0.20497040771423841 0 0.066936493662777791 -0.20497040771423841 0 0.07546046873955034 -0.20773925846990851 0 0.073043682802128071 -0.20067433463038209 0 0.066936493662777791 -0.20497040771423841 0 0.07546046873955034 -0.20773925846990851 0 0.073590951554393588 -0.2155518059391503 0 0.07546046873955034 -0.20773925846990851 0 0.073590951554393588 -0.2155518059391503 0 0.084116926144081797 -0.21189397272593211 0 0.060009779735002301 -0.20159714466951009 0 0.065022012213757086 -0.18947452182612501 0 0.060009779735002301 -0.20159714466951009 0 0.065022012213757086 -0.18947452182612501 0 0.067072782306177414 -0.19748769998983531 0 0.060009779735002301 -0.20159714466951009 0 0.066936493662777791 -0.20497040771423841 0 0.067072782306177414 -0.19748769998983531 0 0.066936493662777791 -0.20497040771423841 0 0.067072782306177414 -0.19748769998983531 0 0.073043682802128071 -0.20067433463038209 0 0.07546046873955034 -0.20773925846990851 0 0.073043682802128071 -0.20067433463038209 0 0.079150879516378572 -0.1953230088919381 0 0.067072782306177414 -0.19748769998983531 0 0.073043682802128071 -0.20067433463038209 0 0.079150879516378572 -0.1953230088919381 0 0.065022012213757086 -0.18947452182612501 0 0.067072782306177414 -0.19748769998983531 0 0.079150879516378572 -0.1953230088919381 0 0.065022012213757086 -0.18947452182612501 0 0.079150879516378572 -0.1953230088919381 0 0.075555543830724672 -0.1805417146965351 0 0.079150879516378572 -0.1953230088919381 0 0.097605696343809223 -0.20004776581073619 0 0.094110212587360964 -0.17525423352625261 0 0.079150879516378572 -0.1953230088919381 0 0.084116926144081797 -0.21189397272593211 0 0.097605696343809223 -0.20004776581073619 0 0.07546046873955034 -0.20773925846990851 0 0.079150879516378572 -0.1953230088919381 0 0.084116926144081797 -0.21189397272593211 0 0.078146131339848851 -0.2271355022877086 0 0.073590951554393588 -0.2155518059391503 0 0.084116926144081797 -0.21189397272593211 0 0.084116926144081797 -0.21189397272593211 0 0.097605696343809223 -0.20004776581073619 0 0.1011011801002575 -0.22484129809521991 0 0.097605696343809223 -0.20004776581073619 0 0.1011011801002575 -0.22484129809521991 0 0.097605696343809223 -0.20004776581073619 0 0.1191679701520582 -0.2067671847966038 0 0.1011011801002575 -0.22484129809521991 0 0.097605696343809223 -0.20004776581073619 0 0.094110212587360964 -0.17525423352625261 0 0.097605696343809223 -0.20004776581073619 0 0.1191679701520582 -0.2067671847966038 0 0.1168971249087969 -0.18373711639804749 0 0.1191679701520582 -0.2067671847966038 0 0.1196187432297524 -0.2298069900397863 0 0.1011011801002575 -0.22484129809521991 0 0.1196187432297524 -0.2298069900397863 0 0.1045966638567058 -0.2496348303797036 0 0.13331006931279599 -0.24555192327291309 0 0.1196187432297524 -0.2298069900397863 0 0.1045966638567058 -0.2496348303797036 0 0.1011011801002575 -0.22484129809521991 0 0.1045966638567058 -0.2496348303797036 0 0.1011011801002575 -0.22484129809521991 0 0.089609924057941548 -0.23795884222035399 0 0.1045966638567058 -0.2496348303797036 0 0.1011011801002575 -0.22484129809521991 0 0.1055679170719519 -0.15385852333077099 0 0.096572436889020119 -0.14363383776449301 0 0.10486553507353689 -0.13686872952101531 0 0.1055679170719519 -0.15385852333077099 0 0.096572436889020119 -0.14363383776449301 0 0.090614728830911095 -0.15046070124176919 0 0.1055679170719519 -0.15385852333077099 0 0.090614728830911095 -0.15046070124176919 0 0.096572436889020119 -0.14363383776449301 0 0.091553725486215792 -0.1417759439385694 0 0.093714247721943589 -0.13583102605878891 0 0.10080009245030901 -0.1298734077954653 0 0.10486553507353689 -0.13686872952101531 0 0.093714247721943589 -0.13583102605878891 0 0.096572436889020119 -0.14363383776449301 0 0.10486553507353689 -0.13686872952101531 0 0.093714247721943589 -0.13583102605878891 0 0.10080009245030901 -0.1298734077954653 0 0.094421312804951196 -0.12541642332780709 0 0.093714247721943589 -0.13583102605878891 0 0.10080009245030901 -0.1298734077954653 0 0.094421312804951196 -0.12541642332780709 0 0.1056304838003819 -0.1210571950211298 0 0.10080009245030901 -0.1298734077954653 0 0.1087534806977343 -0.12807553902437399 0 0.10486553507353689 -0.13686872952101531 0 0.10080009245030901 -0.1298734077954653 0 0.1087534806977343 -0.12807553902437399 0 0.1056304838003819 -0.1210571950211298 0 0.1087534806977343 -0.12807553902437399 0 0.10486553507353689 -0.13686872952101531 0 0.1219098819976112 -0.13443045914973539 0 0.1087534806977343 -0.12807553902437399 0 0.1219098819976112 -0.13443045914973539 0 0.1138334321071932 -0.1204352133812531 0 0.1055679170719519 -0.15385852333077099 0 0.1219098819976112 -0.13443045914973539 0 0.1205109646769383 -0.15730097248847569 0 0.1055679170719519 -0.15385852333077099 0 0.10486553507353689 -0.13686872952101531 0 0.1219098819976112 -0.13443045914973539 0 0.1219098819976112 -0.13443045914973539 0 0.1205109646769383 -0.15730097248847569 0 0.1055679170719519 -0.15385852333077099 0 0.1205109646769383 -0.15730097248847569 0 0.1205109646769383 -0.15730097248847569 0 0.1108008023126307 -0.16896743201684741 0 0.13089851006819389 -0.17298498934406939 0 0.1055679170719519 -0.15385852333077099 0 0.1205109646769383 -0.15730097248847569 0 0.1108008023126307 -0.16896743201684741 0 0.1108008023126307 -0.16896743201684741 0 0.1168971249087969 -0.18373711639804749 0 0.13089851006819389 -0.17298498934406939 0 0.1108008023126307 -0.16896743201684741 0 0.1168971249087969 -0.18373711639804749 0 0.094110212587360964 -0.17525423352625261 0 0.097605696343809223 -0.20004776581073619 0 0.1168971249087969 -0.18373711639804749 0 0.094110212587360964 -0.17525423352625261 0 0.1055679170719519 -0.15385852333077099 0 0.1108008023126307 -0.16896743201684741 0 0.094110212587360964 -0.17525423352625261 0 0.1055679170719519 -0.15385852333077099 0 0.094110212587360964 -0.17525423352625261 0 0.090614728830911095 -0.15046070124176919 0 0.094110212587360964 -0.17525423352625261 0 0.082979495534892755 -0.16034121473858451 0 0.075129706851597922 -0.16670084564277149 0 0.094110212587360964 -0.17525423352625261 0 0.082979495534892755 -0.16034121473858451 0 0.090614728830911095 -0.15046070124176919 0 0.094110212587360964 -0.17525423352625261 0 0.090614728830911095 -0.15046070124176919 0 0.079150879516378572 -0.1953230088919381 0 0.094110212587360964 -0.17525423352625261 0 0.075555543830724672 -0.1805417146965351 0 0.094110212587360964 -0.17525423352625261 0 0.075555543830724672 -0.1805417146965351 0 0.075129706851597922 -0.16670084564277149 0 0.075555543830724672 -0.1805417146965351 0 0.063610913579423431 -0.1742110027105872 0 0.075129706851597922 -0.16670084564277149 0 0.065022012213757086 -0.18947452182612501 0 0.075555543830724672 -0.1805417146965351 0 0.063610913579423431 -0.1742110027105872 0 0.075129706851597922 -0.16670084564277149 0 0.062582329575432166 -0.15910794108548121 0 0.074118529160238422 -0.15514343922550591 0 0.082979495534892755 -0.16034121473858451 0 0.075129706851597922 -0.16670084564277149 0 0.074118529160238422 -0.15514343922550591 0 0.063610913579423431 -0.1742110027105872 0 0.075129706851597922 -0.16670084564277149 0 0.062582329575432166 -0.15910794108548121 0 0.062582329575432166 -0.15910794108548121 0 0.063752658972250104 -0.14435681671555589 0 0.074118529160238422 -0.15514343922550591 0 0.063752658972250104 -0.14435681671555589 0 0.078916510899546016 -0.1478025080425393 0 0.063752658972250104 -0.14435681671555589 0 0.078916510899546016 -0.1478025080425393 0 0.072272710585069455 -0.13882129189594261 0 0.063752658972250104 -0.14435681671555589 0 0.074118529160238422 -0.15514343922550591 0 0.078916510899546016 -0.1478025080425393 0 0.074118529160238422 -0.15514343922550591 0 0.078916510899546016 -0.1478025080425393 0 0.090614728830911095 -0.15046070124176919 0 0.082979495534892755 -0.16034121473858451 0 0.074118529160238422 -0.15514343922550591 0 0.090614728830911095 -0.15046070124176919 0 0.078916510899546016 -0.1478025080425393 0 0.090614728830911095 -0.15046070124176919 0 0.078916510899546016 -0.1478025080425393 0 0.089923376919884057 -0.14555692908307791 0 0.090614728830911095 -0.15046070124176919 0 0.078916510899546016 -0.1478025080425393 0 0.091553725486215792 -0.1417759439385694 0 0.093714247721943589 -0.13583102605878891 0 0.078916510899546016 -0.1478025080425393 0 0.091553725486215792 -0.1417759439385694 0 0.089923376919884057 -0.14555692908307791 0 0.096572436889020119 -0.14363383776449301 0 0.091553725486215792 -0.1417759439385694 0 0.089923376919884057 -0.14555692908307791 0 0.089923376919884057 -0.14555692908307791 0 0.090614728830911095 -0.15046070124176919 0 0.096572436889020119 -0.14363383776449301 0 0.089923376919884057 -0.14555692908307791 0 0.090614728830911095 -0.15046070124176919 0 0.078916510899546016 -0.1478025080425393 0 0.094571258093345587 -0.1220626970675366 0 0.094421312804951196 -0.12541642332780709 0 0.078916510899546016 -0.1478025080425393 0 0.094571258093345587 -0.1220626970675366 0 0.078916510899546016 -0.1478025080425393 0 0.084762831610968592 -0.12970892355593791 0 0.078083609131964132 -0.1321694490036989 0 0.094421312804951196 -0.12541642332780709 0 0.078916510899546016 -0.1478025080425393 0 0.093714247721943589 -0.13583102605878891 0 0.078916510899546016 -0.1478025080425393 0 0.084762831610968592 -0.12970892355593791 0 0.094571258093345587 -0.1220626970675366 0 0.084762831610968592 -0.12970892355593791 0 0.088435229779562016 -0.12328711383244879 0 0.094571258093345587 -0.1220626970675366 0 0.078083609131964132 -0.1321694490036989 0 0.08376271878941724 -0.12342014438353199 0 0.076191105736204384 -0.1239030112011979 0 0.084762831610968592 -0.12970892355593791 0 0.078083609131964132 -0.1321694490036989 0 0.08376271878941724 -0.12342014438353199 0 0.084762831610968592 -0.12970892355593791 0 0.088435229779562016 -0.12328711383244879 0 0.08376271878941724 -0.12342014438353199 0 0.078916510899546016 -0.1478025080425393 0 0.078083609131964132 -0.1321694490036989 0 0.072272710585069455 -0.13882129189594261 0 0.078083609131964132 -0.1321694490036989 0 0.068293231975509641 -0.1311536883720423 0 0.076191105736204384 -0.1239030112011979 0 0.078083609131964132 -0.1321694490036989 0 0.072272710585069455 -0.13882129189594261 0 0.068293231975509641 -0.1311536883720423 0 0.063752658972250104 -0.14435681671555589 0 0.072272710585069455 -0.13882129189594261 0 0.068293231975509641 -0.1311536883720423 0 0.068293231975509641 -0.1311536883720423 0 0.05452700149918796 -0.1262733565431208 0 0.068711941935774859 -0.1187640251292222 0 0.063752658972250104 -0.14435681671555589 0 0.068293231975509641 -0.1311536883720423 0 0.05452700149918796 -0.1262733565431208 0 0.063752658972250104 -0.14435681671555589 0 0.036890589113589278 -0.13825293218934209 0 0.045298606055941361 -0.13021876508257671 0 0.063752658972250104 -0.14435681671555589 0 0.05452700149918796 -0.1262733565431208 0 0.045298606055941361 -0.13021876508257671 0 0.063752658972250104 -0.14435681671555589 0 0.050004516331860503 -0.14914581214054529 0 0.036890589113589278 -0.13825293218934209 0 0.063752658972250104 -0.14435681671555589 0 0.036890589113589278 -0.13825293218934209 0 0.062582329575432166 -0.15910794108548121 0 0.063752658972250104 -0.14435681671555589 0 0.050004516331860503 -0.14914581214054529 0 0.050004516331860503 -0.14914581214054529 0 0.041157017255027482 -0.1474383918362841 0 0.036890589113589278 -0.13825293218934209 0 0.036431705119240633 -0.14388038727377059 0 0.034060086873127948 -0.13153742085513689 0 0.02690058883717094 -0.15676199257303791 0 0.050004516331860503 -0.14914581214054529 0 0.041157017255027482 -0.1474383918362841 0 0.039493939805607482 -0.15611298387583661 0 0.041157017255027482 -0.1474383918362841 0 0.039493939805607482 -0.15611298387583661 0 0.036431705119240633 -0.14388038727377059 0 0.039493939805607482 -0.15611298387583661 0 0.036431705119240633 -0.14388038727377059 0 0.02690058883717094 -0.15676199257303791 0 0.041157017255027482 -0.1474383918362841 0 0.036431705119240633 -0.14388038727377059 0 0.036890589113589278 -0.13825293218934209 0 0.036431705119240633 -0.14388038727377059 0 0.034060086873127948 -0.13153742085513689 0 0.036431705119240633 -0.14388038727377059 0 0.036890589113589278 -0.13825293218934209 0 0.034060086873127948 -0.13153742085513689 0 0.036890589113589278 -0.13825293218934209 0 0.034060086873127948 -0.13153742085513689 0 0.045298606055941361 -0.13021876508257671 0 0.065022012213757086 -0.18947452182612501 0 0.063610913579423431 -0.1742110027105872 0 0.051477110852167982 -0.18008971342783411 0 0.054096084517258822 -0.19073830860092339 0 0.065022012213757086 -0.18947452182612501 0 0.051477110852167982 -0.18008971342783411 0 0.063610913579423431 -0.1742110027105872 0 0.051477110852167982 -0.18008971342783411 0 0.050089191580607803 -0.16516337346077339 0 0.062582329575432166 -0.15910794108548121 0 0.050004516331860503 -0.14914581214054529 0 0.050089191580607803 -0.16516337346077339 0 0.063610913579423431 -0.1742110027105872 0 0.062582329575432166 -0.15910794108548121 0 0.050089191580607803 -0.16516337346077339 0 0.039493939805607482 -0.15611298387583661 0 0.036437556966565837 -0.1725160980542724 0 0.02690058883717094 -0.15676199257303791 0 0.039493939805607482 -0.15611298387583661 0 0.050089191580607803 -0.16516337346077339 0 0.036437556966565837 -0.1725160980542724 0 0.050004516331860503 -0.14914581214054529 0 0.039493939805607482 -0.15611298387583661 0 0.050089191580607803 -0.16516337346077339 0 0.039875435268107898 -0.19179185448022429 0 0.036437556966565837 -0.1725160980542724 0 0.019741090801213289 -0.18198656429093879 0 0.039875435268107898 -0.19179185448022429 0 0.051477110852167982 -0.18008971342783411 0 0.036437556966565837 -0.1725160980542724 0 0.051477110852167982 -0.18008971342783411 0 0.050089191580607803 -0.16516337346077339 0 0.036437556966565837 -0.1725160980542724 0 0.039875435268107898 -0.19179185448022429 0 0.019741090801213289 -0.18198656429093879 0 0.019741090801213289 -0.18198656429093879 0 0.02690058883717094 -0.15676199257303791 0 0.036437556966565837 -0.1725160980542724 0 0.019741090801213289 -0.18198656429093879 0 0.02690058883717094 -0.15676199257303791 0 0.019741090801213289 -0.18198656429093879 0 0.02690058883717094 -0.15676199257303791 0 0.01198569403923965 -0.16624553699534331 0 -0.00062364201311971884 -0.1561696486636899 0 -0.0051888141902375687 -0.1698458684150719 0 0.01198569403923965 -0.16624553699534331 0 -0.00062364201311971884 -0.1561696486636899 0 0.02690058883717094 -0.15676199257303791 0 0.01198569403923965 -0.16624553699534331 0 -0.0051888141902375687 -0.1698458684150719 0 0.019741090801213289 -0.18198656429093879 0 -0.0051888141902375687 -0.1698458684150719 0 -0.0046529789385846149 -0.1779333961074297 0 0.019741090801213289 -0.18198656429093879 0 -0.0046529789385846149 -0.1779333961074297 0 0.0048857991779218428 -0.18923532338487031 0 0.019741090801213289 -0.18198656429093879 0 -0.0051888141902375687 -0.1698458684150719 0 0.019741090801213289 -0.18198656429093879 0 0.01198569403923965 -0.16624553699534331 0 0.034060086873127948 -0.13153742085513689 0 0.0017828297527261699 -0.139357474086204 0 0.0091259489502686364 -0.1158979362851186 0 0.034060086873127948 -0.13153742085513689 0 0.02690058883717094 -0.15676199257303791 0 0.0017828297527261699 -0.139357474086204 0 0.034060086873127948 -0.13153742085513689 0 0.02690058883717094 -0.15676199257303791 0 -0.00062364201311971884 -0.1561696486636899 0 0.02690058883717094 -0.15676199257303791 0 0.0017828297527261699 -0.139357474086204 0 -0.010652485253781679 -0.12097888809487579 0 0.0017828297527261699 -0.139357474086204 0 0.0091259489502686364 -0.1158979362851186 0 0.034060086873127948 -0.13153742085513689 0 0.0091259489502686364 -0.1158979362851186 0 0.028890958247512089 -0.1046349540926082 0 -0.0076230775566098891 -0.1028627430724557 0 0.0091259489502686364 -0.1158979362851186 0 0.00765204248890697 -0.092104689521178201 0 0.0091259489502686364 -0.1158979362851186 0 0.028890958247512089 -0.1046349540926082 0 0.00765204248890697 -0.092104689521178201 0 0.00765204248890697 -0.092104689521178201 0 0.0041624543485472504 -0.06799419051346825 0 0.023721829621899709 -0.07773248733007887 0 0.0041624543485472504 -0.06799419051346825 0 0.023721829621899709 -0.07773248733007887 0 0.0041624543485472504 -0.06799419051346825 0 0.02088197164271469 -0.06295259105960116 0 0.023721829621899709 -0.07773248733007887 0 0.023721829621899709 -0.07773248733007887 0 0.030671527175063131 -0.081192629416036693 0 0.033474381547934327 -0.065394406399896396 0 0.02088197164271469 -0.06295259105960116 0 0.023721829621899709 -0.07773248733007887 0 0.02088197164271469 -0.06295259105960116 0 0.023721829621899709 -0.07773248733007887 0 0.033474381547934327 -0.065394406399896396 0 0.028890958247512089 -0.1046349540926082 0 0.023721829621899709 -0.07773248733007887 0 0.028890958247512089 -0.1046349540926082 0 0.023721829621899709 -0.07773248733007887 0 0.030671527175063131 -0.081192629416036693 0 0.028890958247512089 -0.1046349540926082 0 0.00765204248890697 -0.092104689521178201 0 0.023721829621899709 -0.07773248733007887 0 0.023721829621899709 -0.07773248733007887 0 0.030671527175063131 -0.081192629416036693 0 0.030671527175063131 -0.081192629416036693 0 0.036756650722728691 -0.093443610999364088 0 0.047334114882790032 -0.084769942208823418 0 0.030671527175063131 -0.081192629416036693 0 0.041362788123351812 -0.073185795227605724 0 0.047334114882790032 -0.084769942208823418 0 0.028890958247512089 -0.1046349540926082 0 0.030671527175063131 -0.081192629416036693 0 0.036756650722728691 -0.093443610999364088 0 0.030671527175063131 -0.081192629416036693 0 0.041362788123351812 -0.073185795227605724 0 0.033474381547934327 -0.065394406399896396 0 0.041362788123351812 -0.073185795227605724 0 0.033474381547934327 -0.065394406399896396 0 0.053971128887619728 -0.061386202885666361 0 0.047334114882790032 -0.084769942208823418 0 0.053971128887619728 -0.061386202885666361 0 0.065948404324746385 -0.080529786000612821 0 0.041362788123351812 -0.073185795227605724 0 0.047334114882790032 -0.084769942208823418 0 0.053971128887619728 -0.061386202885666361 0 0.047334114882790032 -0.084769942208823418 0 0.053971128887619728 -0.061386202885666361 0 0.047334114882790032 -0.084769942208823418 0 0.059291578869333401 -0.098262262636637426 0 0.065948404324746385 -0.080529786000612821 0 0.047334114882790032 -0.084769942208823418 0 0.059291578869333401 -0.098262262636637426 0 0.040697100877960288 -0.1081536815319806 0 0.059291578869333401 -0.098262262636637426 0 0.05805344006003893 -0.11233405848524899 0 0.040697100877960288 -0.1081536815319806 0 0.05452700149918796 -0.1262733565431208 0 0.05805344006003893 -0.11233405848524899 0 0.040697100877960288 -0.1081536815319806 0 0.05452700149918796 -0.1262733565431208 0 0.05805344006003893 -0.11233405848524899 0 0.068711941935774859 -0.1187640251292222 0 0.05452700149918796 -0.1262733565431208 0 0.045298606055941361 -0.13021876508257671 0 0.040697100877960288 -0.1081536815319806 0 0.034060086873127948 -0.13153742085513689 0 0.045298606055941361 -0.13021876508257671 0 0.040697100877960288 -0.1081536815319806 0 0.034060086873127948 -0.13153742085513689 0 0.028890958247512089 -0.1046349540926082 0 0.040697100877960288 -0.1081536815319806 0 0.034060086873127948 -0.13153742085513689 0 0.028890958247512089 -0.1046349540926082 0 0.034060086873127948 -0.13153742085513689 0 0.040697100877960288 -0.1081536815319806 0 0.047334114882790032 -0.084769942208823418 0 0.040697100877960288 -0.1081536815319806 0 0.036756650722728691 -0.093443610999364088 0 0.047334114882790032 -0.084769942208823418 0 0.040697100877960288 -0.1081536815319806 0 0.028890958247512089 -0.1046349540926082 0 0.036756650722728691 -0.093443610999364088 0 0.040697100877960288 -0.1081536815319806 0 0.021600236337897379 -0.0042573374784961784 0 0.02247033242853224 -0.02227485878848838 0 0.035803585341465043 -0.01528522052746858 0 0.021600236337897379 -0.0042573374784961784 0 0.0073598710512064588 -0.017051605744856251 0 0.02247033242853224 -0.02227485878848838 0 -0.0025007363194086028 -0.0051543784696279817 0 0.021600236337897379 -0.0042573374784961784 0 0.0073598710512064588 -0.017051605744856251 0 0.0073598710512064588 -0.017051605744856251 0 0.02247033242853224 -0.02227485878848838 0 0.0017971729759412511 -0.035939689944323977 0 0.02247033242853224 -0.02227485878848838 0 0.031202657934193918 -0.036971076753415939 0 0.03738973453309323 -0.026756738718448029 0 0.031202657934193918 -0.036971076753415939 0 0.0027852568614936749 -0.038647009421175223 0 0.023094519002947241 -0.0512472226640458 0 0.02247033242853224 -0.02227485878848838 0 0.031202657934193918 -0.036971076753415939 0 0.0017971729759412511 -0.035939689944323977 0 0.031202657934193918 -0.036971076753415939 0 0.0017971729759412511 -0.035939689944323977 0 0.031202657934193918 -0.036971076753415939 0 0.0027852568614936749 -0.038647009421175223 0 0.0017971729759412511 -0.035939689944323977 0 0.0041624543485472504 -0.06799419051346825 0 0.02088197164271469 -0.06295259105960116 0 0.0081310905596524187 -0.053877868703239302 0 0.0027852568614936749 -0.038647009421175223 0 0.0081310905596524187 -0.053877868703239302 0 0.023094519002947241 -0.0512472226640458 0 0.02088197164271469 -0.06295259105960116 0 0.0081310905596524187 -0.053877868703239302 0 0.023094519002947241 -0.0512472226640458 0 0.02088197164271469 -0.06295259105960116 0 0.033474381547934327 -0.065394406399896396 0 0.023094519002947241 -0.0512472226640458 0 0.033474381547934327 -0.065394406399896396 0 0.023094519002947241 -0.0512472226640458 0 0.042091755471694407 -0.04964038364694677 0 0.033474381547934327 -0.065394406399896396 0 0.042091755471694407 -0.04964038364694677 0 0.053971128887619728 -0.061386202885666361 0 0.053971128887619728 -0.061386202885666361 0 0.060608142892446579 -0.038002463562508602 0 0.042091755471694407 -0.04964038364694677 0 0.053971128887619728 -0.061386202885666361 0 0.060608142892446579 -0.038002463562508602 0 0.053971128887619728 -0.061386202885666361 0 0.060608142892446579 -0.038002463562508602 0 0.069083937920664681 -0.049882581961912628 0 0.0618731457121941 -0.033545565300953109 0 0.060608142892446579 -0.038002463562508602 0 0.03738973453309323 -0.026756738718448029 0 0.0618731457121941 -0.033545565300953109 0 0.060608142892446579 -0.038002463562508602 0 0.031202657934193918 -0.036971076753415939 0 0.042091755471694407 -0.04964038364694677 0 0.060608142892446579 -0.038002463562508602 0 0.031202657934193918 -0.036971076753415939 0 0.060608142892446579 -0.038002463562508602 0 0.03738973453309323 -0.026756738718448029 0 0.031202657934193918 -0.036971076753415939 0 0.060608142892446579 -0.038002463562508602 0 0.031202657934193918 -0.036971076753415939 0 0.023094519002947241 -0.0512472226640458 0 0.042091755471694407 -0.04964038364694677 0 0.03738973453309323 -0.026756738718448029 0 0.052508170585205273 -0.019776432032636231 0 0.035803585341465043 -0.01528522052746858 0 0.02247033242853224 -0.02227485878848838 0 0.03738973453309323 -0.026756738718448029 0 0.035803585341465043 -0.01528522052746858 0 0.0618731457121941 -0.033545565300953109 0 0.052508170585205273 -0.019776432032636231 0 0.067710228959486876 -0.01298016752375167 0 0.0618731457121941 -0.033545565300953109 0 0.03738973453309323 -0.026756738718448029 0 0.0618731457121941 -0.033545565300953109 0 0.03738973453309323 -0.026756738718448029 0 0.052508170585205273 -0.019776432032636231 0 0.056734102163932411 0.0083852866623192659 0 0.045049452822597078 -0.003360735619274113 0 0.067710228959486876 -0.01298016752375167 0 0.052508170585205273 -0.019776432032636231 0 0.045049452822597078 -0.003360735619274113 0 0.067710228959486876 -0.01298016752375167 0 0.052508170585205273 -0.019776432032636231 0 0.045049452822597078 -0.003360735619274113 0 0.035803585341465043 -0.01528522052746858 0 0.021600236337897379 -0.0042573374784961784 0 0.045049452822597078 -0.003360735619274113 0 0.035803585341465043 -0.01528522052746858 0 0.073547312206776419 0.0075852302534506694 0 0.091180058974594053 0.00073809788061110189 0 0.080329573924895967 -0.009459000413569181 0 0.091180058974594053 0.00073809788061110189 0 0.080329573924895967 -0.009459000413569181 0 0.0923588474521779 -0.01685226847260007 0 0.073547312206776419 0.0075852302534506694 0 0.080329573924895967 -0.009459000413569181 0 0.067710228959486876 -0.01298016752375167 0 0.073547312206776419 0.0075852302534506694 0 0.067710228959486876 -0.01298016752375167 0 0.080329573924895967 -0.009459000413569181 0 0.067710228959486876 -0.01298016752375167 0 0.076851422031444613 -0.02578589420555592 0 0.0618731457121941 -0.033545565300953109 0 0.067710228959486876 -0.01298016752375167 0 0.0618731457121941 -0.033545565300953109 0 0.067710228959486876 -0.01298016752375167 0 0.076851422031444613 -0.02578589420555592 0 0.076851422031444613 -0.02578589420555592 0 0.0923588474521779 -0.01685226847260007 0 0.096907285178992025 -0.031842014886754637 0 0.080329573924895967 -0.009459000413569181 0 0.076851422031444613 -0.02578589420555592 0 0.0923588474521779 -0.01685226847260007 0 0.083574266203247011 -0.039562910783659422 0 0.091277489942145032 -0.053922224592993062 0 0.10527538669429989 -0.045580256266365783 0 0.076851422031444613 -0.02578589420555592 0 0.083574266203247011 -0.039562910783659422 0 0.096907285178992025 -0.031842014886754637 0 0.083574266203247011 -0.039562910783659422 0 0.075750112799541691 -0.038533562711119698 0 0.078833164209240511 -0.048900916058176147 0 0.0618731457121941 -0.033545565300953109 0 0.083574266203247011 -0.039562910783659422 0 0.0618731457121941 -0.033545565300953109 0 0.076851422031444613 -0.02578589420555592 0 0.083574266203247011 -0.039562910783659422 0 0.0618731457121941 -0.033545565300953109 0 0.083574266203247011 -0.039562910783659422 0 0.075750112799541691 -0.038533562711119698 0 0.060608142892446579 -0.038002463562508602 0 0.075750112799541691 -0.038533562711119698 0 0.0618731457121941 -0.033545565300953109 0 0.060608142892446579 -0.038002463562508602 0 0.075750112799541691 -0.038533562711119698 0 0.060608142892446579 -0.038002463562508602 0 0.075750112799541691 -0.038533562711119698 0 0.069083937920664681 -0.049882581961912628 0 0.075750112799541691 -0.038533562711119698 0 0.069083937920664681 -0.049882581961912628 0 0.078833164209240511 -0.048900916058176147 0 0.053971128887619728 -0.061386202885666361 0 0.069083937920664681 -0.049882581961912628 0 0.076724805718121583 -0.062586202579169303 0 0.069083937920664681 -0.049882581961912628 0 0.078833164209240511 -0.048900916058176147 0 0.076724805718121583 -0.062586202579169303 0 0.078833164209240511 -0.048900916058176147 0 0.091277489942145032 -0.053922224592993062 0 0.076724805718121583 -0.062586202579169303 0 0.083574266203247011 -0.039562910783659422 0 0.078833164209240511 -0.048900916058176147 0 0.091277489942145032 -0.053922224592993062 0 0.091277489942145032 -0.053922224592993062 0 0.1097907778716227 -0.062353268490630949 0 0.10527538669429989 -0.045580256266365783 0 0.1097907778716227 -0.062353268490630949 0 0.10527538669429989 -0.045580256266365783 0 0.12697650718535219 -0.051597601749074858 0 0.10527538669429989 -0.045580256266365783 0 0.12697650718535219 -0.051597601749074858 0 0.1097907778716227 -0.062353268490630949 0 0.12579108975892769 -0.070977664217662467 0 0.12697650718535219 -0.051597601749074858 0 0.11816123796508179 -0.040867758974969123 0 0.1280163696491968 -0.03459717720762439 0 0.12697650718535219 -0.051597601749074858 0 0.11816123796508179 -0.040867758974969123 0 0.1123766883314776 -0.031696000676814197 0 0.10527538669429989 -0.045580256266365783 0 0.11816123796508179 -0.040867758974969123 0 0.10527538669429989 -0.045580256266365783 0 0.12697650718535219 -0.051597601749074858 0 0.11816123796508179 -0.040867758974969123 0 0.1123766883314776 -0.031696000676814197 0 0.1280163696491968 -0.03459717720762439 0 0.1123766883314776 -0.031696000676814197 0 0.10527538669429989 -0.045580256266365783 0 0.096907285178992025 -0.031842014886754637 0 0.083574266203247011 -0.039562910783659422 0 0.10527538669429989 -0.045580256266365783 0 0.083574266203247011 -0.039562910783659422 0 0.10527538669429989 -0.045580256266365783 0 0.096907285178992025 -0.031842014886754637 0 0.0923588474521779 -0.01685226847260007 0 0.096907285178992025 -0.031842014886754637 0 0.1078391623285713 -0.016824597008347469 0 0.1123766883314776 -0.031696000676814197 0 0.096907285178992025 -0.031842014886754637 0 0.1078391623285713 -0.016824597008347469 0 0.1123766883314776 -0.031696000676814197 0 0.1218808979227336 -0.019799817689552631 0 0.1280163696491968 -0.03459717720762439 0 0.1123766883314776 -0.031696000676814197 0 0.1218808979227336 -0.019799817689552631 0 0.1123766883314776 -0.031696000676814197 0 0.1078391623285713 -0.016824597008347469 0 0.1218808979227336 -0.019799817689552631 0 0.1078391623285713 -0.016824597008347469 0 0.1218808979227336 -0.019799817689552631 0 0.11975731359904471 -0.0086746694603672507 0 0.1078391623285713 -0.016824597008347469 0 0.11975731359904471 -0.0086746694603672507 0 0.1103786555474302 -0.003433802723639526 0 0.1218808979227336 -0.019799817689552631 0 0.11975731359904471 -0.0086746694603672507 0 0.13138510751398111 -0.0079036347022841107 0 0.1195703238469088 0.00072067968360169793 0 0.12773595140078731 0.0024735933284422431 0 0.1274897344346434 -0.0048068443219815016 0 0.1195703238469088 0.00072067968360169793 0 0.11975731359904471 -0.0086746694603672507 0 0.1274897344346434 -0.0048068443219815016 0 0.1195703238469088 0.00072067968360169793 0 0.11975731359904471 -0.0086746694603672507 0 0.1103786555474302 -0.003433802723639526 0 0.1030268317563607 0.0039065205059949162 0 0.1103786555474302 -0.003433802723639526 0 0.1009567112118268 -0.0064932099635962087 0 0.091180058974594053 0.00073809788061110189 0 0.0923588474521779 -0.01685226847260007 0 0.1009567112118268 -0.0064932099635962087 0 0.1078391623285713 -0.016824597008347469 0 0.1103786555474302 -0.003433802723639526 0 0.1009567112118268 -0.0064932099635962087 0 0.0923588474521779 -0.01685226847260007 0 0.1078391623285713 -0.016824597008347469 0 0.1009567112118268 -0.0064932099635962087 0 0.091180058974594053 0.00073809788061110189 0 0.1030268317563607 0.0039065205059949162 0 0.1009567112118268 -0.0064932099635962087 0 0.083627897789509478 -0.10396227244914941 0 0.082104026848356076 -0.11400774911749439 0 0.071808961468169397 -0.105991341934197 0 0.083627897789509478 -0.10396227244914941 0 0.08895537126265704 -0.094279656976584844 0 0.075160308134994427 -0.094210228208963187 0 0.083627897789509478 -0.10396227244914941 0 0.08895537126265704 -0.094279656976584844 0 0.094973183425628729 -0.1033804881203534 0 0.088817388191063246 -0.1113407889464597 0 0.094973183425628729 -0.1033804881203534 0 0.095486801833275181 -0.110383416234588 0 0.083627897789509478 -0.10396227244914941 0 0.088817388191063246 -0.1113407889464597 0 0.094973183425628729 -0.1033804881203534 0 0.088817388191063246 -0.1113407889464597 0 0.088891005530201087 -0.11861292639599059 0 0.095486801833275181 -0.110383416234588 0 0.088891005530201087 -0.11861292639599059 0 0.094571258093345587 -0.1220626970675366 0 0.095486801833275181 -0.110383416234588 0 0.088817388191063246 -0.1113407889464597 0 0.088891005530201087 -0.11861292639599059 0 0.082104026848356076 -0.11400774911749439 0 0.088891005530201087 -0.11861292639599059 0 0.088435229779562016 -0.12328711383244879 0 0.094571258093345587 -0.1220626970675366 0 0.088891005530201087 -0.11861292639599059 0 0.088435229779562016 -0.12328711383244879 0 0.08376271878941724 -0.12342014438353199 0 0.08376271878941724 -0.12342014438353199 0 0.082104026848356076 -0.11400774911749439 0 0.076191105736204384 -0.1239030112011979 0 0.088891005530201087 -0.11861292639599059 0 0.08376271878941724 -0.12342014438353199 0 0.082104026848356076 -0.11400774911749439 0 0.083627897789509478 -0.10396227244914941 0 0.088817388191063246 -0.1113407889464597 0 0.082104026848356076 -0.11400774911749439 0 0.082104026848356076 -0.11400774911749439 0 0.068711941935774859 -0.1187640251292222 0 0.071808961468169397 -0.105991341934197 0 0.082104026848356076 -0.11400774911749439 0 0.076191105736204384 -0.1239030112011979 0 0.068711941935774859 -0.1187640251292222 0 0.068293231975509641 -0.1311536883720423 0 0.076191105736204384 -0.1239030112011979 0 0.068711941935774859 -0.1187640251292222 0 0.05805344006003893 -0.11233405848524899 0 0.068711941935774859 -0.1187640251292222 0 0.071808961468169397 -0.105991341934197 0 0.059291578869333401 -0.098262262636637426 0 0.071808961468169397 -0.105991341934197 0 0.075160308134994427 -0.094210228208963187 0 0.059291578869333401 -0.098262262636637426 0 0.05805344006003893 -0.11233405848524899 0 0.071808961468169397 -0.105991341934197 0 0.083627897789509478 -0.10396227244914941 0 0.071808961468169397 -0.105991341934197 0 0.075160308134994427 -0.094210228208963187 0 0.059291578869333401 -0.098262262636637426 0 0.075160308134994427 -0.094210228208963187 0 0.065948404324746385 -0.080529786000612821 0 0.075160308134994427 -0.094210228208963187 0 0.065948404324746385 -0.080529786000612821 0 0.083208489455619233 -0.081963877484417302 0 0.053971128887619728 -0.061386202885666361 0 0.065948404324746385 -0.080529786000612821 0 0.076724805718121583 -0.062586202579169303 0 0.065948404324746385 -0.080529786000612821 0 0.076724805718121583 -0.062586202579169303 0 0.083208489455619233 -0.081963877484417302 0 0.091277489942145032 -0.053922224592993062 0 0.076724805718121583 -0.062586202579169303 0 0.097973064566791557 -0.072516054435691438 0 0.076724805718121583 -0.062586202579169303 0 0.083208489455619233 -0.081963877484417302 0 0.097973064566791557 -0.072516054435691438 0 0.08895537126265704 -0.094279656976584844 0 0.075160308134994427 -0.094210228208963187 0 0.083208489455619233 -0.081963877484417302 0 0.083208489455619233 -0.081963877484417302 0 0.095408999677799866 -0.085626230190183131 0 0.097973064566791557 -0.072516054435691438 0 0.08895537126265704 -0.094279656976584844 0 0.083208489455619233 -0.081963877484417302 0 0.095408999677799866 -0.085626230190183131 0 0.10410685586315779 -0.086397333804597132 0 0.11145112908222141 -0.079525809681998266 0 0.1101811739261372 -0.096520180642599859 0 0.08895537126265704 -0.094279656976584844 0 0.09872511683107614 -0.093240777946863682 0 0.095408999677799866 -0.085626230190183131 0 0.09872511683107614 -0.093240777946863682 0 0.095408999677799866 -0.085626230190183131 0 0.10410685586315779 -0.086397333804597132 0 0.095408999677799866 -0.085626230190183131 0 0.10410685586315779 -0.086397333804597132 0 0.097973064566791557 -0.072516054435691438 0 0.10410685586315779 -0.086397333804597132 0 0.097973064566791557 -0.072516054435691438 0 0.11145112908222141 -0.079525809681998266 0 0.09872511683107614 -0.093240777946863682 0 0.10410685586315779 -0.086397333804597132 0 0.1101811739261372 -0.096520180642599859 0 0.1097907778716227 -0.062353268490630949 0 0.097973064566791557 -0.072516054435691438 0 0.11145112908222141 -0.079525809681998266 0 0.091277489942145032 -0.053922224592993062 0 0.1097907778716227 -0.062353268490630949 0 0.097973064566791557 -0.072516054435691438 0 0.1097907778716227 -0.062353268490630949 0 0.11145112908222141 -0.079525809681998266 0 0.12579108975892769 -0.070977664217662467 0 0.11145112908222141 -0.079525809681998266 0 0.1101811739261372 -0.096520180642599859 0 0.12579108975892769 -0.070977664217662467 0 0.12103738666483881 -0.082916943794284936 0 0.1101811739261372 -0.096520180642599859 0 0.12579108975892769 -0.070977664217662467 0 0.1101811739261372 -0.096520180642599859 0 0.12579108975892769 -0.070977664217662467 0 0.12103738666483881 -0.082916943794284936 0 0.12495229426826721 -0.084690900285388365 0 0.12579108975892769 -0.070977664217662467 0 0.12103738666483881 -0.082916943794284936 0 0.12495229426826721 -0.084690900285388365 0 0.12470771663895749 -0.088689432472254803 0 0.12103738666483881 -0.082916943794284936 0 0.12495229426826721 -0.084690900285388365 0 0.12103738666483881 -0.082916943794284936 0 0.12470771663895749 -0.088689432472254803 0 0.1101811739261372 -0.096520180642599859 0 0.12495229426826721 -0.084690900285388365 0 0.12470771663895749 -0.088689432472254803 0 0.12470771663895749 -0.088689432472254803 0 0.1095645147219546 -0.10705292790003119 0 0.12470771663895749 -0.088689432472254803 0 0.1095645147219546 -0.10705292790003119 0 0.1233087993182841 -0.1115599458109951 0 0.12470771663895749 -0.088689432472254803 0 0.1095645147219546 -0.10705292790003119 0 0.1101811739261372 -0.096520180642599859 0 0.12470771663895749 -0.088689432472254803 0 0.1233087993182841 -0.1115599458109951 0 0.1095645147219546 -0.10705292790003119 0 0.1101811739261372 -0.096520180642599859 0 0.094571258093345587 -0.1220626970675366 0 0.1101811739261372 -0.096520180642599859 0 0.094571258093345587 -0.1220626970675366 0 0.1101811739261372 -0.096520180642599859 0 0.094973183425628729 -0.1033804881203534 0 0.095486801833275181 -0.110383416234588 0 0.09872511683107614 -0.093240777946863682 0 0.1101811739261372 -0.096520180642599859 0 0.094973183425628729 -0.1033804881203534 0 0.08895537126265704 -0.094279656976584844 0 0.09872511683107614 -0.093240777946863682 0 0.094973183425628729 -0.1033804881203534 0 0.094421312804951196 -0.12541642332780709 0 0.1095645147219546 -0.10705292790003119 0 0.094571258093345587 -0.1220626970675366 0 0.094421312804951196 -0.12541642332780709 0 0.1095645147219546 -0.10705292790003119 0 0.1101811739261372 -0.096520180642599859 0 0.094571258093345587 -0.1220626970675366 0 0.095486801833275181 -0.110383416234588 0 0.094421312804951196 -0.12541642332780709 0 0.1095645147219546 -0.10705292790003119 0 0.1056304838003819 -0.1210571950211298 0 0.1219098819976112 -0.13443045914973539 0 0.1233087993182841 -0.1115599458109951 0 0.1219098819976112 -0.13443045914973539 0 0.1138334321071932 -0.1204352133812531 0 0.1233087993182841 -0.1115599458109951 0 0.1087534806977343 -0.12807553902437399 0 0.1056304838003819 -0.1210571950211298 0 0.1138334321071932 -0.1204352133812531 0 0.1095645147219546 -0.10705292790003119 0 0.1138334321071932 -0.1204352133812531 0 0.1233087993182841 -0.1115599458109951 0 0.1095645147219546 -0.10705292790003119 0 0.1056304838003819 -0.1210571950211298 0 0.1138334321071932 -0.1204352133812531 0 0.1219098819976112 -0.13443045914973539 0 0.1233087993182841 -0.1115599458109951 0 0.1427888153649888 -0.1204522793201382 0 0.1233087993182841 -0.1115599458109951 0 0.1427888153649888 -0.1204522793201382 0 0.13253318828024749 -0.100006471771656 0 0.1427888153649888 -0.1204522793201382 0 0.16219731042411181 -0.1015676812630394 0 0.14468597350103971 -0.093632794172643918 0 0.16219731042411181 -0.1015676812630394 0 0.1427888153649888 -0.1204522793201382 0 0.14468597350103971 -0.093632794172643918 0 0.16219731042411181 -0.1015676812630394 0 0.12470771663895749 -0.088689432472254803 0 0.1233087993182841 -0.1115599458109951 0 0.13253318828024749 -0.100006471771656 0 0.1427888153649888 -0.1204522793201382 0 0.13253318828024749 -0.100006471771656 0 0.14468597350103971 -0.093632794172643918 0 0.1271746365779676 -0.08569790708224842 0 0.13859972611863669 -0.071843203123873003 0 0.14468597350103971 -0.093632794172643918 0 0.13253318828024749 -0.100006471771656 0 0.1271746365779676 -0.08569790708224842 0 0.14468597350103971 -0.093632794172643918 0 0.12470771663895749 -0.088689432472254803 0 0.13253318828024749 -0.100006471771656 0 0.1271746365779676 -0.08569790708224842 0 0.1271746365779676 -0.08569790708224842 0 0.14468597350103971 -0.093632794172643918 0 0.12495229426826721 -0.084690900285388365 0 0.12470771663895749 -0.088689432472254803 0 0.1271746365779676 -0.08569790708224842 0 0.12470771663895749 -0.088689432472254803 0 0.1271746365779676 -0.08569790708224842 0 0.12495229426826721 -0.084690900285388365 0 0.1271746365779676 -0.08569790708224842 0 0.12579108975892769 -0.070977664217662467 0 0.12495229426826721 -0.084690900285388365 0 0.1271746365779676 -0.08569790708224842 0 0.1271746365779676 -0.08569790708224842 0 0.13859972611863669 -0.071843203123873003 0 0.12579108975892769 -0.070977664217662467 0 0.13859972611863669 -0.071843203123873003 0 0.13609048825056039 -0.054124751110544753 0 0.12579108975892769 -0.070977664217662467 0 0.13609048825056039 -0.054124751110544753 0 0.1271746365779676 -0.08569790708224842 0 0.12579108975892769 -0.070977664217662467 0 0.13859972611863669 -0.071843203123873003 0 0.12495229426826721 -0.084690900285388365 0 0.12579108975892769 -0.070977664217662467 0 0.13859972611863669 -0.071843203123873003 0 0.15002481565930481 -0.05798849916549656 0 0.13859972611863669 -0.071843203123873003 0 0.15261894660089639 -0.073105312386855512 0 0.15002481565930481 -0.05798849916549656 0 0.15261894660089639 -0.073105312386855512 0 0.14468597350103971 -0.093632794172643918 0 0.16193876609583749 -0.082454382908863089 0 0.13859972611863669 -0.071843203123873003 0 0.15261894660089639 -0.073105312386855512 0 0.14468597350103971 -0.093632794172643918 0 0.14468597350103971 -0.093632794172643918 0 0.16193876609583749 -0.082454382908863089 0 0.16219731042411181 -0.1015676812630394 0 0.16193876609583749 -0.082454382908863089 0 0.1817585770801517 -0.082534435400248615 0 0.16219731042411181 -0.1015676812630394 0 0.15261894660089639 -0.073105312386855512 0 0.16193876609583749 -0.082454382908863089 0 0.16902059411631351 -0.063255700079655364 0 0.15261894660089639 -0.073105312386855512 0 0.16902059411631351 -0.063255700079655364 0 0.15002481565930481 -0.05798849916549656 0 0.16193876609583749 -0.082454382908863089 0 0.16902059411631351 -0.063255700079655364 0 0.1817585770801517 -0.082534435400248615 0 0.16902059411631351 -0.063255700079655364 0 0.18413859241245881 -0.064846345234451513 0 0.1817585770801517 -0.082534435400248615 0 0.1817585770801517 -0.082534435400248615 0 0.16219731042411181 -0.1015676812630394 0 0.1817585770801517 -0.082534435400248615 0 0.16219731042411181 -0.1015676812630394 0 0.18920832928981859 -0.099252541621767082 0 0.16219731042411181 -0.1015676812630394 0 0.18890943094126811 -0.1136717062829347 0 0.16219731042411181 -0.1015676812630394 0 0.18890943094126811 -0.1136717062829347 0 0.18920832928981859 -0.099252541621767082 0 0.16783428167475231 -0.1243497272034684 0 0.16219731042411181 -0.1015676812630394 0 0.18890943094126811 -0.1136717062829347 0 0.1427888153649888 -0.1204522793201382 0 0.16783428167475231 -0.1243497272034684 0 0.16219731042411181 -0.1015676812630394 0 0.13138510751398111 -0.0079036347022841107 0 0.15851599956922291 -0.01172037389334888 0 0.15641862808551901 -0.001228882756050856 0 0.13138510751398111 -0.0079036347022841107 0 0.15677245626684569 -0.020282832075577951 0 0.15851599956922291 -0.01172037389334888 0 0.12773595140078731 0.0024735933284422431 0 0.1274897344346434 -0.0048068443219815016 0 0.13138510751398111 -0.0079036347022841107 0 0.11975731359904471 -0.0086746694603672507 0 0.1274897344346434 -0.0048068443219815016 0 0.13138510751398111 -0.0079036347022841107 0 0.1274897344346434 -0.0048068443219815016 0 0.13138510751398111 -0.0079036347022841107 0 0.1218808979227336 -0.019799817689552631 0 0.13138510751398111 -0.0079036347022841107 0 0.1218808979227336 -0.019799817689552631 0 0.13138510751398111 -0.0079036347022841107 0 0.13593437277846701 -0.025533024883740311 0 0.13138510751398111 -0.0079036347022841107 0 0.13593437277846701 -0.025533024883740311 0 0.15356282978742761 -0.025534746175977441 0 0.1218808979227336 -0.019799817689552631 0 0.13593437277846701 -0.025533024883740311 0 0.1280163696491968 -0.03459717720762439 0 0.13138510751398111 -0.0079036347022841107 0 0.15356282978742761 -0.025534746175977441 0 0.15677245626684569 -0.020282832075577951 0 0.13138510751398111 -0.0079036347022841107 0 0.15356282978742761 -0.025534746175977441 0 0.13593437277846701 -0.025533024883740311 0 0.15356282978742761 -0.025534746175977441 0 0.14482665901899641 -0.039829748643262518 0 0.15356282978742761 -0.025534746175977441 0 0.15677245626684569 -0.020282832075577951 0 0.14482665901899641 -0.039829748643262518 0 0.15002481565930481 -0.05798849916549656 0 0.16759086569816459 -0.036686922303430507 0 0.15356282978742761 -0.025534746175977441 0 0.14482665901899641 -0.039829748643262518 0 0.16759086569816459 -0.036686922303430507 0 0.15356282978742761 -0.025534746175977441 0 0.14482665901899641 -0.039829748643262518 0 0.14482665901899641 -0.039829748643262518 0 0.1280163696491968 -0.03459717720762439 0 0.1340890814640685 -0.043902427379735362 0 0.1280163696491968 -0.03459717720762439 0 0.12697650718535219 -0.051597601749074858 0 0.13593437277846701 -0.025533024883740311 0 0.14482665901899641 -0.039829748643262518 0 0.1280163696491968 -0.03459717720762439 0 0.1280163696491968 -0.03459717720762439 0 0.1340890814640685 -0.043902427379735362 0 0.12697650718535219 -0.051597601749074858 0 0.14482665901899641 -0.039829748643262518 0 0.1340890814640685 -0.043902427379735362 0 0.13609048825056039 -0.054124751110544753 0 0.12579108975892769 -0.070977664217662467 0 0.12697650718535219 -0.051597601749074858 0 0.12579108975892769 -0.070977664217662467 0 0.13609048825056039 -0.054124751110544753 0 0.12697650718535219 -0.051597601749074858 0 0.14482665901899641 -0.039829748643262518 0 0.13609048825056039 -0.054124751110544753 0 0.13609048825056039 -0.054124751110544753 0 0.12697650718535219 -0.051597601749074858 0 0.1340890814640685 -0.043902427379735362 0 0.13609048825056039 -0.054124751110544753 0 0.12697650718535219 -0.051597601749074858 0 0.13859972611863669 -0.071843203123873003 0 0.13609048825056039 -0.054124751110544753 0 0.15002481565930481 -0.05798849916549656 0 0.14482665901899641 -0.039829748643262518 0 0.13609048825056039 -0.054124751110544753 0 0.15002481565930481 -0.05798849916549656 0 0.13609048825056039 -0.054124751110544753 0 0.15002481565930481 -0.05798849916549656 0 0.16902059411631351 -0.063255700079655364 0 0.15002481565930481 -0.05798849916549656 0 0.16759086569816459 -0.036686922303430507 0 0.15002481565930481 -0.05798849916549656 0 0.16759086569816459 -0.036686922303430507 0 0.16902059411631351 -0.063255700079655364 0 0.15002481565930481 -0.05798849916549656 0 0.16902059411631351 -0.063255700079655364 0 0.18413859241245881 -0.064846345234451513 0 0.18445535471717819 -0.050094055920444178 0 0.16902059411631351 -0.063255700079655364 0 0.18445535471717819 -0.050094055920444178 0 0.16759086569816459 -0.036686922303430507 0 0.18445535471717819 -0.050094055920444178 0 0.18001573013850719 -0.034635677958684219 0 0.16759086569816459 -0.036686922303430507 0 0.18445535471717819 -0.050094055920444178 0 0.16759086569816459 -0.036686922303430507 0 0.18001573013850719 -0.034635677958684219 0 0.16759086569816459 -0.036686922303430507 0 0.17679160730227719 -0.02552958732862599 0 0.15356282978742761 -0.025534746175977441 0 0.16759086569816459 -0.036686922303430507 0 0.1650658682019891 -0.024508027320603611 0 0.15356282978742761 -0.025534746175977441 0 0.16759086569816459 -0.036686922303430507 0 0.15356282978742761 -0.025534746175977441 0 0.15677245626684569 -0.020282832075577951 0 0.1650658682019891 -0.024508027320603611 0 0.15677245626684569 -0.020282832075577951 0 0.16401663914988029 -0.017674108895113231 0 0.15851599956922291 -0.01172037389334888 0 0.15677245626684569 -0.020282832075577951 0 0.16401663914988029 -0.017674108895113231 0 0.1650658682019891 -0.024508027320603611 0 0.16401663914988029 -0.017674108895113231 0 0.1706926977545464 -0.019143653141918519 0 0.1650658682019891 -0.024508027320603611 0 0.16401663914988029 -0.017674108895113231 0 0.1706926977545464 -0.019143653141918519 0 0.16854771076989741 -0.010936776052807601 0 0.1706926977545464 -0.019143653141918519 0 0.1650658682019891 -0.024508027320603611 0 0.17679160730227719 -0.02552958732862599 0 0.16759086569816459 -0.036686922303430507 0 0.1650658682019891 -0.024508027320603611 0 0.17679160730227719 -0.02552958732862599 0 0.16759086569816459 -0.036686922303430507 0 0.17679160730227719 -0.02552958732862599 0 0.18001573013850719 -0.034635677958684219 0 0.18650305040339149 -0.024482771885054311 0 0.19545473218267831 -0.031603170207816438 0 0.18001573013850719 -0.034635677958684219 0 0.17679160730227719 -0.02552958732862599 0 0.18650305040339149 -0.024482771885054311 0 0.18650305040339149 -0.024482771885054311 0 0.17880686676668031 -0.016992574296536962 0 0.18840079165615031 -0.0125432840100117 0 0.17679160730227719 -0.02552958732862599 0 0.18650305040339149 -0.024482771885054311 0 0.17880686676668031 -0.016992574296536962 0 0.1706926977545464 -0.019143653141918519 0 0.17880686676668031 -0.016992574296536962 0 0.16854771076989741 -0.010936776052807601 0 0.1706926977545464 -0.019143653141918519 0 0.17679160730227719 -0.02552958732862599 0 0.17880686676668031 -0.016992574296536962 0 0.1925679174992857 0.0043077106914305597 0 0.17354728991198329 0.0029068343059747781 0 0.17790215490921679 -0.0080032837763468114 0 0.17880686676668031 -0.016992574296536962 0 0.17790215490921679 -0.0080032837763468114 0 0.16854771076989741 -0.010936776052807601 0 0.1925679174992857 0.0043077106914305597 0 0.17790215490921679 -0.0080032837763468114 0 0.18840079165615031 -0.0125432840100117 0 0.17880686676668031 -0.016992574296536962 0 0.17790215490921679 -0.0080032837763468114 0 0.18840079165615031 -0.0125432840100117 0 0.17354728991198329 0.0029068343059747781 0 0.17790215490921679 -0.0080032837763468114 0 0.16854771076989741 -0.010936776052807601 0 0.17354728991198329 0.0029068343059747781 0 0.16854771076989741 -0.010936776052807601 0 0.15641862808551901 -0.001228882756050856 0 0.16854771076989741 -0.010936776052807601 0 0.15851599956922291 -0.01172037389334888 0 0.15641862808551901 -0.001228882756050856 0 0.16401663914988029 -0.017674108895113231 0 0.16854771076989741 -0.010936776052807601 0 0.15851599956922291 -0.01172037389334888 0 0.21191963030083841 -0.0024113053172400609 0 0.21115945071121001 -0.017355155054193321 0 0.2260444051132546 -0.011670711684598489 0 0.21191963030083841 -0.0024113053172400609 0 0.2003484995026541 -0.010107136284757699 0 0.21115945071121001 -0.017355155054193321 0 0.1925679174992857 0.0043077106914305597 0 0.21191963030083841 -0.0024113053172400609 0 0.2003484995026541 -0.010107136284757699 0 0.1925679174992857 0.0043077106914305597 0 0.18840079165615031 -0.0125432840100117 0 0.2003484995026541 -0.010107136284757699 0 0.18840079165615031 -0.0125432840100117 0 0.2003484995026541 -0.010107136284757699 0 0.19812384321867901 -0.022281465634562781 0 0.18650305040339149 -0.024482771885054311 0 0.18840079165615031 -0.0125432840100117 0 0.19812384321867901 -0.022281465634562781 0 0.18650305040339149 -0.024482771885054311 0 0.19812384321867901 -0.022281465634562781 0 0.19545473218267831 -0.031603170207816438 0 0.19812384321867901 -0.022281465634562781 0 0.2082475857100306 -0.030761784569846538 0 0.19545473218267831 -0.031603170207816438 0 0.19812384321867901 -0.022281465634562781 0 0.2082475857100306 -0.030761784569846538 0 0.21115945071121001 -0.017355155054193321 0 0.2003484995026541 -0.010107136284757699 0 0.19812384321867901 -0.022281465634562781 0 0.21115945071121001 -0.017355155054193321 0 0.2082475857100306 -0.030761784569846538 0 0.21115945071121001 -0.017355155054193321 0 0.22227274042180339 -0.026898526834154349 0 0.20447629406321891 -0.04385952373498378 0 0.22893685798793051 -0.053083369511283257 0 0.21949923646371369 -0.03823851063461739 0 0.2082475857100306 -0.030761784569846538 0 0.21949923646371369 -0.03823851063461739 0 0.22227274042180339 -0.026898526834154349 0 0.2082475857100306 -0.030761784569846538 0 0.20447629406321891 -0.04385952373498378 0 0.21949923646371369 -0.03823851063461739 0 0.18001573013850719 -0.034635677958684219 0 0.20447629406321891 -0.04385952373498378 0 0.19545473218267831 -0.031603170207816438 0 0.18445535471717819 -0.050094055920444178 0 0.18001573013850719 -0.034635677958684219 0 0.20447629406321891 -0.04385952373498378 0 0.2082475857100306 -0.030761784569846538 0 0.20447629406321891 -0.04385952373498378 0 0.19545473218267831 -0.031603170207816438 0 0.18001573013850719 -0.034635677958684219 0 0.20447629406321891 -0.04385952373498378 0 0.18445535471717819 -0.050094055920444178 0 0.20447629406321891 -0.04385952373498378 0 0.20008395378504751 -0.053107015249941061 0 0.18445535471717819 -0.050094055920444178 0 0.20008395378504751 -0.053107015249941061 0 0.20131984373619169 -0.063501189537457925 0 0.18413859241245881 -0.064846345234451513 0 0.18445535471717819 -0.050094055920444178 0 0.20131984373619169 -0.063501189537457925 0 0.18445535471717819 -0.050094055920444178 0 0.20131984373619169 -0.063501189537457925 0 0.20447629406321891 -0.04385952373498378 0 0.2100843226236013 -0.054973291806878342 0 0.22893685798793051 -0.053083369511283257 0 0.2100843226236013 -0.054973291806878342 0 0.20131984373619169 -0.063501189537457925 0 0.21101587891316739 -0.064698451862501491 0 0.20008395378504751 -0.053107015249941061 0 0.2100843226236013 -0.054973291806878342 0 0.20131984373619169 -0.063501189537457925 0 0.20447629406321891 -0.04385952373498378 0 0.22893685798793051 -0.053083369511283257 0 0.2100843226236013 -0.054973291806878342 0 0.20131984373619169 -0.063501189537457925 0 0.20447629406321891 -0.04385952373498378 0 0.20008395378504751 -0.053107015249941061 0 0.2100843226236013 -0.054973291806878342 0 0.2100843226236013 -0.054973291806878342 0 0.21101587891316739 -0.064698451862501491 0 0.2211988154346243 -0.063088055212677199 0 0.2100843226236013 -0.054973291806878342 0 0.22893685798793051 -0.053083369511283257 0 0.2211988154346243 -0.063088055212677199 0 0.22893685798793051 -0.053083369511283257 0 0.2211988154346243 -0.063088055212677199 0 0.23387369170523739 -0.064614933423750812 0 0.25339742191264197 -0.062307215287582728 0 0.22893685798793051 -0.053083369511283257 0 0.25339742191264197 -0.062307215287582728 0 0.22893685798793051 -0.053083369511283257 0 0.24497482797645989 -0.044171703177150967 0 0.25339742191264197 -0.062307215287582728 0 0.22893685798793051 -0.053083369511283257 0 0.23387369170523739 -0.064614933423750812 0 0.22893685798793051 -0.053083369511283257 0 0.24497482797645989 -0.044171703177150967 0 0.2335627041355848 -0.03658934852281899 0 0.24497482797645989 -0.044171703177150967 0 0.2335627041355848 -0.03658934852281899 0 0.2489274880079777 -0.029376254438568099 0 0.22893685798793051 -0.053083369511283257 0 0.2335627041355848 -0.03658934852281899 0 0.21949923646371369 -0.03823851063461739 0 0.2335627041355848 -0.03658934852281899 0 0.21949923646371369 -0.03823851063461739 0 0.22227274042180339 -0.026898526834154349 0 0.2335627041355848 -0.03658934852281899 0 0.22227274042180339 -0.026898526834154349 0 0.23810346511544911 -0.019019740761755919 0 0.22227274042180339 -0.026898526834154349 0 0.23810346511544911 -0.019019740761755919 0 0.2260444051132546 -0.011670711684598489 0 0.21115945071121001 -0.017355155054193321 0 0.22227274042180339 -0.026898526834154349 0 0.2260444051132546 -0.011670711684598489 0 0.2335627041355848 -0.03658934852281899 0 0.2489274880079777 -0.029376254438568099 0 0.23810346511544911 -0.019019740761755919 0 0.25354681507058452 -0.01533907888604962 0 0.2489274880079777 -0.029376254438568099 0 0.23810346511544911 -0.019019740761755919 0 0.23810346511544911 -0.019019740761755919 0 0.24311130928645741 -0.005463409046427151 0 0.2260444051132546 -0.011670711684598489 0 0.25354681507058452 -0.01533907888604962 0 0.23810346511544911 -0.019019740761755919 0 0.24311130928645741 -0.005463409046427151 0 0.2301876845731515 0.0022250632122473471 0 0.24311130928645741 -0.005463409046427151 0 0.2260444051132546 -0.011670711684598489 0 0.2301876845731515 0.0022250632122473471 0 0.21191963030083841 -0.0024113053172400609 0 0.2260444051132546 -0.011670711684598489 0 0.2124962068942601 -0.098638948596197956 0 0.2013236011061075 -0.10629442974050241 0 0.20100822340309141 -0.087061569463550911 0 0.2124962068942601 -0.098638948596197956 0 0.2013236011061075 -0.10629442974050241 0 0.21891673041353979 -0.1127510418373332 0 0.20770664586739959 -0.122189261436376 0 0.2013236011061075 -0.10629442974050241 0 0.21891673041353979 -0.1127510418373332 0 0.20770664586739959 -0.122189261436376 0 0.21891673041353979 -0.1127510418373332 0 0.22650386079353119 -0.13070681658981709 0 0.20770664586739959 -0.122189261436376 0 0.18890943094126811 -0.1136717062829347 0 0.20770664586739959 -0.122189261436376 0 0.18890943094126811 -0.1136717062829347 0 0.2013236011061075 -0.10629442974050241 0 0.18890943094126811 -0.1136717062829347 0 0.18920832928981859 -0.099252541621767082 0 0.18890943094126811 -0.1136717062829347 0 0.2013236011061075 -0.10629442974050241 0 0.18920832928981859 -0.099252541621767082 0 0.2013236011061075 -0.10629442974050241 0 0.18920832928981859 -0.099252541621767082 0 0.20100822340309141 -0.087061569463550911 0 0.1817585770801517 -0.082534435400248615 0 0.18920832928981859 -0.099252541621767082 0 0.20100822340309141 -0.087061569463550911 0 0.18413859241245881 -0.064846345234451513 0 0.1817585770801517 -0.082534435400248615 0 0.20131984373619169 -0.063501189537457925 0 0.1817585770801517 -0.082534435400248615 0 0.20131984373619169 -0.063501189537457925 0 0.1817585770801517 -0.082534435400248615 0 0.20100822340309141 -0.087061569463550911 0 0.20131984373619169 -0.063501189537457925 0 0.20100822340309141 -0.087061569463550911 0 0.20131984373619169 -0.063501189537457925 0 0.2209789244391501 -0.079130001147170087 0 0.20131984373619169 -0.063501189537457925 0 0.2209789244391501 -0.079130001147170087 0 0.20131984373619169 -0.063501189537457925 0 0.21101587891316739 -0.064698451862501491 0 0.2209789244391501 -0.079130001147170087 0 0.21101587891316739 -0.064698451862501491 0 0.2209789244391501 -0.079130001147170087 0 0.21971063439408689 -0.069831715426349403 0 0.21101587891316739 -0.064698451862501491 0 0.21971063439408689 -0.069831715426349403 0 0.2211988154346243 -0.063088055212677199 0 0.2124962068942601 -0.098638948596197956 0 0.20100822340309141 -0.087061569463550911 0 0.2209789244391501 -0.079130001147170087 0 0.2209789244391501 -0.079130001147170087 0 0.2256489187894061 -0.072410353483048862 0 0.24314859486964441 -0.088373517197234339 0 0.2124962068942601 -0.098638948596197956 0 0.2209789244391501 -0.079130001147170087 0 0.22617837600692489 -0.099628394622828326 0 0.2209789244391501 -0.079130001147170087 0 0.24063800514210851 -0.094758812756882166 0 0.22617837600692489 -0.099628394622828326 0 0.2209789244391501 -0.079130001147170087 0 0.24063800514210851 -0.094758812756882166 0 0.21971063439408689 -0.069831715426349403 0 0.2211988154346243 -0.063088055212677199 0 0.2256489187894061 -0.072410353483048862 0 0.2209789244391501 -0.079130001147170087 0 0.21971063439408689 -0.069831715426349403 0 0.2256489187894061 -0.072410353483048862 0 0.2256489187894061 -0.072410353483048862 0 0.23387369170523739 -0.064614933423750812 0 0.24018644440158449 -0.072185673624162006 0 0.2211988154346243 -0.063088055212677199 0 0.2256489187894061 -0.072410353483048862 0 0.23387369170523739 -0.064614933423750812 0 0.25339742191264197 -0.062307215287582728 0 0.24314859486964441 -0.088373517197234339 0 0.25339742191264197 -0.062307215287582728 0 0.24018644440158449 -0.072185673624162006 0 0.24314859486964441 -0.088373517197234339 0 0.2256489187894061 -0.072410353483048862 0 0.24018644440158449 -0.072185673624162006 0 0.24314859486964441 -0.088373517197234339 0 0.25339742191264197 -0.062307215287582728 0 0.23387369170523739 -0.064614933423750812 0 0.24018644440158449 -0.072185673624162006 0 0.2256489187894061 -0.072410353483048862 0 0.24314859486964441 -0.088373517197234339 0 0.2209789244391501 -0.079130001147170087 0 0.24314859486964441 -0.088373517197234339 0 0.24063800514210851 -0.094758812756882166 0 0.24314859486964441 -0.088373517197234339 0 0.24063800514210851 -0.094758812756882166 0 0.25662204245081038 -0.107465994320195 0 0.24063800514210851 -0.094758812756882166 0 0.24063800514210851 -0.094758812756882166 0 0.23357093296781989 -0.1127328146733497 0 0.24708412451599479 -0.1140119489509321 0 0.25662204245081038 -0.107465994320195 0 0.24063800514210851 -0.094758812756882166 0 0.24708412451599479 -0.1140119489509321 0 0.24063800514210851 -0.094758812756882166 0 0.23357093296781989 -0.1127328146733497 0 0.25834843152813058 -0.10223877275372401 0 0.24314859486964441 -0.088373517197234339 0 0.24063800514210851 -0.094758812756882166 0 0.24063800514210851 -0.094758812756882166 0 0.22617837600692489 -0.099628394622828326 0 0.23357093296781989 -0.1127328146733497 0 0.2124962068942601 -0.098638948596197956 0 0.22617837600692489 -0.099628394622828326 0 0.21891673041353979 -0.1127510418373332 0 0.22617837600692489 -0.099628394622828326 0 0.21891673041353979 -0.1127510418373332 0 0.23357093296781989 -0.1127328146733497 0 0.21891673041353979 -0.1127510418373332 0 0.23357093296781989 -0.1127328146733497 0 0.22650386079353119 -0.13070681658981709 0 0.23357093296781989 -0.1127328146733497 0 0.2393835886159289 -0.12137238572137719 0 0.22650386079353119 -0.13070681658981709 0 0.23357093296781989 -0.1127328146733497 0 0.22650386079353119 -0.13070681658981709 0 0.23357093296781989 -0.1127328146733497 0 0.2393835886159289 -0.12137238572137719 0 0.24708412451599479 -0.1140119489509321 0 0.25037543618636982 -0.12803796267140971 0 0.2393835886159289 -0.12137238572137719 0 0.24708412451599479 -0.1140119489509321 0 0.25037543618636982 -0.12803796267140971 0 0.25236900696121861 -0.1424270533323797 0 0.22650386079353119 -0.13070681658981709 0 0.25236900696121861 -0.1424270533323797 0 0.2346341162615227 -0.1458906255419648 0 0.22650386079353119 -0.13070681658981709 0 0.25037543618636982 -0.12803796267140971 0 0.2393835886159289 -0.12137238572137719 0 0.22650386079353119 -0.13070681658981709 0 0.25236900696121861 -0.1424270533323797 0 0.22650386079353119 -0.13070681658981709 0 0.25236900696121861 -0.1424270533323797 0 0.2346341162615227 -0.1458906255419648 0 0.24081778075798779 -0.160244767903367 0 0.2346341162615227 -0.1458906255419648 0 0.2188458165333533 -0.1501838643422955 0 0.24081778075798779 -0.160244767903367 0 0.2346341162615227 -0.1458906255419648 0 0.2188458165333533 -0.1501838643422955 0 0.22650386079353119 -0.13070681658981709 0 0.2188458165333533 -0.1501838643422955 0 0.22650386079353119 -0.13070681658981709 0 0.2188458165333533 -0.1501838643422955 0 0.22650386079353119 -0.13070681658981709 0 0.20874234856023199 -0.14077181041446629 0 0.20770664586739959 -0.122189261436376 0 0.22650386079353119 -0.13070681658981709 0 0.20770664586739959 -0.122189261436376 0 0.22650386079353119 -0.13070681658981709 0 0.20874234856023199 -0.14077181041446629 0 0.2188458165333533 -0.1501838643422955 0 0.20874234856023199 -0.14077181041446629 0 0.20235591934470831 -0.1576837182901033 0 0.20874234856023199 -0.14077181041446629 0 0.18829950026216741 -0.14309539141373939 0 0.20235591934470831 -0.1576837182901033 0 0.20770664586739959 -0.122189261436376 0 0.18890943094126811 -0.1136717062829347 0 0.18829950026216741 -0.14309539141373939 0 0.20770664586739959 -0.122189261436376 0 0.20874234856023199 -0.14077181041446629 0 0.18829950026216741 -0.14309539141373939 0 0.18890943094126811 -0.1136717062829347 0 0.18829950026216741 -0.14309539141373939 0 0.18761181733603319 -0.17626992514629169 0 0.1947434641703335 -0.1741219373161606 0 0.2040665973658756 -0.19162386872065171 0 0.1947434641703335 -0.1741219373161606 0 0.18768956958306021 -0.1725190765445441 0 0.18761181733603319 -0.17626992514629169 0 0.1947434641703335 -0.1741219373161606 0 0.18761181733603319 -0.17626992514629169 0 0.1947434641703335 -0.1741219373161606 0 0.18768956958306021 -0.1725190765445441 0 0.18761181733603319 -0.17626992514629169 0 0.18768956958306021 -0.1725190765445441 0 0.18829950026216741 -0.14309539141373939 0 0.18768956958306021 -0.1725190765445441 0 0.20235591934470831 -0.1576837182901033 0 0.1947434641703335 -0.1741219373161606 0 0.18768956958306021 -0.1725190765445441 0 0.20235591934470831 -0.1576837182901033 0 0.18829950026216741 -0.14309539141373939 0 0.18768956958306021 -0.1725190765445441 0 0.1947434641703335 -0.1741219373161606 0 0.20235591934470831 -0.1576837182901033 0 0.2177806224641608 -0.16718335260976441 0 0.2188458165333533 -0.1501838643422955 0 0.20235591934470831 -0.1576837182901033 0 0.2177806224641608 -0.16718335260976441 0 0.1947434641703335 -0.1741219373161606 0 0.2177806224641608 -0.16718335260976441 0 0.1947434641703335 -0.1741219373161606 0 0.22003764619143659 -0.1798695497322616 0 0.2040665973658756 -0.19162386872065171 0 0.22003764619143659 -0.1798695497322616 0 0.2040665973658756 -0.19162386872065171 0 0.2175362324178203 -0.19003862658420201 0 0.1947434641703335 -0.1741219373161606 0 0.2177806224641608 -0.16718335260976441 0 0.22003764619143659 -0.1798695497322616 0 0.1947434641703335 -0.1741219373161606 0 0.22003764619143659 -0.1798695497322616 0 0.2177806224641608 -0.16718335260976441 0 0.22003764619143659 -0.1798695497322616 0 0.23529757240957441 -0.17283307775637149 0 0.22003764619143659 -0.1798695497322616 0 0.24533182821253949 -0.18561716214836391 0 0.22003764619143659 -0.1798695497322616 0 0.24533182821253949 -0.18561716214836391 0 0.23529757240957441 -0.17283307775637149 0 0.22003764619143659 -0.1798695497322616 0 0.24533182821253949 -0.18561716214836391 0 0.22801285945577771 -0.1904416831902315 0 0.22003764619143659 -0.1798695497322616 0 0.22801285945577771 -0.1904416831902315 0 0.2175362324178203 -0.19003862658420201 0 0.2177806224641608 -0.16718335260976441 0 0.24081778075798779 -0.160244767903367 0 0.2188458165333533 -0.1501838643422955 0 0.2177806224641608 -0.16718335260976441 0 0.24081778075798779 -0.160244767903367 0 0.2177806224641608 -0.16718335260976441 0 0.24081778075798779 -0.160244767903367 0 0.23529757240957441 -0.17283307775637149 0 0.25168293139397369 -0.17096036420933389 0 0.24081778075798779 -0.160244767903367 0 0.23529757240957441 -0.17283307775637149 0 0.25168293139397369 -0.17096036420933389 0 0.24533182821253949 -0.18561716214836391 0 0.23529757240957441 -0.17283307775637149 0 0.24533182821253949 -0.18561716214836391 0 0.23617848666533961 -0.1977076908006721 0 0.22801285945577771 -0.1904416831902315 0 0.25046899035022402 -0.20780372520346391 0 0.24533182821253949 -0.18561716214836391 0 0.23617848666533961 -0.1977076908006721 0 0.25194222904351782 -0.2214602506750131 0 0.23707842856578981 -0.21026371461973031 0 0.23154519396389039 -0.22374015083872731 0 0.25194222904351782 -0.2214602506750131 0 0.25046899035022402 -0.20780372520346391 0 0.23707842856578981 -0.21026371461973031 0 0.25046899035022402 -0.20780372520346391 0 0.23617848666533961 -0.1977076908006721 0 0.23707842856578981 -0.21026371461973031 0 0.23707842856578981 -0.21026371461973031 0 0.21181469774061221 -0.2188550791853312 0 0.23707842856578981 -0.21026371461973031 0 0.23154519396389039 -0.22374015083872731 0 0.21181469774061221 -0.2188550791853312 0 0.23707842856578981 -0.21026371461973031 0 0.22201963799371049 -0.1992415775279093 0 0.21181469774061221 -0.2188550791853312 0 0.22201963799371049 -0.1992415775279093 0 0.22801285945577771 -0.1904416831902315 0 0.2175362324178203 -0.19003862658420201 0 0.23617848666533961 -0.1977076908006721 0 0.22201963799371049 -0.1992415775279093 0 0.22801285945577771 -0.1904416831902315 0 0.23617848666533961 -0.1977076908006721 0 0.23707842856578981 -0.21026371461973031 0 0.22201963799371049 -0.1992415775279093 0 0.25039127449398407 -0.24989370801593011 0 0.23631724241567431 -0.25808050508295588 0 0.236531769718375 -0.23530960500151649 0 0.25206177602816038 -0.23646078922060901 0 0.25039127449398407 -0.24989370801593011 0 0.236531769718375 -0.23530960500151649 0 0.25194222904351782 -0.2214602506750131 0 0.236531769718375 -0.23530960500151649 0 0.23154519396389039 -0.22374015083872731 0 0.25206177602816038 -0.23646078922060901 0 0.25194222904351782 -0.2214602506750131 0 0.236531769718375 -0.23530960500151649 0 0.25194222904351782 -0.2214602506750131 0 0.236531769718375 -0.23530960500151649 0 0.236531769718375 -0.23530960500151649 0 0.2203588447511575 -0.23281210471204519 0 0.23154519396389039 -0.22374015083872731 0 0.2203588447511575 -0.23281210471204519 0 0.23154519396389039 -0.22374015083872731 0 0.21181469774061221 -0.2188550791853312 0 0.23631724241567431 -0.25808050508295588 0 0.236531769718375 -0.23530960500151649 0 0.2211213103932321 -0.2491589593280199 0 0.236531769718375 -0.23530960500151649 0 0.2203588447511575 -0.23281210471204519 0 0.2211213103932321 -0.2491589593280199 0 0.236531769718375 -0.23530960500151649 0 0.2211213103932321 -0.2491589593280199 0 0.2203588447511575 -0.23281210471204519 0 0.2211213103932321 -0.2491589593280199 0 0.2048330354356461 -0.23979339380446221 0 0.2048141114297542 -0.25902610868195503 0 0.2211213103932321 -0.2491589593280199 0 0.2048330354356461 -0.23979339380446221 0 0.2203588447511575 -0.23281210471204519 0 0.2048330354356461 -0.23979339380446221 0 0.21181469774061221 -0.2188550791853312 0 0.21181469774061221 -0.2188550791853312 0 0.1865509669154356 -0.22744644375093531 0 0.2048330354356461 -0.23979339380446221 0 0.21181469774061221 -0.2188550791853312 0 0.1865509669154356 -0.22744644375093531 0 0.1859533258564201 -0.25627726493157033 0 0.2048330354356461 -0.23979339380446221 0 0.1865509669154356 -0.22744644375093531 0 0.22201963799371049 -0.1992415775279093 0 0.2040665973658756 -0.19162386872065171 0 0.2175362324178203 -0.19003862658420201 0 0.22201963799371049 -0.1992415775279093 0 0.21181469774061221 -0.2188550791853312 0 0.2040665973658756 -0.19162386872065171 0 0.21181469774061221 -0.2188550791853312 0 0.18708139212573571 -0.20185818444861359 0 0.1865509669154356 -0.22744644375093531 0 0.21181469774061221 -0.2188550791853312 0 0.2040665973658756 -0.19162386872065171 0 0.18708139212573571 -0.20185818444861359 0 0.18761181733603319 -0.17626992514629169 0 0.2040665973658756 -0.19162386872065171 0 0.18708139212573571 -0.20185818444861359 0 0.18761181733603319 -0.17626992514629169 0 0.18708139212573571 -0.20185818444861359 0 0.17760025859894421 -0.1893353851862897 0 0.18761181733603319 -0.17626992514629169 0 0.18708139212573571 -0.20185818444861359 0 0.18708139212573571 -0.20185818444861359 0 0.17760025859894421 -0.1893353851862897 0 0.16753016562657019 -0.19645859833292259 0 0.18708139212573571 -0.20185818444861359 0 0.16295124312048251 -0.21152896389147391 0 0.16753016562657019 -0.19645859833292259 0 0.18708139212573571 -0.20185818444861359 0 0.1865509669154356 -0.22744644375093531 0 0.18708139212573571 -0.20185818444861359 0 0.16295124312048251 -0.21152896389147391 0 0.1865509669154356 -0.22744644375093531 0 0.16295124312048251 -0.21152896389147391 0 0.16753016562657019 -0.19645859833292259 0 0.14313390930117359 -0.1896662706732446 0 0.16753016562657019 -0.19645859833292259 0 0.14313390930117359 -0.1896662706732446 0 0.16537286331860329 -0.1829680979097679 0 0.17760025859894421 -0.1893353851862897 0 0.16753016562657019 -0.19645859833292259 0 0.16537286331860329 -0.1829680979097679 0 0.17061020394528689 -0.25171616220673199 0 0.1865509669154356 -0.22744644375093531 0 0.15993051811411521 -0.2364991835119227 0 0.17061020394528689 -0.25171616220673199 0 0.1859533258564201 -0.25627726493157033 0 0.1865509669154356 -0.22744644375093531 0 0.1859533258564201 -0.25627726493157033 0 0.1865509669154356 -0.22744644375093531 0 0.1865509669154356 -0.22744644375093531 0 0.15993051811411521 -0.2364991835119227 0 0.16295124312048251 -0.21152896389147391 0 0.1865509669154356 -0.22744644375093531 0 0.15993051811411521 -0.2364991835119227 0 0.15388576897399511 -0.25446663194545421 0 0.17061020394528689 -0.25171616220673199 0 0.15993051811411521 -0.2364991835119227 0 0.15993051811411521 -0.2364991835119227 0 0.13331006931279599 -0.24555192327291309 0 0.15388576897399511 -0.25446663194545421 0 0.15993051811411521 -0.2364991835119227 0 0.13331006931279599 -0.24555192327291309 0 0.15993051811411521 -0.2364991835119227 0 0.1395070520304551 -0.21960501280540359 0 0.13331006931279599 -0.24555192327291309 0 0.16295124312048251 -0.21152896389147391 0 0.15993051811411521 -0.2364991835119227 0 0.1395070520304551 -0.21960501280540359 0 0.1196187432297524 -0.2298069900397863 0 0.1395070520304551 -0.21960501280540359 0 0.13331006931279599 -0.24555192327291309 0 0.16295124312048251 -0.21152896389147391 0 0.1395070520304551 -0.21960501280540359 0 0.14313390930117359 -0.1896662706732446 0 0.1191679701520582 -0.2067671847966038 0 0.1395070520304551 -0.21960501280540359 0 0.14313390930117359 -0.1896662706732446 0 0.1191679701520582 -0.2067671847966038 0 0.1196187432297524 -0.2298069900397863 0 0.1395070520304551 -0.21960501280540359 0 0.1191679701520582 -0.2067671847966038 0 0.1168971249087969 -0.18373711639804749 0 0.14313390930117359 -0.1896662706732446 0 0.1168971249087969 -0.18373711639804749 0 0.14313390930117359 -0.1896662706732446 0 0.13089851006819389 -0.17298498934406939 0 0.14313390930117359 -0.1896662706732446 0 0.16537286331860329 -0.1829680979097679 0 0.14313390930117359 -0.1896662706732446 0 0.13089851006819389 -0.17298498934406939 0 0.15112752517055419 -0.17593884909514121 0 0.14313390930117359 -0.1896662706732446 0 0.15112752517055419 -0.17593884909514121 0 0.16537286331860329 -0.1829680979097679 0 0.14291059340301529 -0.16234392246136331 0 0.15697635138122551 -0.14296157773748991 0 0.1653000814930376 -0.16743149950295419 0 0.15112752517055419 -0.17593884909514121 0 0.14291059340301529 -0.16234392246136331 0 0.1653000814930376 -0.16743149950295419 0 0.13089851006819389 -0.17298498934406939 0 0.15112752517055419 -0.17593884909514121 0 0.14291059340301529 -0.16234392246136331 0 0.14291059340301529 -0.16234392246136331 0 0.1653000814930376 -0.16743149950295419 0 0.1205109646769383 -0.15730097248847569 0 0.13089851006819389 -0.17298498934406939 0 0.14291059340301529 -0.16234392246136331 0 0.1205109646769383 -0.15730097248847569 0 0.14291059340301529 -0.16234392246136331 0 0.1219098819976112 -0.13443045914973539 0 0.1205109646769383 -0.15730097248847569 0 0.13780448543318979 -0.14331332402281341 0 0.1205109646769383 -0.15730097248847569 0 0.14291059340301529 -0.16234392246136331 0 0.13780448543318979 -0.14331332402281341 0 0.1219098819976112 -0.13443045914973539 0 0.1427888153649888 -0.1204522793201382 0 0.13780448543318979 -0.14331332402281341 0 0.1427888153649888 -0.1204522793201382 0 0.16783428167475231 -0.1243497272034684 0 0.15697635138122551 -0.14296157773748991 0 0.1427888153649888 -0.1204522793201382 0 0.13780448543318979 -0.14331332402281341 0 0.15697635138122551 -0.14296157773748991 0 0.14291059340301529 -0.16234392246136331 0 0.13780448543318979 -0.14331332402281341 0 0.15697635138122551 -0.14296157773748991 0 0.16783428167475231 -0.1243497272034684 0 0.18829950026216741 -0.14309539141373939 0 0.15697635138122551 -0.14296157773748991 0 0.18829950026216741 -0.14309539141373939 0 0.15697635138122551 -0.14296157773748991 0 0.1653000814930376 -0.16743149950295419 0 0.16783428167475231 -0.1243497272034684 0 0.18890943094126811 -0.1136717062829347 0 0.18829950026216741 -0.14309539141373939 0 0.18829950026216741 -0.14309539141373939 0 0.18768956958306021 -0.1725190765445441 0 0.1653000814930376 -0.16743149950295419 0 0.18768956958306021 -0.1725190765445441 0 0.1653000814930376 -0.16743149950295419 0 0.18761181733603319 -0.17626992514629169 0 0.17760025859894421 -0.1893353851862897 0 0.16537286331860329 -0.1829680979097679 0 0.18761181733603319 -0.17626992514629169 0 0.16537286331860329 -0.1829680979097679 0 0.18761181733603319 -0.17626992514629169 0 0.16537286331860329 -0.1829680979097679 0 0.1653000814930376 -0.16743149950295419 0 0.18761181733603319 -0.17626992514629169 0 0.18768956958306021 -0.1725190765445441 0 0.1653000814930376 -0.16743149950295419 0 0.15112752517055419 -0.17593884909514121 0 0.16537286331860329 -0.1829680979097679 0 0.1653000814930376 -0.16743149950295419 0 
</DataArray>
</Points>
<Cells>
<DataArray type="UInt32" Name="connectivity" format="ascii">
0 1 2 3 4 5 6 7 8 9 10 11 12 13 14 15 16 17 18 19 20 21 22 23 24 25 26 27 28 29 30 31 32 33 34 35 36 37 38 39 40 41 42 43 44 45 46 47 48 49 50 51 52 53 54 55 56 57 58 59 60 61 62 63 64 65 66 67 68 69 70 71 72 73 74 75 76 77 78 79 80 81 82 83 84 85 86 87 88 89 90 91 92 93 94 95 96 97 98 99 100 101 102 103 104 105 106 107 108 109 110 111 112 113 114 115 116 117 118 119 120 121 122 123 124 125 126 127 128 129 130 131 132 133 134 135 136 137 138 139 140 141 142 143 144 145 146 147 148 149 150 151 152 153 154 155 156 157 158 159 160 161 162 163 164 165 166 167 168 169 170 171 172 173 174 175 176 177 178 179 180 181 182 183 184 185 186 187 188 189 190 191 192 193 194 195 196 197 198 199 200 201 202 203 204 205 206 207 208 209 210 211 212 213 214 215 216 217 218 219 220 221 222 223 224 225 226 227 228 229 230 231 232 233 234 235 236 237 238 239 240 241 242 243 244 245 246 247 248 249 250 251 252 253 254 255 256 257 258 259 260 261 262 263 264 265 266 267 268 269 270 271 272 273 274 275 276 277 278 279 280 281 282 283 284 285 286 287 288 289 290 291 292 293 294 295 296 297 298 299 300 301 302 303 304 305 306 307 308 309 310 311 312 313 314 315 316 317 318 319 320 321 322 323 324 325 326 327 328 329 330 331 332 333 334 335 336 337 338 339 340 341 342 343 344 345 346 347 348 349 350 351 352 353 354 355 356 357 358 359 360 361 362 363 364 365 366 367 368 369 370 371 372 373 374 375 376 377 378 379 380 381 382 383 384 385 386 387 388 389 390 391 392 393 394 395 396 397 398 399 400 401 402 403 404 405 406 407 408 409 410 411 412 413 414 415 416 417 418 419 420 421 422 423 424 425 426 427 428 429 430 431 432 433 434 435 436 437 438 439 440 441 442 443 444 445 446 447 448 449 450 451 452 453 454 455 456 457 458 459 460 461 462 463 464 465 466 467 468 469 470 471 472 473 474 475 476 477 478 479 480 481 482 483 484 485 486 487 488 489 490 491 492 493 494 495 496 497 498 499 500 501 502 503 504 505 506 507 508 509 510 511 512 513 514 515 516 517 518 519 520 521 522 523 524 525 526 527 528 529 530 531 532 533 534 535 536 537 538 539 540 541 542 543 544 545 546 547 548 549 550 551 552 553 554 555 556 557 558 559 560 561 562 563 564 565 566 567 568 569 570 571 572 573 574 575 576 577 578 579 580 581 582 583 584 585 586 587 588 589 590 591 592 593 594 595 596 597 598 599 600 601 602 603 604 605 606 607 608 609 610 611 612 613 614 615 616 617 618 619 620 621 622 623 624 625 626 627 628 629 630 631 632 633 634 635 636 637 638 639 640 641 642 643 644 645 646 647 648 649 650 651 652 653 654 655 656 657 658 659 660 661 662 663 664 665 666 667 668 669 670 671 672 673 674 675 676 677 678 679 680 681 682 683 684 685 686 687 688 689 690 691 692 693 694 695 696 697 698 699 700 701 702 703 704 705 706 707 708 709 710 711 712 713 714 715 716 717 718 719 720 721 722 723 724 725 726 727 728 729 730 731 732 733 734 735 736 737 738 739 740 741 742 743 744 745 746 747 748 749 750 751 752 753 754 755 756 757 758 759 760 761 762 763 764 765 766 767 768 769 770 771 772 773 774 775 776 777 778 779 780 781 782 783 784 785 786 787 788 789 790 791 792 793 794 795 796 797 798 799 800 801 802 803 804 805 806 807 808 809 810 811 812 813 814 815 816 817 818 819 820 821 822 823 824 825 826 827 828 829 830 831 832 833 834 835 836 837 838 839 840 841 842 843 844 845 846 847 848 849 850 851 852 853 854 855 856 857 858 859 860 861 862 863 864 865 866 867 868 869 870 871 872 873 874 875 876 877 878 879 880 881 882 883 884 885 886 887 888 889 890 891 892 893 894 895 896 897 898 899 900 901 902 903 904 905 906 907 908 909 910 911 912 913 914 915 916 917 918 919 920 921 922 923 924 925 926 927 928 929 930 931 932 933 934 935 936 937 938 939 940 941 942 943 944 945 946 947 948 949 950 951 952 953 954 955 956 957 958 959 960 961 962 963 964 965 966 967 968 969 970 971 972 973 974 975 976 977 978 979 980 981 982 983 984 985 986 987 988 989 990 991 992 993 994 995 996 997 998 999 1000 1001 1002 1003 1004 1005 1006 1007 1008 1009 1010 1011 1012 1013 1014 1015 1016 1017 1018 1019 1020 1021 1022 1023 1024 1025 1026 1027 1028 1029 1030 1031 1032 1033 1034 1035 1036 1037 1038 1039 1040 1041 1042 1043 1044 1045 1046 1047 1048 1049 1050 1051 1052 1053 1054 1055 1056 1057 1058 1059 1060 1061 1062 1063 1064 1065 1066 1067 1068 1069 1070 1071 1072 1073 1074 1075 1076 1077 1078 1079 1080 1081 1082 1083 1084 1085 1086 1087 1088 1089 1090 1091 1092 1093 1094 1095 1096 1097 1098 1099 1100 1101 1102 1103 1104 1105 1106 1107 1108 1109 1110 1111 1112 1113 1114 1115 1116 1117 1118 1119 1120 1121 1122 1123 1124 1125 1126 1127 1128 1129 1130 1131 1132 1133 1134 1135 1136 1137 1138 1139 1140 1141 1142 1143 1144 1145 1146 1147 1148 1149 1150 1151 1152 1153 1154 1155 1156 1157 1158 1159 1160 1161 1162 1163 1164 1165 1166 1167 1168 1169 1170 1171 1172 1173 1174 1175 1176 1177 1178 1179 1180 1181 1182 1183 1184 1185 1186 1187 1188 1189 1190 1191 1192 1193 1194 1195 1196 1197 1198 1199 1200 1201 1202 1203 1204 1205 1206 1207 1208 1209 1210 1211 1212 1213 1214 1215 1216 1217 1218 1219 1220 1221 1222 1223 1224 1225 1226 1227 1228 1229 1230 1231 1232 1233 1234 1235 1236 1237 1238 1239 1240 1241 1242 1243 1244 1245 1246 1247 1248 1249 1250 1251 1252 1253 1254 1255 1256 1257 1258 1259 1260 1261 1262 1263 1264 1265 1266 1267 1268 1269 1270 1271 1272 1273 1274 1275 1276 1277 1278 1279 1280 1281 1282 1283 1284 1285 1286 1287 1288 1289 1290 1291 1292 1293 1294 1295 1296 1297 1298 1299 1300 1301 1302 1303 1304 1305 1306 1307 1308 1309 1310 1311 1312 1313 1314 1315 1316 1317 1318 1319 1320 1321 1322 1323 1324 1325 1326 1327 1328 1329 1330 1331 1332 1333 1334 1335 1336 1337 1338 1339 1340 1341 1342 1343 1344 1345 1346 1347 1348 1349 1350 1351 1352 1353 1354 1355 1356 1357 1358 1359 1360 1361 1362 1363 1364 1365 1366 1367 1368 1369 1370 1371 1372 1373 1374 1375 1376 1377 1378 1379 1380 1381 1382 1383 1384 1385 1386 1387 1388 1389 1390 1391 1392 1393 1394 1395 1396 1397 1398 1399 1400 1401 1402 1403 1404 1405 1406 1407 1408 1409 1410 1411 1412 1413 1414 1415 1416 1417 1418 1419 1420 1421 1422 1423 1424 1425 1426 1427 1428 1429 1430 1431 1432 1433 1434 1435 1436 1437 1438 1439 1440 1441 1442 1443 1444 1445 1446 1447 1448 1449 1450 1451 1452 1453 1454 1455 1456 1457 1458 1459 1460 1461 1462 1463 1464 1465 1466 1467 1468 1469 1470 1471 1472 1473 1474 1475 1476 1477 1478 1479 1480 1481 1482 1483 1484 1485 1486 1487 1488 1489 1490 1491 1492 1493 1494 1495 1496 1497 1498 1499 1500 1501 1502 1503 1504 1505 1506 1507 1508 1509 1510 1511 1512 1513 1514 1515 1516 1517 1518 1519 1520 1521 1522 1523 1524 1525 1526 1527 1528 1529 1530 1531 1532 1533 1534 1535 1536 1537 1538 1539 1540 1541 1542 1543 1544 1545 1546 1547 1548 1549 1550 1551 1552 1553 1554 1555 1556 1557 1558 1559 1560 1561 1562 1563 1564 1565 1566 1567 1568 1569 1570 1571 1572 1573 1574 1575 1576 1577 1578 1579 1580 1581 1582 1583 1584 1585 1586 1587 1588 1589 1590 1591 1592 1593 1594 1595 1596 1597 1598 1599 1600 1601 1602 1603 1604 1605 1606 1607 1608 1609 1610 1611 1612 1613 1614 1615 1616 1617 1618 1619 1620 1621 1622 1623 1624 1625 1626 1627 1628 1629 1630 1631 1632 1633 1634 1635 1636 1637 1638 1639 1640 1641 1642 1643 1644 1645 1646 1647 1648 1649 1650 1651 1652 1653 1654 1655 1656 1657 1658 1659 1660 1661 1662 1663 1664 1665 1666 1667 1668 1669 1670 1671 1672 1673 1674 1675 1676 1677 1678 1679 1680 1681 1682 1683 1684 1685 1686 1687 1688 1689 1690 1691 1692 1693 1694 1695 1696 1697 1698 1699 1700 1701 1702 1703 1704 1705 1706 1707 1708 1709 1710 1711 1712 1713 1714 1715 1716 1717 1718 1719 1720 1721 1722 1723 1724 1725 1726 1727 1728 1729 1730 1731 1732 1733 1734 1735 1736 1737 1738 1739 1740 1741 1742 1743 1744 1745 1746 1747 1748 1749 1750 1751 1752 1753 1754 1755 1756 1757 1758 1759 1760 1761 1762 1763 1764 1765 1766 1767 1768 1769 1770 1771 1772 1773 1774 1775 1776 1777 1778 1779 1780 1781 1782 1783 1784 1785 1786 1787 1788 1789 1790 1791 1792 1793 1794 1795 1796 1797 1798 1799 1800 1801 1802 1803 1804 1805 1806 1807 1808 1809 1810 1811 1812 1813 1814 1815 1816 1817 1818 1819 1820 1821 1822 1823 1824 1825 1826 1827 1828 1829 1830 1831 1832 1833 1834 1835 1836 1837 1838 1839 1840 1841 1842 1843 1844 1845 1846 1847 1848 1849 1850 1851 1852 1853 1854 1855 1856 1857 1858 1859 1860 1861 1862 1863 1864 1865 1866 1867 1868 1869 1870 1871 1872 1873 1874 1875 1876 1877 1878 1879 1880 1881 1882 1883 1884 1885 1886 1887 1888 1889 1890 1891 1892 1893 1894 1895 1896 1897 1898 1899 1900 1901 1902 1903 1904 1905 1906 1907 1908 1909 1910 1911 1912 1913 1914 1915 1916 1917 1918 1919 1920 1921 1922 1923 1924 1925 1926 1927 1928 1929 1930 1931 1932 1933 1934 1935 1936 1937 1938 1939 1940 1941 1942 1943 1944 1945 1946 1947 1948 1949 1950 1951 1952 1953 1954 1955 1956 1957 1958 1959 1960 1961 1962 1963 1964 1965 1966 1967 1968 1969 1970 1971 1972 1973 1974 1975 1976 1977 1978 1979 1980 1981 1982 1983 1984 1985 1986 1987 1988 1989 1990 1991 1992 1993 1994 1995 1996 1997 1998 1999 2000 2001 2002 2003 2004 2005 2006 2007 2008 2009 2010 2011 2012 2013 2014 2015 2016 2017 2018 2019 2020 2021 2022 2023 2024 2025 2026 2027 2028 2029 2030 2031 2032 2033 2034 2035 2036 2037 2038 2039 2040 2041 2042 2043 2044 2045 2046 2047 2048 2049 2050 2051 2052 2053 2054 2055 2056 2057 2058 2059 2060 2061 2062 2063 2064 2065 2066 2067 2068 2069 2070 2071 2072 2073 2074 2075 2076 2077 2078 2079 2080 2081 2082 2083 2084 2085 2086 2087 2088 2089 2090 2091 2092 2093 2094 2095 2096 2097 2098 2099 2100 2101 2102 2103 2104 2105 2106 2107 2108 2109 2110 2111 2112 2113 2114 2115 2116 2117 2118 2119 2120 2121 2122 2123 2124 2125 2126 2127 2128 2129 2130 2131 2132 2133 2134 2135 2136 2137 2138 2139 2140 2141 2142 2143 2144 2145 2146 2147 2148 2149 2150 2151 2152 2153 2154 2155 2156 2157 2158 2159 2160 2161 2162 2163 2164 2165 2166 2167 2168 2169 2170 2171 2172 2173 2174 2175 2176 2177 2178 2179 2180 2181 2182 2183 2184 2185 2186 2187 2188 2189 2190 2191 2192 2193 2194 2195 2196 2197 2198 2199 2200 2201 2202 2203 2204 2205 2206 2207 2208 2209 2210 2211 2212 2213 2214 2215 2216 2217 2218 2219 2220 2221 2222 2223 2224 2225 2226 2227 2228 2229 2230 2231 2232 2233 2234 2235 2236 2237 2238 2239 2240 2241 2242 2243 2244 2245 2246 2247 2248 2249 2250 2251 2252 2253 2254 2255 2256 2257 2258 2259 2260 2261 2262 2263 2264 2265 2266 2267 2268 2269 2270 2271 2272 2273 2274 2275 2276 2277 2278 2279 2280 2281 2282 2283 2284 2285 2286 2287 2288 2289 2290 2291 2292 2293 2294 2295 2296 2297 2298 2299 2300 2301 2302 2303 2304 2305 2306 2307 2308 2309 2310 2311 2312 2313 2314 2315 2316 2317 2318 2319 2320 2321 2322 2323 2324 2325 2326 2327 2328 2329 2330 2331 2332 2333 2334 2335 2336 2337 2338 2339 2340 2341 2342 2343 2344 2345 2346 2347 2348 2349 2350 2351 2352 2353 2354 2355 2356 2357 2358 2359 2360 2361 2362 2363 2364 2365 2366 2367 2368 2369 2370 2371 2372 2373 2374 2375 2376 2377 2378 2379 2380 2381 2382 2383 2384 2385 2386 2387 2388 2389 2390 2391 2392 2393 2394 2395 2396 2397 2398 2399 2400 2401 2402 2403 2404 2405 2406 2407 2408 2409 2410 2411 2412 2413 2414 2415 2416 2417 2418 2419 2420 2421 2422 2423 2424 2425 2426 2427 2428 2429 2430 2431 2432 2433 2434 2435 2436 2437 2438 2439 2440 2441 2442 2443 2444 2445 2446 2447 2448 2449 2450 2451 2452 2453 2454 2455 2456 2457 2458 2459 2460 2461 2462 2463 2464 2465 2466 2467 2468 2469 2470 2471 2472 2473 2474 2475 2476 2477 2478 2479 2480 2481 2482 2483 2484 2485 2486 2487 2488 2489 2490 2491 2492 2493 2494 2495 2496 2497 2498 2499 2500 2501 2502 2503 2504 2505 2506 2507 2508 2509 2510 2511 2512 2513 2514 2515 2516 2517 2518 2519 2520 2521 2522 2523 2524 2525 2526 2527 2528 2529 2530 2531 2532 2533 2534 2535 2536 2537 2538 2539 2540 2541 2542 2543 2544 2545 2546 2547 2548 2549 2550 2551 2552 2553 2554 2555 2556 2557 2558 2559 2560 2561 2562 2563 2564 2565 2566 2567 2568 2569 2570 2571 2572 2573 2574 2575 2576 2577 2578 2579 2580 2581 2582 2583 2584 2585 2586 2587 2588 2589 2590 2591 2592 2593 2594 2595 2596 2597 2598 2599 2600 2601 2602 2603 2604 2605 2606 2607 2608 2609 2610 2611 2612 2613 2614 2615 2616 2617 2618 2619 2620 2621 2622 2623 2624 2625 2626 2627 2628 2629 2630 2631 2632 2633 2634 2635 2636 2637 2638 2639 2640 2641 2642 2643 2644 2645 2646 2647 2648 2649 2650 2651 2652 2653 2654 2655 2656 2657 2658 2659 2660 2661 2662 2663 2664 2665 2666 2667 2668 2669 2670 2671 2672 2673 2674 2675 2676 2677 2678 2679 2680 2681 2682 2683 2684 2685 2686 2687 2688 2689 2690 2691 2692 2693 2694 2695 2696 2697 2698 2699 2700 2701 2702 2703 2704 2705 2706 2707 2708 2709 2710 2711 2712 2713 2714 2715 2716 2717 2718 2719 2720 2721 2722 2723 2724 2725 2726 2727 2728 2729 2730 2731 2732 2733 2734 2735 2736 2737 2738 2739 2740 2741 2742 2743 2744 2745 2746 2747 2748 2749 2750 2751 2752 2753 2754 2755 2756 2757 2758 2759 2760 2761 2762 2763 2764 2765 2766 2767 2768 2769 2770 2771 2772 2773 2774 2775 2776 2777 2778 2779 2780 2781 2782 2783 2784 2785 2786 2787 2788 2789 2790 2791 2792 2793 2794 2795 2796 2797 2798 2799 2800 2801 2802 2803 2804 2805 2806 2807 2808 2809 2810 2811 2812 2813 2814 2815 2816 2817 2818 2819 2820 2821 2822 2823 2824 2825 2826 2827 2828 2829 2830 2831 2832 2833 2834 2835 2836 2837 2838 2839 2840 2841 2842 2843 2844 2845 2846 2847 2848 2849 2850 2851 2852 2853 2854 2855 2856 2857 2858 2859 2860 2861 2862 2863 2864 2865 2866 2867 2868 2869 2870 2871 2872 2873 2874 2875 2876 2877 2878 2879 2880 2881 2882 2883 2884 2885 2886 2887 2888 2889 2890 2891 2892 2893 2894 2895 2896 2897 2898 2899 2900 2901 2902 2903 2904 2905 2906 2907 2908 2909 2910 2911 2912 2913 2914 2915 2916 2917 2918 2919 2920 2921 2922 2923 2924 2925 2926 2927 2928 2929 2930 2931 2932 2933 2934 2935 2936 2937 2938 2939 2940 2941 2942 2943 2944 2945 2946 2947 2948 2949 2950 2951 2952 2953 2954 2955 2956 2957 2958 2959 2960 2961 2962 2963 2964 2965 2966 2967 2968 2969 2970 2971 2972 2973 2974 2975 2976 2977 2978 2979 2980 2981 2982 2983 2984 2985 2986 2987 2988 2989 2990 2991 2992 2993 2994 2995 2996 2997 2998 2999 3000 3001 3002 3003 3004 3005 3006 3007 3008 3009 3010 3011 3012 3013 3014 3015 3016 3017 3018 3019 3020 3021 3022 3023 3024 3025 3026 3027 3028 3029 3030 3031 3032 3033 3034 3035 3036 3037 3038 3039 3040 3041 3042 3043 3044 3045 3046 3047 3048 3049 3050 3051 3052 3053 3054 3055 3056 3057 3058 3059 3060 3061 3062 3063 3064 3065 3066 3067 3068 3069 3070 3071 3072 3073 3074 3075 3076 3077 3078 3079 3080 3081 3082 3083 3084 3085 3086 3087 3088 3089 3090 3091 3092 3093 3094 3095 3096 3097 3098 3099 3100 3101 3102 3103 3104 3105 3106 3107 3108 3109 3110 3111 3112 3113 3114 3115 3116 3117 3118 3119 3120 3121 3122 3123 3124 3125 3126 3127 3128 3129 3130 3131 3132 3133 3134 3135 3136 3137 3138 3139 3140 3141 3142 3143 3144 3145 3146 3147 3148 3149 3150 3151 3152 3153 3154 3155 3156 3157 3158 3159 3160 3161 3162 3163 3164 3165 3166 3167 3168 3169 3170 3171 3172 3173 3174 3175 3176 3177 3178 3179 3180 3181 3182 3183 3184 3185 3186 3187 3188 3189 3190 3191 3192 3193 3194 3195 3196 3197 3198 3199 3200 3201 3202 3203 3204 3205 3206 3207 3208 3209 3210 3211 3212 3213 3214 3215 3216 3217 3218 3219 3220 3221 3222 3223 3224 3225 3226 3227 3228 3229 3230 3231 3232 3233 3234 3235 3236 3237 3238 3239 3240 3241 3242 3243 3244 3245 3246 3247 3248 3249 3250 3251 3252 3253 3254 3255 3256 3257 3258 3259 3260 3261 3262 3263 3264 3265 3266 3267 3268 3269 3270 3271 3272 3273 3274 3275 3276 3277 3278 3279 3280 3281 3282 3283 3284 3285 3286 3287 3288 3289 3290 3291 3292 3293 3294 3295 3296 3297 3298 3299 3300 3301 3302 3303 3304 3305 3306 3307 3308 3309 3310 3311 3312 3313 3314 3315 3316 3317 3318 3319 3320 3321 3322 3323 3324 3325 3326 3327 3328 3329 3330 3331 3332 3333 3334 3335 3336 3337 3338 3339 3340 3341 3342 3343 3344 3345 3346 3347 3348 3349 3350 3351 3352 3353 3354 3355 3356 3357 3358 3359 3360 3361 3362 3363 3364 3365 3366 3367 3368 3369 3370 3371 3372 3373 3374 3375 3376 3377 3378 3379 3380 3381 3382 3383 3384 3385 3386 3387 3388 3389 3390 3391 3392 3393 3394 3395 3396 3397 3398 3399 3400 3401 3402 3403 3404 3405 3406 3407 3408 3409 3410 3411 3412 3413 3414 3415 3416 3417 3418 3419 3420 3421 3422 3423 3424 3425 3426 3427 3428 3429 3430 3431 3432 3433 3434 3435 3436 3437 3438 3439 3440 3441 3442 3443 3444 3445 3446 3447 3448 3449 3450 3451 3452 3453 3454 3455 3456 3457 3458 3459 3460 3461 3462 3463 3464 3465 3466 3467 3468 3469 3470 3471 3472 3473 3474 3475 3476 3477 3478 3479 3480 3481 3482 3483 3484 3485 3486 3487 3488 3489 3490 3491 3492 3493 3494 3495 3496 3497 3498 3499 3500 3501 3502 3503 3504 3505 3506 3507 3508 3509 3510 3511 3512 3513 3514 3515 3516 3517 3518 3519 3520 3521 3522 3523 3524 3525 3526 3527 3528 3529 3530 3531 3532 3533 3534 3535 3536 3537 3538 3539 3540 3541 3542 3543 3544 3545 3546 3547 3548 3549 3550 3551 3552 3553 3554 3555 3556 3557 3558 3559 3560 3561 3562 3563 3564 3565 3566 3567 3568 3569 3570 3571 3572 3573 3574 3575 3576 3577 3578 3579 3580 3581 3582 3583 3584 3585 3586 3587 3588 3589 3590 3591 3592 3593 3594 3595 3596 3597 3598 3599 3600 3601 3602 3603 3604 3605 3606 3607 3608 3609 3610 3611 3612 3613 3614 3615 3616 3617 3618 3619 3620 3621 3622 3623 3624 3625 3626 3627 3628 3629 3630 3631 3632 3633 3634 3635 3636 3637 3638 3639 3640 3641 3642 3643 3644 3645 3646 3647 3648 3649 3650 3651 3652 3653 3654 3655 3656 3657 3658 3659 3660 3661 3662 3663 3664 3665 3666 3667 3668 3669 3670 3671 3672 3673 3674 3675 3676 3677 3678 3679 3680 3681 3682 3683 3684 3685 3686 3687 3688 3689 3690 3691 3692 3693 3694 3695 3696 3697 3698 3699 3700 3701 3702 3703 3704 3705 3706 3707 3708 3709 3710 3711 3712 3713 3714 3715 3716 3717 3718 3719 3720 3721 3722 3723 3724 3725 3726 3727 3728 3729 3730 3731 3732 3733 3734 3735 3736 3737 3738 3739 3740 3741 3742 3743 3744 3745 3746 3747 3748 3749 3750 3751 3752 3753 3754 3755 3756 3757 3758 3759 3760 3761 3762 3763 3764 3765 3766 3767 3768 3769 3770 3771 3772 3773 3774 3775 3776 3777 3778 3779 3780 3781 3782 3783 3784 3785 3786 3787 3788 3789 3790 3791 3792 3793 3794 3795 3796 3797 3798 3799 3800 3801 3802 3803 3804 3805 3806 3807 3808 3809 3810 3811 3812 3813 3814 3815 3816 3817 3818 3819 3820 3821 3822 3823 3824 3825 3826 3827 3828 3829 3830 3831 3832 3833 3834 3835 3836 3837 3838 3839 3840 3841 3842 3843 3844 3845 3846 3847 3848 3849 3850 3851 3852 3853 3854 3855 3856 3857 3858 3859 3860 3861 3862 3863 3864 3865 3866 3867 3868 3869 3870 3871 3872 3873 3874 3875 3876 3877 3878 3879 3880 3881 3882 3883 3884 3885 3886 3887 3888 3889 3890 3891 3892 3893 3894 3895 3896 3897 3898 3899 3900 3901 3902 3903 3904 3905 3906 3907 3908 3909 3910 3911 3912 3913 3914 3915 3916 3917 3918 3919 3920 3921 3922 3923 3924 3925 3926 3927 3928 3929 3930 3931 3932 3933 3934 3935 3936 3937 3938 3939 3940 3941 3942 3943 3944 3945 3946 3947 3948 3949 3950 3951 3952 3953 3954 3955 3956 3957 3958 3959 3960 3961 3962 3963 3964 3965 3966 3967 3968 3969 3970 3971 3972 3973 3974 3975 3976 3977 3978 3979 3980 3981 3982 3983 3984 3985 3986 3987 3988 3989 3990 3991 3992 3993 3994 3995 3996 3997 3998 3999 4000 4001 4002 4003 4004 4005 4006 4007 4008 4009 4010 4011 4012 4013 4014 4015 4016 4017 4018 4019 4020 4021 4022 4023 4024 4025 4026 4027 4028 4029 4030 4031 4032 4033 4034 4035 4036 4037 4038 4039 4040 4041 4042 4043 4044 4045 4046 4047 4048 4049 4050 4051 4052 4053 4054 4055 4056 4057 4058 4059 4060 4061 4062 4063 4064 4065 4066 4067 4068 4069 4070 4071 4072 4073 4074 4075 4076 4077 4078 4079 4080 4081 4082 4083 4084 4085 4086 4087 4088 4089 4090 4091 4092 4093 4094 4095 4096 4097 4098 4099 4100 4101 4102 4103 4104 4105 4106 4107 4108 4109 4110 4111 4112 4113 4114 4115 4116 4117 4118 4119 4120 4121 4122 4123 4124 4125 4126 4127 4128 4129 4130 4131 4132 4133 4134 4135 4136 4137 4138 4139 4140 4141 4142 4143 4144 4145 4146 4147 4148 4149 4150 4151 4152 4153 4154 4155 4156 4157 4158 4159 4160 4161 4162 4163 4164 4165 4166 4167 4168 4169 4170 4171 4172 4173 4174 4175 4176 4177 4178 4179 4180 4181 4182 4183 4184 4185 4186 4187 4188 4189 4190 4191 4192 4193 4194 4195 4196 4197 4198 4199 4200 4201 4202 4203 4204 4205 4206 4207 4208 4209 4210 4211 4212 4213 4214 4215 4216 4217 4218 4219 4220 4221 4222 4223 4224 4225 4226 4227 4228 4229 4230 4231 4232 4233 4234 4235 4236 4237 4238 4239 4240 4241 4242 4243 4244 4245 4246 4247 4248 4249 4250 4251 4252 4253 4254 4255 4256 4257 4258 4259 4260 4261 4262 4263 4264 4265 4266 4267 4268 4269 4270 4271 4272 4273 4274 4275 4276 4277 4278 4279 4280 4281 4282 4283 4284 4285 4286 4287 4288 4289 4290 4291 4292 4293 4294 4295 4296 4297 4298 4299 4300 4301 4302 4303 4304 4305 4306 4307 4308 4309 4310 4311 4312 4313 4314 4315 4316 4317 4318 4319 4320 4321 4322 4323 4324 4325 4326 4327 4328 4329 4330 4331 4332 4333 4334 4335 4336 4337 4338 4339 4340 4341 4342 4343 4344 4345 4346 4347 4348 4349 4350 4351 4352 4353 4354 4355 4356 4357 4358 4359 4360 4361 4362 4363 4364 4365 4366 4367 4368 4369 4370 4371 4372 4373 4374 4375 4376 4377 4378 4379 4380 4381 4382 4383 4384 4385 4386 4387 4388 4389 4390 4391 4392 4393 4394 4395 4396 4397 4398 4399 4400 4401 4402 4403 4404 4405 4406 4407 4408 4409 4410 4411 4412 4413 4414 4415 4416 4417 4418 4419 4420 4421 4422 4423 4424 4425 4426 4427 4428 4429 4430 4431 4432 4433 4434 4435 4436 4437 4438 4439 4440 4441 4442 4443 4444 4445 4446 4447 4448 4449 4450 4451 4452 4453 4454 4455 4456 4457 4458 4459 4460 4461 4462 4463 4464 4465 4466 4467 4468 4469 4470 4471 4472 4473 4474 4475 4476 4477 4478 4479 4480 4481 4482 4483 4484 4485 4486 4487 4488 4489 4490 4491 4492 4493 4494 4495 4496 4497 4498 4499 4500 4501 4502 4503 4504 4505 4506 4507 4508 4509 4510 4511 4512 4513 4514 4515 4516 4517 4518 4519 4520 4521 4522 4523 4524 4525 4526 4527 4528 4529 4530 4531 4532 4533 4534 4535 4536 4537 4538 4539 4540 4541 4542 4543 4544 4545 4546 4547 4548 4549 4550 4551 4552 4553 4554 4555 4556 4557 4558 4559 4560 4561 4562 4563 4564 4565 4566 4567 4568 4569 4570 4571 4572 4573 4574 4575 4576 4577 4578 4579 4580 4581 4582 4583 4584 4585 4586 4587 4588 4589 4590 4591 4592 4593 4594 4595 4596 4597 4598 4599 4600 4601 4602 4603 4604 4605 4606 4607 4608 4609 4610 4611 4612 4613 4614 4615 4616 4617 4618 4619 4620 4621 4622 4623 4624 4625 4626 4627 4628 4629 4630 4631 4632 4633 4634 4635 4636 4637 4638 4639 4640 4641 4642 4643 4644 4645 4646 4647 4648 4649 4650 4651 4652 4653 4654 4655 4656 4657 4658 4659 4660 4661 4662 4663 4664 4665 4666 4667 4668 4669 4670 4671 4672 4673 4674 4675 4676 4677 4678 4679 4680 4681 4682 4683 4684 4685 4686 4687 4688 4689 4690 4691 4692 4693 4694 4695 4696 4697 4698 4699 4700 4701 4702 4703 4704 4705 4706 4707 4708 4709 4710 4711 4712 4713 4714 4715 4716 4717 4718 4719 4720 4721 4722 4723 4724 4725 4726 4727 4728 4729 4730 4731 4732 4733 4734 4735 4736 4737 4738 4739 4740 4741 4742 4743 4744 4745 4746 4747 4748 4749 4750 4751 4752 4753 4754 4755 4756 4757 4758 4759 4760 4761 4762 4763 4764 4765 4766 4767 4768 4769 4770 4771 4772 4773 4774 4775 4776 4777 4778 4779 4780 4781 4782 4783 4784 4785 4786 4787 4788 4789 4790 4791 4792 4793 4794 4795 4796 4797 4798 4799 4800 4801 4802 4803 4804 4805 4806 4807 4808 4809 4810 4811 4812 4813 4814 4815 4816 4817 4818 4819 4820 4821 4822 4823 4824 4825 4826 4827 4828 4829 4830 4831 4832 4833 4834 4835 4836 4837 4838 4839 4840 4841 4842 4843 4844 4845 4846 4847 4848 4849 4850 4851 4852 4853 4854 4855 4856 4857 4858 4859 4860 4861 4862 4863 4864 4865 4866 4867 4868 4869 4870 4871 4872 4873 4874 4875 4876 4877 4878 4879 4880 4881 4882 4883 4884 4885 4886 4887 4888 4889 4890 4891 4892 4893 4894 4895 4896 4897 4898 4899 4900 4901 4902 4903 4904 4905 4906 4907 4908 4909 4910 4911 4912 4913 4914 4915 4916 4917 4918 4919 4920 4921 4922 4923 4924 4925 4926 4927 4928 4929 4930 4931 4932 4933 4934 4935 4936 4937 4938 4939 4940 4941 4942 4943 4944 4945 4946 4947 4948 4949 4950 4951 4952 4953 4954 4955 4956 4957 4958 4959 4960 4961 4962 4963 4964 4965 4966 4967 4968 4969 4970 4971 4972 4973 4974 4975 4976 4977 4978 4979 4980 4981 4982 4983 4984 4985 4986 4987 4988 4989 4990 4991 4992 4993 4994 4995 4996 4997 4998 4999 5000 5001 5002 5003 5004 5005 5006 5007 5008 5009 5010 5011 5012 5013 5014 5015 5016 5017 5018 5019 5020 5021 5022 5023 5024 5025 5026 5027 5028 5029 5030 5031 5032 5033 5034 5035 5036 5037 5038 5039 5040 5041 5042 5043 5044 5045 5046 5047 5048 5049 5050 5051 5052 5053 5054 5055 5056 5057 5058 5059 5060 5061 5062 5063 5064 5065 5066 5067 5068 5069 5070 5071 5072 5073 5074 5075 5076 5077 5078 5079 5080 5081 5082 5083 5084 5085 5086 5087 5088 5089 5090 5091 5092 5093 5094 5095 5096 5097 5098 5099 5100 5101 5102 5103 5104 5105 5106 5107 5108 5109 5110 5111 5112 5113 5114 5115 5116 5117 5118 5119 5120 5121 5122 5123 5124 5125 5126 5127 5128 5129 5130 5131 5132 5133 5134 5135 5136 5137 5138 5139 5140 5141 5142 5143 5144 5145 5146 5147 5148 5149 5150 5151 5152 5153 5154 5155 5156 5157 5158 5159 5160 5161 5162 5163 5164 5165 5166 5167 5168 5169 5170 5171 5172 5173 5174 5175 5176 5177 5178 5179 5180 5181 5182 5183 5184 5185 5186 5187 5188 5189 5190 5191 5192 5193 5194 5195 5196 5197 5198 5199 5200 5201 5202 5203 5204 5205 5206 5207 5208 5209 5210 5211 5212 5213 5214 5215 5216 5217 5218 5219 5220 5221 5222 5223 5224 5225 5226 5227 5228 5229 5230 5231 5232 5233 5234 5235 5236 5237 5238 5239 5240 5241 5242 5243 5244 5245 5246 5247 5248 5249 5250 5251 5252 5253 5254 5255 5256 5257 5258 5259 5260 5261 5262 5263 5264 5265 5266 5267 5268 5269 5270 5271 5272 5273 5274 5275 5276 5277 5278 5279 5280 5281 5282 5283 5284 5285 5286 5287 5288 5289 5290 5291 5292 5293 5294 5295 5296 5297 5298 5299 5300 5301 5302 5303 5304 5305 5306 5307 5308 5309 5310 5311 5312 5313 5314 5315 5316 5317 5318 5319 5320 5321 5322 5323 5324 5325 5326 5327 5328 5329 5330 5331 5332 5333 5334 5335 5336 5337 5338 5339 5340 5341 5342 5343 5344 5345 5346 5347 5348 5349 5350 5351 5352 5353 5354 5355 5356 5357 5358 5359 5360 5361 5362 5363 5364 5365 5366 5367 5368 5369 5370 5371 5372 5373 5374 5375 5376 5377 5378 5379 5380 5381 5382 5383 5384 5385 5386 5387 5388 5389 5390 5391 5392 5393 5394 5395 5396 5397 5398 5399 5400 5401 5402 5403 5404 5405 5406 5407 5408 5409 5410 5411 5412 5413 5414 5415 5416 5417 5418 5419 5420 5421 5422 5423 5424 5425 5426 5427 5428 5429 5430 5431 5432 5433 5434 5435 5436 5437 5438 5439 5440 5441 5442 5443 5444 5445 5446 5447 5448 5449 5450 5451 5452 5453 5454 5455 5456 5457 5458 5459 5460 5461 5462 5463 5464 5465 5466 5467 5468 5469 5470 5471 5472 5473 5474 5475 5476 5477 5478 5479 5480 5481 5482 5483 5484 5485 5486 5487 5488 5489 5490 5491 5492 5493 5494 5495 5496 5497 5498 5499 5500 5501 5502 5503 5504 5505 5506 5507 5508 5509 5510 5511 5512 5513 5514 5515 5516 5517 5518 5519 5520 5521 5522 5523 5524 5525 5526 5527 5528 5529 5530 5531 5532 5533 5534 5535 5536 5537 5538 5539 5540 5541 5542 5543 5544 5545 5546 5547 5548 5549 5550 5551 5552 5553 5554 5555 5556 5557 5558 5559 5560 5561 5562 5563 5564 5565 5566 5567 5568 5569 5570 5571 5572 5573 5574 5575 5576 5577 5578 5579 5580 5581 5582 5583 5584 5585 5586 5587 5588 5589 5590 5591 5592 5593 5594 5595 5596 5597 5598 5599 5600 5601 5602 5603 5604 5605 5606 5607 5608 5609 5610 5611 5612 5613 5614 5615 5616 5617 5618 5619 5620 5621 5622 5623 5624 5625 5626 5627 5628 5629 5630 5631 5632 5633 5634 5635 5636 5637 5638 5639 5640 5641 5642 5643 5644 5645 5646 5647 5648 5649 5650 5651 5652 5653 5654 5655 5656 5657 5658 5659 5660 5661 5662 5663 5664 5665 5666 5667 5668 5669 5670 5671 5672 5673 5674 5675 5676 5677 5678 5679 5680 5681 5682 5683 5684 5685 5686 5687 5688 5689 5690 5691 5692 5693 5694 5695 5696 5697 5698 5699 5700 5701 5702 5703 5704 5705 5706 5707 5708 5709 5710 5711 5712 5713 5714 5715 5716 5717 5718 5719 5720 5721 5722 5723 5724 5725 5726 5727 5728 5729 5730 5731 5732 5733 5734 5735 5736 5737 5738 5739 5740 5741 5742 5743 5744 5745 5746 5747 5748 5749 5750 5751 5752 5753 5754 5755 5756 5757 5758 5759 5760 5761 5762 5763 5764 5765 5766 5767 5768 5769 5770 5771 5772 5773 5774 5775 5776 5777 5778 5779 5780 5781 5782 5783 5784 5785 5786 5787 5788 5789 5790 5791 5792 5793 5794 5795 5796 5797 5798 5799 5800 5801 5802 5803 5804 5805 5806 5807 5808 5809 5810 5811 5812 5813 5814 5815 5816 5817 5818 5819 5820 5821 5822 5823 5824 5825 5826 5827 5828 5829 5830 5831 5832 5833 5834 5835 5836 5837 5838 5839 5840 5841 5842 5843 5844 5845 5846 5847 5848 5849 5850 5851 5852 5853 5854 5855 5856 5857 5858 5859 5860 5861 5862 5863 5864 5865 5866 5867 5868 5869 5870 5871 5872 5873 5874 5875 5876 5877 5878 5879 5880 5881 5882 5883 5884 5885 5886 5887 5888 5889 5890 5891 5892 5893 5894 5895 5896 5897 5898 5899 5900 5901 5902 5903 5904 5905 5906 5907 5908 5909 5910 5911 5912 5913 5914 5915 5916 5917 5918 5919 5920 5921 5922 5923 5924 5925 5926 5927 5928 5929 5930 5931 5932 5933 5934 5935 5936 5937 5938 5939 5940 5941 5942 5943 5944 5945 5946 5947 5948 5949 5950 5951 5952 5953 5954 5955 5956 5957 5958 5959 5960 5961 5962 5963 5964 5965 5966 5967 5968 5969 5970 5971 5972 5973 5974 5975 5976 5977 5978 5979 5980 5981 5982 5983 5984 5985 5986 5987 5988 5989 5990 5991 5992 5993 5994 5995 5996 5997 5998 5999 6000 6001 6002 6003 6004 6005 6006 6007 6008 6009 6010 6011 6012 6013 6014 6015 6016 6017 6018 6019 6020 6021 6022 6023 6024 6025 6026 6027 6028 6029 6030 6031 6032 6033 6034 6035 6036 6037 6038 6039 6040 6041 6042 6043 6044 6045 6046 6047 6048 6049 6050 6051 6052 6053 6054 6055 6056 6057 6058 6059 6060 6061 6062 6063 6064 6065 6066 6067 6068 6069 6070 6071 6072 6073 6074 6075 6076 6077 6078 6079 6080 6081 6082 6083 6084 6085 6086 6087 6088 6089 6090 6091 6092 6093 6094 6095 6096 6097 6098 6099 6100 6101 6102 6103 6104 6105 6106 6107 6108 6109 6110 6111 6112 6113 6114 6115 6116 6117 6118 6119 6120 6121 6122 6123 6124 6125 6126 6127 6128 6129 6130 6131 6132 6133 6134 6135 6136 6137 6138 6139 6140 6141 6142 6143 6144 6145 6146 6147 6148 6149 6150 6151 6152 6153 6154 6155 6156 6157 6158 6159 6160 6161 6162 6163 6164 6165 6166 6167 6168 6169 6170 6171 6172 6173 6174 6175 6176 6177 6178 6179 6180 6181 6182 6183 6184 6185 6186 6187 6188 6189 6190 6191 6192 6193 6194 6195 6196 6197 6198 6199 6200 6201 6202 6203 6204 6205 6206 6207 6208 6209 6210 6211 6212 6213 6214 6215 6216 6217 6218 6219 6220 6221 6222 6223 6224 6225 6226 6227 6228 6229 6230 6231 6232 6233 6234 6235 6236 6237 6238 6239 6240 6241 6242 6243 6244 6245 6246 6247 6248 6249 6250 6251 6252 6253 6254 6255 6256 6257 6258 6259 6260 6261 6262 6263 6264 6265 6266 6267 6268 6269 6270 6271 6272 6273 6274 6275 6276 6277 6278 6279 6280 6281 6282 6283 6284 6285 6286 6287 6288 6289 6290 6291 6292 6293 6294 6295 6296 6297 6298 6299 6300 6301 6302 6303 6304 6305 6306 6307 6308 6309 6310 6311 6312 6313 6314 6315 6316 6317 6318 6319 6320 6321 6322 6323 6324 6325 6326 6327 6328 6329 6330 6331 6332 6333 6334 6335 6336 6337 6338 6339 6340 6341 6342 6343 6344 6345 6346 6347 6348 6349 6350 6351 6352 6353 6354 6355 6356 6357 6358 6359 6360 6361 6362 6363 6364 6365 6366 6367 6368 6369 6370 6371 6372 6373 6374 6375 6376 6377 6378 6379 6380 6381 6382 6383 6384 6385 6386 6387 6388 6389 6390 6391 6392 6393 6394 6395 6396 6397 6398 6399 6400 6401 6402 6403 6404 6405 6406 6407 6408 6409 6410 6411 6412 6413 6414 6415 6416 6417 6418 6419 6420 6421 6422 6423 6424 6425 6426 6427 6428 6429 6430 6431 6432 6433 6434 6435 6436 6437 6438 6439 6440 6441 6442 6443 6444 6445 6446 6447 6448 6449 6450 6451 6452 6453 6454 6455 6456 6457 6458 6459 6460 6461 6462 6463 6464 6465 6466 6467 6468 6469 6470 6471 6472 6473 6474 6475 6476 6477 6478 6479 6480 6481 6482 6483 6484 6485 6486 6487 6488 6489 6490 6491 6492 6493 6494 6495 6496 6497 6498 6499 6500 6501 6502 6503 6504 6505 6506 6507 6508 6509 6510 6511 6512 6513 6514 6515 6516 6517 6518 6519 6520 6521 6522 6523 6524 6525 6526 6527 6528 6529 6530 6531 6532 6533 6534 6535 6536 6537 6538 6539 6540 6541 6542 6543 6544 6545 6546 6547 6548 6549 6550 6551 6552 6553 6554 6555 6556 6557 6558 6559 6560 6561 6562 6563 6564 6565 6566 6567 6568 6569 6570 6571 6572 6573 6574 6575 6576 6577 6578 6579 6580 6581 6582 6583 6584 6585 6586 6587 6588 6589 6590 6591 6592 6593 6594 6595 6596 6597 6598 6599 6600 6601 6602 6603 6604 6605 6606 6607 6608 6609 6610 6611 6612 6613 6614 6615 6616 6617 6618 6619 6620 6621 6622 6623 6624 6625 6626 6627 6628 6629 6630 6631 6632 6633 6634 6635 6636 6637 6638 6639 6640 6641 6642 6643 6644 6645 6646 6647 6648 6649 6650 6651 6652 6653 6654 6655 6656 6657 6658 6659 6660 6661 6662 6663 6664 6665 6666 6667 6668 6669 6670 6671 6672 6673 6674 6675 6676 6677 6678 6679 6680 6681 6682 6683 6684 6685 6686 6687 6688 6689 6690 6691 6692 6693 6694 6695 6696 6697 6698 6699 6700 6701 6702 6703 6704 6705 6706 6707 6708 6709 6710 6711 6712 6713 6714 6715 6716 6717 6718 6719 6720 6721 6722 6723 6724 6725 6726 6727 6728 6729 6730 6731 6732 6733 6734 6735 6736 6737 6738 6739 6740 6741 6742 6743 6744 6745 6746 6747 6748 6749 6750 6751 6752 6753 6754 6755 6756 6757 6758 6759 6760 6761 6762 6763 6764 6765 6766 6767 6768 6769 6770 6771 6772 6773 6774 6775 6776 6777 6778 6779 6780 6781 6782 6783 6784 6785 6786 6787 6788 6789 6790 6791 6792 6793 6794 6795 6796 6797 6798 6799 6800 6801 6802 6803 6804 6805 6806 6807 6808 6809 6810 6811 6812 6813 6814 6815 6816 6817 6818 6819 6820 6821 6822 6823 6824 6825 6826 6827 6828 6829 6830 6831 6832 6833 6834 6835 6836 6837 6838 6839 6840 6841 6842 6843 6844 6845 6846 6847 6848 6849 6850 6851 6852 6853 6854 6855 6856 6857 6858 6859 6860 6861 6862 6863 6864 6865 6866 6867 6868 6869 6870 6871 6872 6873 6874 6875 6876 6877 6878 6879 6880 6881 6882 6883 6884 6885 6886 6887 6888 6889 6890 6891 6892 6893 6894 6895 6896 6897 6898 6899 6900 6901 6902 6903 6904 6905 6906 6907 6908 6909 6910 6911 6912 6913 6914 6915 6916 6917 6918 6919 6920 6921 6922 6923 6924 6925 6926 6927 6928 6929 6930 6931 6932 6933 6934 6935 6936 6937 6938 6939 6940 6941 6942 6943 6944 6945 6946 6947 6948 6949 6950 6951 6952 6953 6954 6955 6956 6957 6958 6959 6960 6961 6962 6963 6964 6965 6966 6967 6968 6969 6970 6971 6972 6973 6974 6975 6976 6977 6978 6979 6980 6981 6982 6983 6984 6985 6986 6987 6988 6989 6990 6991 6992 6993 6994 6995 6996 6997 6998 6999 7000 7001 7002 7003 7004 7005 7006 7007 7008 7009 7010 7011 7012 7013 7014 7015 7016 7017 7018 7019 7020 7021 7022 7023 7024 7025 7026 7027 7028 7029 7030 7031 7032 7033 7034 7035 7036 7037 7038 7039 7040 7041 7042 7043 7044 7045 7046 7047 7048 7049 7050 7051 7052 7053 7054 7055 7056 7057 7058 7059 7060 7061 7062 7063 7064 7065 7066 7067 7068 7069 7070 7071 7072 7073 7074 7075 7076 7077 7078 7079 7080 7081 7082 7083 7084 7085 7086 7087 7088 7089 7090 7091 7092 7093 7094 7095 7096 7097 7098 7099 7100 7101 7102 7103 7104 7105 7106 7107 7108 7109 7110 7111 7112 7113 7114 7115 7116 7117 7118 7119 7120 7121 7122 7123 7124 7125 7126 7127 7128 7129 7130 7131 7132 7133 7134 7135 7136 7137 7138 7139 7140 7141 7142 7143 7144 7145 7146 7147 7148 7149 7150 7151 7152 7153 7154 7155 7156 7157 7158 7159 7160 7161 7162 7163 7164 7165 7166 7167 7168 7169 7170 7171 7172 7173 7174 7175 7176 7177 7178 7179 7180 7181 7182 7183 7184 7185 7186 7187 7188 7189 7190 7191 7192 7193 7194 7195 7196 7197 7198 7199 7200 7201 7202 7203 7204 7205 7206 7207 7208 7209 7210 7211 7212 7213 7214 7215 7216 7217 7218 7219 7220 7221 7222 7223 7224 7225 7226 7227 7228 7229 7230 7231 7232 7233 7234 7235 7236 7237 7238 7239 7240 7241 7242 7243 7244 7245 7246 7247 7248 7249 7250 7251 7252 7253 7254 7255 7256 7257 7258 7259 7260 7261 7262 7263 7264 7265 7266 7267 7268 7269 7270 7271 7272 7273 7274 7275 7276 7277 7278 7279 7280 7281 7282 7283 7284 7285 7286 7287 7288 7289 7290 7291 7292 7293 7294 7295 7296 7297 7298 7299 7300 7301 7302 7303 7304 7305 7306 7307 7308 7309 7310 7311 7312 7313 7314 7315 7316 7317 7318 7319 7320 7321 7322 7323 7324 7325 7326 7327 7328 7329 7330 7331 7332 7333 7334 7335 7336 7337 7338 7339 7340 7341 7342 7343 7344 7345 7346 7347 7348 7349 7350 7351 7352 7353 7354 7355 7356 7357 7358 7359 7360 7361 7362 7363 7364 7365 7366 7367 7368 7369 7370 7371 7372 7373 7374 7375 7376 7377 7378 7379 7380 7381 7382 7383 7384 7385 7386 7387 7388 7389 7390 7391 7392 7393 7394 7395 7396 7397 7398 7399 7400 7401 7402 7403 7404 7405 7406 7407 7408 7409 7410 7411 7412 7413 7414 7415 7416 7417 7418 7419 7420 7421 7422 7423 7424 7425 7426 7427 7428 7429 7430 7431 7432 7433 7434 7435 7436 7437 7438 7439 7440 7441 7442 7443 7444 7445 7446 7447 7448 7449 7450 7451 7452 7453 7454 7455 7456 7457 7458 7459 7460 7461 7462 7463 7464 7465 7466 7467 7468 7469 7470 7471 7472 7473 7474 7475 7476 7477 7478 7479 7480 7481 7482 7483 7484 7485 7486 7487 7488 7489 7490 7491 7492 7493 7494 7495 7496 7497 7498 7499 7500 7501 7502 7503 7504 7505 7506 7507 7508 7509 7510 7511 7512 7513 7514 7515 7516 7517 7518 7519 7520 7521 7522 7523 7524 7525 7526 7527 7528 7529 7530 7531 7532 7533 7534 7535 7536 7537 7538 7539 7540 7541 7542 7543 7544 7545 7546 7547 7548 7549 7550 7551 7552 7553 7554 7555 7556 7557 7558 7559 7560 7561 7562 7563 7564 7565 7566 7567 7568 7569 7570 7571 7572 7573 7574 7575 7576 7577 7578 7579 7580 7581 7582 7583 7584 7585 7586 7587 7588 7589 7590 7591 7592 7593 7594 7595 7596 7597 7598 7599 7600 7601 7602 7603 7604 7605 7606 7607 7608 7609 7610 7611 7612 7613 7614 7615 7616 7617 7618 7619 7620 7621 7622 7623 7624 7625 7626 7627 7628 7629 7630 7631 7632 7633 7634 7635 7636 7637 7638 7639 7640 7641 7642 7643 7644 7645 7646 7647 7648 7649 7650 7651 7652 7653 7654 7655 7656 7657 7658 7659 7660 7661 7662 7663 7664 7665 7666 7667 7668 7669 7670 7671 7672 7673 7674 7675 7676 7677 7678 7679 7680 7681 7682 7683 7684 7685 7686 7687 7688 7689 7690 7691 7692 7693 7694 7695 7696 7697 7698 7699 7700 7701 7702 7703 7704 7705 7706 7707 7708 7709 7710 7711 7712 7713 7714 7715 7716 7717 7718 7719 7720 7721 7722 7723 7724 7725 7726 7727 7728 7729 7730 7731 7732 7733 7734 7735 7736 7737 7738 7739 7740 7741 7742 7743 7744 7745 7746 7747 7748 7749 7750 7751 7752 7753 7754 7755 7756 7757 7758 7759 7760 7761 7762 7763 7764 7765 7766 7767 7768 7769 7770 7771 7772 7773 7774 7775 7776 7777 7778 7779 7780 7781 7782 7783 7784 7785 7786 7787 7788 7789 7790 7791 7792 7793 7794 7795 7796 7797 7798 7799 7800 7801 7802 7803 7804 7805 7806 7807 7808 7809 7810 7811 7812 7813 7814 7815 7816 7817 7818 7819 7820 7821 7822 7823 7824 7825 7826 7827 7828 7829 7830 7831 7832 7833 7834 7835 7836 7837 7838 7839 7840 7841 7842 7843 7844 7845 7846 7847 7848 7849 7850 7851 7852 7853 7854 7855 7856 7857 7858 7859 7860 7861 7862 7863 7864 7865 7866 7867 7868 7869 7870 7871 7872 7873 7874 7875 7876 7877 7878 7879 7880 7881 7882 7883 7884 7885 7886 7887 7888 7889 7890 7891 7892 7893 7894 7895 7896 7897 7898 7899 7900 7901 7902 7903 7904 7905 7906 7907 7908 7909 7910 7911 7912 7913 7914 7915 7916 7917 7918 7919 7920 7921 7922 7923 7924 7925 7926 7927 7928 7929 7930 7931 7932 7933 7934 7935 7936 7937 7938 7939 7940 7941 7942 7943 7944 7945 7946 7947 7948 7949 7950 7951 7952 7953 7954 7955 7956 7957 7958 7959 7960 7961 7962 7963 7964 7965 7966 7967 7968 7969 7970 7971 7972 7973 7974 7975 7976 7977 7978 7979 7980 7981 7982 7983 7984 7985 7986 7987 7988 7989 7990 7991 7992 7993 7994 7995 7996 7997 7998 7999 8000 8001 8002 8003 8004 8005 8006 8007 8008 8009 8010 8011 8012 8013 8014 8015 8016 8017 8018 8019 8020 8021 8022 8023 8024 8025 8026 8027 8028 8029 8030 8031 8032 8033 8034 8035 8036 8037 8038 8039 8040 8041 8042 8043 8044 8045 8046 8047 8048 8049 8050 8051 8052 8053 8054 8055 8056 8057 8058 8059 8060 8061 8062 8063 8064 8065 8066 8067 8068 8069 8070 8071 8072 8073 8074 8075 8076 8077 8078 8079 8080 8081 8082 8083 8084 8085 8086 8087 8088 8089 8090 8091 8092 8093 8094 8095 8096 8097 8098 8099 8100 8101 8102 8103 8104 8105 8106 8107 8108 8109 8110 8111 8112 8113 8114 8115 8116 8117 8118 8119 8120 8121 8122 8123 8124 8125 8126 8127 8128 8129 8130 8131 8132 8133 8134 8135 8136 8137 8138 8139 8140 8141 8142 8143 8144 8145 8146 8147 8148 8149 8150 8151 8152 8153 8154 8155 8156 8157 8158 8159 8160 8161 8162 8163 8164 8165 8166 8167 8168 8169 8170 8171 8172 8173 8174 8175 8176 8177 8178 8179 8180 8181 8182 8183 8184 8185 8186 8187 8188 8189 8190 8191 8192 8193 8194 8195 8196 8197 8198 8199 8200 8201 8202 8203 8204 8205 8206 8207 8208 8209 8210 8211 8212 8213 8214 8215 8216 8217 8218 8219 8220 8221 8222 8223 8224 8225 8226 8227 8228 8229 8230 8231 8232 8233 8234 8235 8236 8237 8238 8239 8240 8241 8242 8243 8244 8245 8246 8247 8248 8249 8250 8251 8252 8253 8254 8255 8256 8257 8258 8259 8260 8261 8262 8263 8264 8265 8266 8267 8268 8269 8270 8271 8272 8273 8274 8275 8276 8277 8278 8279 8280 8281 8282 8283 8284 8285 8286 8287 8288 8289 8290 8291 8292 8293 8294 8295 8296 8297 8298 8299 8300 8301 8302 8303 8304 8305 8306 8307 8308 8309 8310 8311 8312 8313 8314 8315 8316 8317 8318 8319 8320 8321 8322 8323 8324 8325 8326 8327 8328 8329 8330 8331 8332 8333 8334 8335 8336 8337 8338 8339 8340 8341 8342 8343 8344 8345 8346 8347 8348 8349 8350 8351 8352 8353 8354 8355 8356 8357 8358 8359 8360 8361 8362 8363 8364 8365 8366 8367 8368 8369 8370 8371 8372 8373 8374 8375 8376 8377 8378 8379 8380 8381 8382 8383 8384 8385 8386 8387 8388 8389 8390 8391 8392 8393 8394 8395 8396 8397 8398 8399 8400 8401 8402 8403 8404 8405 8406 8407 8408 8409 8410 8411 8412 8413 8414 8415 8416 8417 8418 8419 8420 8421 8422 8423 8424 8425 8426 8427 8428 8429 8430 8431 8432 8433 8434 8435 8436 8437 8438 8439 8440 8441 8442 8443 8444 8445 8446 8447 8448 8449 8450 8451 8452 8453 8454 8455 8456 8457 8458 8459 8460 8461 8462 8463 8464 8465 8466 8467 8468 8469 8470 8471 8472 8473 8474 8475 8476 8477 8478 8479 8480 8481 8482 8483 8484 8485 8486 8487 8488 8489 8490 8491 8492 8493 8494 8495 8496 8497 8498 8499 8500 8501 8502 8503 8504 8505 8506 8507 8508 8509 8510 8511 8512 8513 8514 8515 8516 8517 8518 8519 8520 8521 8522 8523 8524 8525 8526 8527 8528 8529 8530 8531 8532 8533 8534 8535 8536 8537 8538 8539 8540 8541 8542 8543 8544 8545 8546 8547 8548 8549 8550 8551 8552 8553 8554 8555 8556 8557 8558 8559 8560 8561 8562 8563 8564 8565 8566 8567 8568 8569 8570 8571 8572 8573 8574 8575 8576 8577 8578 8579 8580 8581 8582 8583 8584 8585 8586 8587 8588 8589 8590 8591 8592 8593 8594 8595 8596 8597 8598 8599 8600 8601 8602 8603 8604 8605 8606 8607 8608 8609 8610 8611 8612 8613 8614 8615 8616 8617 8618 8619 8620 8621 8622 8623 8624 8625 8626 8627 8628 8629 8630 8631 8632 8633 8634 8635 8636 8637 8638 8639 8640 8641 8642 8643 8644 8645 8646 8647 8648 8649 8650 8651 8652 8653 8654 8655 8656 8657 8658 8659 8660 8661 8662 8663 8664 8665 8666 8667 8668 8669 8670 8671 8672 8673 8674 8675 8676 8677 8678 8679 8680 8681 8682 8683 8684 8685 8686 8687 8688 8689 8690 8691 8692 8693 8694 8695 8696 8697 8698 8699 8700 8701 8702 8703 8704 8705 8706 8707 8708 8709 8710 8711 8712 8713 8714 8715 8716 8717 8718 8719 8720 8721 8722 8723 8724 8725 8726 8727 8728 8729 8730 8731 8732 8733 8734 8735 8736 8737 8738 8739 8740 8741 8742 8743 8744 8745 8746 8747 8748 8749 8750 8751 8752 8753 8754 8755 8756 8757 8758 8759 8760 8761 8762 8763 8764 8765 8766 8767 8768 8769 8770 8771 8772 8773 8774 8775 8776 8777 8778 8779 8780 8781 8782 8783 8784 8785 8786 8787 8788 8789 8790 8791 8792 8793 8794 8795 8796 8797 8798 8799 8800 8801 8802 8803 8804 8805 8806 8807 8808 8809 8810 8811 8812 8813 8814 8815 8816 8817 8818 8819 8820 8821 8822 8823 8824 8825 8826 8827 8828 8829 8830 8831 8832 8833 8834 8835 8836 8837 8838 8839 8840 8841 8842 8843 8844 8845 8846 8847 8848 8849 8850 8851 8852 8853 8854 8855 8856 8857 8858 8859 8860 8861 8862 8863 8864 8865 8866 8867 8868 8869 8870 8871 8872 8873 8874 8875 8876 8877 8878 8879 8880 8881 8882 8883 8884 8885 8886 8887 8888 8889 8890 8891 8892 8893 8894 8895 8896 8897 8898 8899 8900 8901 8902 8903 8904 8905 8906 8907 8908 8909 8910 8911 8912 8913 8914 8915 8916 8917 8918 8919 8920 8921 8922 8923 8924 8925 8926 8927 8928 8929 8930 8931 8932 8933 8934 8935 8936 8937 8938 8939 8940 8941 8942 8943 8944 8945 8946 8947 8948 8949 8950 8951 8952 8953 8954 8955 8956 8957 8958 8959 8960 8961 8962 8963 8964 8965 8966 8967 8968 8969 8970 8971 8972 8973 8974 8975 8976 8977 8978 8979 8980 8981 8982 8983 8984 8985 8986 8987 8988 8989 8990 8991 8992 8993 8994 8995 8996 8997 8998 8999 9000 9001 9002 9003 9004 9005 9006 9007 9008 9009 9010 9011 9012 9013 9014 9015 9016 9017 9018 9019 9020 9021 9022 9023 9024 9025 9026 9027 9028 9029 9030 9031 9032 9033 9034 9035 9036 9037 9038 9039 9040 9041 9042 9043 9044 9045 9046 9047 9048 9049 9050 9051 9052 9053 9054 9055 9056 9057 9058 9059 9060 9061 9062 9063 9064 9065 9066 9067 9068 9069 9070 9071 9072 9073 9074 9075 9076 9077 9078 9079 9080 9081 9082 9083 9084 9085 9086 9087 9088 9089 9090 9091 9092 9093 9094 9095 9096 9097 9098 9099 9100 9101 9102 9103 9104 9105 9106 9107 9108 9109 9110 9111 9112 9113 9114 9115 9116 9117 9118 9119 9120 9121 9122 9123 9124 9125 9126 9127 9128 9129 9130 9131 9132 9133 9134 9135 9136 9137 9138 9139 9140 9141 9142 9143 9144 9145 9146 9147 9148 9149 9150 9151 9152 9153 9154 9155 9156 9157 9158 9159 9160 9161 9162 9163 9164 9165 9166 9167 9168 9169 9170 9171 9172 9173 9174 9175 9176 9177 9178 9179 9180 9181 9182 9183 9184 9185 9186 9187 9188 9189 9190 9191 9192 9193 9194 9195 9196 9197 9198 9199 9200 9201 9202 9203 9204 9205 9206 9207 9208 9209 9210 9211 9212 9213 9214 9215 9216 9217 9218 9219 9220 9221 9222 9223 9224 9225 9226 9227 9228 9229 9230 9231 9232 9233 9234 9235 9236 9237 9238 9239 9240 9241 9242 9243 9244 9245 9246 9247 9248 9249 9250 9251 9252 9253 9254 9255 9256 9257 9258 9259 9260 9261 9262 9263 9264 9265 9266 9267 9268 9269 9270 9271 9272 9273 9274 9275 9276 9277 9278 9279 9280 9281 9282 9283 9284 9285 9286 9287 9288 9289 9290 9291 9292 9293 9294 9295 9296 9297 9298 9299 9300 9301 9302 9303 9304 9305 9306 9307 9308 9309 9310 9311 9312 9313 9314 9315 9316 9317 9318 9319 9320 9321 9322 9323 9324 9325 9326 9327 9328 9329 9330 9331 9332 9333 9334 9335 9336 9337 9338 9339 9340 9341 9342 9343 9344 9345 9346 9347 9348 9349 9350 9351 9352 9353 9354 9355 9356 9357 9358 9359 9360 9361 9362 9363 9364 9365 9366 9367 9368 9369 9370 9371 9372 9373 9374 9375 9376 9377 9378 9379 9380 9381 9382 9383 9384 9385 9386 9387 9388 9389 9390 9391 9392 9393 9394 9395 9396 9397 9398 9399 9400 9401 9402 9403 9404 9405 9406 9407 9408 9409 9410 9411 9412 9413 9414 9415 9416 9417 9418 9419 9420 9421 9422 9423 9424 9425 9426 9427 9428 9429 9430 9431 9432 9433 9434 9435 9436 9437 9438 9439 9440 9441 9442 9443 9444 9445 9446 9447 9448 9449 9450 9451 9452 9453 9454 9455 9456 9457 9458 9459 9460 9461 9462 9463 9464 9465 9466 9467 9468 9469 9470 9471 9472 9473 9474 9475 9476 9477 9478 9479 9480 9481 9482 9483 9484 9485 9486 9487 9488 9489 9490 9491 9492 9493 9494 9495 9496 9497 9498 9499 9500 9501 9502 9503 9504 9505 9506 9507 9508 9509 9510 9511 9512 9513 9514 9515 9516 9517 9518 9519 9520 9521 9522 9523 9524 9525 9526 9527 9528 9529 9530 9531 9532 9533 9534 9535 9536 9537 9538 9539 9540 9541 9542 9543 9544 9545 9546 9547 9548 9549 9550 9551 9552 9553 9554 9555 9556 9557 9558 9559 9560 9561 9562 9563 9564 9565 9566 9567 9568 9569 9570 9571 9572 9573 9574 9575 9576 9577 9578 9579 9580 9581 9582 9583 9584 9585 9586 9587 9588 9589 9590 9591 9592 9593 9594 9595 9596 9597 9598 9599 9600 9601 9602 9603 9604 9605 9606 9607 9608 9609 9610 9611 9612 9613 9614 9615 9616 9617 9618 9619 9620 9621 9622 9623 9624 9625 9626 9627 9628 9629 9630 9631 9632 9633 9634 9635 9636 9637 9638 9639 9640 9641 9642 9643 9644 9645 9646 9647 9648 9649 9650 9651 9652 9653 9654 9655 9656 9657 9658 9659 9660 9661 9662 9663 9664 9665 9666 9667 9668 9669 9670 9671 9672 9673 9674 9675 9676 9677 9678 9679 9680 9681 9682 9683 9684 9685 9686 9687 9688 9689 9690 9691 9692 9693 9694 9695 9696 9697 9698 9699 9700 9701 9702 9703 9704 9705 9706 9707 9708 9709 9710 9711 9712 9713 9714 9715 9716 9717 9718 9719 9720 9721 9722 9723 9724 9725 9726 9727 9728 9729 9730 9731 9732 9733 9734 9735 9736 9737 9738 9739 9740 9741 9742 9743 9744 9745 9746 9747 9748 9749 9750 9751 9752 9753 9754 9755 9756 9757 9758 9759 9760 9761 9762 9763 9764 9765 9766 9767 9768 9769 9770 9771 9772 9773 9774 9775 9776 9777 9778 9779 9780 9781 9782 9783 9784 9785 9786 9787 9788 9789 9790 9791 9792 9793 9794 9795 9796 9797 9798 9799 9800 9801 9802 9803 9804 9805 9806 9807 9808 9809 9810 9811 9812 9813 9814 9815 9816 9817 9818 9819 9820 9821 9822 9823 9824 9825 9826 9827 9828 9829 9830 9831 9832 9833 9834 9835 9836 9837 9838 9839 9840 9841 9842 9843 9844 9845 9846 9847 9848 9849 9850 9851 9852 9853 9854 9855 9856 9857 9858 9859 9860 9861 9862 9863 9864 9865 9866 9867 9868 9869 9870 9871 9872 9873 9874 9875 9876 9877 9878 9879 9880 9881 9882 9883 9884 9885 9886 9887 9888 9889 9890 9891 9892 9893 9894 9895 9896 9897 9898 9899 9900 9901 9902 9903 9904 9905 9906 9907 9908 9909 9910 9911 9912 9913 9914 9915 9916 9917 9918 9919 9920 9921 9922 9923 9924 9925 9926 9927 9928 9929 9930 9931 9932 9933 9934 9935 9936 9937 9938 9939 9940 9941 9942 9943 9944 9945 9946 9947 9948 9949 9950 9951 9952 9953 9954 9955 9956 9957 9958 9959 9960 9961 9962 9963 9964 9965 9966 9967 9968 9969 9970 9971 9972 9973 9974 9975 9976 9977 9978 9979 9980 9981 9982 9983 9984 9985 9986 9987 9988 9989 9990 9991 9992 9993 9994 9995 9996 9997 9998 9999 10000 10001 10002 10003 10004 10005 10006 10007 10008 10009 10010 10011 10012 10013 10014 10015 10016 10017 10018 10019 10020 10021 10022 10023 10024 10025 10026 10027 10028 10029 10030 10031 10032 10033 10034 10035 10036 10037 10038 10039 10040 10041 10042 10043 10044 10045 10046 10047 10048 10049 10050 10051 10052 10053 10054 10055 10056 10057 10058 10059 10060 10061 10062 10063 10064 10065 10066 10067 10068 10069 10070 10071 10072 10073 10074 10075 10076 10077 10078 10079 10080 10081 10082 10083 10084 10085 10086 10087 10088 10089 10090 10091 10092 10093 10094 10095 10096 10097 10098 10099 10100 10101 10102 10103 10104 10105 10106 10107 10108 10109 10110 10111 10112 10113 10114 10115 10116 10117 10118 10119 10120 10121 10122 10123 10124 10125 10126 10127 10128 10129 10130 10131 10132 10133 10134 10135 10136 10137 10138 10139 10140 10141 10142 10143 10144 10145 10146 10147 10148 10149 10150 10151 10152 10153 10154 10155 10156 10157 10158 10159 10160 10161 10162 10163 10164 10165 10166 10167 10168 10169 10170 10171 10172 10173 10174 10175 10176 10177 10178 10179 10180 10181 10182 10183 10184 10185 10186 10187 10188 10189 10190 10191 10192 10193 10194 10195 10196 10197 10198 10199 10200 10201 10202 10203 10204 10205 10206 10207 10208 10209 10210 10211 10212 10213 10214 10215 10216 10217 10218 10219 10220 10221 10222 10223 10224 10225 10226 10227 10228 10229 10230 10231 10232 10233 10234 10235 10236 10237 10238 10239 10240 10241 10242 10243 10244 10245 10246 10247 10248 10249 10250 10251 10252 10253 10254 10255 10256 10257 10258 10259 10260 10261 10262 10263 10264 10265 10266 10267 10268 10269 10270 10271 10272 10273 10274 10275 10276 10277 10278 10279 10280 10281 10282 10283 10284 10285 10286 10287 10288 10289 10290 10291 10292 10293 10294 10295 10296 10297 10298 10299 10300 10301 10302 10303 10304 10305 10306 10307 10308 10309 10310 10311 10312 10313 10314 10315 10316 10317 10318 10319 10320 10321 10322 10323 10324 10325 10326 10327 10328 10329 10330 10331 10332 10333 10334 10335 10336 10337 10338 10339 10340 10341 10342 10343 10344 10345 10346 10347 10348 10349 10350 10351 10352 10353 10354 10355 10356 10357 10358 10359 10360 10361 10362 10363 10364 10365 10366 10367 10368 10369 10370 10371 10372 10373 10374 10375 10376 10377 10378 10379 10380 10381 10382 10383 10384 10385 10386 10387 10388 10389 10390 10391 10392 10393 10394 10395 10396 10397 10398 10399 10400 10401 10402 10403 10404 10405 10406 10407 10408 10409 10410 10411 10412 10413 10414 10415 10416 10417 10418 10419 10420 10421 10422 10423 10424 10425 10426 10427 10428 10429 10430 10431 10432 10433 10434 10435 10436 10437 10438 10439 10440 10441 10442 10443 10444 10445 10446 10447 10448 10449 10450 10451 10452 10453 10454 10455 10456 10457 10458 10459 10460 10461 10462 10463 10464 10465 10466 10467 10468 10469 10470 10471 10472 10473 10474 10475 10476 10477 10478 10479 10480 10481 10482 10483 10484 10485 10486 10487 10488 10489 10490 10491 10492 10493 10494 10495 10496 10497 10498 10499 10500 10501 10502 10503 10504 10505 10506 10507 10508 10509 10510 10511 10512 10513 10514 10515 10516 10517 10518 10519 10520 10521 10522 10523 10524 10525 10526 10527 10528 10529 10530 10531 10532 10533 10534 10535 10536 10537 10538 10539 10540 10541 10542 10543 10544 10545 10546 10547 10548 10549 10550 10551 10552 10553 10554 10555 10556 10557 10558 10559 10560 10561 10562 10563 10564 10565 10566 10567 10568 10569 10570 10571 10572 10573 10574 10575 10576 10577 10578 10579 10580 10581 10582 10583 10584 10585 10586 10587 10588 10589 10590 10591 10592 10593 10594 10595 10596 10597 10598 10599 10600 10601 10602 10603 10604 10605 10606 10607 10608 10609 10610 10611 10612 10613 10614 10615 10616 10617 10618 10619 10620 10621 10622 10623 10624 10625 10626 10627 10628 10629 10630 10631 10632 10633 10634 10635 10636 10637 10638 10639 10640 10641 10642 10643 10644 10645 10646 10647 10648 10649 10650 10651 10652 10653 10654 10655 10656 10657 10658 10659 10660 10661 10662 10663 10664 10665 10666 10667 10668 10669 10670 10671 10672 10673 10674 10675 10676 10677 10678 10679 10680 10681 10682 10683 10684 10685 10686 10687 10688 10689 10690 10691 10692 10693 10694 10695 10696 10697 10698 10699 10700 10701 10702 10703 10704 10705 10706 10707 10708 10709 10710 10711 10712 10713 10714 10715 10716 10717 10718 10719 10720 10721 10722 10723 10724 10725 10726 10727 10728 10729 10730 10731 10732 10733 10734 10735 10736 10737 10738 10739 10740 10741 10742 10743 10744 10745 10746 10747 10748 10749 10750 10751 10752 10753 10754 10755 10756 10757 10758 10759 10760 10761 10762 10763 10764 10765 10766 10767 10768 10769 10770 10771 10772 10773 10774 10775 10776 10777 10778 10779 10780 10781 10782 10783 10784 10785 10786 10787 10788 10789 10790 10791 10792 10793 10794 10795 10796 10797 10798 10799 10800 10801 10802 10803 10804 10805 10806 10807 10808 10809 10810 10811 10812 10813 10814 10815 10816 10817 10818 10819 10820 10821 10822 10823 10824 10825 10826 10827 10828 10829 10830 10831 10832 10833 10834 10835 10836 10837 10838 10839 10840 10841 10842 10843 10844 10845 10846 10847 10848 10849 10850 10851 10852 10853 10854 10855 10856 10857 10858 10859 10860 10861 10862 10863 10864 10865 10866 10867 10868 10869 10870 10871 10872 10873 10874 10875 10876 10877 10878 10879 10880 10881 10882 10883 10884 10885 10886 10887 10888 10889 10890 10891 10892 10893 10894 10895 10896 10897 10898 10899 10900 10901 10902 10903 10904 10905 10906 10907 10908 10909 10910 10911 10912 10913 10914 10915 10916 10917 10918 10919 10920 10921 10922 10923 10924 10925 10926 10927 10928 10929 10930 10931 10932 10933 10934 10935 10936 10937 10938 10939 10940 10941 10942 10943 10944 10945 10946 10947 10948 10949 10950 10951 10952 10953 10954 10955 10956 10957 10958 10959 10960 10961 10962 10963 10964 10965 10966 10967 10968 10969 10970 10971 10972 10973 10974 10975 10976 10977 10978 10979 10980 10981 10982 10983 10984 10985 10986 10987 10988 10989 10990 10991 10992 10993 10994 10995 10996 10997 10998 10999 11000 11001 11002 11003 11004 11005 11006 11007 11008 11009 11010 11011 11012 11013 11014 11015 11016 11017 11018 11019 11020 11021 11022 11023 11024 11025 11026 11027 11028 11029 11030 11031 11032 11033 11034 11035 11036 11037 11038 11039 11040 11041 11042 11043 11044 11045 11046 11047 11048 11049 11050 11051 11052 11053 11054 11055 11056 11057 11058 11059 11060 11061 11062 11063 11064 11065 11066 11067 11068 11069 11070 11071 11072 11073 11074 11075 11076 11077 11078 11079 11080 11081 11082 11083 11084 11085 11086 11087 11088 11089 11090 11091 11092 11093 11094 11095 11096 11097 11098 11099 11100 11101 11102 11103 11104 11105 11106 11107 11108 11109 11110 11111 11112 11113 11114 11115 11116 11117 11118 11119 11120 11121 11122 11123 11124 11125 11126 11127 11128 11129 11130 11131 11132 11133 11134 11135 11136 11137 11138 11139 11140 11141 11142 11143 11144 11145 11146 11147 11148 11149 11150 11151 11152 11153 11154 11155 11156 11157 11158 11159 11160 11161 11162 11163 11164 11165 11166 11167 11168 11169 11170 11171 11172 11173 11174 11175 11176 11177 11178 11179 11180 11181 11182 11183 11184 11185 11186 11187 11188 11189 11190 11191 11192 11193 11194 11195 11196 11197 11198 11199 11200 11201 11202 11203 11204 11205 11206 11207 11208 11209 11210 11211 11212 11213 11214 11215 11216 11217 11218 11219 11220 11221 11222 11223 11224 11225 11226 11227 11228 11229 11230 11231 11232 11233 11234 11235 11236 11237 11238 11239 11240 11241 11242 11243 11244 11245 11246 11247 11248 11249 11250 11251 11252 11253 11254 11255 11256 11257 11258 11259 11260 11261 11262 11263 11264 11265 11266 11267 11268 11269 11270 11271 11272 11273 11274 11275 11276 11277 11278 11279 11280 11281 11282 11283 11284 11285 11286 11287 11288 11289 11290 11291 11292 11293 11294 11295 11296 11297 11298 11299 11300 11301 11302 11303 11304 11305 11306 11307 11308 11309 11310 11311 11312 11313 11314 11315 11316 11317 11318 11319 11320 11321 11322 11323 11324 11325 11326 11327 11328 11329 11330 11331 11332 11333 11334 11335 11336 11337 11338 11339 11340 11341 11342 11343 11344 11345 11346 11347 11348 11349 11350 11351 11352 11353 11354 11355 11356 11357 11358 11359 11360 11361 11362 11363 11364 11365 11366 11367 11368 11369 11370 11371 11372 11373 11374 11375 11376 11377 11378 11379 11380 11381 11382 11383 11384 11385 11386 11387 11388 11389 11390 11391 11392 11393 11394 11395 11396 11397 11398 11399 11400 11401 11402 11403 11404 11405 11406 11407 11408 11409 11410 11411 11412 11413 11414 11415 11416 11417 11418 11419 11420 11421 11422 11423 11424 11425 11426 11427 11428 11429 11430 11431 11432 11433 11434 11435 11436 11437 11438 11439 11440 11441 11442 11443 11444 11445 11446 11447 11448 11449 11450 11451 11452 11453 11454 11455 11456 11457 11458 11459 11460 11461 11462 11463 11464 11465 11466 11467 11468 11469 11470 11471 11472 11473 11474 11475 11476 11477 11478 11479 11480 11481 11482 11483 11484 11485 11486 11487 11488 11489 11490 11491 11492 11493 11494 11495 11496 11497 11498 11499 11500 11501 11502 11503 11504 11505 11506 11507 11508 11509 11510 11511 11512 11513 11514 11515 11516 11517 11518 11519 11520 11521 11522 11523 11524 11525 11526 11527 11528 11529 11530 11531 11532 11533 11534 11535 11536 11537 11538 11539 11540 11541 11542 11543 11544 11545 11546 11547 11548 11549 11550 11551 11552 11553 11554 11555 11556 11557 11558 11559 11560 11561 11562 11563 11564 11565 11566 11567 11568 11569 11570 11571 11572 11573 11574 11575 11576 11577 11578 11579 11580 11581 11582 11583 11584 11585 11586 11587 11588 11589 11590 11591 11592 11593 11594 11595 11596 11597 11598 11599 11600 11601 11602 11603 11604 11605 11606 11607 11608 11609 11610 11611 11612 11613 11614 11615 11616 11617 11618 11619 11620 11621 11622 11623 11624 11625 11626 11627 11628 11629 11630 11631 11632 11633 11634 11635 11636 11637 11638 11639 11640 11641 11642 11643 11644 11645 11646 11647 11648 11649 11650 11651 11652 11653 11654 11655 11656 11657 11658 11659 11660 11661 11662 11663 11664 11665 11666 11667 11668 11669 11670 11671 11672 11673 11674 11675 11676 11677 11678 11679 11680 11681 11682 11683 11684 11685 11686 11687 11688 11689 11690 11691 11692 11693 11694 11695 11696 11697 11698 11699 11700 11701 11702 11703 11704 11705 11706 11707 11708 11709 11710 11711 11712 11713 11714 11715 11716 11717 11718 11719 11720 11721 11722 11723 11724 11725 11726 11727 11728 11729 11730 11731 11732 11733 11734 11735 11736 11737 11738 11739 11740 11741 11742 11743 11744 11745 11746 11747 11748 11749 11750 11751 11752 11753 11754 11755 11756 11757 11758 11759 11760 11761 11762 11763 11764 11765 11766 11767 11768 11769 11770 11771 11772 11773 11774 11775 11776 11777 11778 11779 11780 11781 11782 11783 11784 11785 11786 11787 11788 11789 11790 11791 11792 11793 11794 11795 11796 11797 11798 11799 11800 11801 11802 11803 11804 11805 11806 11807 11808 11809 11810 11811 11812 11813 11814 11815 11816 11817 11818 11819 11820 11821 11822 11823 11824 11825 11826 11827 11828 11829 11830 11831 11832 11833 11834 11835 11836 11837 11838 11839 11840 11841 11842 11843 11844 11845 11846 11847 11848 11849 11850 11851 11852 11853 11854 11855 11856 11857 11858 11859 11860 11861 11862 11863 11864 11865 11866 11867 11868 11869 11870 11871 11872 11873 11874 11875 11876 11877 11878 11879 11880 11881 11882 11883 11884 11885 11886 11887 11888 11889 11890 11891 11892 11893 11894 11895 11896 11897 11898 11899 11900 11901 11902 11903 11904 11905 11906 11907 11908 11909 11910 11911 11912 11913 11914 11915 11916 11917 11918 11919 11920 11921 11922 11923 11924 11925 11926 11927 11928 11929 11930 11931 11932 11933 11934 11935 11936 11937 11938 11939 11940 11941 11942 11943 11944 11945 11946 11947 11948 11949 11950 11951 11952 11953 11954 11955 11956 11957 11958 11959 11960 11961 11962 11963 11964 11965 11966 11967 11968 11969 11970 11971 11972 11973 11974 11975 11976 11977 11978 11979 11980 11981 11982 11983 11984 11985 11986 11987 11988 11989 11990 11991 11992 11993 11994 11995 11996 11997 11998 11999 12000 12001 12002 12003 12004 12005 12006 12007 12008 12009 12010 12011 12012 12013 12014 12015 12016 12017 12018 12019 12020 12021 12022 12023 12024 12025 12026 12027 12028 12029 12030 12031 12032 12033 12034 12035 12036 12037 12038 12039 12040 12041 12042 12043 12044 12045 12046 12047 12048 12049 12050 12051 12052 12053 12054 12055 12056 12057 12058 12059 12060 12061 12062 12063 12064 12065 12066 12067 12068 12069 12070 12071 12072 12073 12074 12075 12076 12077 12078 12079 12080 12081 12082 12083 12084 12085 12086 12087 12088 12089 12090 12091 12092 12093 12094 12095 12096 12097 12098 12099 12100 12101 12102 12103 12104 12105 12106 12107 12108 12109 12110 12111 12112 12113 12114 12115 12116 12117 12118 12119 12120 12121 12122 12123 12124 12125 12126 12127 12128 12129 12130 12131 12132 12133 12134 12135 12136 12137 12138 12139 12140 12141 12142 12143 12144 12145 12146 12147 12148 12149 12150 12151 12152 12153 12154 12155 12156 12157 12158 12159 12160 12161 12162 12163 12164 12165 12166 12167 12168 12169 12170 12171 12172 12173 12174 12175 12176 12177 12178 12179 12180 12181 12182 12183 12184 12185 12186 12187 12188 12189 12190 12191 12192 12193 12194 12195 12196 12197 12198 12199 12200 12201 12202 12203 12204 12205 12206 12207 12208 12209 12210 12211 12212 12213 12214 12215 12216 12217 12218 12219 12220 12221 12222 12223 12224 12225 12226 12227 12228 12229 12230 12231 12232 12233 12234 12235 12236 12237 12238 12239 12240 12241 12242 12243 12244 12245 12246 12247 12248 12249 12250 12251 12252 12253 12254 12255 12256 12257 12258 12259 12260 12261 12262 12263 12264 12265 12266 12267 12268 12269 12270 12271 12272 12273 12274 12275 12276 12277 12278 12279 12280 12281 12282 12283 12284 12285 12286 12287 12288 12289 12290 12291 12292 12293 12294 12295 12296 12297 12298 12299 12300 12301 12302 12303 12304 12305 12306 12307 12308 12309 12310 12311 12312 12313 12314 12315 12316 12317 12318 12319 12320 12321 12322 12323 12324 12325 12326 12327 12328 12329 12330 12331 12332 12333 12334 12335 12336 12337 12338 12339 12340 12341 12342 12343 12344 12345 12346 12347 12348 12349 12350 12351 12352 12353 12354 12355 12356 12357 12358 12359 12360 12361 12362 12363 12364 12365 12366 12367 12368 12369 12370 12371 12372 12373 12374 12375 12376 12377 12378 12379 12380 12381 12382 12383 12384 12385 12386 12387 12388 12389 12390 12391 12392 12393 12394 12395 12396 12397 12398 12399 12400 12401 12402 12403 12404 12405 12406 12407 12408 12409 12410 12411 12412 12413 12414 12415 12416 12417 12418 12419 12420 12421 12422 12423 12424 12425 12426 12427 12428 12429 12430 12431 12432 12433 12434 12435 12436 12437 12438 12439 12440 12441 12442 12443 12444 12445 12446 12447 12448 12449 12450 12451 12452 12453 12454 12455 12456 12457 12458 12459 12460 12461 12462 12463 12464 12465 12466 12467 12468 12469 12470 12471 12472 12473 12474 12475 12476 12477 12478 12479 12480 12481 12482 12483 12484 12485 12486 12487 12488 12489 12490 12491 12492 12493 12494 12495 12496 12497 12498 12499 12500 12501 12502 12503 12504 12505 12506 12507 12508 12509 12510 12511 12512 12513 12514 12515 12516 12517 12518 12519 12520 12521 12522 12523 12524 12525 12526 12527 12528 12529 12530 12531 12532 12533 12534 12535 12536 12537 12538 12539 12540 12541 12542 12543 12544 12545 12546 12547 12548 12549 12550 12551 12552 12553 12554 12555 12556 12557 12558 12559 12560 12561 12562 12563 12564 12565 12566 12567 12568 12569 12570 12571 12572 12573 12574 12575 12576 12577 12578 12579 12580 12581 12582 12583 12584 12585 12586 12587 12588 12589 12590 12591 12592 12593 12594 12595 12596 12597 12598 12599 12600 12601 12602 12603 12604 12605 12606 12607 12608 12609 12610 12611 12612 12613 12614 12615 12616 12617 12618 12619 12620 12621 12622 12623 12624 12625 12626 12627 12628 12629 12630 12631 12632 12633 12634 12635 12636 12637 12638 12639 12640 12641 12642 12643 12644 12645 12646 12647 12648 12649 12650 12651 12652 12653 12654 12655 12656 12657 12658 12659 12660 12661 12662 12663 12664 12665 12666 12667 12668 12669 12670 12671 12672 12673 12674 12675 12676 12677 12678 12679 12680 12681 12682 12683 12684 12685 12686 12687 12688 12689 12690 12691 12692 12693 12694 12695 12696 12697 12698 12699 12700 12701 12702 12703 12704 12705 12706 12707 12708 12709 12710 12711 12712 12713 12714 12715 12716 12717 12718 12719 12720 12721 12722 12723 12724 12725 12726 12727 12728 12729 12730 12731 12732 12733 12734 12735 12736 12737 12738 12739 12740 12741 12742 12743 12744 12745 12746 12747 12748 12749 12750 12751 12752 12753 12754 12755 12756 12757 12758 12759 12760 12761 12762 12763 12764 12765 12766 12767 12768 12769 12770 12771 12772 12773 12774 12775 12776 12777 12778 12779 12780 12781 12782 12783 12784 12785 12786 12787 12788 12789 12790 12791 12792 12793 12794 12795 12796 12797 12798 12799 12800 12801 12802 12803 12804 12805 12806 12807 12808 12809 12810 12811 12812 12813 12814 12815 12816 12817 12818 12819 12820 12821 12822 12823 12824 12825 12826 12827 12828 12829 12830 12831 12832 12833 12834 12835 12836 12837 12838 12839 12840 12841 12842 12843 12844 12845 12846 12847 12848 12849 12850 12851 12852 12853 12854 12855 12856 12857 12858 12859 12860 12861 12862 12863 12864 12865 12866 12867 12868 12869 12870 12871 12872 12873 12874 12875 12876 12877 12878 12879 12880 12881 12882 12883 12884 12885 12886 12887 12888 12889 12890 12891 12892 12893 12894 12895 12896 12897 12898 12899 12900 12901 12902 12903 12904 12905 12906 12907 12908 12909 12910 12911 12912 12913 12914 12915 12916 12917 12918 12919 12920 12921 12922 12923 12924 12925 12926 12927 12928 12929 12930 12931 12932 12933 12934 12935 12936 12937 12938 12939 12940 12941 12942 12943 12944 12945 12946 12947 12948 12949 12950 12951 12952 12953 12954 12955 12956 12957 12958 12959 12960 12961 12962 12963 12964 12965 12966 12967 12968 12969 12970 12971 12972 12973 12974 12975 12976 12977 12978 12979 12980 12981 12982 12983 12984 12985 12986 12987 12988 12989 12990 12991 12992 12993 12994 12995 12996 12997 12998 12999 13000 13001 13002 13003 13004 13005 13006 13007 13008 13009 13010 13011 13012 13013 13014 13015 13016 13017 13018 13019 13020 13021 13022 13023 13024 13025 13026 13027 13028 13029 13030 13031 13032 13033 13034 13035 13036 13037 13038 13039 13040 13041 13042 13043 13044 13045 13046 13047 13048 13049 13050 13051 13052 13053 13054 13055 13056 13057 13058 13059 13060 13061 13062 13063 13064 13065 13066 13067 13068 13069 13070 13071 13072 13073 13074 13075 13076 13077 13078 13079 13080 13081 13082 13083 13084 13085 13086 13087 13088 13089 13090 13091 13092 13093 13094 13095 13096 13097 13098 13099 13100 13101 13102 13103 13104 13105 13106 13107 13108 13109 13110 13111 13112 13113 13114 13115 13116 13117 13118 13119 13120 13121 13122 13123 13124 13125 13126 13127 13128 13129 13130 13131 13132 13133 13134 13135 13136 13137 13138 13139 13140 13141 13142 13143 13144 13145 13146 13147 13148 13149 13150 13151 13152 13153 13154 13155 13156 13157 13158 13159 13160 13161 13162 13163 13164 13165 13166 13167 13168 13169 13170 13171 13172 13173 13174 13175 13176 13177 13178 13179 13180 13181 13182 13183 13184 13185 13186 13187 13188 13189 13190 13191 13192 13193 13194 13195 13196 13197 13198 13199 13200 13201 13202 13203 13204 13205 13206 13207 13208 13209 13210 13211 13212 13213 13214 13215 13216 13217 13218 13219 13220 13221 13222 13223 13224 13225 13226 13227 13228 13229 13230 13231 13232 13233 13234 13235 13236 13237 13238 13239 13240 13241 13242 13243 13244 13245 13246 13247 13248 13249 13250 13251 13252 13253 13254 13255 13256 13257 13258 13259 13260 13261 13262 13263 13264 13265 13266 13267 13268 13269 13270 13271 13272 13273 13274 13275 13276 13277 13278 13279 13280 13281 13282 13283 13284 13285 13286 13287 13288 13289 13290 13291 13292 13293 13294 13295 13296 13297 13298 13299 13300 13301 13302 13303 13304 13305 13306 13307 13308 13309 13310 13311 13312 13313 13314 13315 13316 13317 13318 13319 13320 13321 13322 13323 13324 13325 13326 13327 13328 13329 13330 13331 13332 13333 13334 13335 13336 13337 13338 13339 13340 13341 13342 13343 13344 13345 13346 13347 13348 13349 13350 13351 13352 13353 13354 13355 13356 13357 13358 13359 13360 13361 13362 13363 13364 13365 13366 13367 13368 13369 13370 13371 13372 13373 13374 13375 13376 13377 13378 13379 13380 13381 13382 13383 13384 13385 13386 13387 13388 13389 13390 13391 13392 13393 13394 13395 13396 13397 13398 13399 13400 13401 13402 13403 13404 13405 13406 13407 13408 13409 13410 13411 13412 13413 13414 13415 13416 13417 13418 13419 13420 13421 13422 13423 13424 13425 13426 13427 13428 13429 13430 13431 13432 13433 13434 13435 13436 13437 13438 13439 13440 13441 13442 13443 13444 13445 13446 13447 13448 13449 13450 13451 13452 13453 13454 13455 13456 13457 13458 13459 13460 13461 13462 13463 13464 13465 13466 13467 13468 13469 13470 13471 13472 13473 13474 13475 13476 13477 13478 13479 13480 13481 13482 13483 13484 13485 13486 13487 13488 13489 13490 13491 13492 13493 13494 13495 13496 13497 13498 13499 13500 13501 13502 13503 13504 13505 13506 13507 13508 13509 13510 13511 13512 13513 13514 13515 13516 13517 13518 13519 13520 13521 13522 13523 13524 13525 13526 13527 13528 13529 13530 13531 13532 13533 13534 13535 13536 13537 13538 13539 13540 13541 13542 13543 13544 13545 13546 13547 13548 13549 13550 13551 13552 13553 13554 13555 13556 13557 13558 13559 13560 13561 13562 13563 13564 13565 13566 13567 13568 13569 13570 13571 13572 13573 13574 13575 13576 13577 13578 13579 13580 13581 13582 13583 13584 13585 13586 13587 13588 13589 13590 13591 13592 13593 13594 13595 13596 13597 13598 13599 13600 13601 13602 13603 13604 13605 13606 13607 13608 13609 13610 13611 13612 13613 13614 13615 13616 13617 13618 13619 13620 13621 13622 13623 13624 13625 13626 13627 13628 13629 13630 13631 13632 13633 13634 13635 13636 13637 13638 13639 13640 13641 13642 13643 13644 13645 13646 13647 13648 13649 13650 13651 13652 13653 13654 13655 13656 13657 13658 13659 13660 13661 13662 13663 13664 13665 13666 13667 13668 13669 13670 13671 13672 13673 13674 13675 13676 13677 13678 13679 13680 13681 13682 13683 13684 13685 13686 13687 13688 13689 13690 13691 13692 13693 13694 13695 13696 13697 13698 13699 13700 13701 13702 13703 13704 13705 13706 13707 13708 13709 13710 13711 13712 13713 13714 13715 13716 13717 13718 13719 13720 13721 13722 13723 13724 13725 13726 13727 13728 13729 13730 13731 13732 13733 13734 13735 13736 13737 13738 13739 13740 13741 13742 13743 13744 13745 13746 13747 13748 13749 13750 13751 13752 13753 13754 13755 13756 13757 13758 13759 13760 13761 13762 13763 13764 13765 13766 13767 13768 13769 13770 13771 13772 13773 13774 13775 13776 13777 13778 13779 13780 13781 13782 13783 13784 13785 13786 13787 13788 13789 13790 13791 13792 13793 13794 13795 13796 13797 13798 13799 13800 13801 13802 13803 13804 13805 13806 13807 13808 13809 13810 13811 13812 13813 13814 13815 13816 13817 13818 13819 13820 13821 13822 13823 13824 13825 13826 13827 13828 13829 13830 13831 13832 13833 13834 13835 13836 13837 13838 13839 13840 13841 13842 13843 13844 13845 13846 13847 13848 13849 13850 13851 13852 13853 13854 13855 13856 13857 13858 13859 13860 13861 13862 13863 13864 13865 13866 13867 13868 13869 13870 13871 13872 13873 13874 13875 13876 13877 13878 13879 13880 13881 13882 13883 13884 13885 13886 13887 13888 13889 13890 13891 13892 13893 13894 13895 13896 13897 13898 13899 13900 13901 13902 13903 13904 13905 13906 13907 13908 13909 13910 13911 13912 13913 13914 13915 13916 13917 13918 13919 13920 13921 13922 13923 13924 13925 13926 13927 13928 13929 13930 13931 13932 13933 13934 13935 13936 13937 13938 13939 13940 13941 13942 13943 13944 13945 13946 13947 13948 13949 13950 13951 13952 13953 13954 13955 13956 13957 13958 13959 13960 13961 13962 13963 13964 13965 13966 13967 13968 13969 13970 13971 13972 13973 13974 13975 13976 13977 13978 13979 13980 13981 13982 13983 13984 13985 13986 13987 13988 13989 13990 13991 13992 13993 13994 13995 13996 13997 13998 13999 14000 14001 14002 14003 14004 14005 14006 14007 14008 14009 14010 14011 14012 14013 14014 14015 14016 14017 14018 14019 14020 14021 14022 14023 14024 14025 14026 14027 14028 14029 14030 14031 14032 14033 14034 14035 14036 14037 14038 14039 14040 14041 14042 14043 14044 14045 14046 14047 14048 14049 14050 14051 14052 14053 14054 14055 14056 14057 14058 14059 14060 14061 14062 14063 14064 14065 14066 14067 14068 14069 14070 14071 14072 14073 14074 14075 14076 14077 14078 14079 14080 14081 14082 14083 14084 14085 14086 14087 14088 14089 14090 14091 14092 14093 14094 14095 14096 14097 14098 14099 14100 14101 14102 14103 14104 14105 14106 14107 14108 14109 14110 14111 14112 14113 14114 14115 14116 14117 14118 14119 14120 14121 14122 14123 14124 14125 14126 14127 14128 14129 14130 14131 14132 14133 14134 14135 14136 14137 14138 14139 14140 14141 14142 14143 14144 14145 14146 14147 14148 14149 14150 14151 14152 14153 14154 14155 14156 14157 14158 14159 14160 14161 14162 14163 14164 14165 14166 14167 14168 14169 14170 14171 14172 14173 14174 14175 14176 14177 14178 14179 14180 14181 14182 14183 14184 14185 14186 14187 14188 14189 14190 14191 14192 14193 14194 14195 14196 14197 14198 14199 14200 14201 14202 14203 14204 14205 14206 14207 14208 14209 14210 14211 14212 14213 14214 14215 14216 14217 14218 14219 14220 14221 14222 14223 14224 14225 14226 14227 14228 14229 14230 14231 14232 14233 14234 14235 14236 14237 14238 14239 14240 14241 14242 14243 14244 14245 14246 14247 14248 14249 14250 14251 14252 14253 14254 14255 14256 14257 14258 14259 14260 14261 14262 14263 14264 14265 14266 14267 14268 14269 14270 14271 14272 14273 14274 14275 14276 14277 14278 14279 14280 14281 14282 14283 14284 14285 14286 14287 14288 14289 14290 14291 14292 14293 14294 14295 14296 14297 14298 14299 14300 14301 14302 14303 14304 14305 14306 14307 14308 14309 14310 14311 14312 14313 14314 14315 14316 14317 14318 14319 14320 14321 14322 14323 14324 14325 14326 14327 14328 14329 14330 14331 14332 14333 14334 14335 14336 14337 14338 14339 14340 14341 14342 14343 14344 14345 14346 14347 14348 14349 14350 14351 14352 14353 14354 14355 14356 14357 14358 14359 14360 14361 14362 14363 14364 14365 14366 14367 14368 14369 14370 14371 14372 14373 14374 14375 14376 14377 14378 14379 14380 14381 14382 14383 14384 14385 14386 14387 14388 14389 14390 14391 14392 14393 14394 14395 14396 14397 14398 14399 14400 14401 14402 14403 14404 14405 14406 14407 14408 14409 14410 14411 14412 14413 14414 14415 14416 14417 14418 14419 14420 14421 14422 14423 14424 14425 14426 14427 14428 14429 14430 14431 14432 14433 14434 14435 14436 14437 14438 14439 14440 14441 14442 14443 14444 14445 14446 14447 14448 14449 14450 14451 14452 14453 14454 14455 14456 14457 14458 14459 14460 14461 14462 14463 14464 14465 14466 14467 14468 14469 14470 14471 14472 14473 14474 14475 14476 14477 14478 14479 14480 14481 14482 14483 14484 14485 14486 14487 14488 14489 14490 14491 14492 14493 14494 14495 14496 14497 14498 14499 14500 14501 14502 14503 14504 14505 14506 14507 14508 14509 14510 14511 14512 14513 14514 14515 14516 14517 14518 14519 14520 14521 14522 14523 14524 14525 14526 14527 14528 14529 14530 14531 14532 14533 14534 14535 14536 14537 14538 14539 14540 14541 14542 14543 14544 14545 14546 14547 14548 14549 14550 14551 14552 14553 14554 14555 14556 14557 14558 14559 14560 14561 14562 14563 14564 14565 14566 14567 14568 14569 14570 14571 14572 14573 14574 14575 14576 14577 14578 14579 14580 14581 14582 14583 14584 14585 14586 14587 14588 14589 14590 14591 14592 14593 14594 14595 14596 14597 14598 14599 14600 14601 14602 14603 14604 14605 14606 14607 14608 14609 14610 14611 14612 14613 14614 14615 14616 14617 14618 14619 14620 14621 14622 14623 14624 14625 14626 14627 14628 14629 14630 14631 14632 14633 14634 14635 14636 14637 14638 14639 14640 14641 14642 14643 14644 14645 14646 14647 14648 14649 14650 14651 14652 14653 14654 14655 14656 14657 14658 14659 14660 14661 14662 14663 14664 14665 14666 14667 14668 14669 14670 14671 14672 14673 14674 14675 14676 14677 14678 14679 14680 14681 14682 14683 14684 14685 14686 14687 14688 14689 14690 14691 14692 14693 14694 14695 14696 14697 14698 14699 14700 14701 14702 14703 14704 14705 14706 14707 14708 14709 14710 14711 14712 14713 14714 14715 14716 14717 14718 14719 14720 14721 14722 14723 14724 14725 14726 14727 14728 14729 14730 14731 14732 14733 14734 14735 14736 14737 14738 14739 14740 14741 14742 14743 14744 14745 14746 14747 14748 14749 14750 14751 14752 14753 14754 14755 14756 14757 14758 14759 14760 14761 14762 14763 14764 14765 14766 14767 14768 14769 14770 14771 14772 14773 14774 14775 14776 14777 14778 14779 14780 14781 14782 14783 14784 14785 14786 14787 14788 14789 14790 14791 14792 14793 14794 14795 14796 14797 14798 14799 14800 14801 14802 14803 14804 14805 14806 14807 14808 14809 14810 14811 14812 14813 14814 14815 14816 14817 14818 14819 14820 14821 14822 14823 14824 14825 14826 14827 14828 14829 14830 14831 14832 14833 14834 14835 14836 14837 14838 14839 14840 14841 14842 14843 14844 14845 14846 14847 14848 14849 14850 14851 14852 14853 14854 14855 14856 14857 14858 14859 14860 14861 14862 14863 14864 14865 14866 14867 14868 14869 14870 14871 14872 14873 14874 14875 14876 14877 14878 14879 14880 14881 14882 14883 14884 14885 14886 14887 14888 14889 14890 14891 14892 14893 14894 14895 14896 14897 14898 14899 14900 14901 14902 14903 14904 14905 14906 14907 14908 14909 14910 14911 14912 14913 14914 14915 14916 14917 14918 14919 14920 14921 14922 14923 14924 14925 14926 14927 14928 14929 14930 14931 14932 14933 14934 14935 14936 14937 14938 14939 14940 14941 14942 14943 14944 14945 14946 14947 14948 14949 14950 14951 14952 14953 14954 14955 14956 14957 14958 14959 14960 14961 14962 14963 14964 14965 14966 14967 14968 14969 14970 14971 14972 14973 14974 14975 14976 14977 14978 14979 14980 14981 14982 14983 14984 14985 14986 14987 14988 14989 14990 14991 14992 14993 14994 14995 14996 14997 14998 14999 15000 15001 15002 15003 15004 15005 15006 15007 15008 15009 15010 15011 15012 15013 15014 15015 15016 15017 15018 15019 15020 15021 15022 15023 15024 15025 15026 15027 15028 15029 15030 15031 15032 15033 15034 15035 15036 15037 15038 15039 15040 15041 15042 15043 15044 15045 15046 15047 15048 15049 15050 15051 15052 15053 15054 15055 15056 15057 15058 15059 15060 15061 15062 15063 15064 15065 15066 15067 15068 15069 15070 15071 15072 15073 15074 15075 15076 15077 15078 15079 15080 15081 15082 15083 15084 15085 15086 15087 15088 15089 15090 15091 15092 15093 15094 15095 15096 15097 15098 15099 15100 15101 15102 15103 15104 15105 15106 15107 15108 15109 15110 15111 15112 15113 15114 15115 15116 15117 15118 15119 15120 15121 15122 15123 15124 15125 15126 15127 15128 15129 15130 15131 15132 15133 15134 15135 15136 15137 15138 15139 15140 15141 15142 15143 15144 15145 15146 15147 15148 15149 15150 15151 15152 15153 15154 15155 15156 15157 15158 15159 15160 15161 15162 15163 15164 15165 15166 15167 15168 15169 15170 15171 15172 15173 15174 15175 15176 15177 15178 15179 15180 15181 15182 15183 15184 15185 15186 15187 15188 15189 15190 15191 15192 15193 15194 15195 15196 15197 15198 15199 15200 15201 15202 15203 15204 15205 15206 15207 15208 15209 15210 15211 15212 15213 15214 15215 15216 15217 15218 15219 15220 15221 15222 15223 15224 15225 15226 15227 15228 15229 15230 15231 15232 15233 15234 15235 15236 15237 15238 15239 15240 15241 15242 15243 15244 15245 15246 15247 15248 15249 15250 15251 15252 15253 15254 15255 15256 15257 15258 15259 15260 15261 15262 15263 15264 15265 15266 15267 15268 15269 15270 15271 15272 15273 15274 15275 15276 15277 15278 15279 15280 15281 15282 15283 15284 15285 15286 15287 15288 15289 15290 15291 15292 15293 15294 15295 15296 15297 15298 15299 15300 15301 15302 15303 15304 15305 15306 15307 15308 15309 15310 15311 15312 15313 15314 15315 15316 15317 15318 15319 15320 15321 15322 15323 15324 15325 15326 15327 15328 15329 15330 15331 15332 15333 15334 15335 15336 15337 15338 15339 15340 15341 15342 15343 15344 15345 15346 15347 15348 15349 15350 15351 15352 15353 15354 15355 15356 15357 15358 15359 15360 15361 15362 15363 15364 15365 15366 15367 15368 15369 15370 15371 15372 15373 15374 15375 15376 15377 15378 15379 15380 15381 15382 15383 15384 15385 15386 15387 15388 15389 15390 15391 15392 15393 15394 15395 15396 15397 15398 15399 15400 15401 15402 15403 15404 15405 15406 15407 15408 15409 15410 15411 15412 15413 15414 15415 15416 15417 15418 15419 15420 15421 15422 15423 15424 15425 15426 15427 15428 15429 15430 15431 15432 15433 15434 15435 15436 15437 15438 15439 15440 15441 15442 15443 15444 15445 15446 15447 15448 15449 15450 15451 15452 15453 15454 15455 15456 15457 15458 15459 15460 15461 15462 15463 15464 15465 15466 15467 15468 15469 15470 15471 15472 15473 15474 15475 15476 15477 15478 15479 15480 15481 15482 15483 15484 15485 15486 15487 15488 15489 15490 15491 15492 15493 15494 15495 15496 15497 15498 15499 15500 15501 15502 15503 15504 15505 15506 15507 15508 15509 15510 15511 15512 15513 15514 15515 15516 15517 15518 15519 15520 15521 15522 15523 15524 15525 15526 15527 15528 15529 15530 15531 15532 15533 15534 15535 15536 15537 15538 15539 15540 15541 15542 15543 15544 15545 15546 15547 15548 15549 15550 15551 15552 15553 15554 15555 15556 15557 15558 15559 15560 15561 15562 15563 15564 15565 15566 15567 15568 15569 15570 15571 15572 15573 15574 15575 15576 15577 15578 15579 15580 15581 15582 15583 15584 15585 15586 15587 15588 15589 15590 15591 15592 15593 15594 15595 15596 15597 15598 15599 15600 15601 15602 15603 15604 15605 15606 15607 15608 15609 15610 15611 15612 15613 15614 15615 15616 15617 15618 15619 15620 15621 15622 15623 15624 15625 15626 15627 15628 15629 15630 15631 15632 15633 15634 15635 15636 15637 15638 15639 15640 15641 15642 15643 15644 15645 15646 15647 15648 15649 15650 15651 15652 15653 15654 15655 15656 15657 15658 15659 15660 15661 15662 15663 15664 15665 15666 15667 15668 15669 15670 15671 15672 15673 15674 15675 15676 15677 15678 15679 15680 15681 15682 15683 15684 15685 15686 15687 15688 15689 15690 15691 15692 15693 15694 15695 15696 15697 15698 15699 15700 15701 15702 15703 15704 15705 15706 15707 15708 15709 15710 15711 15712 15713 15714 15715 15716 15717 15718 15719 15720 15721 15722 15723 15724 15725 15726 15727 15728 15729 15730 15731 15732 15733 15734 15735 15736 15737 15738 15739 15740 15741 15742 15743 15744 15745 15746 15747 15748 15749 15750 15751 15752 15753 15754 15755 15756 15757 15758 15759 15760 15761 15762 15763 15764 15765 15766 15767 15768 15769 15770 15771 15772 15773 15774 15775 15776 15777 15778 15779 15780 15781 15782 15783 15784 15785 15786 15787 15788 15789 15790 15791 15792 15793 15794 15795 15796 15797 15798 15799 15800 15801 15802 15803 15804 15805 15806 15807 15808 15809 15810 15811 15812 15813 15814 15815 15816 15817 15818 15819 15820 15821 15822 15823 15824 15825 15826 15827 15828 15829 15830 15831 15832 15833 15834 15835 15836 15837 15838 15839 15840 15841 15842 15843 15844 15845 15846 15847 15848 15849 15850 15851 15852 15853 15854 15855 15856 15857 15858 15859 15860 15861 15862 15863 15864 15865 15866 15867 15868 15869 15870 15871 15872 15873 15874 15875 15876 15877 15878 15879 15880 15881 15882 15883 15884 15885 15886 15887 15888 15889 15890 15891 15892 15893 15894 15895 15896 15897 15898 15899 15900 15901 15902 15903 15904 15905 15906 15907 15908 15909 15910 15911 15912 15913 15914 15915 15916 15917 15918 15919 15920 15921 15922 15923 15924 15925 15926 15927 15928 15929 15930 15931 15932 15933 15934 15935 15936 15937 15938 15939 15940 15941 15942 15943 15944 15945 15946 15947 15948 15949 15950 15951 15952 15953 15954 15955 15956 15957 15958 15959 15960 15961 15962 15963 15964 15965 15966 15967 15968 15969 15970 15971 15972 15973 15974 15975 15976 15977 15978 15979 15980 15981 15982 15983 15984 15985 15986 15987 15988 15989 15990 15991 15992 15993 15994 15995 15996 15997 15998 15999 16000 16001 16002 16003 16004 16005 16006 16007 16008 16009 16010 16011 16012 16013 16014 16015 16016 16017 16018 16019 16020 16021 16022 16023 16024 16025 16026 16027 16028 16029 16030 16031 16032 16033 16034 16035 16036 16037 16038 16039 16040 16041 16042 16043 16044 16045 16046 16047 16048 16049 16050 16051 16052 16053 16054 16055 16056 16057 16058 16059 16060 16061 16062 16063 16064 16065 16066 16067 16068 16069 16070 16071 16072 16073 16074 16075 16076 16077 16078 16079 16080 16081 16082 16083 16084 16085 16086 16087 16088 16089 16090 16091 16092 16093 16094 16095 16096 16097 16098 16099 16100 16101 16102 16103 16104 16105 16106 16107 16108 16109 16110 16111 16112 16113 16114 16115 16116 16117 16118 16119 16120 16121 16122 16123 16124 16125 16126 16127 16128 16129 16130 16131 16132 16133 16134 16135 16136 16137 16138 16139 16140 16141 16142 16143 16144 16145 16146 16147 16148 16149 16150 16151 16152 16153 16154 16155 16156 16157 16158 16159 16160 16161 16162 16163 16164 16165 16166 16167 16168 16169 16170 16171 16172 16173 16174 16175 16176 16177 16178 16179 16180 16181 16182 16183 16184 16185 16186 16187 16188 16189 16190 16191 16192 16193 16194 16195 16196 16197 16198 16199 16200 16201 16202 16203 16204 16205 16206 16207 16208 16209 16210 16211 16212 16213 16214 16215 16216 16217 16218 16219 16220 16221 16222 16223 16224 16225 16226 16227 16228 16229 16230 16231 16232 16233 16234 16235 16236 16237 16238 16239 16240 16241 16242 16243 16244 16245 16246 16247 16248 16249 16250 16251 16252 16253 16254 16255 16256 16257 16258 16259 16260 16261 16262 16263 16264 16265 16266 16267 16268 16269 16270 16271 16272 16273 16274 16275 16276 16277 16278 16279 16280 16281 16282 16283 16284 16285 16286 16287 16288 16289 16290 16291 16292 16293 16294 16295 16296 16297 16298 16299 16300 16301 16302 16303 16304 16305 16306 16307 16308 16309 16310 16311 16312 16313 16314 16315 16316 16317 16318 16319 16320 16321 16322 16323 16324 16325 16326 16327 16328 16329 16330 16331 16332 16333 16334 16335 16336 16337 16338 16339 16340 16341 16342 16343 16344 16345 16346 16347 16348 16349 16350 16351 16352 16353 16354 16355 16356 16357 16358 16359 16360 16361 16362 16363 16364 16365 16366 16367 16368 16369 16370 16371 16372 16373 16374 16375 16376 16377 16378 16379 16380 16381 16382 16383 16384 16385 16386 16387 16388 16389 16390 16391 16392 16393 16394 16395 16396 16397 16398 16399 16400 16401 16402 16403 16404 16405 16406 16407 16408 16409 16410 16411 16412 16413 16414 16415 16416 16417 16418 16419 16420 16421 16422 16423 16424 16425 16426 16427 16428 16429 16430 16431 16432 16433 16434 16435 16436 16437 16438 16439 16440 16441 16442 16443 16444 16445 16446 16447 16448 16449 16450 16451 16452 16453 16454 16455 16456 16457 16458 16459 16460 16461 16462 16463 16464 16465 16466 16467 16468 16469 16470 16471 16472 16473 16474 16475 16476 16477 16478 16479 16480 16481 16482 16483 16484 16485 16486 16487 16488 16489 16490 16491 16492 16493 16494 16495 16496 16497 16498 16499 16500 16501 16502 16503 16504 16505 16506 16507 16508 16509 16510 16511 16512 16513 16514 16515 16516 16517 16518 16519 16520 16521 16522 16523 16524 16525 16526 16527 16528 16529 16530 16531 16532 16533 16534 16535 16536 16537 16538 16539 16540 16541 16542 16543 16544 16545 16546 16547 16548 16549 16550 16551 16552 16553 16554 16555 16556 16557 16558 16559 16560 16561 16562 16563 16564 16565 16566 16567 16568 16569 16570 16571 16572 16573 16574 16575 16576 16577 16578 16579 16580 16581 16582 16583 16584 16585 16586 16587 16588 16589 16590 16591 16592 16593 16594 16595 16596 16597 16598 16599 16600 16601 16602 16603 16604 16605 16606 16607 16608 16609 16610 16611 16612 16613 16614 16615 16616 16617 16618 16619 16620 16621 16622 16623 16624 16625 16626 16627 16628 16629 16630 16631 16632 16633 16634 16635 16636 16637 16638 16639 16640 16641 16642 16643 16644 16645 16646 16647 16648 16649 16650 16651 16652 16653 16654 16655 16656 16657 16658 16659 16660 16661 16662 16663 16664 16665 16666 16667 16668 16669 16670 16671 16672 16673 16674 16675 16676 16677 16678 16679 16680 16681 16682 16683 16684 16685 16686 16687 16688 16689 16690 16691 16692 16693 16694 16695 16696 16697 16698 16699 16700 16701 16702 16703 16704 16705 16706 16707 16708 16709 16710 16711 16712 16713 16714 16715 16716 16717 16718 16719 16720 16721 16722 16723 16724 16725 16726 16727 16728 16729 16730 16731 16732 16733 16734 16735 16736 16737 16738 16739 16740 16741 16742 16743 16744 16745 16746 16747 16748 16749 16750 16751 16752 16753 16754 16755 16756 16757 16758 16759 16760 16761 16762 16763 16764 16765 16766 16767 16768 16769 16770 16771 16772 16773 16774 16775 16776 16777 16778 16779 16780 16781 16782 16783 16784 16785 16786 16787 16788 16789 16790 16791 16792 16793 16794 16795 16796 16797 16798 16799 16800 16801 16802 16803 16804 16805 16806 16807 16808 16809 16810 16811 16812 16813 16814 16815 16816 16817 16818 16819 16820 16821 16822 16823 16824 16825 16826 16827 16828 16829 16830 16831 16832 16833 16834 16835 16836 16837 16838 16839 16840 16841 16842 16843 16844 16845 16846 16847 16848 16849 16850 16851 16852 16853 16854 16855 16856 16857 16858 16859 16860 16861 16862 16863 16864 16865 16866 16867 16868 16869 16870 16871 16872 16873 16874 16875 16876 16877 16878 16879 16880 16881 16882 16883 16884 16885 16886 16887 16888 16889 16890 16891 16892 16893 16894 16895 16896 16897 16898 16899 16900 16901 16902 16903 16904 16905 16906 16907 16908 16909 16910 16911 16912 16913 16914 16915 16916 16917 16918 16919 16920 16921 16922 16923 16924 16925 16926 16927 16928 16929 16930 16931 16932 16933 16934 16935 16936 16937 16938 16939 16940 16941 16942 16943 16944 16945 16946 16947 16948 16949 16950 16951 16952 16953 16954 16955 16956 16957 16958 16959 16960 16961 16962 16963 16964 16965 16966 16967 16968 16969 16970 16971 16972 16973 16974 16975 16976 16977 16978 16979 16980 16981 16982 16983 16984 16985 16986 16987 16988 16989 16990 16991 16992 16993 16994 16995 16996 16997 16998 16999 17000 17001 17002 17003 17004 17005 17006 17007 17008 17009 17010 17011 17012 17013 17014 17015 17016 17017 17018 17019 17020 17021 17022 17023 17024 17025 17026 17027 17028 17029 17030 17031 17032 17033 17034 17035 17036 17037 17038 17039 17040 17041 17042 17043 17044 17045 17046 17047 17048 17049 17050 17051 17052 17053 17054 17055 17056 17057 17058 17059 17060 17061 17062 17063 17064 17065 17066 17067 17068 17069 17070 17071 17072 17073 17074 17075 17076 17077 17078 17079 17080 17081 17082 17083 17084 17085 17086 17087 17088 17089 17090 17091 17092 17093 17094 17095 17096 17097 17098 17099 17100 17101 17102 17103 17104 17105 17106 17107 17108 17109 17110 17111 17112 17113 17114 17115 17116 17117 17118 17119 17120 17121 17122 17123 17124 17125 17126 17127 17128 17129 17130 17131 17132 17133 17134 17135 17136 17137 17138 17139 17140 17141 17142 17143 17144 17145 17146 17147 17148 17149 17150 17151 17152 17153 17154 17155 17156 17157 17158 17159 17160 17161 17162 17163 17164 17165 17166 17167 17168 17169 17170 17171 17172 17173 17174 17175 17176 17177 17178 17179 17180 17181 17182 17183 17184 17185 17186 17187 17188 17189 17190 17191 17192 17193 17194 17195 17196 17197 17198 17199 17200 17201 17202 17203 17204 17205 17206 17207 17208 17209 17210 17211 17212 17213 17214 17215 17216 17217 17218 17219 17220 17221 17222 17223 17224 17225 17226 17227 17228 17229 17230 17231 17232 17233 17234 17235 17236 17237 17238 17239 17240 17241 17242 17243 17244 17245 17246 17247 17248 17249 17250 17251 17252 17253 17254 17255 17256 17257 17258 17259 17260 17261 17262 17263 17264 17265 17266 17267 17268 17269 17270 17271 17272 17273 17274 17275 17276 17277 17278 17279 17280 17281 17282 17283 17284 17285 17286 17287 17288 17289 17290 17291 17292 17293 17294 17295 17296 17297 17298 17299 17300 17301 17302 17303 17304 17305 17306 17307 17308 17309 17310 17311 17312 17313 17314 17315 17316 17317 17318 17319 17320 17321 17322 17323 17324 17325 17326 17327 17328 17329 17330 17331 17332 17333 17334 17335 17336 17337 17338 17339 17340 17341 17342 17343 17344 17345 17346 17347 17348 17349 17350 17351 17352 17353 17354 17355 17356 17357 17358 17359 17360 17361 17362 17363 17364 17365 17366 17367 17368 17369 17370 17371 17372 17373 17374 17375 17376 17377 17378 17379 17380 17381 17382 17383 17384 17385 17386 17387 17388 17389 17390 17391 17392 17393 17394 17395 17396 17397 17398 17399 17400 17401 17402 17403 17404 17405 17406 17407 17408 17409 17410 17411 17412 17413 17414 17415 17416 17417 17418 17419 17420 17421 17422 17423 17424 17425 17426 17427 17428 17429 17430 17431 17432 17433 17434 17435 17436 17437 17438 17439 17440 17441 17442 17443 17444 17445 17446 17447 17448 17449 17450 17451 17452 17453 17454 17455 17456 17457 17458 17459 17460 17461 17462 17463 17464 17465 17466 17467 17468 17469 17470 17471 17472 17473 17474 17475 17476 17477 17478 17479 17480 17481 17482 17483 17484 17485 17486 17487 17488 17489 17490 17491 17492 17493 17494 17495 17496 17497 17498 17499 17500 17501 17502 17503 17504 17505 17506 17507 17508 17509 17510 17511 17512 17513 17514 17515 17516 17517 17518 17519 17520 17521 17522 17523 17524 17525 17526 17527 17528 17529 17530 17531 17532 17533 17534 17535 17536 17537 17538 17539 17540 17541 17542 17543 17544 17545 17546 17547 17548 17549 17550 17551 17552 17553 17554 17555 17556 17557 17558 17559 17560 17561 17562 17563 17564 17565 17566 17567 17568 17569 17570 17571 17572 17573 17574 17575 17576 17577 17578 17579 17580 17581 17582 17583 17584 17585 17586 17587 17588 17589 17590 17591 17592 17593 17594 17595 17596 17597 17598 17599 17600 17601 17602 17603 17604 17605 17606 17607 17608 17609 17610 17611 17612 17613 17614 17615 17616 17617 17618 17619 17620 17621 17622 17623 17624 17625 17626 17627 17628 17629 17630 17631 17632 17633 17634 17635 17636 17637 17638 17639 17640 17641 17642 17643 17644 17645 17646 17647 17648 17649 17650 17651 17652 17653 17654 17655 17656 17657 17658 17659 17660 17661 17662 17663 17664 17665 17666 17667 17668 17669 17670 17671 17672 17673 17674 17675 17676 17677 17678 17679 17680 17681 17682 17683 17684 17685 17686 17687 17688 17689 17690 17691 17692 17693 17694 17695 17696 17697 17698 17699 17700 17701 17702 17703 17704 17705 17706 17707 17708 17709 17710 17711 17712 17713 17714 17715 17716 17717 17718 17719 17720 17721 17722 17723 17724 17725 17726 17727 17728 17729 17730 17731 17732 17733 17734 17735 17736 17737 17738 17739 17740 17741 17742 17743 17744 17745 17746 17747 17748 17749 17750 17751 17752 17753 17754 17755 17756 17757 17758 17759 17760 17761 17762 17763 17764 17765 17766 17767 17768 17769 17770 17771 17772 17773 17774 17775 17776 17777 17778 17779 17780 17781 17782 17783 17784 17785 17786 17787 17788 17789 17790 17791 17792 17793 17794 17795 17796 17797 17798 17799 17800 17801 17802 17803 17804 17805 17806 17807 17808 17809 17810 17811 17812 17813 17814 17815 17816 17817 17818 17819 17820 17821 17822 17823 17824 17825 17826 17827 17828 17829 17830 17831 17832 17833 17834 17835 17836 17837 17838 17839 17840 17841 17842 17843 17844 17845 17846 17847 17848 17849 17850 17851 17852 17853 17854 17855 17856 17857 17858 17859 17860 17861 17862 17863 17864 17865 17866 17867 17868 17869 17870 17871 17872 17873 17874 17875 17876 17877 17878 17879 17880 17881 17882 17883 17884 17885 17886 17887 17888 17889 17890 17891 17892 17893 17894 17895 17896 17897 17898 17899 17900 17901 17902 17903 17904 17905 17906 17907 17908 17909 17910 17911 17912 17913 17914 17915 17916 17917 17918 17919 17920 17921 17922 17923 17924 17925 17926 17927 17928 17929 17930 17931 17932 17933 17934 17935 17936 17937 17938 17939 17940 17941 17942 17943 17944 17945 17946 17947 17948 17949 17950 17951 17952 17953 17954 17955 17956 17957 17958 17959 17960 17961 17962 17963 17964 17965 17966 17967 17968 17969 17970 17971 17972 17973 17974 17975 17976 17977 17978 17979 17980 17981 17982 17983 17984 17985 17986 17987 17988 17989 17990 17991 17992 17993 17994 17995 17996 17997 17998 17999 18000 18001 18002 18003 18004 18005 18006 18007 18008 18009 18010 18011 18012 18013 18014 18015 18016 18017 18018 18019 18020 18021 18022 18023 18024 18025 18026 18027 18028 18029 18030 18031 18032 18033 18034 18035 18036 18037 18038 18039 18040 18041 18042 18043 18044 18045 18046 18047 18048 18049 18050 18051 18052 18053 18054 18055 18056 18057 18058 18059 18060 18061 18062 18063 18064 18065 18066 18067 18068 18069 18070 18071 18072 18073 18074 18075 18076 18077 18078 18079 18080 18081 18082 18083 18084 18085 18086 18087 18088 18089 18090 18091 18092 18093 18094 18095 18096 18097 18098 18099 18100 18101 18102 18103 18104 18105 18106 18107 18108 18109 18110 18111 18112 18113 18114 18115 18116 18117 18118 18119 18120 18121 18122 18123 18124 18125 18126 18127 18128 18129 18130 18131 18132 18133 18134 18135 18136 18137 18138 18139 18140 18141 18142 18143 18144 18145 18146 18147 18148 18149 18150 18151 18152 18153 18154 18155 18156 18157 18158 18159 18160 18161 18162 18163 18164 18165 18166 18167 18168 18169 18170 18171 18172 18173 18174 18175 18176 18177 18178 18179 18180 18181 18182 18183 18184 18185 18186 18187 18188 18189 18190 18191 18192 18193 18194 18195 18196 18197 18198 18199 18200 18201 18202 18203 18204 18205 18206 18207 18208 18209 18210 18211 18212 18213 18214 18215 18216 18217 18218 18219 18220 18221 18222 18223 18224 18225 18226 18227 18228 18229 18230 18231 18232 18233 18234 18235 18236 18237 18238 18239 18240 18241 18242 18243 18244 18245 18246 18247 18248 18249 18250 18251 18252 18253 18254 18255 18256 18257 18258 18259 18260 18261 18262 18263 18264 18265 18266 18267 18268 18269 18270 18271 18272 18273 18274 18275 18276 18277 18278 18279 18280 18281 18282 18283 18284 18285 18286 18287 18288 18289 18290 18291 18292 18293 18294 18295 18296 18297 18298 18299 18300 18301 18302 18303 18304 18305 18306 18307 18308 18309 18310 18311 18312 18313 18314 18315 18316 18317 18318 18319 18320 18321 18322 18323 18324 18325 18326 18327 18328 18329 18330 18331 18332 18333 18334 18335 18336 18337 18338 18339 18340 18341 18342 18343 18344 18345 18346 18347 18348 18349 18350 18351 18352 18353 18354 18355 18356 18357 18358 18359 18360 18361 18362 18363 18364 18365 18366 18367 18368 18369 18370 18371 18372 18373 18374 18375 18376 18377 18378 18379 18380 18381 18382 18383 18384 18385 18386 18387 18388 18389 18390 18391 18392 18393 18394 18395 18396 18397 18398 18399 18400 18401 18402 18403 18404 18405 18406 18407 18408 18409 18410 18411 18412 18413 18414 18415 18416 18417 18418 18419 18420 18421 18422 18423 18424 18425 18426 18427 18428 18429 18430 18431 18432 18433 18434 18435 18436 18437 18438 18439 18440 18441 18442 18443 18444 18445 18446 18447 18448 18449 18450 18451 18452 18453 18454 18455 18456 18457 18458 18459 18460 18461 18462 18463 18464 18465 18466 18467 18468 18469 18470 18471 18472 18473 18474 18475 18476 18477 18478 18479 18480 18481 18482 18483 18484 18485 18486 18487 18488 18489 18490 18491 18492 18493 18494 18495 18496 18497 18498 18499 18500 18501 18502 18503 18504 18505 18506 18507 18508 18509 18510 18511 18512 18513 18514 18515 18516 18517 18518 18519 18520 18521 18522 18523 18524 18525 18526 18527 18528 18529 18530 18531 18532 18533 18534 18535 18536 18537 18538 18539 18540 18541 18542 18543 18544 18545 18546 18547 18548 18549 18550 18551 18552 18553 18554 18555 18556 18557 18558 18559 18560 18561 18562 18563 18564 18565 18566 18567 18568 18569 18570 18571 18572 18573 18574 18575 18576 18577 18578 18579 18580 18581 18582 18583 18584 18585 18586 18587 18588 18589 18590 18591 18592 18593 18594 18595 18596 18597 18598 18599 18600 18601 18602 18603 18604 18605 18606 18607 18608 18609 18610 18611 18612 18613 18614 18615 18616 18617 18618 18619 18620 18621 18622 18623 18624 18625 18626 18627 18628 18629 18630 18631 18632 18633 18634 18635 18636 18637 18638 18639 18640 18641 18642 18643 18644 18645 18646 18647 18648 18649 18650 18651 18652 18653 18654 18655 18656 18657 18658 18659 18660 18661 18662 18663 18664 18665 18666 18667 18668 18669 18670 18671 18672 18673 18674 18675 18676 18677 18678 18679 18680 18681 18682 18683 18684 18685 18686 18687 18688 18689 18690 18691 18692 18693 18694 18695 18696 18697 18698 18699 18700 18701 18702 18703 18704 18705 18706 18707 18708 18709 18710 18711 18712 18713 18714 18715 18716 18717 18718 18719 18720 18721 18722 18723 18724 18725 18726 18727 18728 18729 18730 18731 18732 18733 18734 18735 18736 18737 18738 18739 18740 18741 18742 18743 18744 18745 18746 18747 18748 18749 18750 18751 18752 18753 18754 18755 18756 18757 18758 18759 18760 18761 18762 18763 18764 18765 18766 18767 18768 18769 18770 18771 18772 18773 18774 18775 18776 18777 18778 18779 18780 18781 18782 18783 18784 18785 18786 18787 18788 18789 18790 18791 18792 18793 18794 18795 18796 18797 18798 18799 18800 18801 18802 18803 18804 18805 18806 18807 18808 18809 18810 18811 18812 18813 18814 18815 18816 18817 18818 18819 18820 18821 18822 18823 18824 18825 18826 18827 18828 18829 18830 18831 18832 18833 18834 18835 18836 18837 18838 18839 18840 18841 18842 18843 18844 18845 18846 18847 18848 18849 18850 18851 18852 18853 18854 18855 18856 18857 18858 18859 18860 18861 18862 18863 18864 18865 18866 18867 18868 18869 18870 18871 18872 18873 18874 18875 18876 18877 18878 18879 18880 18881 18882 18883 18884 18885 18886 18887 18888 18889 18890 18891 18892 18893 18894 18895 18896 18897 18898 18899 18900 18901 18902 18903 18904 18905 18906 18907 18908 18909 18910 18911 18912 18913 18914 18915 18916 18917 18918 18919 18920 18921 18922 18923 18924 18925 18926 18927 18928 18929 18930 18931 18932 18933 18934 18935 18936 18937 18938 18939 18940 18941 18942 18943 18944 18945 18946 18947 18948 18949 18950 18951 18952 18953 18954 18955 18956 18957 18958 18959 18960 18961 18962 18963 18964 18965 18966 18967 18968 18969 18970 18971 18972 18973 18974 18975 18976 18977 18978 18979 18980 18981 18982 18983 18984 18985 18986 18987 18988 18989 18990 18991 18992 18993 18994 18995 18996 18997 18998 18999 19000 19001 19002 19003 19004 19005 19006 19007 19008 19009 19010 19011 19012 19013 19014 19015 19016 19017 19018 19019 19020 19021 19022 19023 19024 19025 19026 19027 19028 19029 19030 19031 19032 19033 19034 19035 19036 19037 19038 19039 19040 19041 19042 19043 19044 19045 19046 19047 19048 19049 19050 19051 19052 19053 19054 19055 19056 19057 19058 19059 19060 19061 19062 19063 19064 19065 19066 19067 19068 19069 19070 19071 19072 19073 19074 19075 19076 19077 19078 19079 19080 19081 19082 19083 19084 19085 19086 19087 19088 19089 19090 19091 19092 19093 19094 19095 19096 19097 19098 19099 19100 19101 19102 19103 19104 19105 19106 19107 19108 19109 19110 19111 19112 19113 19114 19115 19116 19117 19118 19119 19120 19121 19122 19123 19124 19125 19126 19127 19128 19129 19130 19131 19132 19133 19134 19135 19136 19137 19138 19139 19140 19141 19142 19143 19144 19145 19146 19147 19148 19149 19150 19151 19152 19153 19154 19155 19156 19157 19158 19159 19160 19161 19162 19163 19164 19165 19166 19167 19168 19169 19170 19171 19172 19173 19174 19175 19176 19177 19178 19179 19180 19181 19182 19183 19184 19185 19186 19187 19188 19189 19190 19191 19192 19193 19194 19195 19196 19197 19198 19199 19200 19201 19202 19203 19204 19205 19206 19207 19208 19209 19210 19211 19212 19213 19214 19215 19216 19217 19218 19219 19220 19221 19222 19223 19224 19225 19226 19227 19228 19229 19230 19231 19232 19233 19234 19235 19236 19237 19238 19239 19240 19241 19242 19243 19244 19245 19246 19247 19248 19249 19250 19251 19252 19253 19254 19255 19256 19257 19258 19259 19260 19261 19262 19263 19264 19265 19266 19267 19268 19269 19270 19271 19272 19273 19274 19275 19276 19277 19278 19279 19280 19281 19282 19283 19284 19285 19286 19287 19288 19289 19290 19291 19292 19293 19294 19295 19296 19297 19298 19299 19300 19301 19302 19303 19304 19305 19306 19307 19308 19309 19310 19311 19312 19313 19314 19315 19316 19317 19318 19319 19320 19321 19322 19323 19324 19325 19326 19327 19328 19329 19330 19331 19332 19333 19334 19335 19336 19337 19338 19339 19340 19341 19342 19343 19344 19345 19346 19347 19348 19349 19350 19351 19352 19353 19354 19355 19356 19357 19358 19359 19360 19361 19362 19363 19364 19365 19366 19367 19368 19369 19370 19371 19372 19373 19374 19375 19376 19377 19378 19379 19380 19381 19382 19383 19384 19385 19386 19387 19388 19389 19390 19391 19392 19393 19394 19395 19396 19397 19398 19399 19400 19401 19402 19403 19404 19405 19406 19407 19408 19409 19410 19411 19412 19413 19414 19415 19416 19417 19418 19419 19420 19421 19422 19423 19424 19425 19426 19427 19428 19429 19430 19431 19432 19433 19434 19435 19436 19437 19438 19439 19440 19441 19442 19443 19444 19445 19446 19447 19448 19449 19450 19451 19452 19453 19454 19455 19456 19457 19458 19459 19460 19461 19462 19463 19464 19465 19466 19467 19468 19469 19470 19471 19472 19473 19474 19475 19476 19477 19478 19479 19480 19481 19482 19483 19484 19485 19486 19487 19488 19489 19490 19491 19492 19493 19494 19495 19496 19497 19498 19499 19500 19501 19502 19503 19504 19505 19506 19507 19508 19509 19510 19511 19512 19513 19514 19515 19516 19517 19518 19519 19520 19521 19522 19523 19524 19525 19526 19527 19528 19529 19530 19531 19532 19533 19534 19535 19536 19537 19538 19539 19540 19541 19542 19543 19544 19545 19546 19547 19548 19549 19550 19551 19552 19553 19554 19555 19556 19557 19558 19559 19560 19561 19562 19563 19564 19565 19566 19567 19568 19569 19570 19571 19572 19573 19574 19575 19576 19577 19578 19579 19580 19581 19582 19583 19584 19585 19586 19587 19588 19589 19590 19591 19592 19593 19594 19595 19596 19597 19598 19599 19600 19601 19602 19603 19604 19605 19606 19607 19608 19609 19610 19611 19612 19613 19614 19615 19616 19617 19618 19619 19620 19621 19622 19623 19624 19625 19626 19627 19628 19629 19630 19631 19632 19633 19634 19635 19636 19637 19638 19639 19640 19641 19642 19643 19644 19645 19646 19647 19648 19649 19650 19651 19652 19653 19654 19655 19656 19657 19658 19659 19660 19661 19662 19663 19664 19665 19666 19667 19668 19669 19670 19671 19672 19673 19674 19675 19676 19677 19678 19679 19680 19681 19682 19683 19684 19685 19686 19687 19688 19689 19690 19691 19692 19693 19694 19695 19696 19697 19698 19699 19700 19701 19702 19703 19704 19705 19706 19707 19708 19709 19710 19711 19712 19713 19714 19715 19716 19717 19718 19719 19720 19721 19722 19723 19724 19725 19726 19727 19728 19729 19730 19731 19732 19733 19734 19735 19736 19737 19738 19739 19740 19741 19742 19743 19744 19745 19746 19747 19748 19749 19750 19751 19752 19753 19754 19755 19756 19757 19758 19759 19760 19761 19762 19763 19764 19765 19766 19767 19768 19769 19770 19771 19772 19773 19774 19775 19776 19777 19778 19779 19780 19781 19782 19783 19784 19785 19786 19787 19788 19789 19790 19791 19792 19793 19794 19795 19796 19797 19798 19799 19800 19801 19802 19803 19804 19805 19806 19807 19808 19809 19810 19811 19812 19813 19814 19815 19816 19817 19818 19819 19820 19821 19822 19823 19824 19825 19826 19827 19828 19829 19830 19831 19832 19833 19834 19835 19836 19837 19838 19839 19840 19841 19842 19843 19844 19845 19846 19847 19848 19849 19850 19851 19852 19853 19854 19855 19856 19857 19858 19859 19860 19861 19862 19863 19864 19865 19866 19867 19868 19869 19870 19871 19872 19873 19874 19875 19876 19877 19878 19879 19880 19881 19882 19883 19884 19885 19886 19887 19888 19889 19890 19891 19892 19893 19894 19895 19896 19897 19898 19899 19900 19901 19902 19903 19904 19905 19906 19907 19908 19909 19910 19911 19912 19913 19914 19915 19916 19917 19918 19919 19920 19921 19922 19923 19924 19925 19926 19927 19928 19929 19930 19931 19932 19933 19934 19935 19936 19937 19938 19939 19940 19941 19942 19943 19944 19945 19946 19947 19948 19949 19950 19951 19952 19953 19954 19955 19956 19957 19958 19959 19960 19961 19962 19963 19964 19965 19966 19967 19968 19969 19970 19971 19972 19973 19974 19975 19976 19977 19978 19979 19980 19981 19982 19983 19984 19985 19986 19987 19988 19989 19990 19991 19992 19993 19994 19995 19996 19997 19998 19999 20000 20001 20002 20003 20004 20005 20006 20007 20008 20009 20010 20011 20012 20013 20014 20015 20016 20017 20018 20019 20020 20021 20022 20023 20024 20025 20026 20027 20028 20029 20030 20031 20032 20033 20034 20035 20036 20037 20038 20039 20040 20041 20042 20043 20044 20045 20046 20047 20048 20049 20050 20051 20052 20053 20054 20055 20056 20057 20058 20059 20060 20061 20062 20063 20064 20065 20066 20067 20068 20069 20070 20071 20072 20073 20074 20075 20076 20077 20078 20079 20080 20081 20082 20083 20084 20085 20086 20087 20088 20089 20090 20091 20092 20093 20094 20095 20096 20097 20098 20099 20100 20101 20102 20103 20104 20105 20106 20107 20108 20109 20110 20111 20112 20113 20114 20115 20116 20117 20118 20119 20120 20121 20122 20123 20124 20125 20126 20127 20128 20129 20130 20131 20132 20133 20134 20135 20136 20137 20138 20139 20140 20141 20142 20143 20144 20145 20146 20147 20148 20149 20150 20151 20152 20153 20154 20155 20156 20157 20158 20159 20160 20161 20162 20163 20164 20165 20166 20167 20168 20169 20170 20171 20172 20173 20174 20175 20176 20177 20178 20179 20180 20181 20182 20183 20184 20185 20186 20187 20188 20189 20190 20191 20192 20193 20194 20195 20196 20197 20198 20199 20200 20201 20202 20203 20204 20205 20206 20207 20208 20209 20210 20211 20212 20213 20214 20215 20216 20217 20218 20219 20220 20221 20222 20223 20224 20225 20226 20227 20228 20229 20230 20231 20232 20233 20234 20235 20236 20237 20238 20239 20240 20241 20242 20243 20244 20245 20246 20247 20248 20249 20250 20251 20252 20253 20254 20255 20256 20257 20258 20259 20260 20261 20262 20263 20264 20265 20266 20267 20268 20269 20270 20271 20272 20273 20274 20275 20276 20277 20278 20279 20280 20281 20282 20283 20284 20285 20286 20287 20288 20289 20290 20291 20292 20293 20294 20295 20296 20297 20298 20299 20300 20301 20302 20303 20304 20305 20306 20307 20308 20309 20310 20311 20312 20313 20314 20315 20316 20317 20318 20319 20320 20321 20322 20323 20324 20325 20326 20327 20328 20329 20330 20331 20332 20333 20334 20335 20336 20337 20338 20339 20340 20341 20342 20343 20344 20345 20346 20347 20348 20349 20350 20351 20352 20353 20354 20355 20356 20357 20358 20359 20360 20361 20362 20363 20364 20365 20366 20367 20368 20369 20370 20371 20372 20373 20374 20375 20376 20377 20378 20379 20380 20381 20382 20383 20384 20385 20386 20387 20388 20389 20390 20391 20392 20393 20394 20395 20396 20397 20398 20399 20400 20401 20402 20403 20404 20405 20406 20407 20408 20409 20410 20411 20412 20413 20414 20415 20416 20417 20418 20419 20420 20421 20422 20423 20424 20425 20426 20427 20428 20429 20430 20431 20432 20433 20434 20435 20436 20437 20438 20439 20440 20441 20442 20443 20444 20445 20446 20447 20448 20449 20450 20451 20452 20453 20454 20455 20456 20457 20458 20459 20460 20461 20462 20463 20464 20465 20466 20467 20468 20469 20470 20471 20472 20473 20474 20475 20476 20477 20478 20479 20480 20481 20482 20483 20484 20485 20486 20487 20488 20489 20490 20491 20492 20493 20494 20495 20496 20497 20498 20499 20500 20501 20502 20503 20504 20505 20506 20507 20508 20509 20510 20511 20512 20513 20514 20515 20516 20517 20518 20519 20520 20521 20522 20523 20524 20525 20526 20527 20528 20529 20530 20531 20532 20533 20534 20535 20536 20537 20538 20539 20540 20541 20542 20543 20544 20545 20546 20547 20548 20549 20550 20551 20552 20553 20554 20555 20556 20557 20558 20559 20560 20561 20562 20563 20564 20565 20566 20567 20568 20569 20570 20571 20572 20573 20574 20575 20576 20577 20578 20579 20580 20581 20582 20583 20584 20585 20586 20587 20588 20589 20590 20591 20592 20593 20594 20595 20596 20597 20598 20599 20600 20601 20602 20603 20604 20605 20606 20607 20608 20609 20610 20611 20612 20613 20614 20615 20616 20617 20618 20619 20620 20621 20622 20623 20624 20625 20626 20627 20628 20629 20630 20631 20632 20633 20634 20635 20636 20637 20638 20639 20640 20641 20642 20643 20644 20645 20646 20647 20648 20649 20650 20651 20652 20653 20654 20655 20656 20657 20658 20659 20660 20661 20662 20663 20664 20665 20666 20667 20668 20669 20670 20671 20672 20673 20674 20675 20676 20677 20678 20679 20680 20681 20682 20683 20684 20685 20686 20687 20688 20689 20690 20691 20692 20693 20694 20695 20696 20697 20698 20699 20700 20701 20702 20703 20704 20705 20706 20707 20708 20709 20710 20711 20712 20713 20714 20715 20716 20717 20718 20719 20720 20721 20722 20723 20724 20725 20726 20727 20728 20729 20730 20731 20732 20733 20734 20735 20736 20737 20738 20739 20740 20741 20742 20743 20744 20745 20746 20747 20748 20749 20750 20751 20752 20753 20754 20755 20756 20757 20758 20759 20760 20761 20762 20763 20764 20765 20766 20767 20768 20769 20770 20771 20772 20773 20774 20775 20776 20777 20778 20779 20780 20781 20782 20783 20784 20785 20786 20787 20788 20789 20790 20791 20792 20793 20794 20795 20796 20797 20798 20799 20800 20801 20802 20803 20804 20805 20806 20807 20808 20809 20810 20811 20812 20813 20814 20815 20816 20817 20818 20819 20820 20821 20822 20823 20824 20825 20826 20827 20828 20829 20830 20831 20832 20833 20834 20835 20836 20837 20838 20839 20840 20841 20842 20843 20844 20845 20846 20847 20848 20849 20850 20851 20852 20853 20854 20855 20856 20857 20858 20859 20860 20861 20862 20863 20864 20865 20866 20867 20868 20869 20870 20871 20872 20873 20874 20875 20876 20877 20878 20879 20880 20881 20882 20883 20884 20885 20886 20887 20888 20889 20890 20891 20892 20893 20894 20895 20896 20897 20898 20899 20900 20901 20902 20903 20904 20905 20906 20907 20908 20909 20910 20911 20912 20913 20914 20915 20916 20917 20918 20919 20920 20921 20922 20923 20924 20925 20926 20927 20928 20929 20930 20931 20932 20933 20934 20935 20936 20937 20938 20939 20940 20941 20942 20943 20944 20945 20946 20947 20948 20949 20950 20951 20952 20953 20954 20955 20956 20957 20958 20959 20960 20961 20962 20963 20964 20965 20966 20967 20968 20969 20970 20971 20972 20973 20974 20975 20976 20977 20978 20979 20980 20981 20982 20983 20984 20985 20986 20987 20988 20989 20990 20991 20992 20993 20994 20995 20996 20997 20998 20999 21000 21001 21002 21003 21004 21005 21006 21007 21008 21009 21010 21011 21012 21013 21014 21015 21016 21017 21018 21019 21020 21021 21022 21023 21024 21025 21026 21027 21028 21029 21030 21031 21032 21033 21034 21035 21036 21037 21038 21039 21040 21041 21042 21043 21044 21045 21046 21047 21048 21049 21050 21051 21052 21053 21054 21055 21056 21057 21058 21059 21060 21061 21062 21063 21064 21065 21066 21067 21068 21069 21070 21071 21072 21073 21074 21075 21076 21077 21078 21079 21080 21081 21082 21083 21084 21085 21086 21087 21088 21089 21090 21091 21092 21093 21094 21095 21096 21097 21098 21099 21100 21101 21102 21103 21104 21105 21106 21107 21108 21109 21110 21111 21112 21113 21114 21115 21116 21117 21118 21119 21120 21121 21122 21123 21124 21125 21126 21127 21128 21129 21130 21131 21132 21133 21134 21135 21136 21137 21138 21139 21140 21141 21142 21143 21144 21145 21146 21147 21148 21149 21150 21151 21152 21153 21154 21155 21156 21157 21158 21159 21160 21161 21162 21163 21164 21165 21166 21167 21168 21169 21170 21171 21172 21173 21174 21175 21176 21177 21178 21179 21180 21181 21182 21183 21184 21185 21186 21187 21188 21189 21190 21191 21192 21193 21194 21195 21196 21197 21198 21199 21200 21201 21202 21203 21204 21205 21206 21207 21208 21209 21210 21211 21212 21213 21214 21215 21216 21217 21218 21219 21220 21221 21222 21223 21224 21225 21226 21227 21228 21229 21230 21231 21232 21233 21234 21235 21236 21237 21238 21239 21240 21241 21242 21243 21244 21245 21246 21247 21248 21249 21250 21251 21252 21253 21254 21255 21256 21257 21258 21259 21260 21261 21262 21263 21264 21265 21266 21267 21268 21269 21270 21271 21272 21273 21274 21275 21276 21277 21278 21279 21280 21281 21282 21283 21284 21285 21286 21287 21288 21289 21290 21291 21292 21293 21294 21295 21296 21297 21298 21299 21300 21301 21302 21303 21304 21305 21306 21307 21308 21309 21310 21311 21312 21313 21314 21315 21316 21317 21318 21319 21320 21321 21322 21323 21324 21325 21326 21327 21328 21329 21330 21331 21332 21333 21334 21335 21336 21337 21338 21339 21340 21341 21342 21343 21344 21345 21346 21347 21348 21349 21350 21351 21352 21353 21354 21355 21356 21357 21358 21359 21360 21361 21362 21363 21364 21365 21366 21367 21368 21369 21370 21371 21372 21373 21374 21375 21376 21377 21378 21379 21380 21381 21382 21383 21384 21385 21386 21387 21388 21389 21390 21391 21392 21393 21394 21395 21396 21397 21398 21399 21400 21401 21402 21403 21404 21405 21406 21407 21408 21409 21410 21411 21412 21413 21414 21415 21416 21417 21418 21419 21420 21421 21422 21423 21424 21425 21426 21427 21428 21429 21430 21431 21432 21433 21434 21435 21436 21437 21438 21439 21440 21441 21442 21443 21444 21445 21446 21447 21448 21449 21450 21451 21452 21453 21454 21455 21456 21457 21458 21459 21460 21461 21462 21463 21464 21465 21466 21467 21468 21469 21470 21471 21472 21473 21474 21475 21476 21477 21478 21479 21480 21481 21482 21483 21484 21485 21486 21487 21488 21489 21490 21491 21492 21493 21494 21495 21496 21497 21498 21499 21500 21501 21502 21503 21504 21505 21506 21507 21508 21509 21510 21511 21512 21513 21514 21515 21516 21517 21518 21519 21520 21521 21522 21523 21524 21525 21526 21527 21528 21529 21530 21531 21532 21533 21534 21535 21536 21537 21538 21539 21540 21541 21542 21543 21544 21545 21546 21547 21548 21549 21550 21551 21552 21553 21554 21555 21556 21557 21558 21559 21560 21561 21562 21563 21564 21565 21566 21567 21568 21569 21570 21571 21572 21573 21574 21575 21576 21577 21578 21579 21580 21581 21582 21583 21584 21585 21586 21587 21588 21589 21590 21591 21592 21593 21594 21595 21596 21597 21598 21599 21600 21601 21602 21603 21604 21605 21606 21607 21608 21609 21610 21611 21612 21613 21614 21615 21616 21617 21618 21619 21620 21621 21622 21623 21624 21625 21626 21627 21628 21629 21630 21631 21632 21633 21634 21635 21636 21637 21638 21639 21640 21641 21642 21643 21644 21645 21646 21647 21648 21649 21650 21651 21652 21653 21654 21655 21656 21657 21658 21659 21660 21661 21662 21663 21664 21665 21666 21667 21668 21669 21670 21671 21672 21673 21674 21675 21676 21677 21678 21679 21680 21681 21682 21683 21684 21685 21686 21687 21688 21689 21690 21691 21692 21693 21694 21695 21696 21697 21698 21699 21700 21701 21702 21703 21704 21705 21706 21707 21708 21709 21710 21711 21712 21713 21714 21715 21716 21717 21718 21719 21720 21721 21722 21723 21724 21725 21726 21727 21728 21729 21730 21731 21732 21733 21734 21735 21736 21737 21738 21739 21740 21741 21742 21743 21744 21745 21746 21747 21748 21749 21750 21751 21752 21753 21754 21755 21756 21757 21758 21759 21760 21761 21762 21763 21764 21765 21766 21767 21768 21769 21770 21771 21772 21773 21774 21775 21776 21777 21778 21779 21780 21781 21782 21783 21784 21785 21786 21787 21788 21789 21790 21791 21792 21793 21794 21795 21796 21797 21798 21799 21800 21801 21802 21803 21804 21805 21806 21807 21808 21809 21810 21811 21812 21813 21814 21815 21816 21817 21818 21819 21820 21821 21822 21823 21824 21825 21826 21827 21828 21829 21830 21831 21832 21833 21834 21835 21836 21837 21838 21839 21840 21841 21842 21843 21844 21845 21846 21847 21848 21849 21850 21851 21852 21853 21854 21855 21856 21857 21858 21859 21860 21861 21862 21863 21864 21865 21866 21867 21868 21869 21870 21871 21872 21873 21874 21875 21876 21877 21878 21879 21880 21881 21882 21883 21884 21885 21886 21887 21888 21889 21890 21891 21892 21893 21894 21895 21896 21897 21898 21899 21900 21901 21902 21903 21904 21905 21906 21907 21908 21909 21910 21911 21912 21913 21914 21915 21916 21917 21918 21919 21920 21921 21922 21923 21924 21925 21926 21927 21928 21929 21930 21931 21932 21933 21934 21935 21936 21937 21938 21939 21940 21941 21942 21943 21944 21945 21946 21947 21948 21949 21950 21951 21952 21953 21954 21955 21956 21957 21958 21959 21960 21961 21962 21963 21964 21965 21966 21967 21968 21969 21970 21971 21972 21973 21974 21975 21976 21977 21978 21979 21980 21981 21982 21983 21984 21985 21986 21987 21988 21989 21990 21991 21992 21993 21994 21995 21996 21997 21998 21999 22000 22001 22002 22003 22004 22005 22006 22007 22008 22009 22010 22011 22012 22013 22014 22015 22016 22017 22018 22019 22020 22021 22022 22023 22024 22025 22026 22027 22028 22029 22030 22031 22032 22033 22034 22035 22036 22037 22038 22039 22040 22041 22042 22043 22044 22045 22046 22047 22048 22049 22050 22051 22052 22053 22054 22055 22056 22057 22058 22059 22060 22061 22062 22063 22064 22065 22066 22067 22068 22069 22070 22071 22072 22073 22074 22075 22076 22077 22078 22079 22080 22081 22082 22083 22084 22085 22086 22087 22088 22089 22090 22091 22092 22093 22094 22095 22096 22097 22098 22099 22100 22101 22102 22103 22104 22105 22106 22107 22108 22109 22110 22111 22112 22113 22114 22115 22116 22117 22118 22119 22120 22121 22122 22123 22124 22125 22126 22127 22128 22129 22130 22131 22132 22133 22134 22135 22136 22137 22138 22139 22140 22141 22142 22143 22144 22145 22146 22147 22148 22149 22150 22151 22152 22153 22154 22155 22156 22157 22158 22159 22160 22161 22162 22163 22164 22165 22166 22167 22168 22169 22170 22171 22172 22173 22174 22175 22176 22177 22178 22179 22180 22181 22182 22183 22184 22185 22186 22187 22188 22189 22190 22191 22192 22193 22194 22195 22196 22197 22198 22199 22200 22201 22202 22203 22204 22205 22206 22207 22208 22209 22210 22211 22212 22213 22214 22215 22216 22217 22218 22219 22220 22221 22222 22223 22224 22225 22226 22227 22228 22229 22230 22231 22232 22233 22234 22235 22236 22237 22238 22239 22240 22241 22242 22243 22244 22245 22246 22247 22248 22249 22250 22251 22252 22253 22254 22255 22256 22257 22258 22259 22260 22261 22262 22263 22264 22265 22266 22267 22268 22269 22270 22271 22272 22273 22274 22275 22276 22277 22278 22279 22280 22281 22282 22283 22284 22285 22286 22287 22288 22289 22290 22291 22292 22293 22294 22295 22296 22297 22298 22299 22300 22301 22302 22303 22304 22305 22306 22307 22308 22309 22310 22311 22312 22313 22314 22315 22316 22317 22318 22319 22320 22321 22322 22323 22324 22325 22326 22327 22328 22329 22330 22331 22332 22333 22334 22335 22336 22337 22338 22339 22340 22341 22342 22343 22344 22345 22346 22347 22348 22349 22350 22351 22352 22353 22354 22355 22356 22357 22358 22359 22360 22361 22362 22363 22364 22365 22366 22367 22368 22369 22370 22371 22372 22373 22374 22375 22376 22377 22378 22379 22380 22381 22382 22383 22384 22385 22386 22387 22388 22389 22390 22391 22392 22393 22394 22395 22396 22397 22398 22399 22400 22401 22402 22403 22404 22405 22406 22407 22408 22409 22410 22411 22412 22413 22414 22415 22416 22417 22418 22419 22420 22421 22422 22423 22424 22425 22426 22427 22428 22429 22430 22431 22432 22433 22434 22435 22436 22437 22438 22439 22440 22441 22442 22443 22444 22445 22446 22447 22448 22449 22450 22451 22452 22453 22454 22455 22456 22457 22458 22459 22460 22461 22462 22463 22464 22465 22466 22467 22468 22469 22470 22471 22472 22473 22474 22475 22476 22477 22478 22479 22480 22481 22482 22483 22484 22485 22486 22487 22488 22489 22490 22491 22492 22493 22494 22495 22496 22497 22498 22499 22500 22501 22502 22503 22504 22505 22506 22507 22508 22509 22510 22511 22512 22513 22514 22515 22516 22517 22518 22519 22520 22521 22522 22523 22524 22525 22526 22527 22528 22529 22530 22531 22532 22533 22534 22535 22536 22537 22538 22539 22540 22541 22542 22543 22544 22545 22546 22547 22548 22549 22550 22551 22552 22553 22554 22555 22556 22557 22558 22559 22560 22561 22562 22563 22564 22565 22566 22567 22568 22569 22570 22571 22572 22573 22574 22575 22576 22577 22578 22579 22580 22581 22582 22583 22584 22585 22586 22587 22588 22589 22590 22591 22592 22593 22594 22595 22596 22597 22598 22599 22600 22601 22602 22603 22604 22605 22606 22607 22608 22609 22610 22611 22612 22613 22614 22615 22616 22617 22618 22619 22620 22621 22622 22623 22624 22625 22626 22627 22628 22629 22630 22631 22632 22633 22634 22635 22636 22637 22638 22639 22640 22641 22642 22643 22644 22645 22646 22647 22648 22649 22650 22651 22652 22653 22654 22655 22656 22657 22658 22659 22660 22661 22662 22663 22664 22665 22666 22667 22668 22669 22670 22671 22672 22673 22674 22675 22676 22677 22678 22679 22680 22681 22682 22683 22684 22685 22686 22687 22688 22689 22690 22691 22692 22693 22694 22695 22696 22697 22698 22699 22700 22701 22702 22703 22704 22705 22706 22707 22708 22709 22710 22711 22712 22713 22714 22715 22716 22717 22718 22719 22720 22721 22722 22723 22724 22725 22726 22727 22728 22729 22730 22731 22732 22733 22734 22735 22736 22737 22738 22739 22740 22741 22742 22743 22744 22745 22746 22747 22748 22749 22750 22751 22752 22753 22754 22755 22756 22757 22758 22759 22760 22761 22762 22763 22764 22765 22766 22767 22768 22769 22770 22771 22772 22773 22774 22775 22776 22777 22778 22779 22780 22781 22782 22783 22784 22785 22786 22787 22788 22789 22790 22791 22792 22793 22794 22795 22796 22797 22798 22799 22800 22801 22802 22803 22804 22805 22806 22807 22808 22809 22810 22811 22812 22813 22814 22815 22816 22817 22818 22819 22820 22821 22822 22823 22824 22825 22826 22827 22828 22829 22830 22831 22832 22833 22834 22835 22836 22837 22838 22839 22840 22841 22842 22843 22844 22845 22846 22847 22848 22849 22850 22851 22852 22853 22854 22855 22856 22857 22858 22859 22860 22861 22862 22863 22864 22865 22866 22867 22868 22869 22870 22871 22872 22873 22874 22875 22876 22877 22878 22879 22880 22881 22882 22883 22884 22885 22886 22887 22888 22889 22890 22891 22892 22893 22894 22895 22896 22897 22898 22899 22900 22901 22902 22903 22904 22905 22906 22907 22908 22909 22910 22911 22912 22913 22914 22915 22916 22917 22918 22919 22920 22921 22922 22923 22924 22925 22926 22927 22928 22929 22930 22931 22932 22933 22934 22935 22936 22937 22938 22939 22940 22941 22942 22943 22944 22945 22946 22947 22948 22949 22950 22951 22952 22953 22954 22955 22956 22957 22958 22959 22960 22961 22962 22963 22964 22965 22966 22967 22968 22969 22970 22971 22972 22973 22974 22975 22976 22977 22978 22979 22980 22981 22982 22983 22984 22985 22986 22987 22988 22989 22990 22991 22992 22993 22994 22995 22996 22997 22998 22999 23000 23001 23002 23003 23004 23005 23006 23007 23008 23009 23010 23011 23012 23013 23014 23015 23016 23017 23018 23019 23020 23021 23022 23023 23024 23025 23026 23027 23028 23029 23030 23031 23032 23033 23034 23035 23036 23037 23038 23039 23040 23041 23042 23043 23044 23045 23046 23047 23048 23049 23050 23051 23052 23053 23054 23055 23056 23057 23058 23059 23060 23061 23062 23063 23064 23065 23066 23067 23068 23069 23070 23071 23072 23073 23074 23075 23076 23077 23078 23079 23080 23081 23082 23083 23084 23085 23086 23087 23088 23089 23090 23091 23092 23093 23094 23095 23096 23097 23098 23099 23100 23101 23102 23103 23104 23105 23106 23107 23108 23109 23110 23111 23112 23113 23114 23115 23116 23117 23118 23119 23120 23121 23122 23123 23124 23125 23126 23127 23128 23129 23130 23131 23132 23133 23134 23135 23136 23137 23138 23139 23140 23141 23142 23143 23144 23145 23146 23147 23148 23149 23150 23151 23152 23153 23154 23155 23156 23157 23158 23159 23160 23161 23162 23163 23164 23165 23166 23167 23168 23169 23170 23171 23172 23173 23174 23175 23176 23177 23178 23179 23180 23181 23182 23183 23184 23185 23186 23187 23188 23189 23190 23191 23192 23193 23194 23195 23196 23197 23198 23199 23200 23201 23202 23203 23204 23205 23206 23207 23208 23209 23210 23211 23212 23213 23214 23215 23216 23217 23218 23219 23220 23221 23222 23223 23224 23225 23226 23227 23228 23229 23230 23231 23232 23233 23234 23235 23236 23237 23238 23239 23240 23241 23242 23243 23244 23245 23246 23247 23248 23249 23250 23251 23252 23253 23254 23255 23256 23257 23258 23259 23260 23261 23262 23263 23264 23265 23266 23267 23268 23269 23270 23271 23272 23273 23274 23275 23276 23277 23278 23279 23280 23281 23282 23283 23284 23285 23286 23287 23288 23289 23290 23291 23292 23293 23294 23295 23296 23297 23298 23299 23300 23301 23302 23303 23304 23305 23306 23307 23308 23309 23310 23311 23312 23313 23314 23315 23316 23317 23318 23319 23320 23321 23322 23323 23324 23325 23326 23327 23328 23329 23330 23331 23332 23333 23334 23335 23336 23337 23338 23339 23340 23341 23342 23343 23344 23345 23346 23347 23348 23349 23350 23351 23352 23353 23354 23355 23356 23357 23358 23359 23360 23361 23362 23363 23364 23365 23366 23367 23368 23369 23370 23371 23372 23373 23374 23375 23376 23377 23378 23379 23380 23381 23382 23383 23384 23385 23386 23387 23388 23389 23390 23391 23392 23393 23394 23395 23396 23397 23398 23399 23400 23401 23402 23403 23404 23405 23406 23407 23408 23409 23410 23411 23412 23413 23414 23415 23416 23417 23418 23419 23420 23421 23422 23423 23424 23425 23426 23427 23428 23429 23430 23431 23432 23433 23434 23435 23436 23437 23438 23439 23440 23441 23442 23443 23444 23445 23446 23447 23448 23449 23450 23451 23452 23453 23454 23455 23456 23457 23458 23459 23460 23461 23462 23463 23464 23465 23466 23467 23468 23469 23470 23471 23472 23473 23474 23475 23476 23477 23478 23479 23480 23481 23482 23483 23484 23485 23486 23487 23488 23489 23490 23491 23492 23493 23494 23495 23496 23497 23498 23499 23500 23501 23502 23503 23504 23505 23506 23507 23508 23509 23510 23511 23512 23513 23514 23515 23516 23517 23518 23519 23520 23521 23522 23523 23524 23525 23526 23527 23528 23529 23530 23531 23532 23533 23534 23535 23536 23537 23538 23539 23540 23541 23542 23543 23544 23545 23546 23547 23548 23549 23550 23551 23552 23553 23554 23555 23556 23557 23558 23559 23560 23561 23562 23563 23564 23565 23566 23567 23568 23569 23570 23571 23572 23573 23574 23575 23576 23577 23578 23579 23580 23581 23582 23583 23584 23585 23586 23587 23588 23589 23590 23591 23592 23593 23594 23595 23596 23597 23598 23599 23600 23601 23602 23603 23604 23605 23606 23607 23608 23609 23610 23611 23612 23613 23614 23615 23616 23617 23618 23619 23620 23621 23622 23623 23624 23625 23626 23627 23628 23629 23630 23631 23632 23633 23634 23635 23636 23637 23638 23639 23640 23641 23642 23643 23644 23645 23646 23647 23648 23649 23650 23651 23652 23653 23654 23655 23656 23657 23658 23659 23660 23661 23662 23663 23664 23665 23666 23667 23668 23669 23670 23671 23672 23673 23674 23675 23676 23677 23678 23679 23680 23681 23682 23683 23684 23685 23686 23687 23688 23689 23690 23691 23692 23693 23694 23695 23696 23697 23698 23699 23700 23701 23702 23703 23704 23705 23706 23707 23708 23709 23710 23711 23712 23713 23714 23715 23716 23717 23718 23719 23720 23721 23722 23723 23724 23725 23726 23727 23728 23729 23730 23731 23732 23733 23734 23735 23736 23737 23738 23739 23740 23741 23742 23743 23744 23745 23746 23747 23748 23749 23750 23751 23752 23753 23754 23755 23756 23757 23758 23759 23760 23761 23762 23763 23764 23765 23766 23767 23768 23769 23770 23771 23772 23773 23774 23775 23776 23777 23778 23779 23780 23781 23782 23783 23784 23785 23786 23787 23788 23789 23790 23791 23792 23793 23794 23795 23796 23797 23798 23799 23800 23801 23802 23803 23804 23805 23806 23807 23808 23809 23810 23811 23812 23813 23814 23815 23816 23817 23818 23819 23820 23821 23822 23823 23824 23825 23826 23827 23828 23829 23830 23831 23832 23833 23834 23835 23836 23837 23838 23839 23840 23841 23842 23843 23844 23845 23846 23847 23848 23849 23850 23851 23852 23853 23854 23855 23856 23857 23858 23859 23860 23861 23862 23863 23864 23865 23866 23867 23868 23869 23870 23871 23872 23873 23874 23875 23876 23877 23878 23879 23880 23881 23882 23883 23884 23885 23886 23887 23888 23889 23890 23891 23892 23893 23894 23895 23896 23897 23898 23899 23900 23901 23902 23903 23904 23905 23906 23907 23908 23909 23910 23911 23912 23913 23914 23915 23916 23917 23918 23919 23920 23921 23922 23923 23924 23925 23926 23927 23928 23929 23930 23931 23932 23933 23934 23935 23936 23937 23938 23939 23940 23941 23942 23943 23944 23945 23946 23947 23948 23949 23950 23951 23952 23953 23954 23955 23956 23957 23958 23959 23960 23961 23962 23963 23964 23965 23966 23967 23968 23969 23970 23971 23972 23973 23974 23975 23976 23977 23978 23979 23980 23981 23982 23983 23984 23985 23986 23987 23988 23989 23990 23991 23992 23993 23994 23995 23996 23997 23998 23999 24000 24001 24002 24003 24004 24005 24006 24007 24008 24009 24010 24011 24012 24013 24014 24015 24016 24017 24018 24019 24020 24021 24022 24023 24024 24025 24026 24027 24028 24029 24030 24031 24032 24033 24034 24035 24036 24037 24038 24039 24040 24041 24042 24043 24044 24045 24046 24047 24048 24049 24050 24051 24052 24053 24054 24055 24056 24057 24058 24059 24060 24061 24062 24063 24064 24065 24066 24067 24068 24069 24070 24071 24072 24073 24074 24075 24076 24077 24078 24079 24080 24081 24082 24083 24084 24085 24086 24087 24088 24089 24090 24091 24092 24093 24094 24095 24096 24097 24098 24099 24100 24101 24102 24103 24104 24105 24106 24107 24108 24109 24110 24111 24112 24113 24114 24115 24116 24117 24118 24119 24120 24121 24122 24123 24124 24125 24126 24127 24128 24129 24130 24131 24132 24133 24134 24135 24136 24137 24138 24139 24140 24141 24142 24143 24144 24145 24146 24147 24148 24149 24150 24151 24152 24153 24154 24155 24156 24157 24158 24159 24160 24161 24162 24163 24164 24165 24166 24167 24168 24169 24170 24171 24172 24173 24174 24175 24176 24177 24178 24179 24180 24181 24182 24183 24184 24185 24186 24187 24188 24189 24190 24191 24192 24193 24194 24195 24196 24197 24198 24199 24200 24201 24202 24203 24204 24205 24206 24207 24208 24209 24210 24211 24212 24213 24214 24215 24216 24217 24218 24219 24220 24221 24222 24223 24224 24225 24226 24227 24228 24229 24230 24231 24232 24233 24234 24235 24236 24237 24238 24239 24240 24241 24242 24243 24244 24245 24246 24247 24248 24249 24250 24251 24252 24253 24254 24255 24256 24257 24258 24259 24260 24261 24262 24263 24264 24265 24266 24267 24268 24269 24270 24271 24272 24273 24274 24275 24276 24277 24278 24279 24280 24281 24282 24283 24284 24285 24286 24287 24288 24289 24290 24291 24292 24293 24294 24295 24296 24297 24298 24299 24300 24301 24302 24303 24304 24305 24306 24307 24308 24309 24310 24311 24312 24313 24314 24315 24316 24317 24318 24319 24320 24321 24322 24323 24324 24325 24326 24327 24328 24329 24330 24331 24332 24333 24334 24335 24336 24337 24338 24339 24340 24341 24342 24343 24344 24345 24346 24347 24348 24349 24350 24351 24352 24353 24354 24355 24356 24357 24358 24359 24360 24361 24362 24363 24364 24365 24366 24367 24368 24369 24370 24371 24372 24373 24374 24375 24376 24377 24378 24379 24380 24381 24382 24383 24384 24385 24386 24387 24388 24389 24390 24391 24392 24393 24394 24395 24396 24397 24398 24399 24400 24401 24402 24403 24404 24405 24406 24407 24408 24409 24410 24411 24412 24413 24414 24415 24416 24417 24418 24419 24420 24421 24422 24423 24424 24425 24426 24427 24428 24429 24430 24431 24432 24433 24434 24435 24436 24437 24438 24439 24440 24441 24442 24443 24444 24445 24446 24447 24448 24449 24450 24451 24452 24453 24454 24455 24456 24457 24458 24459 24460 24461 24462 24463 24464 24465 24466 24467 24468 24469 24470 24471 24472 24473 24474 24475 24476 24477 24478 24479 24480 24481 24482 24483 24484 24485 24486 24487 24488 24489 24490 24491 24492 24493 24494 24495 24496 24497 24498 24499 24500 24501 24502 24503 24504 24505 24506 24507 24508 24509 24510 24511 24512 24513 24514 24515 24516 24517 24518 24519 24520 24521 24522 24523 24524 24525 24526 24527 24528 24529 24530 24531 24532 24533 24534 24535 24536 24537 24538 24539 24540 24541 24542 24543 24544 24545 24546 24547 24548 24549 24550 24551 24552 24553 24554 24555 24556 24557 24558 24559 24560 24561 24562 24563 24564 24565 24566 24567 24568 24569 24570 24571 24572 24573 24574 24575 24576 24577 24578 24579 24580 24581 24582 24583 24584 24585 24586 24587 24588 24589 24590 24591 24592 24593 24594 24595 24596 24597 24598 24599 24600 24601 24602 24603 24604 24605 24606 24607 24608 24609 24610 24611 24612 24613 24614 24615 24616 24617 24618 24619 24620 24621 24622 24623 24624 24625 24626 24627 24628 24629 24630 24631 24632 24633 24634 24635 24636 24637 24638 24639 24640 24641 24642 24643 24644 24645 24646 24647 24648 24649 24650 24651 24652 24653 24654 24655 24656 24657 24658 24659 24660 24661 24662 24663 24664 24665 24666 24667 24668 24669 24670 24671 24672 24673 24674 24675 24676 24677 24678 24679 24680 24681 24682 24683 24684 24685 24686 24687 24688 24689 24690 24691 24692 24693 24694 24695 24696 24697 24698 24699 24700 24701 24702 24703 24704 24705 24706 24707 24708 24709 24710 24711 24712 24713 24714 24715 24716 24717 24718 24719 24720 24721 24722 24723 24724 24725 24726 24727 24728 24729 24730 24731 24732 24733 24734 24735 24736 24737 24738 24739 24740 24741 24742 24743 24744 24745 24746 24747 24748 24749 24750 24751 24752 24753 24754 24755 24756 24757 24758 24759 24760 24761 24762 24763 24764 24765 24766 24767 24768 24769 24770 24771 24772 24773 24774 24775 24776 24777 24778 24779 24780 24781 24782 24783 24784 24785 24786 24787 24788 24789 24790 24791 24792 24793 24794 24795 24796 24797 24798 24799 24800 24801 24802 24803 24804 24805 24806 24807 24808 24809 24810 24811 24812 24813 24814 24815 24816 24817 24818 24819 24820 24821 24822 24823 24824 24825 24826 24827 24828 24829 24830 24831 24832 24833 24834 24835 24836 24837 24838 24839 24840 24841 24842 24843 24844 24845 24846 24847 24848 24849 24850 24851 24852 24853 24854 24855 24856 24857 24858 24859 24860 24861 24862 24863 24864 24865 24866 24867 24868 24869 24870 24871 24872 24873 24874 24875 24876 24877 24878 24879 24880 24881 24882 24883 24884 24885 24886 24887 24888 24889 24890 24891 24892 24893 24894 24895 24896 24897 24898 24899 24900 24901 24902 24903 24904 24905 24906 24907 24908 24909 24910 24911 24912 24913 24914 24915 24916 24917 24918 24919 24920 24921 24922 24923 24924 24925 24926 24927 24928 24929 24930 24931 24932 24933 24934 24935 24936 24937 24938 24939 24940 24941 24942 24943 24944 24945 24946 24947 24948 24949 24950 24951 24952 24953 24954 24955 24956 24957 24958 24959 24960 24961 24962 24963 24964 24965 24966 24967 24968 24969 24970 24971 24972 24973 24974 24975 24976 24977 24978 24979 24980 24981 24982 24983 24984 24985 24986 24987 24988 24989 24990 24991 24992 24993 24994 24995 24996 24997 24998 24999 25000 25001 25002 25003 25004 25005 25006 25007 25008 25009 25010 25011 25012 25013 25014 25015 25016 25017 25018 25019 25020 25021 25022 25023 25024 25025 25026 25027 25028 25029 25030 25031 25032 25033 25034 25035 25036 25037 25038 25039 25040 25041 25042 25043 25044 25045 25046 25047 25048 25049 25050 25051 25052 25053 25054 25055 25056 25057 25058 25059 25060 25061 25062 25063 25064 25065 25066 25067 25068 25069 25070 25071 25072 25073 25074 25075 25076 25077 25078 25079 25080 25081 25082 25083 25084 25085 25086 25087 25088 25089 25090 25091 25092 25093 25094 25095 25096 25097 25098 25099 25100 25101 25102 25103 25104 25105 25106 25107 25108 25109 25110 25111 25112 25113 25114 25115 25116 25117 25118 25119 25120 25121 25122 25123 25124 25125 25126 25127 25128 25129 25130 25131 25132 25133 25134 25135 25136 25137 25138 25139 25140 25141 25142 25143 25144 25145 25146 25147 25148 25149 25150 25151 25152 25153 25154 25155 25156 25157 25158 25159 25160 25161 25162 25163 25164 25165 25166 25167 25168 25169 25170 25171 25172 25173 25174 25175 25176 25177 25178 25179 25180 25181 25182 25183 25184 25185 25186 25187 25188 25189 25190 25191 25192 25193 25194 25195 25196 25197 25198 25199 25200 25201 25202 25203 25204 25205 25206 25207 25208 25209 25210 25211 25212 25213 25214 25215 25216 25217 25218 25219 25220 25221 25222 25223 25224 25225 25226 25227 25228 25229 25230 25231 25232 25233 25234 25235 25236 25237 25238 25239 25240 25241 25242 25243 25244 25245 25246 25247 25248 25249 25250 25251 25252 25253 25254 25255 25256 25257 25258 25259 25260 25261 25262 25263 25264 25265 25266 25267 25268 25269 25270 25271 25272 25273 25274 25275 25276 25277 25278 25279 25280 25281 25282 25283 25284 25285 25286 25287 25288 25289 25290 25291 25292 25293 25294 25295 25296 25297 25298 25299 25300 25301 25302 25303 25304 25305 25306 25307 25308 25309 25310 25311 25312 25313 25314 25315 25316 25317 25318 25319 25320 25321 25322 25323 25324 25325 25326 25327 25328 25329 25330 25331 25332 25333 25334 25335 25336 25337 25338 25339 25340 25341 25342 25343 25344 25345 25346 25347 25348 25349 25350 25351 25352 25353 25354 25355 25356 25357 25358 25359 25360 25361 25362 25363 25364 25365 25366 25367 25368 25369 25370 25371 25372 25373 25374 25375 25376 25377 25378 25379 25380 25381 25382 25383 25384 25385 25386 25387 25388 25389 25390 25391 25392 25393 25394 25395 25396 25397 25398 25399 25400 25401 25402 25403 25404 25405 25406 25407 25408 25409 25410 25411 25412 25413 25414 25415 25416 25417 25418 25419 25420 25421 25422 25423 25424 25425 25426 25427 25428 25429 25430 25431 25432 25433 25434 25435 25436 25437 25438 25439 25440 25441 25442 25443 25444 25445 25446 25447 25448 25449 25450 25451 25452 25453 25454 25455 25456 25457 25458 25459 25460 25461 25462 25463 25464 25465 25466 25467 25468 25469 25470 25471 25472 25473 25474 25475 25476 25477 25478 25479 25480 25481 25482 25483 25484 25485 25486 25487 25488 25489 25490 25491 25492 25493 25494 25495 25496 25497 25498 25499 25500 25501 25502 25503 25504 25505 25506 25507 25508 25509 25510 25511 25512 25513 25514 25515 25516 25517 25518 25519 25520 25521 25522 25523 25524 25525 25526 25527 25528 25529 25530 25531 25532 25533 25534 25535 25536 25537 25538 25539 25540 25541 25542 25543 25544 25545 25546 25547 25548 25549 25550 25551 25552 25553 25554 25555 25556 25557 25558 25559 25560 25561 25562 25563 25564 25565 25566 25567 25568 25569 25570 25571 25572 25573 25574 25575 25576 25577 25578 25579 25580 25581 25582 25583 25584 25585 25586 25587 25588 25589 25590 25591 25592 25593 25594 25595 25596 25597 25598 25599 25600 25601 25602 25603 25604 25605 25606 25607 25608 25609 25610 25611 25612 25613 25614 25615 25616 25617 25618 25619 25620 25621 25622 25623 25624 25625 25626 25627 25628 25629 25630 25631 25632 25633 25634 25635 25636 25637 25638 25639 25640 25641 25642 25643 25644 25645 25646 25647 25648 25649 25650 25651 25652 25653 25654 25655 25656 25657 25658 25659 25660 25661 25662 25663 25664 25665 25666 25667 25668 25669 25670 25671 25672 25673 25674 25675 25676 25677 25678 25679 25680 25681 25682 25683 25684 25685 25686 25687 25688 25689 25690 25691 25692 25693 25694 25695 25696 25697 25698 25699 25700 25701 25702 25703 25704 25705 25706 25707 25708 25709 25710 25711 25712 25713 25714 25715 25716 25717 25718 25719 25720 25721 25722 25723 25724 25725 25726 25727 25728 25729 25730 25731 25732 25733 25734 25735 25736 25737 25738 25739 25740 25741 25742 25743 25744 25745 25746 25747 25748 25749 25750 25751 25752 25753 25754 25755 25756 25757 25758 25759 25760 25761 25762 25763 25764 25765 25766 25767 25768 25769 25770 25771 25772 25773 25774 25775 25776 25777 25778 25779 25780 25781 25782 25783 25784 25785 25786 25787 25788 25789 25790 25791 25792 25793 25794 25795 25796 25797 25798 25799 25800 25801 25802 25803 25804 25805 25806 25807 25808 25809 25810 25811 25812 25813 25814 25815 25816 25817 25818 25819 25820 25821 25822 25823 25824 25825 25826 25827 25828 25829 25830 25831 25832 25833 25834 25835 25836 25837 25838 25839 25840 25841 25842 25843 25844 25845 25846 25847 25848 25849 25850 25851 25852 25853 25854 25855 25856 25857 25858 25859 25860 25861 25862 25863 25864 25865 25866 25867 25868 25869 25870 25871 25872 25873 25874 25875 25876 25877 25878 25879 25880 25881 25882 25883 25884 25885 25886 25887 25888 25889 25890 25891 25892 25893 25894 25895 25896 25897 25898 25899 25900 25901 25902 25903 25904 25905 25906 25907 25908 25909 25910 25911 25912 25913 25914 25915 25916 25917 25918 25919 25920 25921 25922 25923 25924 25925 25926 25927 25928 25929 25930 25931 25932 25933 25934 25935 25936 25937 25938 25939 25940 25941 25942 25943 25944 25945 25946 25947 25948 25949 25950 25951 25952 25953 25954 25955 25956 25957 25958 25959 25960 25961 25962 25963 25964 25965 25966 25967 25968 25969 25970 25971 25972 25973 25974 25975 25976 25977 25978 25979 25980 25981 25982 25983 25984 25985 25986 25987 25988 25989 25990 25991 25992 25993 25994 25995 25996 25997 25998 25999 26000 26001 26002 26003 26004 26005 26006 26007 26008 26009 26010 26011 26012 26013 26014 26015 26016 26017 26018 26019 26020 26021 26022 26023 26024 26025 26026 26027 26028 26029 26030 26031 26032 26033 26034 26035 26036 26037 26038 26039 26040 26041 26042 26043 26044 26045 26046 26047 26048 26049 26050 26051 26052 26053 26054 26055 26056 26057 26058 26059 26060 26061 26062 26063 26064 26065 26066 26067 26068 26069 26070 26071 26072 26073 26074 26075 26076 26077 26078 26079 26080 26081 26082 26083 26084 26085 26086 26087 26088 26089 26090 26091 26092 26093 26094 26095 26096 26097 26098 26099 26100 26101 26102 26103 26104 26105 26106 26107 26108 26109 26110 26111 26112 26113 26114 26115 26116 26117 26118 26119 26120 26121 26122 26123 26124 26125 26126 26127 26128 26129 26130 26131 26132 26133 26134 26135 26136 26137 26138 26139 26140 26141 26142 26143 26144 26145 26146 26147 26148 26149 26150 26151 26152 26153 26154 26155 26156 26157 26158 26159 26160 26161 26162 26163 26164 26165 26166 26167 26168 26169 26170 26171 26172 26173 26174 26175 26176 26177 26178 26179 26180 26181 26182 26183 26184 26185 26186 26187 26188 26189 26190 26191 26192 26193 26194 26195 26196 26197 26198 26199 26200 26201 26202 26203 26204 26205 26206 26207 26208 26209 26210 26211 26212 26213 26214 26215 26216 26217 26218 26219 26220 26221 26222 26223 26224 26225 26226 26227 26228 26229 26230 26231 26232 26233 26234 26235 26236 26237 26238 26239 26240 26241 26242 26243 26244 26245 26246 26247 26248 26249 26250 26251 26252 26253 26254 26255 26256 26257 26258 26259 26260 26261 26262 26263 26264 26265 26266 26267 26268 26269 26270 26271 26272 26273 26274 26275 26276 26277 26278 26279 26280 26281 26282 26283 26284 26285 26286 26287 26288 26289 26290 26291 26292 26293 26294 26295 26296 26297 26298 26299 26300 26301 26302 26303 26304 26305 26306 26307 26308 26309 26310 26311 26312 26313 26314 26315 26316 26317 26318 26319 26320 26321 26322 26323 26324 26325 26326 26327 26328 26329 26330 26331 26332 26333 26334 26335 26336 26337 26338 26339 26340 26341 26342 26343 26344 26345 26346 26347 26348 26349 26350 26351 26352 26353 26354 26355 26356 26357 26358 26359 26360 26361 26362 26363 26364 26365 26366 26367 26368 26369 26370 26371 26372 26373 26374 26375 26376 26377 26378 26379 26380 26381 26382 26383 26384 26385 26386 26387 26388 26389 26390 26391 26392 26393 26394 26395 26396 26397 26398 26399 26400 26401 26402 26403 26404 26405 26406 26407 26408 26409 26410 26411 26412 26413 26414 26415 26416 26417 26418 26419 26420 26421 26422 26423 26424 26425 26426 26427 26428 26429 26430 26431 26432 26433 26434 26435 26436 26437 26438 26439 26440 26441 26442 26443 26444 26445 26446 26447 26448 26449 26450 26451 26452 26453 26454 26455 26456 26457 26458 26459 26460 26461 26462 26463 26464 26465 26466 26467 26468 26469 26470 26471 26472 26473 26474 26475 26476 26477 26478 26479 26480 26481 26482 26483 26484 26485 26486 26487 26488 26489 26490 26491 26492 26493 26494 26495 26496 26497 26498 26499 26500 26501 26502 26503 26504 26505 26506 26507 26508 26509 26510 26511 26512 26513 26514 26515 26516 26517 26518 26519 26520 26521 26522 26523 26524 26525 26526 26527 26528 26529 26530 26531 26532 26533 26534 26535 26536 26537 26538 26539 26540 26541 26542 26543 26544 26545 26546 26547 26548 26549 26550 26551 26552 26553 26554 26555 26556 26557 26558 26559 26560 26561 26562 26563 26564 26565 26566 26567 26568 26569 26570 26571 26572 26573 26574 26575 26576 26577 26578 26579 26580 26581 26582 26583 26584 26585 26586 26587 26588 26589 26590 26591 26592 26593 26594 26595 26596 26597 26598 26599 26600 26601 26602 26603 26604 26605 26606 26607 26608 26609 26610 26611 26612 26613 26614 26615 26616 26617 26618 26619 26620 26621 26622 26623 26624 26625 26626 26627 26628 26629 26630 26631 26632 26633 26634 26635 26636 26637 26638 26639 26640 26641 26642 26643 26644 26645 26646 26647 26648 26649 26650 26651 26652 26653 26654 26655 26656 26657 26658 26659 26660 26661 26662 26663 26664 26665 26666 26667 26668 26669 26670 26671 26672 26673 26674 26675 26676 26677 26678 26679 26680 26681 26682 26683 26684 26685 26686 26687 26688 26689 26690 26691 26692 26693 26694 26695 26696 26697 26698 26699 26700 26701 26702 26703 26704 26705 26706 26707 26708 26709 26710 26711 26712 26713 26714 26715 26716 26717 26718 26719 26720 26721 26722 26723 26724 26725 26726 26727 26728 26729 26730 26731 26732 26733 26734 26735 26736 26737 26738 26739 26740 26741 26742 26743 26744 26745 26746 26747 26748 26749 26750 26751 26752 26753 26754 26755 26756 26757 26758 26759 26760 26761 26762 26763 26764 26765 26766 26767 26768 26769 26770 26771 26772 26773 26774 26775 26776 26777 26778 26779 26780 26781 26782 26783 26784 26785 26786 26787 26788 26789 26790 26791 26792 26793 26794 26795 26796 26797 26798 26799 26800 26801 26802 26803 26804 26805 26806 26807 26808 26809 26810 26811 26812 26813 26814 26815 26816 26817 26818 26819 26820 26821 26822 26823 26824 26825 26826 26827 26828 26829 26830 26831 26832 26833 26834 26835 26836 26837 26838 26839 26840 26841 26842 26843 26844 26845 26846 26847 26848 26849 26850 26851 26852 26853 26854 26855 26856 26857 26858 26859 26860 26861 26862 26863 26864 26865 26866 26867 26868 26869 26870 26871 26872 26873 26874 26875 26876 26877 26878 26879 26880 26881 26882 26883 26884 26885 26886 26887 26888 26889 26890 26891 26892 26893 26894 26895 26896 26897 26898 26899 26900 26901 26902 26903 26904 26905 26906 26907 26908 26909 26910 26911 26912 26913 26914 26915 26916 26917 26918 26919 26920 26921 26922 26923 26924 26925 26926 26927 26928 26929 26930 26931 26932 26933 26934 26935 26936 26937 26938 26939 26940 26941 26942 26943 26944 26945 26946 26947 26948 26949 26950 26951 26952 26953 26954 26955 26956 26957 26958 26959 26960 26961 26962 26963 26964 26965 26966 26967 26968 26969 26970 26971 26972 26973 26974 26975 26976 26977 26978 26979 26980 26981 26982 26983 26984 26985 26986 26987 26988 26989 26990 26991 26992 26993 26994 26995 26996 26997 26998 26999 27000 27001 27002 27003 27004 27005 27006 27007 27008 27009 27010 27011 27012 27013 27014 27015 27016 27017 27018 27019 27020 27021 27022 27023 27024 27025 27026 27027 27028 27029 27030 27031 27032 27033 27034 27035 27036 27037 27038 27039 27040 27041 27042 27043 27044 27045 27046 27047 27048 27049 27050 27051 27052 27053 27054 27055 27056 27057 27058 27059 27060 27061 27062 27063 27064 27065 27066 27067 27068 27069 27070 27071 27072 27073 27074 27075 27076 27077 27078 27079 27080 27081 27082 27083 27084 27085 27086 27087 27088 27089 27090 27091 27092 27093 27094 27095 27096 27097 27098 27099 27100 27101 27102 27103 27104 27105 27106 27107 27108 27109 27110 27111 27112 27113 27114 27115 27116 27117 27118 27119 27120 27121 27122 27123 27124 27125 27126 27127 27128 27129 27130 27131 27132 27133 27134 27135 27136 27137 27138 27139 27140 27141 27142 27143 27144 27145 27146 27147 27148 27149 27150 27151 27152 27153 27154 27155 27156 27157 27158 27159 27160 27161 27162 27163 27164 27165 27166 27167 27168 27169 27170 27171 27172 27173 27174 27175 27176 27177 27178 27179 27180 27181 27182 27183 27184 27185 27186 27187 27188 27189 27190 27191 27192 27193 27194 27195 27196 27197 27198 27199 27200 27201 27202 27203 27204 27205 27206 27207 27208 27209 27210 27211 27212 27213 27214 27215 27216 27217 27218 27219 27220 27221 27222 27223 27224 27225 27226 27227 27228 27229 27230 27231 27232 27233 27234 27235 27236 27237 27238 27239 27240 27241 27242 27243 27244 27245 27246 27247 27248 27249 27250 27251 27252 27253 27254 27255 27256 27257 27258 27259 27260 27261 27262 27263 27264 27265 27266 27267 27268 27269 27270 27271 27272 27273 27274 27275 27276 27277 27278 27279 27280 27281 27282 27283 27284 27285 27286 27287 27288 27289 27290 27291 27292 27293 27294 27295 27296 27297 27298 27299 27300 27301 27302 27303 27304 27305 27306 27307 27308 27309 27310 27311 27312 27313 27314 27315 27316 27317 27318 27319 27320 27321 27322 27323 27324 27325 27326 27327 27328 27329 27330 27331 27332 27333 27334 27335 27336 27337 27338 27339 27340 27341 27342 27343 27344 27345 27346 27347 27348 27349 27350 27351 27352 27353 27354 27355 27356 27357 27358 27359 27360 27361 27362 27363 27364 27365 27366 27367 27368 27369 27370 27371 27372 27373 27374 27375 27376 27377 27378 27379 27380 27381 27382 27383 27384 27385 27386 27387 27388 27389 27390 27391 27392 27393 27394 27395 27396 27397 27398 27399 27400 27401 27402 27403 27404 27405 27406 27407 27408 27409 27410 27411 27412 27413 27414 27415 27416 27417 27418 27419 27420 27421 27422 27423 27424 27425 27426 27427 27428 27429 27430 27431 27432 27433 27434 27435 27436 27437 27438 27439 27440 27441 27442 27443 27444 27445 27446 27447 27448 27449 27450 27451 27452 27453 27454 27455 27456 27457 27458 27459 27460 27461 27462 27463 27464 27465 27466 27467 27468 27469 27470 27471 27472 27473 27474 27475 27476 27477 27478 27479 27480 27481 27482 27483 27484 27485 27486 27487 27488 27489 27490 27491 27492 27493 27494 27495 27496 27497 27498 27499 27500 27501 27502 27503 27504 27505 27506 27507 27508 27509 27510 27511 27512 27513 27514 27515 27516 27517 27518 27519 27520 27521 27522 27523 27524 27525 27526 27527 27528 27529 27530 27531 27532 27533 27534 27535 27536 27537 27538 27539 27540 27541 27542 27543 27544 27545 27546 27547 27548 27549 27550 27551 27552 27553 27554 27555 27556 27557 27558 27559 27560 27561 27562 27563 27564 27565 27566 27567 27568 27569 27570 27571 27572 27573 27574 27575 27576 27577 27578 27579 27580 27581 27582 27583 27584 27585 27586 27587 27588 27589 27590 27591 27592 27593 27594 27595 27596 27597 27598 27599 27600 27601 27602 27603 27604 27605 27606 27607 27608 27609 27610 27611 27612 27613 27614 27615 27616 27617 27618 27619 27620 27621 27622 27623 27624 27625 27626 27627 27628 27629 27630 27631 27632 27633 27634 27635 27636 27637 27638 27639 27640 27641 27642 27643 27644 27645 27646 27647 27648 27649 27650 27651 27652 27653 27654 27655 27656 27657 27658 27659 27660 27661 27662 27663 27664 27665 27666 27667 27668 27669 27670 27671 27672 27673 27674 27675 27676 27677 27678 27679 27680 27681 27682 27683 27684 27685 27686 27687 27688 27689 27690 27691 27692 27693 27694 27695 27696 27697 27698 27699 27700 27701 27702 27703 27704 27705 27706 27707 27708 27709 27710 27711 27712 27713 27714 27715 27716 27717 27718 27719 27720 27721 27722 27723 27724 27725 27726 27727 27728 27729 27730 27731 27732 27733 27734 27735 27736 27737 27738 27739 27740 27741 27742 27743 27744 27745 27746 27747 27748 27749 27750 27751 27752 27753 27754 27755 27756 27757 27758 27759 27760 27761 27762 27763 27764 27765 27766 27767 27768 27769 27770 27771 27772 27773 27774 27775 27776 27777 27778 27779 27780 27781 27782 27783 27784 27785 27786 27787 27788 27789 27790 27791 27792 27793 27794 27795 27796 27797 27798 27799 27800 27801 27802 27803 27804 27805 27806 27807 27808 27809 27810 27811 27812 27813 27814 27815 27816 27817 27818 27819 27820 27821 27822 27823 27824 27825 27826 27827 27828 27829 27830 27831 27832 27833 27834 27835 27836 27837 27838 27839 27840 27841 27842 27843 27844 27845 27846 27847 27848 27849 27850 27851 27852 27853 27854 27855 27856 27857 27858 27859 27860 27861 27862 27863 27864 27865 27866 27867 27868 27869 27870 27871 27872 27873 27874 27875 27876 27877 27878 27879 27880 27881 27882 27883 27884 27885 27886 27887 27888 27889 27890 27891 27892 27893 27894 27895 27896 27897 27898 27899 27900 27901 27902 27903 27904 27905 27906 27907 27908 27909 27910 27911 27912 27913 27914 27915 27916 27917 27918 27919 27920 27921 27922 27923 27924 27925 27926 27927 27928 27929 27930 27931 27932 27933 27934 27935 27936 27937 27938 27939 27940 27941 27942 27943 27944 27945 27946 27947 27948 27949 27950 27951 27952 27953 27954 27955 27956 27957 27958 27959 27960 27961 27962 27963 27964 27965 27966 27967 27968 27969 27970 27971 27972 27973 27974 27975 27976 27977 27978 27979 27980 27981 27982 27983 27984 27985 27986 27987 27988 27989 27990 27991 27992 27993 27994 27995 27996 27997 27998 27999 28000 28001 28002 28003 28004 28005 28006 28007 28008 28009 28010 28011 28012 28013 28014 28015 28016 28017 28018 28019 28020 28021 28022 28023 28024 28025 28026 28027 28028 28029 28030 28031 28032 28033 28034 28035 28036 28037 28038 28039 28040 28041 28042 28043 28044 28045 28046 28047 28048 28049 28050 28051 28052 28053 28054 28055 28056 28057 28058 28059 28060 28061 28062 28063 28064 28065 28066 28067 28068 28069 28070 28071 28072 28073 28074 28075 28076 28077 28078 28079 28080 28081 28082 28083 28084 28085 28086 28087 28088 28089 28090 28091 28092 28093 28094 28095 28096 28097 28098 28099 28100 28101 28102 28103 28104 28105 28106 28107 28108 28109 28110 28111 28112 28113 28114 28115 28116 28117 28118 28119 28120 28121 28122 28123 28124 28125 28126 28127 28128 28129 28130 28131 28132 28133 28134 28135 28136 28137 28138 28139 28140 28141 28142 28143 28144 28145 28146 28147 28148 28149 28150 28151 28152 28153 28154 28155 28156 28157 28158 28159 28160 28161 28162 28163 28164 28165 28166 28167 28168 28169 28170 28171 28172 28173 28174 28175 28176 28177 28178 28179 28180 28181 28182 28183 28184 28185 28186 28187 28188 28189 28190 28191 28192 28193 28194 28195 28196 28197 28198 28199 28200 28201 28202 28203 28204 28205 28206 28207 28208 28209 28210 28211 28212 28213 28214 28215 28216 28217 28218 28219 28220 28221 28222 28223 28224 28225 28226 28227 28228 28229 28230 28231 28232 28233 28234 28235 28236 28237 28238 28239 28240 28241 28242 28243 28244 28245 28246 28247 28248 28249 28250 28251 28252 28253 28254 28255 28256 28257 28258 28259 28260 28261 28262 28263 28264 28265 28266 28267 28268 28269 28270 28271 28272 28273 28274 28275 28276 28277 28278 28279 28280 28281 28282 28283 28284 28285 28286 28287 28288 28289 28290 28291 28292 28293 28294 28295 28296 28297 28298 28299 28300 28301 28302 28303 28304 28305 28306 28307 28308 28309 28310 28311 28312 28313 28314 28315 28316 28317 28318 28319 28320 28321 28322 28323 28324 28325 28326 28327 28328 28329 28330 28331 28332 28333 28334 28335 28336 28337 28338 28339 28340 28341 28342 28343 28344 28345 28346 28347 28348 28349 28350 28351 28352 28353 28354 28355 28356 28357 28358 28359 28360 28361 28362 28363 28364 28365 28366 28367 28368 28369 28370 28371 28372 28373 28374 28375 28376 28377 28378 28379 28380 28381 28382 28383 28384 28385 28386 28387 28388 28389 28390 28391 28392 28393 28394 28395 28396 28397 28398 28399 28400 28401 28402 28403 28404 28405 28406 28407 28408 28409 28410 28411 28412 28413 28414 28415 28416 28417 28418 28419 28420 28421 28422 28423 28424 28425 28426 28427 28428 28429 28430 28431 28432 28433 28434 28435 28436 28437 28438 28439 28440 28441 28442 28443 28444 28445 28446 28447 28448 28449 28450 28451 28452 28453 28454 28455 28456 28457 28458 28459 28460 28461 28462 28463 28464 28465 28466 28467 28468 28469 28470 28471 28472 28473 28474 28475 28476 28477 28478 28479 28480 28481 28482 28483 28484 28485 28486 28487 28488 28489 28490 28491 28492 28493 28494 28495 28496 28497 28498 28499 28500 28501 28502 28503 28504 28505 28506 28507 28508 28509 28510 28511 28512 28513 28514 28515 28516 28517 28518 28519 28520 28521 28522 28523 28524 28525 28526 28527 28528 28529 28530 28531 28532 28533 28534 28535 28536 28537 28538 28539 28540 28541 28542 28543 28544 28545 28546 28547 28548 28549 28550 28551 28552 28553 28554 28555 28556 28557 28558 28559 28560 28561 28562 28563 28564 28565 28566 28567 28568 28569 28570 28571 28572 28573 28574 28575 28576 28577 28578 28579 28580 28581 28582 28583 28584 28585 28586 28587 28588 28589 28590 28591 28592 28593 28594 28595 28596 28597 28598 28599 28600 28601 28602 28603 28604 28605 28606 28607 28608 28609 28610 28611 28612 28613 28614 28615 28616 28617 28618 28619 28620 28621 28622 28623 28624 28625 28626 28627 28628 28629 28630 28631 28632 28633 28634 28635 28636 28637 28638 28639 28640 28641 28642 28643 28644 28645 28646 28647 28648 28649 28650 28651 28652 28653 28654 28655 28656 28657 28658 28659 28660 28661 28662 28663 28664 28665 28666 28667 28668 28669 28670 28671 28672 28673 28674 28675 28676 28677 28678 28679 28680 28681 28682 28683 28684 28685 28686 28687 28688 28689 28690 28691 28692 28693 28694 28695 28696 28697 28698 28699 28700 28701 28702 28703 28704 28705 28706 28707 28708 28709 28710 28711 28712 28713 28714 28715 28716 28717 28718 28719 28720 28721 28722 28723 28724 28725 28726 28727 28728 28729 28730 28731 28732 28733 28734 28735 28736 28737 28738 28739 28740 28741 28742 28743 28744 28745 28746 28747 28748 28749 28750 28751 28752 28753 28754 28755 28756 28757 28758 28759 28760 28761 28762 28763 28764 28765 28766 28767 28768 28769 28770 28771 28772 28773 28774 28775 28776 28777 28778 28779 28780 28781 28782 28783 28784 28785 28786 28787 28788 28789 28790 28791 28792 28793 28794 28795 28796 28797 28798 28799 28800 28801 28802 28803 28804 28805 28806 28807 28808 28809 28810 28811 28812 28813 28814 28815 28816 28817 28818 28819 28820 28821 28822 28823 28824 28825 28826 28827 28828 28829 28830 28831 28832 28833 28834 28835 28836 28837 28838 28839 28840 28841 28842 28843 28844 28845 28846 28847 28848 28849 28850 28851 28852 28853 28854 28855 28856 28857 28858 28859 28860 28861 28862 28863 28864 28865 28866 28867 28868 28869 28870 28871 28872 28873 28874 28875 28876 28877 28878 28879 28880 28881 28882 28883 28884 28885 28886 28887 28888 28889 28890 28891 28892 28893 28894 28895 28896 28897 28898 28899 28900 28901 28902 28903 28904 28905 28906 28907 28908 28909 28910 28911 28912 28913 28914 28915 28916 28917 28918 28919 28920 28921 28922 28923 28924 28925 28926 28927 28928 28929 28930 28931 28932 28933 28934 28935 28936 28937 28938 28939 28940 28941 28942 28943 28944 28945 28946 28947 28948 28949 28950 28951 28952 28953 28954 28955 28956 28957 28958 28959 28960 28961 28962 28963 28964 28965 28966 28967 28968 28969 28970 28971 28972 28973 28974 28975 28976 28977 28978 28979 28980 28981 28982 28983 28984 28985 28986 28987 28988 28989 28990 28991 28992 28993 28994 28995 28996 28997 28998 28999 29000 29001 29002 29003 29004 29005 29006 29007 29008 29009 29010 29011 29012 29013 29014 29015 29016 29017 29018 29019 29020 29021 29022 29023 29024 29025 29026 29027 29028 29029 29030 29031 29032 29033 29034 29035 29036 29037 29038 29039 29040 29041 29042 29043 29044 29045 29046 29047 29048 29049 29050 29051 29052 29053 29054 29055 29056 29057 29058 29059 29060 29061 29062 29063 29064 29065 29066 29067 29068 29069 29070 29071 29072 29073 29074 29075 29076 29077 29078 29079 29080 29081 29082 29083 29084 29085 29086 29087 29088 29089 29090 29091 29092 29093 29094 29095 29096 29097 29098 29099 29100 29101 29102 29103 29104 29105 29106 29107 29108 29109 29110 29111 29112 29113 29114 29115 29116 29117 29118 29119 29120 29121 29122 29123 29124 29125 29126 29127 29128 29129 29130 29131 29132 29133 29134 29135 29136 29137 29138 29139 29140 29141 29142 29143 29144 29145 29146 29147 29148 29149 29150 29151 29152 29153 29154 29155 29156 29157 29158 29159 29160 29161 29162 29163 29164 29165 29166 29167 29168 29169 29170 29171 29172 29173 29174 29175 29176 29177 29178 29179 29180 29181 29182 29183 29184 29185 29186 29187 29188 29189 29190 29191 29192 29193 29194 29195 29196 29197 29198 29199 29200 29201 29202 29203 29204 29205 29206 29207 29208 29209 29210 29211 29212 29213 29214 29215 29216 29217 29218 29219 29220 29221 29222 29223 29224 29225 29226 29227 29228 29229 29230 29231 29232 29233 29234 29235 29236 29237 29238 29239 29240 29241 29242 29243 29244 29245 29246 29247 29248 29249 29250 29251 29252 29253 29254 29255 29256 29257 29258 29259 29260 29261 29262 29263 29264 29265 29266 29267 29268 29269 29270 29271 29272 29273 29274 29275 29276 29277 29278 29279 29280 29281 29282 29283 29284 29285 29286 29287 29288 29289 29290 29291 29292 29293 29294 29295 29296 29297 29298 29299 29300 29301 29302 29303 29304 29305 29306 29307 29308 29309 29310 29311 29312 29313 29314 29315 29316 29317 29318 29319 29320 29321 29322 29323 29324 29325 29326 29327 29328 29329 29330 29331 29332 29333 29334 29335 29336 29337 29338 29339 29340 29341 29342 29343 29344 29345 29346 29347 29348 29349 29350 29351 29352 29353 29354 29355 29356 29357 29358 29359 29360 29361 29362 29363 29364 29365 29366 29367 29368 29369 29370 29371 29372 29373 29374 29375 29376 29377 29378 29379 29380 29381 29382 29383 29384 29385 29386 29387 29388 29389 29390 29391 29392 29393 29394 29395 29396 29397 29398 29399 29400 29401 29402 29403 29404 29405 29406 29407 29408 29409 29410 29411 29412 29413 29414 29415 29416 29417 29418 29419 29420 29421 29422 29423 29424 29425 29426 29427 29428 29429 29430 29431 29432 29433 29434 29435 29436 29437 29438 29439 29440 29441 29442 29443 29444 29445 29446 29447 29448 29449 29450 29451 29452 29453 29454 29455 29456 29457 29458 29459 29460 29461 29462 29463 29464 29465 29466 29467 29468 29469 29470 29471 29472 29473 29474 29475 29476 29477 29478 29479 29480 29481 29482 29483 29484 29485 29486 29487 29488 29489 29490 29491 29492 29493 29494 29495 29496 29497 29498 29499 29500 29501 29502 29503 29504 29505 29506 29507 29508 29509 29510 29511 29512 29513 29514 29515 29516 29517 29518 29519 29520 29521 29522 29523 29524 29525 29526 29527 29528 29529 29530 29531 29532 29533 29534 29535 29536 29537 29538 29539 29540 29541 29542 29543 29544 29545 29546 29547 29548 29549 29550 29551 29552 29553 29554 29555 29556 29557 29558 29559 29560 29561 29562 29563 29564 29565 29566 29567 29568 29569 29570 29571 29572 29573 29574 29575 29576 29577 29578 29579 29580 29581 29582 29583 29584 29585 29586 29587 29588 29589 29590 29591 29592 29593 29594 29595 29596 29597 29598 29599 29600 29601 29602 29603 29604 29605 29606 29607 29608 29609 29610 29611 29612 29613 29614 29615 29616 29617 29618 29619 29620 29621 29622 29623 29624 29625 29626 29627 29628 29629 29630 29631 29632 29633 29634 29635 29636 29637 29638 29639 29640 29641 29642 29643 29644 29645 29646 29647 29648 29649 29650 29651 29652 29653 29654 29655 29656 29657 29658 29659 29660 29661 29662 29663 29664 29665 29666 29667 29668 29669 29670 29671 29672 29673 29674 29675 29676 29677 29678 29679 29680 29681 29682 29683 29684 29685 29686 29687 29688 29689 29690 29691 29692 29693 29694 29695 29696 29697 29698 29699 29700 29701 29702 29703 29704 29705 29706 29707 29708 29709 29710 29711 29712 29713 29714 29715 29716 29717 29718 29719 29720 29721 29722 29723 29724 29725 29726 29727 29728 29729 29730 29731 29732 29733 29734 29735 29736 29737 29738 29739 29740 29741 29742 29743 29744 29745 29746 29747 29748 29749 29750 29751 29752 29753 29754 29755 29756 29757 29758 29759 29760 29761 29762 29763 29764 29765 29766 29767 29768 29769 29770 29771 29772 29773 29774 29775 29776 29777 29778 29779 29780 29781 29782 29783 29784 29785 29786 29787 29788 29789 29790 29791 29792 29793 29794 29795 29796 29797 29798 29799 29800 29801 29802 29803 29804 29805 29806 29807 29808 29809 29810 29811 29812 29813 29814 29815 29816 29817 29818 29819 29820 29821 29822 29823 29824 29825 29826 29827 29828 29829 29830 29831 29832 29833 29834 29835 29836 29837 29838 29839 29840 29841 29842 29843 29844 29845 29846 29847 29848 29849 29850 29851 29852 29853 29854 29855 29856 29857 29858 29859 29860 29861 29862 29863 29864 29865 29866 29867 29868 29869 29870 29871 29872 29873 29874 29875 29876 29877 29878 29879 29880 29881 29882 29883 29884 29885 29886 29887 29888 29889 29890 29891 29892 29893 29894 29895 29896 29897 29898 29899 29900 29901 29902 29903 29904 29905 29906 29907 29908 29909 29910 29911 29912 29913 29914 29915 29916 29917 29918 29919 29920 29921 29922 29923 29924 29925 29926 29927 29928 29929 29930 29931 29932 29933 29934 29935 29936 29937 29938 29939 29940 29941 29942 29943 29944 29945 29946 29947 29948 29949 29950 29951 29952 29953 29954 29955 29956 29957 29958 29959 29960 29961 29962 29963 29964 29965 29966 29967 29968 29969 29970 29971 29972 29973 29974 29975 29976 29977 29978 29979 29980 29981 29982 29983 29984 29985 29986 29987 29988 29989 29990 29991 29992 29993 29994 29995 29996 29997 29998 29999 30000 30001 30002 30003 30004 30005 30006 30007 30008 30009 30010 30011 30012 30013 30014 30015 30016 30017 30018 30019 30020 30021 30022 30023 30024 30025 30026 30027 30028 30029 30030 30031 30032 30033 30034 30035 30036 30037 30038 30039 30040 30041 30042 30043 30044 30045 30046 30047 30048 30049 30050 30051 30052 30053 30054 30055 30056 30057 30058 30059 30060 30061 30062 30063 30064 30065 30066 30067 30068 30069 30070 30071 30072 30073 30074 30075 30076 30077 30078 30079 30080 30081 30082 30083 30084 30085 30086 30087 30088 30089 30090 30091 30092 30093 30094 
</DataArray>
<DataArray type="UInt32" Name="offsets" format="ascii">
3 6 9 12 15 18 21 23 26 29 31 34 37 39 42 45 47 50 52 54 57 59 62 65 68 71 74 77 80 83 86 89 92 95 98 101 103 106 108 111 114 117 120 123 126 129 132 135 137 140 143 145 148 151 154 157 160 163 166 169 171 174 177 180 182 185 188 191 193 196 199 201 204 207 209 212 215 218 221 223 226 229 232 235 238 241 244 247 250 253 256 258 261 264 266 269 272 275 278 281 284 286 289 292 295 298 301 304 307 310 312 315 318 321 324 327 330 332 335 338 341 344 347 350 353 356 359 362 364 367 370 373 376 379 382 385 388 391 394 397 400 403 406 409 412 415 418 421 424 427 430 433 436 439 442 444 447 450 452 454 457 460 463 466 469 472 475 478 481 484 487 490 493 496 499 502 505 508 511 514 517 520 523 526 529 532 535 538 541 544 547 549 552 555 557 560 563 566 569 572 575 578 580 583 586 589 591 594 597 600 603 606 609 611 614 617 620 623 626 629 632 635 638 641 644 647 650 653 656 659 662 665 668 671 674 677 680 683 685 688 691 694 697 700 703 706 709 712 715 717 720 723 725 728 731 734 737 740 743 746 748 751 754 756 759 762 765 768 771 774 777 780 783 786 789 792 795 798 801 804 807 810 813 816 819 822 825 828 831 834 837 840 843 846 849 851 854 857 860 862 865 868 871 874 877 880 883 886 889 892 895 898 901 904 907 910 913 916 919 922 925 928 931 934 937 940 943 946 948 950 953 956 959 962 965 968 971 974 977 980 982 985 988 991 993 996 999 1002 1005 1007 1010 1013 1016 1018 1021 1024 1027 1030 1033 1036 1039 1042 1044 1047 1050 1053 1056 1058 1061 1064 1067 1070 1072 1074 1077 1080 1082 1085 1088 1091 1094 1097 1100 1103 1106 1109 1112 1115 1117 1120 1123 1125 1127 1130 1133 1136 1139 1141 1143 1146 1149 1152 1155 1158 1161 1164 1167 1170 1173 1176 1179 1181 1183 1186 1189 1192 1195 1198 1200 1203 1206 1209 1211 1214 1217 1220 1223 1226 1228 1231 1234 1237 1240 1243 1246 1249 1252 1255 1258 1261 1263 1266 1269 1271 1274 1277 1280 1283 1286 1289 1291 1294 1296 1299 1302 1304 1307 1310 1313 1316 1319 1322 1325 1328 1331 1333 1336 1339 1342 1345 1348 1351 1354 1357 1360 1363 1366 1369 1372 1375 1378 1381 1384 1387 1390 1392 1395 1398 1401 1404 1407 1410 1413 1416 1419 1422 1425 1428 1431 1434 1437 1440 1443 1445 1448 1451 1454 1457 1460 1463 1466 1468 1471 1473 1476 1479 1482 1484 1487 1490 1493 1496 1498 1500 1502 1505 1508 1511 1514 1516 1519 1522 1525 1528 1531 1534 1537 1540 1543 1546 1549 1552 1554 1557 1560 1562 1565 1568 1570 1573 1576 1579 1582 1585 1588 1591 1594 1597 1600 1603 1606 1609 1612 1615 1618 1621 1624 1627 1630 1633 1636 1639 1642 1645 1648 1651 1654 1656 1659 1662 1665 1667 1670 1673 1676 1678 1681 1684 1687 1690 1692 1695 1698 1700 1703 1706 1709 1712 1715 1718 1721 1724 1726 1728 1731 1734 1737 1739 1741 1743 1746 1749 1752 1755 1758 1760 1763 1766 1769 1772 1775 1778 1781 1784 1787 1790 1793 1796 1799 1802 1805 1808 1811 1814 1817 1820 1823 1826 1829 1832 1835 1838 1841 1844 1847 1850 1853 1856 1859 1862 1865 1868 1871 1874 1877 1880 1883 1886 1889 1892 1895 1898 1901 1904 1907 1910 1913 1916 1919 1922 1925 1928 1931 1934 1937 1940 1943 1946 1949 1952 1955 1958 1961 1964 1967 1970 1973 1976 1979 1982 1985 1988 1991 1994 1997 2000 2003 2006 2009 2012 2014 2017 2020 2023 2026 2029 2031 2034 2037 2040 2043 2046 2048 2051 2054 2057 2060 2063 2066 2068 2071 2073 2075 2078 2081 2084 2086 2089 2091 2094 2096 2099 2102 2104 2107 2110 2113 2116 2119 2122 2125 2128 2131 2134 2136 2139 2142 2145 2147 2149 2152 2155 2157 2160 2163 2166 2168 2171 2174 2177 2179 2182 2185 2188 2191 2194 2196 2199 2202 2205 2208 2210 2213 2216 2218 2220 2222 2225 2227 2230 2232 2235 2238 2240 2242 2245 2248 2251 2254 2257 2260 2263 2265 2268 2270 2273 2276 2279 2282 2285 2288 2291 2294 2296 2299 2302 2304 2307 2310 2313 2316 2319 2322 2325 2328 2331 2334 2336 2339 2342 2344 2347 2350 2353 2355 2358 2360 2363 2366 2369 2372 2375 2378 2380 2383 2386 2389 2392 2394 2397 2400 2403 2405 2408 2410 2412 2415 2418 2421 2424 2426 2429 2432 2435 2438 2441 2444 2447 2450 2453 2456 2459 2461 2464 2467 2470 2472 2475 2478 2481 2483 2486 2489 2492 2495 2498 2501 2504 2507 2510 2513 2516 2519 2522 2524 2527 2530 2533 2536 2538 2541 2544 2547 2550 2553 2555 2558 2561 2563 2566 2569 2571 2574 2577 2580 2582 2585 2588 2590 2592 2595 2598 2600 2603 2606 2609 2612 2615 2618 2621 2624 2627 2630 2632 2635 2637 2640 2643 2645 2648 2651 2653 2656 2659 2662 2665 2668 2671 2674 2676 2679 2682 2684 2687 2690 2693 2696 2699 2702 2705 2708 2711 2714 2717 2720 2723 2726 2729 2732 2735 2738 2741 2744 2747 2750 2753 2756 2758 2761 2764 2767 2770 2773 2776 2779 2782 2785 2788 2791 2793 2796 2799 2802 2805 2808 2811 2813 2816 2819 2822 2825 2828 2831 2834 2837 2840 2843 2846 2849 2851 2854 2857 2860 2863 2865 2868 2871 2874 2876 2879 2882 2884 2887 2890 2892 2895 2898 2901 2903 2906 2909 2912 2915 2918 2921 2924 2927 2930 2933 2936 2939 2942 2945 2948 2951 2954 2957 2960 2963 2966 2969 2972 2975 2978 2980 2983 2986 2989 2991 2994 2997 3000 3003 3005 3008 3011 3014 3017 3020 3023 3026 3029 3032 3035 3038 3040 3043 3046 3048 3051 3054 3057 3060 3062 3065 3068 3070 3073 3076 3079 3082 3085 3088 3091 3094 3097 3099 3102 3104 3107 3110 3113 3115 3118 3121 3124 3127 3130 3132 3135 3138 3141 3143 3146 3149 3152 3154 3157 3160 3162 3165 3168 3171 3174 3176 3179 3182 3184 3187 3190 3193 3196 3199 3202 3205 3208 3211 3214 3216 3218 3221 3224 3227 3230 3232 3235 3238 3241 3243 3246 3249 3252 3255 3258 3261 3264 3267 3270 3273 3276 3279 3282 3284 3287 3290 3292 3294 3297 3300 3303 3306 3308 3311 3314 3317 3320 3323 3326 3329 3332 3335 3338 3341 3344 3347 3350 3353 3356 3358 3361 3364 3366 3369 3372 3375 3377 3380 3382 3385 3387 3389 3392 3395 3398 3401 3403 3406 3409 3412 3415 3417 3420 3423 3426 3428 3430 3432 3435 3437 3440 3443 3445 3448 3450 3453 3456 3459 3462 3465 3467 3470 3472 3475 3478 3481 3483 3486 3489 3492 3495 3498 3501 3504 3507 3509 3512 3515 3517 3520 3522 3525 3528 3531 3534 3537 3540 3543 3546 3548 3550 3553 3555 3558 3561 3564 3567 3570 3573 3576 3579 3582 3585 3588 3591 3593 3595 3598 3601 3604 3607 3610 3613 3616 3619 3622 3625 3628 3631 3634 3637 3640 3642 3645 3647 3650 3653 3656 3658 3661 3664 3667 3670 3673 3676 3679 3682 3685 3688 3691 3694 3697 3700 3703 3706 3708 3711 3714 3717 3720 3723 3725 3728 3731 3734 3736 3739 3741 3744 3747 3750 3753 3756 3759 3762 3765 3768 3771 3774 3777 3780 3783 3786 3789 3792 3795 3798 3801 3804 3807 3810 3813 3816 3819 3822 3825 3828 3831 3834 3837 3840 3843 3846 3849 3852 3854 3857 3860 3863 3865 3868 3871 3874 3877 3880 3883 3886 3889 3892 3895 3897 3900 3903 3906 3909 3912 3915 3918 3921 3924 3927 3930 3933 3936 3939 3942 3945 3948 3951 3954 3957 3960 3963 3966 3968 3971 3974 3976 3979 3982 3985 3988 3991 3993 3996 3999 4001 4004 4007 4009 4012 4015 4017 4020 4023 4026 4029 4032 4034 4037 4040 4043 4046 4048 4051 4053 4056 4059 4062 4065 4067 4070 4072 4075 4078 4080 4082 4085 4088 4091 4094 4096 4099 4102 4105 4108 4111 4114 4117 4120 4123 4126 4128 4131 4134 4137 4140 4142 4145 4147 4149 4152 4154 4156 4159 4162 4165 4167 4170 4172 4175 4177 4180 4183 4186 4189 4192 4194 4196 4199 4202 4204 4207 4210 4212 4215 4218 4220 4223 4226 4229 4231 4234 4237 4239 4242 4245 4248 4250 4253 4256 4259 4262 4265 4268 4271 4274 4277 4279 4282 4285 4288 4291 4294 4296 4299 4302 4305 4307 4310 4313 4316 4319 4321 4324 4327 4330 4333 4335 4338 4341 4343 4345 4347 4350 4352 4354 4357 4359 4362 4365 4368 4370 4373 4376 4379 4382 4385 4387 4390 4393 4396 4399 4402 4405 4408 4411 4413 4416 4419 4422 4425 4428 4431 4434 4437 4439 4442 4445 4447 4449 4452 4455 4458 4461 4463 4466 4469 4472 4475 4478 4480 4483 4486 4489 4492 4495 4498 4500 4503 4506 4509 4511 4514 4517 4520 4523 4526 4529 4532 4535 4538 4541 4544 4547 4550 4553 4555 4558 4561 4564 4567 4569 4572 4575 4578 4581 4584 4587 4590 4593 4596 4598 4601 4604 4607 4609 4612 4615 4618 4621 4624 4626 4629 4632 4634 4637 4640 4643 4646 4649 4652 4654 4657 4660 4663 4666 4669 4672 4674 4677 4680 4683 4685 4688 4691 4694 4697 4700 4703 4706 4709 4712 4715 4717 4720 4723 4725 4728 4731 4734 4736 4739 4741 4744 4747 4750 4753 4756 4759 4762 4765 4768 4771 4774 4777 4779 4782 4784 4786 4789 4792 4794 4797 4800 4803 4805 4807 4810 4812 4815 4818 4821 4824 4827 4829 4832 4834 4836 4838 4841 4844 4847 4850 4853 4856 4858 4861 4864 4867 4870 4873 4875 4878 4881 4884 4887 4890 4893 4896 4899 4902 4905 4908 4910 4913 4916 4919 4922 4925 4928 4931 4934 4937 4940 4943 4946 4949 4952 4955 4958 4961 4964 4967 4970 4973 4976 4979 4982 4985 4988 4991 4994 4997 4999 5002 5005 5008 5011 5014 5017 5020 5023 5025 5028 5031 5034 5037 5040 5042 5045 5048 5051 5054 5057 5059 5062 5065 5068 5071 5074 5077 5080 5083 5086 5089 5092 5095 5098 5100 5103 5105 5108 5110 5113 5116 5119 5122 5125 5128 5131 5133 5136 5139 5142 5145 5148 5151 5154 5157 5160 5163 5166 5169 5172 5175 5178 5181 5184 5187 5190 5193 5196 5199 5202 5205 5208 5211 5214 5217 5220 5223 5226 5229 5232 5235 5238 5241 5244 5247 5250 5253 5256 5259 5262 5265 5268 5271 5274 5276 5279 5282 5285 5288 5291 5294 5297 5300 5303 5306 5309 5312 5314 5317 5320 5323 5326 5329 5332 5335 5338 5340 5343 5346 5349 5352 5355 5358 5360 5363 5366 5369 5372 5375 5378 5381 5384 5387 5389 5392 5395 5398 5401 5404 5407 5410 5413 5416 5419 5422 5424 5427 5430 5433 5435 5438 5441 5444 5447 5450 5453 5456 5459 5462 5465 5468 5471 5474 5477 5480 5483 5485 5488 5491 5494 5497 5500 5503 5506 5509 5511 5514 5517 5520 5523 5526 5529 5532 5535 5538 5541 5544 5547 5550 5553 5556 5559 5562 5565 5568 5571 5574 5576 5579 5582 5585 5587 5590 5593 5596 5599 5602 5605 5608 5611 5613 5616 5619 5622 5625 5628 5631 5634 5637 5640 5643 5645 5648 5651 5654 5656 5659 5661 5664 5667 5670 5673 5676 5679 5682 5685 5688 5690 5693 5696 5698 5701 5703 5706 5708 5711 5714 5717 5720 5723 5726 5728 5731 5734 5736 5738 5741 5744 5747 5750 5753 5756 5758 5761 5763 5766 5769 5771 5774 5777 5779 5782 5785 5788 5791 5794 5797 5800 5803 5806 5809 5812 5815 5818 5821 5824 5826 5829 5832 5834 5837 5840 5843 5845 5848 5851 5854 5857 5860 5863 5866 5869 5872 5875 5878 5880 5883 5886 5889 5892 5895 5898 5901 5904 5907 5910 5913 5916 5919 5921 5924 5926 5929 5932 5935 5938 5940 5943 5945 5948 5950 5953 5956 5959 5962 5964 5967 5970 5972 5975 5977 5980 5983 5986 5989 5991 5994 5997 6000 6003 6005 6008 6011 6013 6016 6018 6021 6023 6025 6028 6031 6034 6037 6040 6043 6045 6048 6051 6054 6056 6059 6062 6065 6068 6070 6072 6075 6077 6080 6083 6086 6089 6092 6095 6098 6101 6104 6107 6110 6112 6115 6118 6121 6124 6127 6129 6132 6135 6138 6140 6143 6146 6149 6152 6155 6158 6161 6164 6167 6170 6173 6176 6179 6182 6185 6187 6190 6193 6196 6199 6202 6205 6208 6211 6214 6217 6220 6223 6226 6229 6232 6235 6238 6241 6244 6247 6250 6252 6255 6258 6260 6263 6266 6269 6272 6275 6278 6281 6284 6286 6289 6292 6295 6298 6301 6304 6307 6310 6313 6316 6318 6320 6323 6326 6329 6332 6334 6337 6339 6342 6345 6348 6351 6354 6356 6359 6362 6365 6368 6371 6373 6376 6379 6382 6385 6388 6391 6394 6397 6399 6402 6405 6407 6409 6412 6414 6417 6419 6422 6425 6428 6431 6433 6435 6438 6441 6443 6446 6448 6451 6454 6457 6460 6463 6465 6468 6471 6474 6477 6479 6481 6484 6487 6489 6491 6494 6497 6500 6503 6505 6508 6511 6514 6516 6519 6522 6524 6527 6529 6532 6535 6538 6541 6544 6547 6550 6553 6556 6559 6562 6565 6568 6571 6574 6576 6579 6582 6585 6588 6591 6593 6596 6599 6602 6605 6608 6610 6613 6616 6619 6622 6624 6627 6630 6633 6636 6639 6642 6645 6648 6651 6654 6657 6660 6663 6666 6669 6672 6675 6678 6681 6684 6687 6690 6693 6696 6699 6702 6705 6708 6711 6714 6717 6720 6723 6726 6729 6732 6735 6738 6741 6744 6747 6750 6753 6756 6759 6762 6765 6768 6771 6774 6777 6780 6783 6786 6789 6792 6795 6798 6801 6804 6807 6809 6812 6815 6818 6821 6824 6826 6829 6832 6834 6837 6840 6843 6846 6849 6852 6855 6858 6861 6864 6867 6869 6872 6875 6878 6881 6884 6887 6890 6892 6895 6897 6899 6902 6905 6908 6911 6914 6917 6920 6923 6925 6928 6931 6934 6937 6940 6943 6945 6948 6951 6954 6956 6959 6962 6965 6968 6971 6974 6977 6979 6982 6985 6987 6990 6993 6996 6999 7002 7005 7008 7011 7014 7016 7018 7021 7024 7027 7030 7032 7034 7036 7038 7041 7043 7046 7049 7052 7055 7058 7061 7064 7067 7070 7073 7076 7079 7082 7085 7088 7090 7093 7096 7098 7101 7104 7107 7110 7113 7116 7119 7122 7125 7127 7130 7133 7136 7139 7142 7145 7148 7151 7153 7156 7159 7162 7165 7168 7171 7174 7177 7180 7183 7186 7189 7192 7195 7198 7201 7204 7207 7210 7213 7216 7219 7222 7225 7227 7230 7233 7236 7239 7242 7244 7247 7250 7252 7254 7256 7259 7262 7264 7267 7270 7272 7275 7278 7280 7282 7285 7288 7290 7293 7295 7298 7301 7304 7307 7310 7313 7316 7319 7322 7325 7328 7331 7334 7337 7340 7342 7345 7348 7351 7354 7357 7360 7363 7366 7368 7371 7374 7377 7380 7382 7385 7387 7390 7393 7395 7398 7401 7404 7407 7410 7413 7416 7419 7421 7424 7427 7429 7432 7435 7438 7440 7443 7446 7449 7452 7455 7457 7460 7463 7465 7468 7471 7474 7477 7480 7483 7486 7489 7492 7495 7498 7501 7504 7507 7510 7513 7516 7519 7522 7525 7528 7531 7534 7537 7540 7543 7546 7549 7551 7553 7556 7559 7562 7565 7568 7570 7573 7576 7579 7582 7585 7588 7591 7594 7597 7600 7603 7606 7608 7611 7614 7617 7620 7623 7626 7629 7632 7635 7638 7641 7644 7647 7650 7653 7656 7659 7661 7664 7667 7669 7672 7675 7678 7681 7684 7686 7689 7692 7695 7698 7701 7703 7706 7709 7712 7715 7718 7720 7723 7726 7729 7732 7735 7738 7741 7744 7747 7750 7753 7756 7759 7762 7765 7768 7771 7774 7777 7780 7783 7785 7788 7791 7793 7796 7799 7802 7805 7808 7811 7814 7816 7819 7822 7825 7828 7831 7834 7837 7840 7843 7846 7849 7852 7855 7858 7861 7864 7867 7870 7873 7876 7879 7882 7885 7888 7891 7894 7897 7900 7903 7906 7909 7912 7915 7918 7921 7924 7927 7929 7932 7935 7937 7940 7943 7946 7948 7951 7954 7957 7960 7962 7965 7968 7971 7974 7977 7980 7982 7985 7988 7991 7994 7997 8000 8003 8006 8009 8012 8014 8017 8020 8023 8026 8028 8031 8033 8036 8039 8042 8045 8047 8050 8053 8056 8059 8062 8065 8068 8071 8074 8077 8080 8082 8085 8088 8091 8094 8097 8100 8103 8106 8108 8111 8114 8117 8120 8123 8126 8129 8132 8135 8138 8141 8144 8147 8150 8153 8156 8159 8162 8165 8167 8170 8173 8176 8179 8182 8185 8188 8191 8194 8196 8199 8202 8205 8208 8211 8213 8216 8219 8222 8225 8228 8230 8232 8234 8237 8239 8242 8245 8248 8251 8254 8257 8260 8263 8266 8268 8271 8274 8277 8279 8282 8285 8288 8291 8294 8297 8300 8303 8306 8309 8312 8315 8318 8321 8324 8327 8330 8333 8336 8339 8342 8345 8348 8350 8353 8356 8359 8362 8365 8368 8371 8373 8376 8379 8381 8384 8387 8390 8392 8395 8398 8400 8403 8406 8409 8412 8414 8417 8420 8422 8425 8428 8431 8434 8437 8440 8443 8446 8448 8450 8453 8456 8459 8462 8465 8468 8471 8473 8476 8479 8482 8484 8487 8490 8493 8496 8499 8502 8505 8508 8511 8514 8517 8520 8522 8525 8528 8531 8534 8536 8539 8542 8545 8547 8549 8552 8554 8557 8559 8562 8565 8568 8571 8573 8576 8578 8581 8584 8587 8590 8593 8596 8599 8602 8605 8607 8610 8612 8614 8617 8620 8623 8626 8628 8630 8632 8635 8638 8641 8644 8646 8649 8651 8654 8657 8659 8662 8665 8667 8670 8673 8676 8679 8682 8685 8687 8690 8692 8695 8698 8700 8703 8706 8709 8712 8715 8718 8721 8724 8727 8730 8733 8736 8739 8742 8745 8748 8751 8754 8756 8759 8762 8765 8768 8771 8774 8777 8779 8781 8783 8786 8788 8791 8794 8797 8799 8802 8804 8807 8810 8812 8815 8818 8820 8823 8826 8828 8830 8833 8835 8838 8840 8843 8846 8849 8851 8853 8856 8859 8862 8864 8867 8870 8873 8876 8878 8881 8884 8886 8889 8892 8895 8898 8901 8904 8906 8909 8912 8915 8918 8921 8924 8927 8930 8933 8936 8939 8942 8945 8948 8951 8954 8957 8959 8962 8965 8968 8971 8973 8976 8979 8982 8985 8988 8991 8994 8996 8999 9002 9005 9008 9011 9014 9017 9020 9023 9026 9029 9032 9035 9038 9041 9044 9047 9049 9052 9055 9058 9060 9062 9065 9067 9070 9072 9075 9078 9081 9084 9087 9090 9093 9096 9099 9101 9104 9107 9110 9113 9115 9118 9120 9123 9126 9129 9131 9134 9137 9139 9141 9144 9147 9150 9153 9155 9158 9161 9163 9166 9169 9172 9175 9178 9180 9183 9185 9188 9191 9194 9196 9199 9202 9204 9206 9209 9212 9214 9217 9220 9223 9226 9229 9231 9234 9237 9240 9243 9246 9249 9252 9255 9258 9261 9264 9266 9269 9271 9274 9277 9280 9283 9286 9289 9292 9295 9297 9300 9302 9304 9307 9309 9312 9315 9318 9321 9324 9326 9329 9332 9335 9337 9340 9343 9346 9348 9351 9354 9357 9360 9363 9366 9369 9372 9375 9378 9381 9384 9387 9390 9393 9395 9398 9401 9403 9406 9409 9412 9415 9418 9421 9424 9427 9430 9432 9435 9438 9441 9444 9447 9450 9453 9456 9459 9461 9464 9467 9470 9473 9476 9479 9482 9485 9488 9491 9494 9496 9499 9502 9505 9508 9511 9514 9516 9519 9521 9523 9526 9529 9532 9535 9538 9540 9543 9546 9549 9552 9555 9558 9561 9564 9567 9570 9573 9576 9579 9582 9585 9588 9590 9593 9596 9599 9602 9605 9608 9610 9613 9616 9619 9622 9625 9628 9631 9634 9637 9640 9643 9645 9648 9651 9654 9657 9660 9663 9665 9668 9671 9674 9677 9680 9683 9686 9689 9692 9695 9698 9701 9704 9707 9710 9713 9716 9719 9722 9725 9727 9730 9733 9736 9739 9742 9745 9748 9751 9753 9756 9759 9762 9764 9767 9770 9773 9776 9778 9781 9783 9786 9789 9792 9795 9797 9800 9803 9806 9808 9811 9814 9817 9820 9823 9825 9828 9831 9834 9837 9840 9843 9846 9849 9851 9854 9857 9859 9861 9864 9867 9869 9872 9875 9878 9881 9884 9887 9890 9893 9895 9898 9901 9904 9907 9910 9913 9916 9919 9922 9925 9927 9929 9932 9935 9938 9941 9944 9947 9950 9953 9955 9958 9961 9963 9966 9969 9972 9975 9978 9981 9983 9986 9989 9992 9995 9998 10000 10003 10006 10009 10012 10015 10018 10020 10023 10026 10029 10031 10033 10036 10039 10042 10045 10048 10051 10054 10056 10059 10062 10064 10067 10070 10073 10076 10079 10081 10084 10087 10090 10093 10096 10099 10102 10105 10108 10111 10114 10116 10119 10122 10125 10128 10131 10134 10137 10140 10143 10146 10149 10151 10154 10157 10160 10163 10166 10169 10172 10175 10178 10181 10184 10187 10189 10192 10195 10198 10200 10202 10205 10207 10210 10213 10216 10218 10220 10223 10226 10229 10232 10234 10236 10239 10242 10244 10247 10250 10252 10255 10258 10261 10264 10267 10270 10272 10275 10277 10280 10283 10285 10287 10289 10292 10295 10297 10300 10302 10305 10308 10310 10312 10315 10318 10321 10323 10325 10328 10331 10333 10336 10338 10341 10344 10347 10350 10353 10356 10358 10360 10363 10366 10369 10372 10374 10376 10379 10382 10385 10388 10391 10393 10396 10399 10402 10405 10408 10411 10414 10417 10420 10422 10424 10427 10430 10433 10436 10439 10442 10444 10447 10450 10453 10456 10459 10461 10464 10467 10470 10472 10475 10478 10481 10484 10487 10489 10492 10494 10497 10500 10503 10505 10508 10511 10514 10517 10519 10522 10525 10528 10530 10533 10536 10539 10542 10545 10547 10550 10552 10555 10558 10560 10563 10566 10569 10571 10574 10577 10579 10582 10585 10588 10591 10593 10596 10599 10602 10605 10608 10611 10614 10617 10619 10622 10625 10628 10631 10634 10637 10639 10641 10643 10645 10648 10651 10653 10656 10659 10662 10664 10666 10669 10672 10675 10678 10681 10684 10687 10690 10693 10695 10698 10701 10704 10707 10710 10713 10715 10718 10721 10723 10726 10728 10730 10733 10736 10739 10741 10744 10746 10749 10752 10755 10757 10759 10762 10764 10767 10770 10773 10776 10778 10781 10784 10787 10790 10792 10795 10798 10801 10804 10807 10810 10812 10815 10818 10821 10824 10827 10830 10833 10836 10839 10842 10845 10848 10851 10854 10857 10860 10863 10866 10869 10872 10875 10878 10881 10884 10887 10889 10892 10895 10897 10900 10903 10905 10907 10909 10912 10915 10918 10920 10923 10925 10927 10930 10932 10935 10938 10941 10944 10947 10950 10952 10955 10958 10961 10963 10966 10968 10971 10974 10977 10980 10982 10985 10988 10991 10994 10996 10999 11001 11004 11007 11009 11011 11014 11017 11020 11023 11026 11029 11032 11035 11037 11039 11042 11044 11047 11050 11053 11056 11058 11061 11063 11066 11069 11072 11074 11077 11080 11083 11086 11089 11092 11095 11097 11100 11103 11106 11109 11112 11114 11117 11120 11123 11125 11127 11130 11132 11134 11137 11140 11143 11146 11149 11152 11154 11157 11160 11162 11165 11167 11170 11173 11176 11178 11180 11183 11186 11188 11191 11193 11196 11198 11201 11204 11207 11210 11213 11216 11218 11220 11223 11226 11228 11231 11234 11236 11239 11242 11244 11246 11249 11252 11255 11258 11261 11264 11266 11269 11272 11275 11278 11280 11283 11285 11288 11291 11293 11296 11299 11302 11305 11308 11311 11314 11317 11320 11323 11326 11329 11332 11335 11338 11341 11344 11347 11350 11353 11356 11358 11361 11364 11367 11370 11373 11376 11379 11382 11385 11388 11391 11394 11397 11399 11402 11404 11407 11410 11413 11416 11419 11422 11425 11427 11430 11432 11435 11437 11440 11443 11446 11449 11452 11455 11457 11460 11463 11466 11469 11472 11475 11478 11481 11484 11487 11490 11492 11495 11497 11500 11503 11506 11508 11511 11514 11516 11519 11522 11525 11528 11530 11533 11536 11538 11541 11543 11546 11549 11552 11555 11558 11560 11563 11566 11569 11572 11574 11577 11579 11582 11585 11587 11590 11593 11595 11598 11600 11603 11606 11608 11611 11614 11616 11619 11621 11624 11627 11630 11633 11636 11639 11642 11645 11648 11651 11654 11657 11660 11663 11666 11669 11672 11675 11678 11681 11684 11687 11690 11693 11696 11699 11702 11705 11708 11711 11714 11717 11720 11723 11726 11729 11732 11735 11737 11740 11743 11745 11747 11750 11753 11756 11758 11760 11762 11764 11767 11770 11773 11776 11778 11781 11784 11787 11790 11792 11795 11798 11801 11804 11807 11809 11812 11815 11818 11821 11823 11826 11829 11832 11835 11838 11841 11844 11847 11850 11853 11856 11859 11862 11865 11867 11870 11873 11876 11879 11882 11885 11888 11890 11893 11896 11899 11902 11905 11908 11910 11913 11916 11919 11922 11925 11928 11931 11934 11937 11940 11943 11946 11949 11952 11955 11958 11961 11964 11967 11970 11973 11976 11979 11982 11985 11988 11991 11994 11996 11999 12002 12005 12008 12010 12013 12016 12019 12022 12025 12027 12030 12033 12036 12038 12041 12043 12046 12049 12051 12054 12057 12060 12063 12066 12068 12071 12074 12077 12079 12082 12085 12087 12090 12092 12095 12098 12101 12104 12107 12110 12112 12115 12118 12121 12124 12127 12130 12132 12135 12138 12141 12144 12147 12150 12153 12156 12159 12162 12165 12168 12171 12173 12176 12179 12182 12184 12187 12190 12193 12196 12199 12202 12205 12208 12211 12213 12216 12218 12221 12224 12227 12230 12233 12236 12239 12242 12245 12247 12250 12253 12256 12259 12262 12265 12268 12271 12273 12276 12279 12282 12285 12288 12291 12294 12297 12300 12303 12306 12309 12312 12315 12318 12321 12324 12327 12330 12333 12336 12339 12342 12345 12348 12351 12354 12357 12360 12363 12365 12368 12370 12373 12376 12379 12382 12385 12388 12391 12394 12396 12398 12401 12404 12407 12410 12413 12416 12419 12422 12425 12428 12431 12434 12437 12440 12443 12446 12449 12452 12455 12458 12460 12463 12466 12469 12471 12474 12476 12479 12482 12485 12488 12491 12494 12497 12500 12503 12505 12508 12511 12513 12515 12518 12520 12523 12526 12529 12531 12534 12537 12540 12543 12546 12549 12552 12555 12557 12560 12563 12566 12569 12572 12575 12578 12581 12584 12587 12590 12593 12595 12598 12601 12604 12606 12609 12612 12615 12618 12621 12624 12627 12630 12633 12635 12638 12640 12643 12646 12648 12651 12654 12656 12659 12662 12665 12668 12671 12673 12676 12679 12682 12685 12688 12691 12694 12697 12700 12703 12705 12707 12710 12713 12716 12719 12721 12724 12727 12730 12733 12736 12739 12742 12745 12748 12751 12754 12756 12759 12762 12765 12768 12771 12774 12777 12780 12783 12786 12789 12791 12794 12797 12799 12802 12805 12807 12810 12813 12815 12818 12821 12823 12826 12829 12832 12834 12837 12840 12843 12846 12849 12852 12854 12857 12860 12863 12866 12869 12871 12874 12877 12880 12883 12886 12889 12892 12895 12898 12900 12903 12906 12909 12912 12915 12918 12921 12924 12926 12929 12932 12935 12938 12941 12944 12947 12950 12953 12956 12959 12962 12965 12967 12970 12973 12976 12979 12982 12985 12987 12990 12993 12996 12999 13002 13005 13008 13011 13013 13016 13019 13022 13025 13028 13030 13032 13034 13037 13040 13043 13046 13049 13052 13055 13058 13061 13064 13067 13070 13073 13076 13079 13082 13085 13088 13091 13094 13096 13099 13102 13105 13107 13110 13113 13116 13119 13122 13124 13127 13130 13133 13135 13138 13141 13144 13147 13150 13153 13156 13159 13162 13165 13167 13170 13173 13176 13179 13181 13183 13186 13188 13191 13193 13195 13198 13201 13204 13207 13210 13213 13216 13219 13222 13225 13228 13231 13234 13237 13240 13243 13246 13249 13252 13255 13258 13261 13263 13266 13268 13271 13274 13276 13278 13281 13284 13287 13290 13293 13295 13298 13300 13302 13305 13308 13310 13312 13315 13318 13321 13324 13327 13330 13333 13336 13338 13340 13343 13346 13349 13351 13354 13356 13359 13362 13364 13367 13370 13373 13375 13377 13380 13383 13385 13388 13391 13394 13397 13400 13403 13406 13409 13412 13415 13418 13421 13424 13427 13430 13433 13436 13439 13441 13444 13447 13449 13452 13455 13458 13460 13463 13466 13468 13471 13474 13477 13480 13483 13486 13488 13491 13494 13497 13500 13503 13506 13509 13512 13514 13517 13519 13522 13525 13528 13531 13534 13537 13540 13543 13546 13548 13551 13554 13557 13560 13563 13566 13569 13572 13575 13578 13581 13584 13587 13590 13593 13596 13599 13602 13605 13607 13610 13613 13616 13619 13622 13625 13628 13631 13634 13637 13640 13643 13646 13649 13651 13654 13657 13660 13663 13666 13669 13671 13674 13677 13680 13682 13685 13687 13690 13692 13694 13697 13700 13703 13706 13709 13712 13715 13718 13721 13724 13727 13730 13733 13735 13738 13741 13744 13747 13749 13752 13755 13758 13760 13763 13765 13768 13771 13774 13777 13780 13782 13785 13788 13791 13794 13797 13800 13803 13806 13809 13812 13814 13816 13819 13822 13824 13826 13829 13832 13835 13838 13841 13844 13847 13850 13853 13856 13859 13862 13865 13868 13871 13874 13876 13879 13882 13885 13888 13891 13894 13897 13899 13902 13905 13908 13911 13914 13916 13918 13921 13924 13927 13929 13932 13935 13938 13941 13944 13946 13949 13952 13955 13958 13961 13963 13965 13968 13971 13974 13977 13979 13982 13985 13987 13990 13993 13996 13999 14002 14005 14008 14011 14014 14017 14020 14023 14026 14029 14032 14034 14037 14040 14043 14046 14048 14051 14054 14057 14060 14063 14066 14069 14072 14075 14078 14081 14084 14087 14090 14093 14096 14099 14102 14105 14108 14111 14114 14117 14120 14123 14126 14129 14132 14135 14138 14141 14144 14147 14150 14153 14156 14158 14161 14164 14167 14170 14172 14175 14178 14181 14183 14186 14189 14192 14195 14198 14201 14204 14207 14210 14213 14216 14219 14222 14225 14228 14230 14233 14235 14238 14241 14244 14247 14249 14251 14254 14257 14260 14263 14266 14269 14272 14275 14278 14281 14284 14287 14290 14292 14295 14298 14301 14304 14306 14309 14311 14314 14317 14320 14323 14325 14328 14331 14333 14335 14338 14341 14344 14347 14349 14352 14355 14357 14360 14363 14366 14369 14371 14374 14377 14380 14383 14386 14389 14392 14395 14398 14401 14403 14405 14407 14410 14413 14415 14418 14421 14424 14427 14430 14433 14435 14437 14440 14442 14445 14448 14450 14453 14456 14459 14462 14464 14467 14470 14473 14476 14479 14482 14485 14488 14491 14493 14495 14498 14501 14504 14507 14510 14513 14516 14519 14522 14525 14528 14530 14533 14535 14538 14541 14544 14547 14550 14553 14556 14559 14562 14565 14568 14571 14574 14577 14580 14583 14586 14588 14591 14594 14597 14600 14603 14605 14608 14610 14613 14616 14619 14622 14624 14627 14629 14632 14635 14638 14640 14642 14645 14648 14651 14654 14657 14660 14662 14665 14668 14671 14674 14677 14680 14683 14685 14688 14691 14694 14697 14700 14703 14706 14709 14712 14714 14717 14719 14722 14725 14728 14731 14734 14736 14739 14742 14745 14748 14751 14753 14756 14758 14761 14763 14766 14769 14772 14774 14777 14780 14783 14786 14788 14791 14794 14797 14800 14803 14806 14809 14812 14815 14818 14821 14823 14826 14829 14831 14834 14837 14840 14843 14846 14849 14852 14855 14858 14861 14864 14866 14869 14872 14875 14878 14881 14883 14886 14888 14890 14893 14896 14898 14901 14903 14906 14909 14912 14915 14918 14921 14924 14927 14930 14933 14936 14939 14942 14945 14948 14951 14954 14957 14960 14963 14966 14969 14971 14974 14977 14980 14983 14986 14989 14992 14995 14998 15001 15004 15007 15010 15013 15016 15019 15022 15025 15028 15031 15034 15037 15040 15043 15046 15049 15052 15055 15058 15061 15063 15066 15069 15072 15075 15078 15081 15083 15086 15089 15092 15095 15098 15101 15104 15107 15110 15113 15116 15119 15122 15125 15128 15131 15133 15136 15139 15142 15145 15148 15151 15154 15157 15160 15163 15166 15169 15172 15175 15178 15181 15184 15187 15190 15193 15196 15199 15201 15204 15207 15210 15213 15216 15219 15222 15225 15228 15230 15233 15236 15239 15242 15245 15248 15251 15254 15256 15259 15262 15265 15268 15271 15274 15277 15279 15281 15284 15287 15290 15293 15296 15298 15301 15303 15306 15309 15311 15314 15317 15320 15323 15326 15329 15332 15335 15338 15341 15344 15347 15350 15353 15356 15359 15362 15365 15367 15370 15373 15376 15379 15382 15385 15388 15391 15394 15397 15399 15402 15404 15407 15409 15412 15415 15418 15421 15424 15427 15430 15433 15436 15439 15442 15445 15448 15451 15454 15457 15460 15463 15466 15469 15472 15475 15478 15481 15484 15487 15490 15493 15496 15499 15502 15505 15508 15511 15514 15517 15520 15523 15526 15529 15532 15535 15538 15541 15544 15547 15550 15553 15556 15559 15561 15564 15567 15570 15572 15575 15578 15581 15584 15586 15589 15591 15594 15597 15600 15603 15605 15608 15611 15614 15617 15620 15623 15626 15629 15632 15635 15638 15640 15642 15645 15648 15651 15654 15656 15658 15661 15664 15667 15670 15673 15676 15679 15682 15685 15688 15691 15694 15697 15700 15703 15706 15709 15711 15714 15717 15720 15723 15726 15729 15732 15735 15738 15741 15744 15747 15750 15753 15756 15759 15762 15765 15768 15771 15774 15777 15780 15783 15786 15789 15792 15795 15798 15801 15804 15807 15810 15813 15816 15819 15822 15825 15828 15830 15833 15836 15838 15841 15844 15847 15850 15853 15856 15859 15862 15865 15868 15871 15874 15877 15880 15883 15886 15889 15892 15895 15898 15901 15904 15907 15910 15913 15916 15919 15922 15925 15928 15931 15934 15937 15940 15943 15946 15949 15952 15955 15958 15961 15964 15967 15970 15973 15976 15979 15982 15985 15988 15991 15994 15997 15999 16002 16005 16008 16010 16013 16016 16019 16022 16025 16027 16030 16033 16036 16038 16041 16044 16047 16050 16053 16055 16057 16060 16062 16065 16068 16071 16074 16077 16079 16082 16085 16088 16091 16093 16096 16099 16102 16105 16107 16110 16113 16116 16119 16122 16125 16128 16131 16134 16137 16140 16143 16146 16149 16152 16155 16158 16161 16164 16167 16169 16171 16174 16177 16180 16183 16186 16189 16192 16194 16196 16199 16202 16205 16207 16210 16212 16215 16218 16221 16223 16226 16229 16232 16235 16238 16241 16244 16247 16250 16253 16256 16259 16262 16265 16268 16271 16273 16276 16279 16282 16285 16287 16290 16293 16296 16299 16302 16304 16307 16310 16313 16316 16319 16322 16324 16327 16330 16333 16335 16337 16339 16342 16345 16348 16350 16353 16356 16359 16362 16364 16367 16369 16372 16375 16377 16380 16383 16386 16389 16392 16395 16398 16400 16403 16406 16409 16412 16415 16417 16420 16423 16426 16429 16431 16434 16437 16440 16443 16446 16449 16452 16455 16457 16460 16463 16465 16467 16470 16473 16476 16478 16481 16483 16486 16489 16492 16495 16497 16499 16502 16505 16508 16511 16514 16516 16519 16522 16525 16528 16531 16534 16537 16540 16543 16545 16547 16550 16553 16556 16559 16562 16564 16567 16569 16572 16575 16578 16581 16584 16587 16590 16593 16596 16599 16602 16605 16608 16611 16614 16617 16620 16622 16625 16628 16630 16633 16635 16638 16640 16643 16645 16648 16651 16653 16655 16658 16661 16663 16666 16668 16671 16673 16676 16679 16682 16684 16686 16689 16692 16695 16697 16700 16703 16706 16708 16710 16713 16716 16719 16722 16725 16727 16730 16733 16736 16738 16741 16744 16746 16749 16752 16754 16757 16760 16763 16765 16768 16771 16774 16777 16779 16782 16785 16787 16789 16792 16795 16798 16801 16803 16805 16808 16810 16813 16816 16819 16821 16824 16827 16829 16832 16835 16837 16839 16842 16845 16847 16850 16852 16854 16857 16859 16861 16864 16867 16870 16873 16875 16878 16881 16884 16887 16890 16893 16896 16898 16901 16904 16906 16909 16912 16915 16918 16921 16924 16927 16929 16932 16934 16937 16940 16943 16946 16949 16952 16954 16956 16959 16961 16964 16966 16968 16971 16973 16976 16979 16982 16984 16987 16990 16993 16996 16998 17001 17004 17006 17009 17012 17014 17017 17020 17023 17025 17028 17031 17034 17037 17040 17042 17045 17048 17051 17054 17057 17060 17063 17066 17069 17072 17075 17078 17081 17083 17085 17088 17091 17094 17096 17099 17102 17105 17107 17109 17112 17115 17118 17121 17124 17127 17130 17133 17135 17138 17141 17144 17147 17149 17152 17155 17158 17161 17164 17167 17170 17173 17176 17179 17182 17185 17188 17191 17194 17197 17200 17203 17206 17209 17212 17215 17218 17221 17224 17227 17230 17233 17236 17239 17242 17244 17247 17250 17253 17256 17259 17262 17265 17268 17271 17274 17277 17280 17283 17286 17289 17292 17295 17298 17301 17303 17306 17309 17312 17314 17317 17320 17322 17325 17327 17330 17333 17336 17339 17342 17345 17348 17351 17354 17357 17360 17362 17365 17368 17371 17374 17377 17380 17382 17385 17387 17390 17393 17395 17397 17400 17403 17406 17409 17411 17414 17416 17419 17422 17425 17428 17430 17433 17436 17439 17442 17444 17446 17449 17452 17454 17457 17460 17462 17465 17468 17471 17474 17476 17479 17482 17485 17487 17490 17493 17496 17499 17502 17505 17508 17511 17514 17517 17520 17523 17526 17529 17532 17535 17538 17540 17543 17546 17548 17551 17553 17556 17559 17561 17564 17566 17569 17571 17574 17577 17579 17582 17585 17588 17591 17594 17597 17600 17603 17606 17609 17612 17615 17618 17621 17624 17627 17629 17632 17634 17637 17640 17643 17646 17649 17652 17655 17658 17661 17664 17666 17669 17671 17674 17677 17680 17682 17685 17688 17691 17694 17696 17698 17701 17704 17707 17710 17713 17716 17719 17721 17724 17726 17729 17732 17735 17738 17741 17744 17747 17750 17752 17755 17758 17761 17764 17766 17769 17772 17774 17777 17780 17783 17786 17789 17792 17795 17798 17801 17804 17807 17809 17812 17815 17818 17821 17824 17826 17829 17832 17835 17838 17841 17844 17847 17850 17852 17855 17858 17861 17863 17866 17869 17872 17875 17878 17881 17884 17886 17889 17892 17895 17898 17901 17904 17907 17910 17913 17916 17918 17921 17924 17926 17929 17931 17934 17937 17940 17943 17946 17948 17950 17953 17956 17959 17961 17964 17966 17969 17972 17975 17978 17981 17984 17987 17990 17992 17994 17997 18000 18002 18005 18008 18010 18012 18015 18018 18021 18023 18026 18029 18032 18035 18038 18041 18043 18046 18049 18052 18055 18058 18061 18064 18067 18070 18073 18076 18079 18082 18085 18088 18090 18093 18096 18099 18102 18105 18108 18111 18114 18116 18119 18122 18125 18128 18131 18134 18137 18140 18142 18145 18148 18151 18154 18157 18160 18163 18166 18169 18171 18174 18177 18180 18182 18184 18186 18188 18191 18194 18197 18200 18203 18206 18208 18211 18214 18217 18220 18223 18226 18229 18232 18235 18238 18241 18244 18247 18249 18251 18253 18256 18259 18262 18265 18268 18271 18274 18276 18278 18281 18284 18287 18289 18291 18294 18297 18300 18303 18306 18309 18312 18315 18318 18321 18324 18327 18330 18333 18336 18339 18341 18344 18346 18349 18352 18355 18358 18361 18363 18365 18367 18370 18373 18375 18377 18380 18382 18385 18387 18389 18391 18394 18396 18399 18402 18405 18408 18411 18414 18416 18419 18421 18424 18427 18430 18433 18436 18439 18442 18445 18448 18451 18454 18456 18459 18462 18465 18467 18470 18473 18476 18479 18482 18484 18487 18490 18492 18495 18498 18500 18503 18506 18509 18511 18514 18517 18520 18523 18526 18529 18532 18535 18537 18540 18543 18546 18548 18551 18554 18557 18560 18562 18565 18568 18571 18574 18577 18580 18583 18586 18589 18592 18595 18598 18601 18604 18607 18610 18613 18616 18619 18622 18625 18628 18631 18634 18637 18640 18642 18645 18648 18651 18654 18656 18659 18662 18665 18668 18671 18674 18676 18679 18682 18685 18688 18691 18694 18697 18700 18703 18705 18708 18711 18714 18717 18720 18723 18726 18729 18732 18735 18738 18741 18744 18747 18750 18753 18756 18759 18762 18765 18768 18771 18774 18776 18779 18782 18785 18788 18790 18793 18796 18799 18802 18805 18808 18811 18814 18817 18820 18823 18826 18829 18831 18834 18837 18839 18841 18844 18847 18850 18852 18854 18857 18859 18862 18864 18867 18870 18873 18876 18879 18881 18884 18887 18889 18892 18894 18897 18900 18902 18904 18907 18910 18913 18916 18919 18922 18925 18928 18930 18933 18935 18938 18941 18944 18947 18950 18952 18955 18958 18961 18964 18967 18970 18973 18976 18979 18982 18985 18988 18991 18993 18996 18999 19001 19004 19007 19010 19013 19016 19019 19022 19025 19028 19031 19034 19037 19040 19043 19045 19048 19051 19054 19057 19059 19062 19065 19068 19071 19074 19076 19079 19082 19084 19087 19090 19093 19095 19098 19101 19104 19106 19109 19112 19115 19118 19121 19124 19127 19130 19133 19136 19139 19142 19145 19148 19151 19154 19157 19160 19163 19166 19169 19172 19175 19177 19180 19183 19186 19189 19192 19195 19198 19201 19204 19207 19210 19213 19215 19218 19221 19223 19226 19229 19232 19235 19238 19241 19244 19247 19250 19253 19256 19259 19262 19265 19268 19271 19274 19276 19279 19282 19285 19288 19291 19294 19297 19300 19303 19306 19308 19311 19314 19317 19319 19322 19325 19327 19330 19333 19336 19339 19342 19345 19348 19351 19354 19357 19360 19363 19366 19369 19372 19375 19378 19381 19384 19387 19390 19393 19396 19399 19402 19405 19408 19411 19414 19417 19420 19423 19426 19429 19432 19435 19438 19441 19444 19447 19450 19453 19456 19459 19462 19465 19468 19471 19474 19477 19480 19483 19486 19489 19492 19495 19498 19500 19503 19506 19508 19511 19513 19516 19519 19522 19525 19528 19531 19534 19537 19539 19542 19545 19547 19550 19552 19555 19558 19561 19564 19567 19570 19573 19576 19579 19581 19584 19587 19590 19592 19595 19597 19600 19603 19606 19609 19611 19614 19617 19620 19623 19625 19628 19631 19634 19637 19640 19643 19646 19648 19650 19653 19656 19659 19662 19665 19668 19671 19674 19677 19680 19683 19686 19689 19692 19695 19698 19701 19704 19706 19709 19712 19715 19717 19720 19723 19725 19728 19731 19734 19737 19740 19743 19746 19749 19752 19755 19758 19761 19764 19767 19770 19773 19776 19779 19782 19785 19788 19791 19794 19797 19800 19802 19805 19808 19811 19814 19817 19820 19823 19826 19829 19832 19835 19837 19840 19843 19845 19848 19851 19853 19856 19859 19862 19865 19868 19871 19874 19877 19880 19883 19886 19889 19892 19895 19898 19901 19904 19907 19910 19913 19915 19918 19921 19924 19927 19930 19933 19936 19939 19942 19945 19948 19951 19954 19957 19959 19962 19965 19968 19971 19973 19976 19979 19982 19985 19988 19990 19993 19996 19999 20002 20005 20008 20011 20014 20017 20020 20023 20026 20029 20032 20035 20038 20041 20044 20047 20050 20053 20056 20059 20062 20064 20067 20070 20073 20076 20079 20082 20085 20088 20091 20094 20097 20100 20103 20106 20109 20111 20114 20117 20120 20123 20125 20128 20131 20134 20137 20140 20143 20146 20149 20152 20155 20158 20161 20164 20167 20170 20173 20176 20179 20182 20185 20188 20191 20194 20197 20200 20203 20206 20209 20212 20214 20217 20220 20223 20226 20229 20231 20234 20237 20240 20243 20246 20249 20252 20255 20258 20261 20264 20267 20270 20273 20276 20279 20282 20285 20288 20291 20294 20297 20300 20303 20306 20309 20312 20315 20318 20321 20324 20327 20330 20333 20336 20339 20342 20345 20348 20351 20354 20357 20360 20363 20366 20369 20372 20375 20378 20381 20384 20387 20390 20393 20396 20399 20402 20405 20408 20411 20414 20417 20420 20423 20426 20429 20432 20435 20438 20441 20444 20447 20450 20453 20456 20458 20461 20464 20467 20470 20473 20475 20478 20481 20484 20487 20490 20493 20496 20499 20502 20505 20508 20511 20514 20517 20520 20523 20526 20529 20532 20535 20538 20541 20543 20546 20549 20552 20555 20558 20561 20564 20567 20570 20573 20576 20579 20582 20585 20588 20591 20594 20596 20599 20602 20604 20607 20610 20612 20615 20617 20620 20623 20626 20629 20631 20634 20637 20639 20642 20645 20648 20651 20654 20657 20660 20663 20666 20669 20672 20675 20677 20680 20683 20686 20689 20692 20695 20698 20701 20704 20707 20710 20713 20716 20719 20722 20725 20728 20731 20734 20737 20740 20742 20745 20748 20751 20754 20757 20760 20763 20766 20769 20772 20775 20777 20780 20783 20786 20789 20792 20795 20798 20801 20804 20807 20810 20813 20816 20819 20822 20825 20828 20831 20834 20837 20839 20842 20845 20848 20851 20854 20857 20860 20863 20866 20869 20872 20875 20877 20880 20882 20885 20888 20891 20893 20896 20899 20901 20904 20907 20909 20912 20915 20917 20920 20923 20926 20929 20932 20935 20937 20939 20942 20945 20948 20951 20953 20956 20959 20962 20965 20968 20971 20974 20977 20980 20983 20986 20989 20991 20994 20997 21000 21003 21005 21008 21011 21014 21017 21020 21023 21026 21029 21032 21034 21037 21040 21043 21046 21049 21052 21055 21058 21061 21064 21067 21070 21073 21076 21079 21081 21084 21087 21090 21093 21095 21097 21100 21103 21106 21109 21112 21115 21118 21121 21123 21126 21129 21132 21135 21138 21141 21144 21147 21150 21153 21156 21159 21162 21165 21168 21171 21174 21177 21180 21182 21185 21188 21191 21194 21197 21200 21203 21206 21209 21212 21215 21218 21221 21224 21227 21230 21233 21236 21239 21242 21245 21248 21251 21253 21256 21259 21262 21264 21267 21270 21273 21275 21278 21280 21283 21286 21288 21291 21294 21297 21300 21302 21305 21308 21311 21314 21317 21320 21323 21326 21329 21332 21335 21338 21341 21344 21347 21350 21352 21355 21358 21361 21364 21367 21370 21373 21376 21379 21382 21385 21388 21391 21394 21397 21400 21403 21406 21408 21411 21414 21417 21420 21423 21426 21429 21432 21435 21438 21441 21443 21446 21448 21451 21454 21457 21459 21462 21465 21468 21470 21472 21475 21478 21481 21484 21487 21489 21492 21494 21497 21500 21503 21505 21508 21511 21514 21517 21520 21522 21525 21528 21531 21534 21537 21540 21543 21546 21549 21552 21555 21558 21561 21564 21567 21570 21573 21576 21579 21582 21585 21587 21590 21593 21596 21599 21602 21605 21608 21610 21613 21616 21619 21622 21624 21626 21629 21632 21634 21636 21639 21642 21645 21648 21651 21654 21657 21660 21663 21666 21669 21672 21675 21678 21681 21684 21687 21690 21693 21696 21699 21702 21705 21708 21711 21714 21717 21720 21723 21726 21729 21731 21734 21736 21739 21742 21745 21748 21751 21754 21757 21760 21763 21766 21769 21772 21774 21777 21780 21782 21785 21787 21790 21793 21795 21797 21800 21803 21805 21807 21810 21813 21816 21819 21821 21823 21826 21828 21831 21834 21837 21839 21841 21844 21847 21850 21853 21855 21858 21861 21864 21867 21870 21873 21875 21878 21881 21884 21887 21890 21893 21896 21899 21902 21905 21908 21911 21914 21917 21920 21923 21926 21928 21931 21934 21937 21939 21942 21945 21948 21950 21953 21956 21959 21961 21964 21967 21970 21973 21975 21978 21981 21983 21986 21989 21992 21995 21997 22000 22003 22005 22008 22011 22014 22017 22020 22023 22026 22029 22032 22035 22038 22041 22043 22046 22049 22052 22055 22057 22060 22063 22065 22068 22071 22074 22076 22079 22082 22085 22087 22090 22093 22096 22099 22101 22104 22106 22109 22112 22115 22118 22121 22124 22127 22130 22133 22135 22138 22141 22144 22147 22150 22153 22156 22159 22162 22165 22168 22170 22173 22176 22178 22181 22184 22186 22189 22192 22195 22198 22201 22204 22207 22210 22213 22216 22219 22221 22224 22227 22230 22233 22236 22239 22241 22244 22247 22249 22252 22255 22258 22261 22264 22267 22270 22273 22276 22279 22282 22285 22287 22290 22293 22296 22299 22302 22305 22308 22310 22313 22316 22319 22321 22324 22327 22330 22333 22336 22339 22342 22345 22348 22350 22353 22356 22359 22362 22365 22368 22371 22374 22377 22380 22383 22385 22388 22391 22394 22396 22399 22402 22405 22408 22410 22413 22415 22417 22419 22422 22425 22428 22431 22434 22437 22439 22442 22445 22448 22451 22453 22455 22458 22461 22464 22467 22470 22473 22476 22478 22481 22484 22487 22490 22493 22496 22499 22502 22505 22508 22510 22513 22516 22519 22522 22525 22528 22531 22534 22537 22540 22543 22546 22548 22551 22554 22557 22560 22563 22566 22568 22571 22573 22576 22579 22582 22585 22588 22591 22594 22597 22600 22603 22605 22608 22611 22614 22617 22620 22623 22626 22629 22631 22634 22637 22640 22643 22646 22649 22652 22655 22657 22660 22663 22665 22668 22671 22674 22677 22680 22682 22685 22688 22691 22693 22696 22699 22702 22705 22708 22711 22714 22717 22720 22723 22726 22729 22732 22735 22738 22740 22743 22746 22749 22751 22753 22756 22758 22761 22764 22767 22770 22773 22776 22778 22781 22784 22787 22790 22793 22796 22799 22802 22805 22808 22811 22814 22817 22820 22823 22826 22829 22832 22835 22838 22841 22844 22847 22850 22853 22856 22859 22862 22865 22868 22871 22874 22877 22880 22883 22886 22889 22891 22893 22896 22899 22902 22905 22908 22910 22913 22915 22918 22920 22923 22926 22928 22931 22933 22936 22939 22941 22944 22947 22949 22952 22954 22957 22960 22963 22966 22969 22972 22974 22977 22980 22983 22986 22989 22992 22995 22998 23001 23004 23007 23010 23013 23016 23019 23022 23025 23028 23031 23034 23037 23040 23043 23046 23049 23052 23055 23058 23061 23064 23067 23070 23073 23076 23079 23082 23085 23088 23091 23094 23097 23100 23103 23106 23109 23112 23115 23118 23121 23124 23127 23130 23133 23136 23139 23142 23145 23148 23151 23154 23157 23160 23163 23166 23169 23172 23175 23178 23181 23184 23187 23190 23193 23196 23199 23202 23205 23208 23211 23214 23216 23219 23222 23225 23228 23231 23233 23236 23239 23242 23244 23247 23250 23253 23256 23258 23261 23263 23266 23268 23271 23274 23277 23279 23282 23285 23288 23291 23294 23297 23300 23303 23306 23309 23312 23315 23318 23321 23324 23327 23330 23333 23336 23339 23342 23345 23348 23351 23353 23356 23359 23362 23365 23367 23370 23372 23375 23378 23380 23383 23386 23389 23392 23395 23398 23401 23403 23406 23409 23411 23413 23416 23419 23422 23425 23428 23431 23434 23437 23439 23442 23444 23446 23448 23451 23454 23457 23460 23463 23465 23468 23471 23474 23477 23480 23483 23486 23489 23492 23495 23498 23501 23504 23507 23509 23512 23515 23518 23521 23524 23527 23529 23531 23534 23537 23539 23541 23544 23547 23550 23553 23555 23558 23561 23564 23567 23570 23573 23576 23578 23581 23584 23587 23589 23592 23595 23598 23601 23604 23607 23610 23613 23616 23619 23622 23624 23627 23630 23633 23636 23639 23642 23645 23648 23651 23654 23657 23660 23663 23666 23669 23672 23675 23678 23681 23684 23686 23689 23692 23695 23698 23701 23704 23707 23710 23713 23716 23719 23722 23725 23728 23731 23734 23737 23740 23743 23746 23749 23752 23755 23758 23761 23764 23766 23769 23772 23775 23778 23781 23784 23787 23790 23793 23796 23799 23802 23805 23808 23811 23814 23817 23820 23823 23826 23829 23832 23835 23838 23841 23844 23847 23850 23852 23855 23858 23861 23863 23866 23869 23872 23875 23878 23881 23884 23887 23890 23893 23896 23899 23902 23905 23907 23910 23913 23915 23918 23921 23924 23927 23930 23933 23936 23939 23942 23945 23948 23950 23953 23956 23958 23961 23964 23967 23970 23973 23976 23979 23982 23985 23988 23991 23994 23997 24000 24003 24006 24009 24012 24015 24018 24021 24024 24027 24029 24032 24035 24037 24040 24043 24045 24048 24050 24053 24056 24058 24060 24063 24066 24069 24072 24075 24078 24080 24082 24085 24088 24091 24094 24097 24099 24101 24104 24107 24110 24113 24116 24119 24122 24125 24128 24131 24134 24137 24140 24143 24146 24148 24151 24154 24156 24159 24162 24165 24168 24171 24173 24176 24179 24182 24185 24188 24191 24194 24197 24200 24203 24206 24209 24212 24214 24216 24219 24222 24225 24228 24231 24234 24236 24239 24242 24245 24248 24251 24254 24257 24260 24262 24265 24268 24271 24274 24277 24280 24283 24286 24288 24291 24293 24296 24299 24302 24305 24308 24310 24312 24315 24318 24321 24323 24326 24328 24331 24333 24336 24339 24342 24345 24348 24351 24353 24355 24358 24361 24364 24367 24370 24372 24375 24378 24381 24383 24386 24389 24391 24394 24397 24400 24403 24405 24407 24410 24413 24416 24419 24422 24425 24428 24431 24434 24437 24439 24441 24444 24447 24449 24452 24454 24457 24459 24462 24465 24468 24471 24474 24477 24480 24483 24486 24489 24491 24494 24497 24500 24503 24505 24508 24511 24514 24517 24520 24522 24525 24528 24531 24534 24537 24540 24543 24546 24549 24552 24555 24557 24560 24563 24566 24569 24572 24574 24576 24579 24582 24585 24588 24591 24594 24597 24600 24603 24606 24609 24612 24615 24617 24620 24623 24626 24629 24632 24635 24638 24641 24644 24646 24649 24652 24655 24658 24661 24664 24667 24670 24672 24675 24678 24681 24684 24687 24690 24693 24695 24698 24701 24703 24706 24709 24712 24715 24717 24720 24723 24726 24729 24732 24735 24738 24741 24743 24746 24749 24752 24755 24758 24760 24763 24766 24768 24770 24773 24776 24779 24782 24785 24788 24791 24794 24796 24799 24802 24805 24808 24811 24814 24817 24820 24823 24826 24829 24832 24834 24837 24840 24843 24846 24848 24851 24854 24857 24860 24863 24866 24869 24872 24875 24878 24881 24884 24887 24890 24893 24896 24899 24902 24904 24907 24910 24913 24916 24919 24922 24925 24928 24931 24934 24937 24940 24943 24946 24948 24951 24954 24957 24960 24963 24966 24969 24972 24975 24978 24981 24984 24987 24989 24992 24995 24998 25001 25004 25007 25009 25012 25015 25018 25021 25024 25027 25030 25032 25035 25038 25041 25044 25047 25049 25052 25055 25058 25061 25064 25067 25070 25073 25076 25079 25082 25085 25088 25091 25094 25097 25100 25103 25106 25109 25112 25114 25117 25120 25123 25126 25129 25132 25135 25137 25140 25143 25146 25149 25152 25155 25158 25160 25162 25165 25168 25171 25174 25177 25180 25183 25186 25189 25191 25194 25197 25200 25203 25206 25209 25212 25214 25217 25220 25223 25225 25228 25231 25234 25237 25240 25243 25245 25248 25251 25254 25257 25260 25263 25265 25268 25271 25274 25277 25280 25283 25285 25288 25290 25293 25295 25298 25301 25303 25306 25309 25311 25313 25316 25318 25321 25323 25326 25329 25332 25335 25338 25341 25344 25347 25350 25353 25356 25359 25362 25365 25368 25371 25374 25377 25380 25383 25386 25389 25392 25395 25398 25401 25404 25406 25409 25412 25415 25417 25420 25423 25426 25429 25432 25435 25438 25441 25444 25446 25449 25452 25455 25458 25461 25464 25467 25470 25472 25474 25477 25479 25482 25485 25488 25491 25494 25497 25500 25503 25506 25509 25512 25515 25518 25521 25524 25527 25530 25533 25536 25539 25542 25545 25548 25551 25554 25557 25560 25563 25566 25569 25572 25575 25578 25581 25584 25586 25589 25591 25594 25597 25600 25603 25606 25609 25612 25615 25618 25621 25624 25627 25630 25633 25636 25639 25642 25645 25648 25651 25654 25657 25660 25663 25666 25669 25672 25675 25678 25681 25684 25687 25690 25693 25696 25699 25702 25705 25708 25711 25714 25717 25720 25723 25726 25729 25732 25735 25738 25740 25743 25746 25749 25752 25754 25757 25759 25762 25765 25768 25771 25774 25777 25780 25783 25786 25789 25791 25794 25797 25800 25803 25806 25809 25812 25815 25818 25821 25824 25827 25830 25833 25835 25838 25841 25844 25846 25849 25852 25855 25858 25861 25864 25867 25870 25873 25876 25879 25882 25885 25888 25891 25894 25897 25900 25903 25906 25909 25912 25915 25918 25920 25923 25926 25929 25932 25935 25938 25940 25943 25946 25949 25952 25955 25958 25961 25964 25967 25970 25973 25976 25979 25982 25984 25987 25989 25992 25994 25997 26000 26003 26006 26009 26011 26014 26017 26020 26023 26026 26029 26031 26034 26037 26040 26043 26046 26049 26052 26055 26058 26061 26064 26066 26069 26071 26074 26076 26079 26082 26085 26088 26091 26093 26096 26099 26102 26105 26108 26111 26114 26117 26120 26123 26126 26129 26132 26135 26138 26141 26144 26147 26150 26152 26155 26158 26161 26164 26167 26170 26173 26175 26178 26181 26184 26187 26190 26193 26196 26199 26202 26205 26208 26211 26214 26217 26220 26223 26226 26229 26232 26234 26237 26240 26243 26246 26249 26251 26253 26256 26259 26262 26264 26267 26270 26273 26275 26278 26281 26284 26287 26290 26293 26296 26298 26301 26304 26307 26309 26312 26314 26317 26320 26323 26326 26329 26332 26335 26337 26340 26343 26346 26349 26352 26355 26358 26361 26364 26367 26370 26373 26375 26378 26381 26384 26387 26390 26393 26396 26399 26402 26405 26408 26411 26414 26417 26420 26423 26425 26428 26431 26434 26437 26440 26443 26446 26449 26452 26455 26458 26461 26464 26467 26470 26473 26476 26479 26482 26485 26488 26491 26494 26497 26500 26503 26506 26509 26512 26515 26518 26521 26523 26526 26529 26532 26535 26538 26541 26544 26547 26550 26553 26556 26559 26562 26565 26568 26571 26574 26577 26580 26583 26586 26589 26592 26594 26597 26600 26603 26606 26609 26611 26614 26617 26620 26623 26626 26628 26631 26634 26637 26640 26643 26646 26649 26652 26654 26657 26660 26663 26666 26669 26672 26675 26678 26681 26683 26686 26689 26691 26694 26697 26700 26703 26706 26709 26712 26715 26718 26721 26724 26727 26730 26733 26735 26738 26741 26744 26747 26749 26752 26755 26758 26760 26763 26766 26769 26772 26775 26778 26781 26784 26787 26790 26793 26796 26799 26802 26804 26807 26810 26813 26816 26818 26821 26823 26826 26829 26832 26834 26837 26840 26843 26845 26847 26849 26852 26855 26858 26861 26863 26866 26868 26871 26873 26875 26878 26881 26884 26887 26890 26892 26895 26898 26901 26904 26907 26910 26912 26915 26917 26920 26922 26925 26928 26931 26934 26936 26938 26941 26944 26947 26950 26953 26956 26959 26962 26965 26968 26971 26974 26976 26979 26982 26985 26988 26991 26994 26997 27000 27002 27005 27008 27011 27013 27016 27018 27021 27024 27027 27030 27032 27034 27036 27039 27042 27044 27047 27050 27052 27055 27058 27061 27063 27066 27069 27072 27075 27078 27080 27083 27086 27089 27092 27095 27098 27101 27103 27106 27109 27111 27113 27116 27119 27122 27124 27126 27129 27132 27135 27138 27141 27144 27146 27149 27152 27155 27158 27161 27163 27166 27169 27172 27175 27178 27181 27184 27187 27190 27193 27196 27199 27202 27205 27208 27211 27214 27217 27220 27223 27226 27229 27231 27234 27236 27239 27242 27244 27247 27250 27253 27256 27258 27261 27264 27267 27270 27273 27276 27279 27282 27285 27288 27290 27293 27295 27298 27300 27303 27305 27308 27311 27313 27316 27319 27322 27325 27328 27331 27334 27337 27340 27342 27345 27348 27351 27354 27357 27360 27363 27366 27369 27372 27375 27378 27381 27384 27387 27390 27393 27396 27399 27402 27405 27408 27411 27414 27417 27420 27423 27426 27429 27432 27435 27438 27441 27444 27447 27450 27452 27455 27458 27461 27464 27466 27469 27472 27475 27478 27481 27484 27487 27490 27493 27496 27499 27502 27505 27507 27510 27513 27516 27519 27522 27525 27528 27531 27534 27537 27539 27542 27545 27548 27551 27554 27556 27559 27562 27565 27568 27571 27574 27577 27580 27583 27586 27589 27591 27594 27597 27600 27603 27606 27609 27611 27614 27617 27620 27622 27625 27627 27629 27632 27635 27638 27641 27644 27647 27650 27653 27655 27658 27661 27664 27666 27669 27672 27675 27677 27680 27683 27686 27689 27692 27695 27698 27701 27704 27706 27708 27711 27714 27717 27720 27723 27726 27729 27732 27735 27738 27741 27744 27747 27750 27753 27756 27759 27762 27765 27768 27770 27772 27775 27778 27781 27784 27787 27790 27793 27796 27799 27802 27805 27808 27811 27814 27817 27819 27822 27825 27828 27831 27833 27836 27839 27842 27845 27848 27851 27854 27857 27860 27863 27866 27869 27872 27875 27878 27881 27884 27887 27890 27893 27896 27899 27902 27904 27907 27910 27913 27916 27919 27921 27924 27927 27930 27933 27935 27937 27940 27943 27946 27949 27951 27954 27956 27959 27961 27963 27966 27969 27972 27975 27977 27980 27982 27985 27988 27990 27993 27995 27998 28000 28003 28006 28009 28012 28015 28018 28021 28024 28027 28030 28033 28036 28039 28042 28045 28048 28051 28053 28056 28059 28062 28065 28067 28069 28072 28075 28078 28081 28084 28087 28090 28092 28095 28098 28100 28103 28105 28108 28111 28114 28117 28120 28123 28125 28128 28131 28134 28137 28140 28143 28146 28149 28152 28155 28158 28161 28163 28166 28169 28171 28174 28177 28180 28183 28186 28189 28192 28195 28198 28201 28204 28207 28210 28213 28216 28219 28222 28225 28228 28230 28233 28236 28239 28242 28244 28246 28249 28252 28255 28258 28261 28264 28267 28270 28273 28275 28278 28281 28283 28286 28288 28291 28294 28297 28300 28302 28305 28308 28311 28314 28317 28320 28323 28326 28329 28332 28335 28338 28341 28344 28346 28349 28352 28355 28357 28360 28363 28366 28369 28372 28375 28378 28381 28384 28387 28390 28393 28395 28398 28400 28403 28406 28409 28412 28414 28417 28420 28423 28425 28428 28431 28434 28437 28440 28443 28446 28449 28452 28455 28458 28460 28462 28465 28468 28471 28474 28477 28480 28483 28486 28489 28491 28494 28497 28500 28503 28506 28509 28512 28515 28517 28520 28523 28526 28529 28531 28534 28537 28540 28543 28545 28548 28550 28553 28556 28559 28562 28565 28568 28571 28574 28577 28580 28583 28586 28589 28592 28595 28598 28601 28603 28606 28609 28612 28615 28618 28621 28624 28626 28629 28632 28635 28638 28641 28644 28647 28650 28653 28656 28659 28662 28665 28667 28669 28672 28675 28678 28681 28683 28686 28689 28692 28695 28698 28700 28703 28706 28709 28712 28715 28718 28720 28723 28726 28728 28731 28733 28736 28739 28741 28744 28747 28750 28753 28756 28759 28762 28764 28767 28770 28773 28776 28779 28782 28785 28788 28790 28792 28794 28797 28800 28803 28806 28809 28812 28815 28818 28821 28823 28826 28829 28832 28835 28838 28841 28844 28846 28849 28852 28855 28857 28860 28863 28865 28868 28871 28874 28877 28879 28882 28885 28888 28891 28894 28897 28900 28903 28905 28908 28910 28913 28916 28919 28922 28925 28928 28930 28933 28936 28938 28941 28944 28947 28950 28953 28956 28959 28962 28965 28967 28970 28973 28976 28979 28982 28985 28987 28990 28993 28996 28999 29001 29004 29007 29010 29013 29016 29019 29022 29025 29028 29031 29034 29037 29040 29043 29046 29049 29052 29055 29058 29061 29064 29067 29070 29073 29076 29079 29082 29085 29088 29091 29094 29097 29100 29103 29106 29109 29112 29115 29118 29121 29124 29127 29130 29133 29136 29139 29142 29145 29148 29151 29154 29157 29159 29162 29165 29167 29170 29172 29174 29177 29180 29182 29185 29187 29190 29193 29196 29199 29201 29204 29207 29209 29212 29215 29218 29221 29224 29227 29229 29231 29234 29237 29240 29243 29246 29249 29251 29254 29256 29259 29261 29263 29266 29268 29271 29273 29275 29278 29281 29284 29287 29290 29293 29296 29299 29302 29304 29307 29309 29312 29315 29318 29321 29324 29327 29330 29332 29334 29337 29340 29343 29346 29348 29351 29353 29356 29359 29361 29364 29366 29369 29372 29375 29377 29380 29382 29384 29387 29390 29393 29395 29398 29400 29402 29405 29408 29411 29413 29416 29419 29421 29424 29427 29430 29433 29436 29439 29442 29444 29447 29450 29453 29456 29459 29462 29465 29468 29471 29474 29477 29480 29483 29486 29489 29492 29495 29498 29501 29504 29507 29510 29513 29516 29519 29522 29525 29528 29531 29534 29537 29539 29542 29545 29548 29550 29553 29556 29559 29561 29563 29566 29569 29572 29575 29577 29580 29583 29586 29589 29592 29595 29598 29601 29604 29607 29610 29613 29616 29619 29622 29625 29628 29631 29634 29636 29639 29641 29644 29647 29650 29653 29655 29658 29661 29663 29666 29669 29672 29675 29678 29681 29684 29686 29689 29692 29695 29698 29700 29703 29706 29709 29711 29714 29716 29718 29721 29724 29726 29729 29732 29735 29738 29741 29744 29746 29749 29752 29755 29758 29761 29763 29766 29769 29772 29774 29777 29779 29782 29785 29788 29791 29794 29796 29799 29801 29803 29806 29808 29811 29814 29816 29819 29822 29824 29827 29830 29833 29835 29838 29840 29843 29846 29849 29851 29854 29857 29860 29863 29866 29869 29872 29875 29878 29880 29883 29886 29889 29892 29895 29898 29901 29904 29907 29909 29912 29915 29918 29921 29923 29926 29929 29932 29934 29937 29940 29943 29946 29949 29952 29955 29958 29960 29963 29966 29968 29971 29974 29977 29980 29983 29986 29988 29990 29993 29996 29998 30001 30004 30007 30010 30013 30016 30019 30022 30025 30027 30030 30033 30036 30039 30042 30044 30047 30049 30052 30055 30058 30061 30064 30067 30070 30073 30076 30079 30081 30084 30086 30089 30092 30095 
</DataArray>
<DataArray type="UInt32" Name="types" format="ascii">
5 5 5 5 5 5 5 3 5 5 3 5 5 3 5 5 3 5 3 3 5 3 5 5 5 5 5 5 5 5 5 5 5 5 5 5 3 5 3 5 5 5 5 5 5 5 5 5 3 5 5 3 5 5 5 5 5 5 5 5 3 5 5 5 3 5 5 5 3 5 5 3 5 5 3 5 5 5 5 3 5 5 5 5 5 5 5 5 5 5 5 3 5 5 3 5 5 5 5 5 5 3 5 5 5 5 5 5 5 5 3 5 5 5 5 5 5 3 5 5 5 5 5 5 5 5 5 5 3 5 5 5 5 5 5 5 5 5 5 5 5 5 5 5 5 5 5 5 5 5 5 5 5 5 5 3 5 5 3 3 5 5 5 5 5 5 5 5 5 5 5 5 5 5 5 5 5 5 5 5 5 5 5 5 5 5 5 5 5 5 5 3 5 5 3 5 5 5 5 5 5 5 3 5 5 5 3 5 5 5 5 5 5 3 5 5 5 5 5 5 5 5 5 5 5 5 5 5 5 5 5 5 5 5 5 5 5 5 3 5 5 5 5 5 5 5 5 5 5 3 5 5 3 5 5 5 5 5 5 5 3 5 5 3 5 5 5 5 5 5 5 5 5 5 5 5 5 5 5 5 5 5 5 5 5 5 5 5 5 5 5 5 5 5 5 3 5 5 5 3 5 5 5 5 5 5 5 5 5 5 5 5 5 5 5 5 5 5 5 5 5 5 5 5 5 5 5 5 3 3 5 5 5 5 5 5 5 5 5 5 3 5 5 5 3 5 5 5 5 3 5 5 5 3 5 5 5 5 5 5 5 5 3 5 5 5 5 3 5 5 5 5 3 3 5 5 3 5 5 5 5 5 5 5 5 5 5 5 3 5 5 3 3 5 5 5 5 3 3 5 5 5 5 5 5 5 5 5 5 5 5 3 3 5 5 5 5 5 3 5 5 5 3 5 5 5 5 5 3 5 5 5 5 5 5 5 5 5 5 5 3 5 5 3 5 5 5 5 5 5 3 5 3 5 5 3 5 5 5 5 5 5 5 5 5 3 5 5 5 5 5 5 5 5 5 5 5 5 5 5 5 5 5 5 5 3 5 5 5 5 5 5 5 5 5 5 5 5 5 5 5 5 5 3 5 5 5 5 5 5 5 3 5 3 5 5 5 3 5 5 5 5 3 3 3 5 5 5 5 3 5 5 5 5 5 5 5 5 5 5 5 5 3 5 5 3 5 5 3 5 5 5 5 5 5 5 5 5 5 5 5 5 5 5 5 5 5 5 5 5 5 5 5 5 5 5 5 3 5 5 5 3 5 5 5 3 5 5 5 5 3 5 5 3 5 5 5 5 5 5 5 5 3 3 5 5 5 3 3 3 5 5 5 5 5 3 5 5 5 5 5 5 5 5 5 5 5 5 5 5 5 5 5 5 5 5 5 5 5 5 5 5 5 5 5 5 5 5 5 5 5 5 5 5 5 5 5 5 5 5 5 5 5 5 5 5 5 5 5 5 5 5 5 5 5 5 5 5 5 5 5 5 5 5 5 5 5 5 5 5 5 5 5 5 5 5 5 5 5 5 3 5 5 5 5 5 3 5 5 5 5 5 3 5 5 5 5 5 5 3 5 3 3 5 5 5 3 5 3 5 3 5 5 3 5 5 5 5 5 5 5 5 5 5 3 5 5 5 3 3 5 5 3 5 5 5 3 5 5 5 3 5 5 5 5 5 3 5 5 5 5 3 5 5 3 3 3 5 3 5 3 5 5 3 3 5 5 5 5 5 5 5 3 5 3 5 5 5 5 5 5 5 5 3 5 5 3 5 5 5 5 5 5 5 5 5 5 3 5 5 3 5 5 5 3 5 3 5 5 5 5 5 5 3 5 5 5 5 3 5 5 5 3 5 3 3 5 5 5 5 3 5 5 5 5 5 5 5 5 5 5 5 3 5 5 5 3 5 5 5 3 5 5 5 5 5 5 5 5 5 5 5 5 5 3 5 5 5 5 3 5 5 5 5 5 3 5 5 3 5 5 3 5 5 5 3 5 5 3 3 5 5 3 5 5 5 5 5 5 5 5 5 5 3 5 3 5 5 3 5 5 3 5 5 5 5 5 5 5 3 5 5 3 5 5 5 5 5 5 5 5 5 5 5 5 5 5 5 5 5 5 5 5 5 5 5 5 3 5 5 5 5 5 5 5 5 5 5 5 3 5 5 5 5 5 5 3 5 5 5 5 5 5 5 5 5 5 5 5 3 5 5 5 5 3 5 5 5 3 5 5 3 5 5 3 5 5 5 3 5 5 5 5 5 5 5 5 5 5 5 5 5 5 5 5 5 5 5 5 5 5 5 5 5 3 5 5 5 3 5 5 5 5 3 5 5 5 5 5 5 5 5 5 5 5 3 5 5 3 5 5 5 5 3 5 5 3 5 5 5 5 5 5 5 5 5 3 5 3 5 5 5 3 5 5 5 5 5 3 5 5 5 3 5 5 5 3 5 5 3 5 5 5 5 3 5 5 3 5 5 5 5 5 5 5 5 5 5 3 3 5 5 5 5 3 5 5 5 3 5 5 5 5 5 5 5 5 5 5 5 5 5 3 5 5 3 3 5 5 5 5 3 5 5 5 5 5 5 5 5 5 5 5 5 5 5 5 5 3 5 5 3 5 5 5 3 5 3 5 3 3 5 5 5 5 3 5 5 5 5 3 5 5 5 3 3 3 5 3 5 5 3 5 3 5 5 5 5 5 3 5 3 5 5 5 3 5 5 5 5 5 5 5 5 3 5 5 3 5 3 5 5 5 5 5 5 5 5 3 3 5 3 5 5 5 5 5 5 5 5 5 5 5 5 3 3 5 5 5 5 5 5 5 5 5 5 5 5 5 5 5 3 5 3 5 5 5 3 5 5 5 5 5 5 5 5 5 5 5 5 5 5 5 5 3 5 5 5 5 5 3 5 5 5 3 5 3 5 5 5 5 5 5 5 5 5 5 5 5 5 5 5 5 5 5 5 5 5 5 5 5 5 5 5 5 5 5 5 5 5 5 5 5 5 3 5 5 5 3 5 5 5 5 5 5 5 5 5 5 3 5 5 5 5 5 5 5 5 5 5 5 5 5 5 5 5 5 5 5 5 5 5 5 3 5 5 3 5 5 5 5 5 3 5 5 3 5 5 3 5 5 3 5 5 5 5 5 3 5 5 5 5 3 5 3 5 5 5 5 3 5 3 5 5 3 3 5 5 5 5 3 5 5 5 5 5 5 5 5 5 5 3 5 5 5 5 3 5 3 3 5 3 3 5 5 5 3 5 3 5 3 5 5 5 5 5 3 3 5 5 3 5 5 3 5 5 3 5 5 5 3 5 5 3 5 5 5 3 5 5 5 5 5 5 5 5 5 3 5 5 5 5 5 3 5 5 5 3 5 5 5 5 3 5 5 5 5 3 5 5 3 3 3 5 3 3 5 3 5 5 5 3 5 5 5 5 5 3 5 5 5 5 5 5 5 5 3 5 5 5 5 5 5 5 5 3 5 5 3 3 5 5 5 5 3 5 5 5 5 5 3 5 5 5 5 5 5 3 5 5 5 3 5 5 5 5 5 5 5 5 5 5 5 5 5 5 3 5 5 5 5 3 5 5 5 5 5 5 5 5 5 3 5 5 5 3 5 5 5 5 5 3 5 5 3 5 5 5 5 5 5 3 5 5 5 5 5 5 3 5 5 5 3 5 5 5 5 5 5 5 5 5 5 3 5 5 3 5 5 5 3 5 3 5 5 5 5 5 5 5 5 5 5 5 5 3 5 3 3 5 5 3 5 5 5 3 3 5 3 5 5 5 5 5 3 5 3 3 3 5 5 5 5 5 5 3 5 5 5 5 5 3 5 5 5 5 5 5 5 5 5 5 5 3 5 5 5 5 5 5 5 5 5 5 5 5 5 5 5 5 5 5 5 5 5 5 5 5 5 5 5 5 5 3 5 5 5 5 5 5 5 5 3 5 5 5 5 5 3 5 5 5 5 5 3 5 5 5 5 5 5 5 5 5 5 5 5 5 3 5 3 5 3 5 5 5 5 5 5 5 3 5 5 5 5 5 5 5 5 5 5 5 5 5 5 5 5 5 5 5 5 5 5 5 5 5 5 5 5 5 5 5 5 5 5 5 5 5 5 5 5 5 5 5 5 5 5 5 3 5 5 5 5 5 5 5 5 5 5 5 5 3 5 5 5 5 5 5 5 5 3 5 5 5 5 5 5 3 5 5 5 5 5 5 5 5 5 3 5 5 5 5 5 5 5 5 5 5 5 3 5 5 5 3 5 5 5 5 5 5 5 5 5 5 5 5 5 5 5 5 3 5 5 5 5 5 5 5 5 3 5 5 5 5 5 5 5 5 5 5 5 5 5 5 5 5 5 5 5 5 5 3 5 5 5 3 5 5 5 5 5 5 5 5 3 5 5 5 5 5 5 5 5 5 5 3 5 5 5 3 5 3 5 5 5 5 5 5 5 5 5 3 5 5 3 5 3 5 3 5 5 5 5 5 5 3 5 5 3 3 5 5 5 5 5 5 3 5 3 5 5 3 5 5 3 5 5 5 5 5 5 5 5 5 5 5 5 5 5 5 3 5 5 3 5 5 5 3 5 5 5 5 5 5 5 5 5 5 5 3 5 5 5 5 5 5 5 5 5 5 5 5 5 3 5 3 5 5 5 5 3 5 3 5 3 5 5 5 5 3 5 5 3 5 3 5 5 5 5 3 5 5 5 5 3 5 5 3 5 3 5 3 3 5 5 5 5 5 5 3 5 5 5 3 5 5 5 5 3 3 5 3 5 5 5 5 5 5 5 5 5 5 5 3 5 5 5 5 5 3 5 5 5 3 5 5 5 5 5 5 5 5 5 5 5 5 5 5 5 3 5 5 5 5 5 5 5 5 5 5 5 5 5 5 5 5 5 5 5 5 5 3 5 5 3 5 5 5 5 5 5 5 5 3 5 5 5 5 5 5 5 5 5 5 3 3 5 5 5 5 3 5 3 5 5 5 5 5 3 5 5 5 5 5 3 5 5 5 5 5 5 5 5 3 5 5 3 3 5 3 5 3 5 5 5 5 3 3 5 5 3 5 3 5 5 5 5 5 3 5 5 5 5 3 3 5 5 3 3 5 5 5 5 3 5 5 5 3 5 5 3 5 3 5 5 5 5 5 5 5 5 5 5 5 5 5 5 5 3 5 5 5 5 5 3 5 5 5 5 5 3 5 5 5 5 3 5 5 5 5 5 5 5 5 5 5 5 5 5 5 5 5 5 5 5 5 5 5 5 5 5 5 5 5 5 5 5 5 5 5 5 5 5 5 5 5 5 5 5 5 5 5 5 5 5 5 5 5 5 5 5 5 5 5 5 5 5 3 5 5 5 5 5 3 5 5 3 5 5 5 5 5 5 5 5 5 5 5 3 5 5 5 5 5 5 5 3 5 3 3 5 5 5 5 5 5 5 5 3 5 5 5 5 5 5 3 5 5 5 3 5 5 5 5 5 5 5 3 5 5 3 5 5 5 5 5 5 5 5 5 3 3 5 5 5 5 3 3 3 3 5 3 5 5 5 5 5 5 5 5 5 5 5 5 5 5 5 3 5 5 3 5 5 5 5 5 5 5 5 5 3 5 5 5 5 5 5 5 5 3 5 5 5 5 5 5 5 5 5 5 5 5 5 5 5 5 5 5 5 5 5 5 5 5 3 5 5 5 5 5 3 5 5 3 3 3 5 5 3 5 5 3 5 5 3 3 5 5 3 5 3 5 5 5 5 5 5 5 5 5 5 5 5 5 5 5 3 5 5 5 5 5 5 5 5 3 5 5 5 5 3 5 3 5 5 3 5 5 5 5 5 5 5 5 3 5 5 3 5 5 5 3 5 5 5 5 5 3 5 5 3 5 5 5 5 5 5 5 5 5 5 5 5 5 5 5 5 5 5 5 5 5 5 5 5 5 5 5 5 3 3 5 5 5 5 5 3 5 5 5 5 5 5 5 5 5 5 5 5 3 5 5 5 5 5 5 5 5 5 5 5 5 5 5 5 5 5 3 5 5 3 5 5 5 5 5 3 5 5 5 5 5 3 5 5 5 5 5 3 5 5 5 5 5 5 5 5 5 5 5 5 5 5 5 5 5 5 5 5 5 3 5 5 3 5 5 5 5 5 5 5 3 5 5 5 5 5 5 5 5 5 5 5 5 5 5 5 5 5 5 5 5 5 5 5 5 5 5 5 5 5 5 5 5 5 5 5 5 5 3 5 5 3 5 5 5 3 5 5 5 5 3 5 5 5 5 5 5 3 5 5 5 5 5 5 5 5 5 5 3 5 5 5 5 3 5 3 5 5 5 5 3 5 5 5 5 5 5 5 5 5 5 5 3 5 5 5 5 5 5 5 5 3 5 5 5 5 5 5 5 5 5 5 5 5 5 5 5 5 5 5 5 3 5 5 5 5 5 5 5 5 5 3 5 5 5 5 5 3 5 5 5 5 5 3 3 3 5 3 5 5 5 5 5 5 5 5 5 3 5 5 5 3 5 5 5 5 5 5 5 5 5 5 5 5 5 5 5 5 5 5 5 5 5 5 5 3 5 5 5 5 5 5 5 3 5 5 3 5 5 5 3 5 5 3 5 5 5 5 3 5 5 3 5 5 5 5 5 5 5 5 3 3 5 5 5 5 5 5 5 3 5 5 5 3 5 5 5 5 5 5 5 5 5 5 5 5 3 5 5 5 5 3 5 5 5 3 3 5 3 5 3 5 5 5 5 3 5 3 5 5 5 5 5 5 5 5 5 3 5 3 3 5 5 5 5 3 3 3 5 5 5 5 3 5 3 5 5 3 5 5 3 5 5 5 5 5 5 3 5 3 5 5 3 5 5 5 5 5 5 5 5 5 5 5 5 5 5 5 5 5 5 3 5 5 5 5 5 5 5 3 3 3 5 3 5 5 5 3 5 3 5 5 3 5 5 3 5 5 3 3 5 3 5 3 5 5 5 3 3 5 5 5 3 5 5 5 5 3 5 5 3 5 5 5 5 5 5 3 5 5 5 5 5 5 5 5 5 5 5 5 5 5 5 5 5 3 5 5 5 5 3 5 5 5 5 5 5 5 3 5 5 5 5 5 5 5 5 5 5 5 5 5 5 5 5 5 3 5 5 5 3 3 5 3 5 3 5 5 5 5 5 5 5 5 5 3 5 5 5 5 3 5 3 5 5 5 3 5 5 3 3 5 5 5 5 3 5 5 3 5 5 5 5 5 3 5 3 5 5 5 3 5 5 3 3 5 5 3 5 5 5 5 5 3 5 5 5 5 5 5 5 5 5 5 5 3 5 3 5 5 5 5 5 5 5 5 3 5 3 3 5 3 5 5 5 5 5 3 5 5 5 3 5 5 5 3 5 5 5 5 5 5 5 5 5 5 5 5 5 5 5 3 5 5 3 5 5 5 5 5 5 5 5 5 3 5 5 5 5 5 5 5 5 5 3 5 5 5 5 5 5 5 5 5 5 5 3 5 5 5 5 5 5 3 5 3 3 5 5 5 5 5 3 5 5 5 5 5 5 5 5 5 5 5 5 5 5 5 5 3 5 5 5 5 5 5 3 5 5 5 5 5 5 5 5 5 5 5 3 5 5 5 5 5 5 3 5 5 5 5 5 5 5 5 5 5 5 5 5 5 5 5 5 5 5 5 3 5 5 5 5 5 5 5 5 3 5 5 5 3 5 5 5 5 3 5 3 5 5 5 5 3 5 5 5 3 5 5 5 5 5 3 5 5 5 5 5 5 5 5 3 5 5 3 3 5 5 3 5 5 5 5 5 5 5 5 3 5 5 5 5 5 5 5 5 5 5 3 3 5 5 5 5 5 5 5 5 3 5 5 3 5 5 5 5 5 5 3 5 5 5 5 5 3 5 5 5 5 5 5 3 5 5 5 3 3 5 5 5 5 5 5 5 3 5 5 3 5 5 5 5 5 3 5 5 5 5 5 5 5 5 5 5 5 3 5 5 5 5 5 5 5 5 5 5 5 3 5 5 5 5 5 5 5 5 5 5 5 5 3 5 5 5 3 3 5 3 5 5 5 3 3 5 5 5 5 3 3 5 5 3 5 5 3 5 5 5 5 5 5 3 5 3 5 5 3 3 3 5 5 3 5 3 5 5 3 3 5 5 5 3 3 5 5 3 5 3 5 5 5 5 5 5 3 3 5 5 5 5 3 3 5 5 5 5 5 3 5 5 5 5 5 5 5 5 5 3 3 5 5 5 5 5 5 3 5 5 5 5 5 3 5 5 5 3 5 5 5 5 5 3 5 3 5 5 5 3 5 5 5 5 3 5 5 5 3 5 5 5 5 5 3 5 3 5 5 3 5 5 5 3 5 5 3 5 5 5 5 3 5 5 5 5 5 5 5 5 3 5 5 5 5 5 5 3 3 3 3 5 5 3 5 5 5 3 3 5 5 5 5 5 5 5 5 5 3 5 5 5 5 5 5 3 5 5 3 5 3 3 5 5 5 3 5 3 5 5 5 3 3 5 3 5 5 5 5 3 5 5 5 5 3 5 5 5 5 5 5 3 5 5 5 5 5 5 5 5 5 5 5 5 5 5 5 5 5 5 5 5 5 5 5 5 5 3 5 5 3 5 5 3 3 3 5 5 5 3 5 3 3 5 3 5 5 5 5 5 5 3 5 5 5 3 5 3 5 5 5 5 3 5 5 5 5 3 5 3 5 5 3 3 5 5 5 5 5 5 5 5 3 3 5 3 5 5 5 5 3 5 3 5 5 5 3 5 5 5 5 5 5 5 3 5 5 5 5 5 3 5 5 5 3 3 5 3 3 5 5 5 5 5 5 3 5 5 3 5 3 5 5 5 3 3 5 5 3 5 3 5 3 5 5 5 5 5 5 3 3 5 5 3 5 5 3 5 5 3 3 5 5 5 5 5 5 3 5 5 5 5 3 5 3 5 5 3 5 5 5 5 5 5 5 5 5 5 5 5 5 5 5 5 5 5 5 5 5 3 5 5 5 5 5 5 5 5 5 5 5 5 5 3 5 3 5 5 5 5 5 5 5 3 5 3 5 3 5 5 5 5 5 5 3 5 5 5 5 5 5 5 5 5 5 5 3 5 3 5 5 5 3 5 5 3 5 5 5 5 3 5 5 3 5 3 5 5 5 5 5 3 5 5 5 5 3 5 3 5 5 3 5 5 3 5 3 5 5 3 5 5 3 5 3 5 5 5 5 5 5 5 5 5 5 5 5 5 5 5 5 5 5 5 5 5 5 5 5 5 5 5 5 5 5 5 5 5 5 5 5 5 5 3 5 5 3 3 5 5 5 3 3 3 3 5 5 5 5 3 5 5 5 5 3 5 5 5 5 5 3 5 5 5 5 3 5 5 5 5 5 5 5 5 5 5 5 5 5 5 3 5 5 5 5 5 5 5 3 5 5 5 5 5 5 3 5 5 5 5 5 5 5 5 5 5 5 5 5 5 5 5 5 5 5 5 5 5 5 5 5 5 5 5 3 5 5 5 5 3 5 5 5 5 5 3 5 5 5 3 5 3 5 5 3 5 5 5 5 5 3 5 5 5 3 5 5 3 5 3 5 5 5 5 5 5 3 5 5 5 5 5 5 3 5 5 5 5 5 5 5 5 5 5 5 5 5 3 5 5 5 3 5 5 5 5 5 5 5 5 5 3 5 3 5 5 5 5 5 5 5 5 5 3 5 5 5 5 5 5 5 5 3 5 5 5 5 5 5 5 5 5 5 5 5 5 5 5 5 5 5 5 5 5 5 5 5 5 5 5 5 5 5 3 5 3 5 5 5 5 5 5 5 5 3 3 5 5 5 5 5 5 5 5 5 5 5 5 5 5 5 5 5 5 5 5 3 5 5 5 3 5 3 5 5 5 5 5 5 5 5 5 3 5 5 3 3 5 3 5 5 5 3 5 5 5 5 5 5 5 5 3 5 5 5 5 5 5 5 5 5 5 5 5 3 5 5 5 3 5 5 5 5 5 5 5 5 5 3 5 3 5 5 3 5 5 3 5 5 5 5 5 3 5 5 5 5 5 5 5 5 5 5 3 3 5 5 5 5 3 5 5 5 5 5 5 5 5 5 5 5 3 5 5 5 5 5 5 5 5 5 5 5 3 5 5 3 5 5 3 5 5 3 5 5 3 5 5 5 3 5 5 5 5 5 5 3 5 5 5 5 5 3 5 5 5 5 5 5 5 5 5 3 5 5 5 5 5 5 5 5 3 5 5 5 5 5 5 5 5 5 5 5 5 5 3 5 5 5 5 5 5 3 5 5 5 5 5 5 5 5 3 5 5 5 5 5 3 3 3 5 5 5 5 5 5 5 5 5 5 5 5 5 5 5 5 5 5 5 5 3 5 5 5 3 5 5 5 5 5 3 5 5 5 3 5 5 5 5 5 5 5 5 5 5 3 5 5 5 5 3 3 5 3 5 3 3 5 5 5 5 5 5 5 5 5 5 5 5 5 5 5 5 5 5 5 5 5 5 3 5 3 5 5 3 3 5 5 5 5 5 3 5 3 3 5 5 3 3 5 5 5 5 5 5 5 5 3 3 5 5 5 3 5 3 5 5 3 5 5 5 3 3 5 5 3 5 5 5 5 5 5 5 5 5 5 5 5 5 5 5 5 5 5 3 5 5 3 5 5 5 3 5 5 3 5 5 5 5 5 5 3 5 5 5 5 5 5 5 5 3 5 3 5 5 5 5 5 5 5 5 5 3 5 5 5 5 5 5 5 5 5 5 5 5 5 5 5 5 5 5 5 3 5 5 5 5 5 5 5 5 5 5 5 5 5 5 3 5 5 5 5 5 5 3 5 5 5 3 5 3 5 3 3 5 5 5 5 5 5 5 5 5 5 5 5 5 3 5 5 5 5 3 5 5 5 3 5 3 5 5 5 5 5 3 5 5 5 5 5 5 5 5 5 5 3 3 5 5 3 3 5 5 5 5 5 5 5 5 5 5 5 5 5 5 5 5 3 5 5 5 5 5 5 5 3 5 5 5 5 5 3 3 5 5 5 3 5 5 5 5 5 3 5 5 5 5 5 3 3 5 5 5 5 3 5 5 3 5 5 5 5 5 5 5 5 5 5 5 5 5 5 5 3 5 5 5 5 3 5 5 5 5 5 5 5 5 5 5 5 5 5 5 5 5 5 5 5 5 5 5 5 5 5 5 5 5 5 5 5 5 5 5 5 5 3 5 5 5 5 3 5 5 5 3 5 5 5 5 5 5 5 5 5 5 5 5 5 5 5 3 5 3 5 5 5 5 3 3 5 5 5 5 5 5 5 5 5 5 5 5 5 3 5 5 5 5 3 5 3 5 5 5 5 3 5 5 3 3 5 5 5 5 3 5 5 3 5 5 5 5 3 5 5 5 5 5 5 5 5 5 5 3 3 3 5 5 3 5 5 5 5 5 5 3 3 5 3 5 5 3 5 5 5 5 3 5 5 5 5 5 5 5 5 5 3 3 5 5 5 5 5 5 5 5 5 5 5 3 5 3 5 5 5 5 5 5 5 5 5 5 5 5 5 5 5 5 5 3 5 5 5 5 5 3 5 3 5 5 5 5 3 5 3 5 5 5 3 3 5 5 5 5 5 5 3 5 5 5 5 5 5 5 3 5 5 5 5 5 5 5 5 5 3 5 3 5 5 5 5 5 3 5 5 5 5 5 3 5 3 5 3 5 5 5 3 5 5 5 5 3 5 5 5 5 5 5 5 5 5 5 5 3 5 5 3 5 5 5 5 5 5 5 5 5 5 5 3 5 5 5 5 5 3 5 3 3 5 5 3 5 3 5 5 5 5 5 5 5 5 5 5 5 5 5 5 5 5 5 5 5 5 5 5 3 5 5 5 5 5 5 5 5 5 5 5 5 5 5 5 5 5 5 5 5 5 5 5 5 5 5 5 5 5 5 3 5 5 5 5 5 5 3 5 5 5 5 5 5 5 5 5 5 5 5 5 5 5 5 3 5 5 5 5 5 5 5 5 5 5 5 5 5 5 5 5 5 5 5 5 5 5 3 5 5 5 5 5 5 5 5 5 3 5 5 5 5 5 5 5 5 3 5 5 5 5 5 5 5 3 3 5 5 5 5 5 3 5 3 5 5 3 5 5 5 5 5 5 5 5 5 5 5 5 5 5 5 5 5 5 3 5 5 5 5 5 5 5 5 5 5 3 5 3 5 3 5 5 5 5 5 5 5 5 5 5 5 5 5 5 5 5 5 5 5 5 5 5 5 5 5 5 5 5 5 5 5 5 5 5 5 5 5 5 5 5 5 5 5 5 5 5 5 5 5 5 3 5 5 5 3 5 5 5 5 3 5 3 5 5 5 5 3 5 5 5 5 5 5 5 5 5 5 5 3 3 5 5 5 5 3 3 5 5 5 5 5 5 5 5 5 5 5 5 5 5 5 5 5 3 5 5 5 5 5 5 5 5 5 5 5 5 5 5 5 5 5 5 5 5 5 5 5 5 5 5 5 5 5 5 5 5 5 5 5 5 5 5 5 3 5 5 3 5 5 5 5 5 5 5 5 5 5 5 5 5 5 5 5 5 5 5 5 5 5 5 5 5 5 5 5 5 5 5 5 5 5 5 5 5 5 5 5 5 5 5 5 5 5 5 5 5 5 5 5 5 3 5 5 5 3 5 5 5 5 5 3 5 5 5 3 5 5 5 5 5 3 3 5 3 5 5 5 5 5 3 5 5 5 5 3 5 5 5 5 3 5 5 5 5 5 5 5 5 5 5 5 5 5 5 5 5 5 5 5 5 3 3 5 5 5 5 5 5 5 3 3 5 5 5 3 5 3 5 5 5 3 5 5 5 5 5 5 5 5 5 5 5 5 5 5 5 5 3 5 5 5 5 3 5 5 5 5 5 3 5 5 5 5 5 5 3 5 5 5 3 3 3 5 5 5 3 5 5 5 5 3 5 3 5 5 3 5 5 5 5 5 5 5 3 5 5 5 5 5 3 5 5 5 5 3 5 5 5 5 5 5 5 5 3 5 5 3 3 5 5 5 3 5 3 5 5 5 5 3 3 5 5 5 5 5 3 5 5 5 5 5 5 5 5 5 3 3 5 5 5 5 5 3 5 3 5 5 5 5 5 5 5 5 5 5 5 5 5 5 5 5 5 3 5 5 3 5 3 5 3 5 3 5 5 3 3 5 5 3 5 3 5 3 5 5 5 3 3 5 5 5 3 5 5 5 3 3 5 5 5 5 5 3 5 5 5 3 5 5 3 5 5 3 5 5 5 3 5 5 5 5 3 5 5 3 3 5 5 5 5 3 3 5 3 5 5 5 3 5 5 3 5 5 3 3 5 5 3 5 3 3 5 3 3 5 5 5 5 3 5 5 5 5 5 5 5 3 5 5 3 5 5 5 5 5 5 5 3 5 3 5 5 5 5 5 5 3 3 5 3 5 3 3 5 3 5 5 5 3 5 5 5 5 3 5 5 3 5 5 3 5 5 5 3 5 5 5 5 5 3 5 5 5 5 5 5 5 5 5 5 5 5 5 3 3 5 5 5 3 5 5 5 3 3 5 5 5 5 5 5 5 5 3 5 5 5 5 3 5 5 5 5 5 5 5 5 5 5 5 5 5 5 5 5 5 5 5 5 5 5 5 5 5 5 5 5 5 5 5 3 5 5 5 5 5 5 5 5 5 5 5 5 5 5 5 5 5 5 5 3 5 5 5 3 5 5 3 5 3 5 5 5 5 5 5 5 5 5 5 5 3 5 5 5 5 5 5 3 5 3 5 5 3 3 5 5 5 5 3 5 3 5 5 5 5 3 5 5 5 5 3 3 5 5 3 5 5 3 5 5 5 5 3 5 5 5 3 5 5 5 5 5 5 5 5 5 5 5 5 5 5 5 5 5 3 5 5 3 5 3 5 5 3 5 3 5 3 5 5 3 5 5 5 5 5 5 5 5 5 5 5 5 5 5 5 5 3 5 3 5 5 5 5 5 5 5 5 5 5 3 5 3 5 5 5 3 5 5 5 5 3 3 5 5 5 5 5 5 5 3 5 3 5 5 5 5 5 5 5 5 3 5 5 5 5 3 5 5 3 5 5 5 5 5 5 5 5 5 5 5 3 5 5 5 5 5 3 5 5 5 5 5 5 5 5 3 5 5 5 3 5 5 5 5 5 5 5 3 5 5 5 5 5 5 5 5 5 5 3 5 5 3 5 3 5 5 5 5 5 3 3 5 5 5 3 5 3 5 5 5 5 5 5 5 5 3 3 5 5 3 5 5 3 3 5 5 5 3 5 5 5 5 5 5 3 5 5 5 5 5 5 5 5 5 5 5 5 5 5 5 3 5 5 5 5 5 5 5 5 3 5 5 5 5 5 5 5 5 3 5 5 5 5 5 5 5 5 5 3 5 5 5 3 3 3 3 5 5 5 5 5 5 3 5 5 5 5 5 5 5 5 5 5 5 5 5 3 3 3 5 5 5 5 5 5 5 3 3 5 5 5 3 3 5 5 5 5 5 5 5 5 5 5 5 5 5 5 5 5 3 5 3 5 5 5 5 5 3 3 3 5 5 3 3 5 3 5 3 3 3 5 3 5 5 5 5 5 5 3 5 3 5 5 5 5 5 5 5 5 5 5 5 3 5 5 5 3 5 5 5 5 5 3 5 5 3 5 5 3 5 5 5 3 5 5 5 5 5 5 5 5 3 5 5 5 3 5 5 5 5 3 5 5 5 5 5 5 5 5 5 5 5 5 5 5 5 5 5 5 5 5 5 5 5 5 5 5 3 5 5 5 5 3 5 5 5 5 5 5 3 5 5 5 5 5 5 5 5 5 3 5 5 5 5 5 5 5 5 5 5 5 5 5 5 5 5 5 5 5 5 5 5 5 3 5 5 5 5 3 5 5 5 5 5 5 5 5 5 5 5 5 5 3 5 5 3 3 5 5 5 3 3 5 3 5 3 5 5 5 5 5 3 5 5 3 5 3 5 5 3 3 5 5 5 5 5 5 5 5 3 5 3 5 5 5 5 5 3 5 5 5 5 5 5 5 5 5 5 5 5 5 3 5 5 3 5 5 5 5 5 5 5 5 5 5 5 5 5 5 3 5 5 5 5 3 5 5 5 5 5 3 5 5 3 5 5 5 3 5 5 5 3 5 5 5 5 5 5 5 5 5 5 5 5 5 5 5 5 5 5 5 5 5 5 5 3 5 5 5 5 5 5 5 5 5 5 5 5 3 5 5 3 5 5 5 5 5 5 5 5 5 5 5 5 5 5 5 5 5 3 5 5 5 5 5 5 5 5 5 5 3 5 5 5 3 5 5 3 5 5 5 5 5 5 5 5 5 5 5 5 5 5 5 5 5 5 5 5 5 5 5 5 5 5 5 5 5 5 5 5 5 5 5 5 5 5 5 5 5 5 5 5 5 5 5 5 5 5 5 5 5 5 5 5 5 3 5 5 3 5 3 5 5 5 5 5 5 5 5 3 5 5 3 5 3 5 5 5 5 5 5 5 5 5 3 5 5 5 3 5 3 5 5 5 5 3 5 5 5 5 3 5 5 5 5 5 5 5 3 3 5 5 5 5 5 5 5 5 5 5 5 5 5 5 5 5 5 5 3 5 5 5 3 5 5 3 5 5 5 5 5 5 5 5 5 5 5 5 5 5 5 5 5 5 5 5 5 5 5 5 5 3 5 5 5 5 5 5 5 5 5 5 5 3 5 5 3 5 5 3 5 5 5 5 5 5 5 5 5 5 5 5 5 5 5 5 5 5 5 5 3 5 5 5 5 5 5 5 5 5 5 5 5 5 5 3 5 5 5 5 3 5 5 5 5 5 3 5 5 5 5 5 5 5 5 5 5 5 5 5 5 5 5 5 5 5 5 5 5 5 5 3 5 5 5 5 5 5 5 5 5 5 5 5 5 5 5 3 5 5 5 5 3 5 5 5 5 5 5 5 5 5 5 5 5 5 5 5 5 5 5 5 5 5 5 5 5 5 5 5 5 5 3 5 5 5 5 5 3 5 5 5 5 5 5 5 5 5 5 5 5 5 5 5 5 5 5 5 5 5 5 5 5 5 5 5 5 5 5 5 5 5 5 5 5 5 5 5 5 5 5 5 5 5 5 5 5 5 5 5 5 5 5 5 5 5 5 5 5 5 5 5 5 5 5 5 5 5 5 5 5 5 5 5 3 5 5 5 5 5 3 5 5 5 5 5 5 5 5 5 5 5 5 5 5 5 5 5 5 5 5 5 5 3 5 5 5 5 5 5 5 5 5 5 5 5 5 5 5 5 5 3 5 5 3 5 5 3 5 3 5 5 5 5 3 5 5 3 5 5 5 5 5 5 5 5 5 5 5 5 3 5 5 5 5 5 5 5 5 5 5 5 5 5 5 5 5 5 5 5 5 5 3 5 5 5 5 5 5 5 5 5 5 5 3 5 5 5 5 5 5 5 5 5 5 5 5 5 5 5 5 5 5 5 5 3 5 5 5 5 5 5 5 5 5 5 5 5 3 5 3 5 5 5 3 5 5 3 5 5 3 5 5 3 5 5 5 5 5 5 3 3 5 5 5 5 3 5 5 5 5 5 5 5 5 5 5 5 5 3 5 5 5 5 3 5 5 5 5 5 5 5 5 5 3 5 5 5 5 5 5 5 5 5 5 5 5 5 5 5 3 5 5 5 5 3 3 5 5 5 5 5 5 5 5 3 5 5 5 5 5 5 5 5 5 5 5 5 5 5 5 5 5 5 5 3 5 5 5 5 5 5 5 5 5 5 5 5 5 5 5 5 5 5 5 5 5 5 5 3 5 5 5 3 5 5 5 3 5 3 5 5 3 5 5 5 5 3 5 5 5 5 5 5 5 5 5 5 5 5 5 5 5 5 3 5 5 5 5 5 5 5 5 5 5 5 5 5 5 5 5 5 5 3 5 5 5 5 5 5 5 5 5 5 5 3 5 3 5 5 5 3 5 5 5 3 3 5 5 5 5 5 3 5 3 5 5 5 3 5 5 5 5 5 3 5 5 5 5 5 5 5 5 5 5 5 5 5 5 5 5 5 5 5 5 5 3 5 5 5 5 5 5 5 3 5 5 5 5 3 3 5 5 3 3 5 5 5 5 5 5 5 5 5 5 5 5 5 5 5 5 5 5 5 5 5 5 5 5 5 5 5 5 5 5 5 3 5 3 5 5 5 5 5 5 5 5 5 5 5 5 3 5 5 3 5 3 5 5 3 3 5 5 3 3 5 5 5 5 3 3 5 3 5 5 5 3 3 5 5 5 5 3 5 5 5 5 5 5 3 5 5 5 5 5 5 5 5 5 5 5 5 5 5 5 5 5 3 5 5 5 3 5 5 5 3 5 5 5 3 5 5 5 5 3 5 5 3 5 5 5 5 3 5 5 3 5 5 5 5 5 5 5 5 5 5 5 5 3 5 5 5 5 3 5 5 3 5 5 5 3 5 5 5 3 5 5 5 5 3 5 3 5 5 5 5 5 5 5 5 5 3 5 5 5 5 5 5 5 5 5 5 5 3 5 5 3 5 5 3 5 5 5 5 5 5 5 5 5 5 5 3 5 5 5 5 5 5 3 5 5 3 5 5 5 5 5 5 5 5 5 5 5 5 3 5 5 5 5 5 5 5 3 5 5 5 3 5 5 5 5 5 5 5 5 5 3 5 5 5 5 5 5 5 5 5 5 5 3 5 5 5 3 5 5 5 5 3 5 3 3 3 5 5 5 5 5 5 3 5 5 5 5 3 3 5 5 5 5 5 5 5 3 5 5 5 5 5 5 5 5 5 5 3 5 5 5 5 5 5 5 5 5 5 5 5 3 5 5 5 5 5 5 3 5 3 5 5 5 5 5 5 5 5 5 5 3 5 5 5 5 5 5 5 5 3 5 5 5 5 5 5 5 5 3 5 5 3 5 5 5 5 5 3 5 5 5 3 5 5 5 5 5 5 5 5 5 5 5 5 5 5 5 3 5 5 5 3 3 5 3 5 5 5 5 5 5 3 5 5 5 5 5 5 5 5 5 5 5 5 5 5 5 5 5 5 5 5 5 5 5 5 5 5 5 5 5 5 5 5 5 5 5 5 5 3 3 5 5 5 5 5 3 5 3 5 3 5 5 3 5 3 5 5 3 5 5 3 5 3 5 5 5 5 5 5 3 5 5 5 5 5 5 5 5 5 5 5 5 5 5 5 5 5 5 5 5 5 5 5 5 5 5 5 5 5 5 5 5 5 5 5 5 5 5 5 5 5 5 5 5 5 5 5 5 5 5 5 5 5 5 5 5 5 5 5 5 5 5 5 5 5 5 5 5 5 5 5 5 5 5 5 5 5 5 5 5 3 5 5 5 5 5 3 5 5 5 3 5 5 5 5 3 5 3 5 3 5 5 5 3 5 5 5 5 5 5 5 5 5 5 5 5 5 5 5 5 5 5 5 5 5 5 5 5 3 5 5 5 5 3 5 3 5 5 3 5 5 5 5 5 5 5 3 5 5 3 3 5 5 5 5 5 5 5 5 3 5 3 3 3 5 5 5 5 5 3 5 5 5 5 5 5 5 5 5 5 5 5 5 5 3 5 5 5 5 5 5 3 3 5 5 3 3 5 5 5 5 3 5 5 5 5 5 5 5 3 5 5 5 3 5 5 5 5 5 5 5 5 5 5 5 3 5 5 5 5 5 5 5 5 5 5 5 5 5 5 5 5 5 5 5 5 3 5 5 5 5 5 5 5 5 5 5 5 5 5 5 5 5 5 5 5 5 5 5 5 5 5 5 3 5 5 5 5 5 5 5 5 5 5 5 5 5 5 5 5 5 5 5 5 5 5 5 5 5 5 5 5 3 5 5 5 3 5 5 5 5 5 5 5 5 5 5 5 5 5 5 3 5 5 3 5 5 5 5 5 5 5 5 5 5 5 3 5 5 3 5 5 5 5 5 5 5 5 5 5 5 5 5 5 5 5 5 5 5 5 5 5 5 3 5 5 3 5 5 3 5 3 5 5 3 3 5 5 5 5 5 5 3 3 5 5 5 5 5 3 3 5 5 5 5 5 5 5 5 5 5 5 5 5 5 5 3 5 5 3 5 5 5 5 5 3 5 5 5 5 5 5 5 5 5 5 5 5 5 3 3 5 5 5 5 5 5 3 5 5 5 5 5 5 5 5 3 5 5 5 5 5 5 5 5 3 5 3 5 5 5 5 5 3 3 5 5 5 3 5 3 5 3 5 5 5 5 5 5 3 3 5 5 5 5 5 3 5 5 5 3 5 5 3 5 5 5 5 3 3 5 5 5 5 5 5 5 5 5 5 3 3 5 5 3 5 3 5 3 5 5 5 5 5 5 5 5 5 5 3 5 5 5 5 3 5 5 5 5 5 3 5 5 5 5 5 5 5 5 5 5 5 3 5 5 5 5 5 3 3 5 5 5 5 5 5 5 5 5 5 5 5 5 3 5 5 5 5 5 5 5 5 5 3 5 5 5 5 5 5 5 5 3 5 5 5 5 5 5 5 3 5 5 3 5 5 5 5 3 5 5 5 5 5 5 5 5 3 5 5 5 5 5 3 5 5 3 3 5 5 5 5 5 5 5 5 3 5 5 5 5 5 5 5 5 5 5 5 5 3 5 5 5 5 3 5 5 5 5 5 5 5 5 5 5 5 5 5 5 5 5 5 5 3 5 5 5 5 5 5 5 5 5 5 5 5 5 5 3 5 5 5 5 5 5 5 5 5 5 5 5 5 3 5 5 5 5 5 5 3 5 5 5 5 5 5 5 3 5 5 5 5 5 3 5 5 5 5 5 5 5 5 5 5 5 5 5 5 5 5 5 5 5 5 5 3 5 5 5 5 5 5 5 3 5 5 5 5 5 5 5 3 3 5 5 5 5 5 5 5 5 5 3 5 5 5 5 5 5 5 3 5 5 5 3 5 5 5 5 5 5 3 5 5 5 5 5 5 3 5 5 5 5 5 5 3 5 3 5 3 5 5 3 5 5 3 3 5 3 5 3 5 5 5 5 5 5 5 5 5 5 5 5 5 5 5 5 5 5 5 5 5 5 5 5 5 5 5 3 5 5 5 3 5 5 5 5 5 5 5 5 5 3 5 5 5 5 5 5 5 5 3 3 5 3 5 5 5 5 5 5 5 5 5 5 5 5 5 5 5 5 5 5 5 5 5 5 5 5 5 5 5 5 5 5 5 5 5 5 5 3 5 3 5 5 5 5 5 5 5 5 5 5 5 5 5 5 5 5 5 5 5 5 5 5 5 5 5 5 5 5 5 5 5 5 5 5 5 5 5 5 5 5 5 5 5 5 5 5 5 5 5 3 5 5 5 5 3 5 3 5 5 5 5 5 5 5 5 5 5 3 5 5 5 5 5 5 5 5 5 5 5 5 5 5 3 5 5 5 3 5 5 5 5 5 5 5 5 5 5 5 5 5 5 5 5 5 5 5 5 5 5 5 5 3 5 5 5 5 5 5 3 5 5 5 5 5 5 5 5 5 5 5 5 5 5 3 5 3 5 3 5 5 5 5 5 3 5 5 5 5 5 5 3 5 5 5 5 5 5 5 5 5 5 5 3 5 3 5 3 5 5 5 5 5 3 5 5 5 5 5 5 5 5 5 5 5 5 5 5 5 5 5 5 5 3 5 5 5 5 5 5 5 3 5 5 5 5 5 5 5 5 5 5 5 5 5 5 5 5 5 5 5 3 5 5 5 5 5 3 3 5 5 5 3 5 5 5 3 5 5 5 5 5 5 5 3 5 5 5 3 5 3 5 5 5 5 5 5 5 3 5 5 5 5 5 5 5 5 5 5 5 5 3 5 5 5 5 5 5 5 5 5 5 5 5 5 5 5 5 3 5 5 5 5 5 5 5 5 5 5 5 5 5 5 5 5 5 5 5 5 5 5 5 5 5 5 5 5 5 5 5 5 3 5 5 5 5 5 5 5 5 5 5 5 5 5 5 5 5 5 5 5 5 5 5 5 3 5 5 5 5 5 3 5 5 5 5 5 3 5 5 5 5 5 5 5 5 3 5 5 5 5 5 5 5 5 5 3 5 5 3 5 5 5 5 5 5 5 5 5 5 5 5 5 5 3 5 5 5 5 3 5 5 5 3 5 5 5 5 5 5 5 5 5 5 5 5 5 5 3 5 5 5 5 3 5 3 5 5 5 3 5 5 5 3 3 3 5 5 5 5 3 5 3 5 3 3 5 5 5 5 5 3 5 5 5 5 5 5 3 5 3 5 3 5 5 5 5 3 3 5 5 5 5 5 5 5 5 5 5 5 5 3 5 5 5 5 5 5 5 5 3 5 5 5 3 5 3 5 5 5 5 3 3 3 5 5 3 5 5 3 5 5 5 3 5 5 5 5 5 3 5 5 5 5 5 5 5 3 5 5 3 3 5 5 5 3 3 5 5 5 5 5 5 3 5 5 5 5 5 3 5 5 5 5 5 5 5 5 5 5 5 5 5 5 5 5 5 5 5 5 5 5 3 5 3 5 5 3 5 5 5 5 3 5 5 5 5 5 5 5 5 5 5 3 5 3 5 3 5 3 5 5 3 5 5 5 5 5 5 5 5 5 3 5 5 5 5 5 5 5 5 5 5 5 5 5 5 5 5 5 5 5 5 5 5 5 5 5 5 5 5 5 5 5 5 5 5 5 5 3 5 5 5 5 3 5 5 5 5 5 5 5 5 5 5 5 5 5 3 5 5 5 5 5 5 5 5 5 5 3 5 5 5 5 5 3 5 5 5 5 5 5 5 5 5 5 5 3 5 5 5 5 5 5 3 5 5 5 3 5 3 3 5 5 5 5 5 5 5 5 3 5 5 5 3 5 5 5 3 5 5 5 5 5 5 5 5 5 3 3 5 5 5 5 5 5 5 5 5 5 5 5 5 5 5 5 5 5 5 5 3 3 5 5 5 5 5 5 5 5 5 5 5 5 5 5 5 3 5 5 5 5 3 5 5 5 5 5 5 5 5 5 5 5 5 5 5 5 5 5 5 5 5 5 5 5 3 5 5 5 5 5 3 5 5 5 5 3 3 5 5 5 5 3 5 3 5 3 3 5 5 5 5 3 5 3 5 5 3 5 3 5 3 5 5 5 5 5 5 5 5 5 5 5 5 5 5 5 5 5 3 5 5 5 5 3 3 5 5 5 5 5 5 5 3 5 5 3 5 3 5 5 5 5 5 5 3 5 5 5 5 5 5 5 5 5 5 5 5 3 5 5 3 5 5 5 5 5 5 5 5 5 5 5 5 5 5 5 5 5 5 5 3 5 5 5 5 3 3 5 5 5 5 5 5 5 5 5 3 5 5 3 5 3 5 5 5 5 3 5 5 5 5 5 5 5 5 5 5 5 5 5 5 3 5 5 5 3 5 5 5 5 5 5 5 5 5 5 5 5 3 5 3 5 5 5 5 3 5 5 5 3 5 5 5 5 5 5 5 5 5 5 5 3 3 5 5 5 5 5 5 5 5 5 3 5 5 5 5 5 5 5 5 3 5 5 5 5 3 5 5 5 5 3 5 3 5 5 5 5 5 5 5 5 5 5 5 5 5 5 5 5 5 3 5 5 5 5 5 5 5 3 5 5 5 5 5 5 5 5 5 5 5 5 5 3 3 5 5 5 5 3 5 5 5 5 5 3 5 5 5 5 5 5 3 5 5 3 5 3 5 5 3 5 5 5 5 5 5 5 3 5 5 5 5 5 5 5 5 3 3 3 5 5 5 5 5 5 5 5 5 3 5 5 5 5 5 5 5 3 5 5 5 3 5 5 3 5 5 5 5 3 5 5 5 5 5 5 5 5 3 5 3 5 5 5 5 5 5 3 5 5 3 5 5 5 5 5 5 5 5 5 3 5 5 5 5 5 5 3 5 5 5 5 3 5 5 5 5 5 5 5 5 5 5 5 5 5 5 5 5 5 5 5 5 5 5 5 5 5 5 5 5 5 5 5 5 5 5 5 5 5 5 5 5 5 5 5 5 5 5 5 5 5 5 5 5 3 5 5 3 5 3 3 5 5 3 5 3 5 5 5 5 3 5 5 3 5 5 5 5 5 5 3 3 5 5 5 5 5 5 3 5 3 5 3 3 5 3 5 3 3 5 5 5 5 5 5 5 5 5 3 5 3 5 5 5 5 5 5 5 3 3 5 5 5 5 3 5 3 5 5 3 5 3 5 5 5 3 5 3 3 5 5 5 3 5 3 3 5 5 5 3 5 5 3 5 5 5 5 5 5 5 3 5 5 5 5 5 5 5 5 5 5 5 5 5 5 5 5 5 5 5 5 5 5 5 5 5 5 5 5 5 5 5 3 5 5 5 3 5 5 5 3 3 5 5 5 5 3 5 5 5 5 5 5 5 5 5 5 5 5 5 5 5 5 5 5 5 3 5 3 5 5 5 5 3 5 5 3 5 5 5 5 5 5 5 3 5 5 5 5 3 5 5 5 3 5 3 3 5 5 3 5 5 5 5 5 5 3 5 5 5 5 5 3 5 5 5 3 5 3 5 5 5 5 5 3 5 3 3 5 3 5 5 3 5 5 3 5 5 5 3 5 3 5 5 5 3 5 5 5 5 5 5 5 5 5 3 5 5 5 5 5 5 5 5 5 3 5 5 5 5 3 5 5 5 3 5 5 5 5 5 5 5 5 3 5 5 3 5 5 5 5 5 5 3 3 5 5 3 5 5 5 5 5 5 5 5 5 3 5 5 5 5 5 3 5 3 5 5 5 5 5 5 5 5 5 5 3 5 3 5 5 5 
</DataArray>
</Cells>
<PointData Scalars="" Vectors="displacement," Tensors="">
<DataArray type="Float64" Name="displacement" NumberOfComponents="3" format="ascii">
9.8893159153580753e-07 0.034997485323254578 0 3.4941049545244531e-05 0.034580887819681765 0 -0.00010869341129118577 0.032564093881130005 0 9.8893159153580753e-07 0.034997485323254578 0 3.4941049545244531e-05 0.034580887819681765 0 -2.671650432711571e-07 0.034999216945271638 0 9.8893159153580753e-07 0.034997485323254578 0 -0.00010869341129118577 0.032564093881130005 0 -1.8296900556782422e-06 0.030263906520972696 0 3.4941049545244531e-05 0.034580887819681765 0 -2.3864508812807016e-05 0.034910003044213253 0 -2.671650432711571e-07 0.034999216945271638 0 3.4941049545244531e-05 0.034580887819681765 0 -6.6211636900163096e-05 0.034794365315677041 0 -2.3864508812807016e-05 0.034910003044213253 0 3.4941049545244531e-05 0.034580887819681765 0 -6.6211636900163096e-05 0.034794365315677041 0 -0.00017961132568749166 0.03410552523301677 0 -0.0040298627537561213 0.025873088934240056 0 -0.0033753963246150069 0.026163663815189028 0 -0.0035250973310379848 0.026581563446494483 0 -0.000962857344752697 0.031819423605377754 0 -0.0020445777042083957 0.030063245529367882 0 -0.00031596434031875182 0.034292788081677517 0 -0.00063401298210653476 0.034375619331995864 0 -0.00093202617505033119 0.034172556630770907 0 -0.0040298627537561213 0.025873088934240056 0 -0.0033246737030353407 0.025794144635992312 0 -0.0033753963246150069 0.026163663815189028 0 -0.000962857344752697 0.031819423605377754 0 -0.0022319206532604749 0.030101272642525632 0 -0.00031596434031875182 0.034292788081677517 0 -0.00063401298210653476 0.034375619331995864 0 -0.00038062221565052533 0.03458539617245137 0 -0.00031596434031875182 0.034292788081677517 0 -9.2051942009158019e-05 0.034750262618107541 0 -0.00038062221565052533 0.03458539617245137 0 -0.000962857344752697 0.031819423605377754 0 0.000418201502997206 0.034396860658789073 0 -9.2051942009158019e-05 0.034750262618107541 0 -2.3864508812807016e-05 0.034910003044213253 0 -2.671650432711571e-07 0.034999216945271638 0 -1.5772054482110356e-05 0.034814469612763126 0 -9.2051942009158019e-05 0.034750262618107541 0 -2.3864508812807016e-05 0.034910003044213253 0 -0.000962857344752697 0.031819423605377754 0 -1.0129189235201205e-07 0.03410260139068147 0 -0.00060903718508364924 0.033792148375086387 0 -0.00089994756578281807 0.034109711479870547 0 -0.00055570503364869189 0.033446294903920787 0 -0.00089749992062075287 0.034060638505079954 0 -0.0007562323549778631 0.033805197158183781 0 -0.002503009854526258 0.025882510223964657 0 -0.0031713365660453359 0.025919976741876516 0 -0.00096185693354551376 0.034206898265006509 0 -0.00089994756578281807 0.034109711479870547 0 -0.0010855318453355115 0.034271271067530577 0 -0.002503009854526258 0.025882510223964657 0 -0.0022319206532604749 0.030101272642525632 0 -0.00096185693354551376 0.034206898265006509 0 -0.00089737340929549293 0.034230635438743176 0 -0.00089994756578281807 0.034109711479870547 0 -0.0026664273780476781 0.025729495181645173 0 -0.0033246737030353407 0.025794144635992312 0 -0.0033753963246150069 0.026163663815189028 0 -0.00060903718508364924 0.033792148375086387 0 -0.00089994756578281807 0.034109711479870547 0 -0.00093202617505033119 0.034172556630770907 0 -0.00089737340929549293 0.034230635438743176 0 -0.00083004552242289039 0.034280447583089201 0 -0.00089893543974010773 0.034311076431689569 0 -0.00089737340929549293 0.034230635438743176 0 -0.00089994756578281807 0.034109711479870547 0 -0.00083004552242289039 0.034280447583089201 0 -0.00063401298210653476 0.034375619331995864 0 -0.00083004552242289039 0.034280447583089201 0 -0.00093202617505033119 0.034172556630770907 0 -0.00063401298210653476 0.034375619331995864 0 -0.00083004552242289039 0.034280447583089201 0 -0.00068165845785115491 0.034471530184243239 0 -0.00089994756578281807 0.034109711479870547 0 -0.00083004552242289039 0.034280447583089201 0 -0.00093202617505033119 0.034172556630770907 0 -0.0033753963246150069 0.026163663815189028 0 -0.0035250973310379848 0.026581563446494483 0 -0.0025975113200019944 0.026386781508353645 0 -0.0018435094261220468 0.024921696431121382 0 -0.0025975113200019944 0.026386781508353645 0 -0.0017969698891202137 0.026341744222043387 0 -0.0018435094261220468 0.024921696431121382 0 -0.0033753963246150069 0.026163663815189028 0 -0.0025975113200019944 0.026386781508353645 0 -0.0017969698891202137 0.026341744222043387 0 -0.0023246261261465418 0.028059718942073354 0 -0.00075339618273045038 0.026923259039651933 0 -0.0025975113200019944 0.026386781508353645 0 -0.0017969698891202137 0.026341744222043387 0 -0.0023246261261465418 0.028059718942073354 0 3.4941049545244531e-05 0.034580887819681765 0 -0.00017961132568749166 0.03410552523301677 0 -0.00010869341129118577 0.032564093881130005 0 -0.0020445777042083957 0.030063245529367882 0 -0.0010623409760044463 0.030416377715041274 0 -0.0035250973310379848 0.026581563446494483 0 -0.0025975113200019944 0.026386781508353645 0 -0.0023246261261465418 0.028059718942073354 0 -0.0010623409760044463 0.030416377715041274 0 -3.1942743306940498e-07 0.030258570530645172 0 -0.0023246261261465418 0.028059718942073354 0 -4.5511969937015128e-06 0.030254487334820404 0 2.8609683420367044e-05 0.028371697223748389 0 -4.5511969937015128e-06 0.030254487334820404 0 2.8609683420367044e-05 0.028371697223748389 0 2.0909797437593865e-06 0.028188656679796684 0 2.8609683420367044e-05 0.028371697223748389 0 2.0909797437593865e-06 0.028188656679796684 0 0.00038005926065799587 0.027275853918384382 0 2.8609683420367044e-05 0.028371697223748389 0 -0.00075339618273045038 0.026923259039651933 0 0.00038005926065799587 0.027275853918384382 0 -0.0023246261261465418 0.028059718942073354 0 2.8609683420367044e-05 0.028371697223748389 0 -0.00075339618273045038 0.026923259039651933 0 0.00033133904703973175 0.027078467950112466 0 2.0909797437593865e-06 0.028188656679796684 0 4.8282685927962366e-07 0.026118361781583919 0 0.00033133904703973175 0.027078467950112466 0 2.0909797437593865e-06 0.028188656679796684 0 0.00038005926065799587 0.027275853918384382 0 0.00033133904703973175 0.027078467950112466 0 0.00038005926065799587 0.027275853918384382 0 0.00050741080216400582 0.026969098940644452 0 0.00033133904703973175 0.027078467950112466 0 0.00050741080216400582 0.026969098940644452 0 -3.477970145686859e-05 0.026211658527592829 0 -0.00055088177531564765 0.024241774955736404 0 -0.00026231845505686984 0.02405646290216331 0 -0.001652426858876367 0.021576702336563666 0 -0.0015286916062986799 0.021624865669351904 0 -0.0009545151170753754 0.021975562893709111 0 0.00038005926065799587 0.027275853918384382 0 0.00050741080216400582 0.026969098940644452 0 0.00070582918686628963 0.02615995032375059 0 -0.0019697250677654771 0.021605854330978554 0 -0.0019313449606659365 0.021205902714903489 0 -0.0009545151170753754 0.021975562893709111 0 -0.0004300719631834762 0.023367153749637153 0 -0.0016277827818090621 0.021759975904277876 0 -0.0015286916062986799 0.021624865669351904 0 -0.0009545151170753754 0.021975562893709111 0 -0.0016277827818090621 0.021759975904277876 0 -0.0018435094261220468 0.024921696431121382 0 -0.0017969698891202137 0.026341744222043387 0 -0.0011537754947141432 0.025583068525368319 0 -0.0017969698891202137 0.026341744222043387 0 -0.00075339618273045038 0.026923259039651933 0 -0.0011537754947141432 0.025583068525368319 0 -0.00075339618273045038 0.026923259039651933 0 -0.0011537754947141432 0.025583068525368319 0 -0.00025041494174124468 0.026077367980915114 0 -0.00075339618273045038 0.026923259039651933 0 0.00038005926065799587 0.027275853918384382 0 -0.00025041494174124468 0.026077367980915114 0 0.00038005926065799587 0.027275853918384382 0 0.00070582918686628963 0.02615995032375059 0 -0.00025041494174124468 0.026077367980915114 0 -0.0011537754947141432 0.025583068525368319 0 -0.00025041494174124468 0.026077367980915114 0 -0.00071422426972106694 0.023866622799392251 0 -0.00026231845505686984 0.02405646290216331 0 -0.00074644660049047614 0.023769723688813072 0 0.00070582918686628963 0.02615995032375059 0 -0.00025041494174124468 0.026077367980915114 0 -0.00071422426972106694 0.023866622799392251 0 -0.0009545151170753754 0.021975562893709111 0 -0.00071422426972106694 0.023866622799392251 0 -0.0004300719631834762 0.023367153749637153 0 -0.0018435094261220468 0.024921696431121382 0 -0.0011537754947141432 0.025583068525368319 0 -0.00071422426972106694 0.023866622799392251 0 -0.002503009854526258 0.025882510223964657 0 -0.0019697250677654771 0.021605854330978554 0 -0.0018435094261220468 0.024921696431121382 0 -0.00071422426972106694 0.023866622799392251 0 -0.0004300719631834762 0.023367153749637153 0 9.0401444650480407e-05 0.033068297391029421 0 0.00012567558521533282 0.032850104912305965 0 -0.00055570503364869189 0.033446294903920787 0 -0.00060903718508364924 0.033792148375086387 0 9.0401444650480407e-05 0.033068297391029421 0 -0.00055570503364869189 0.033446294903920787 0 -0.002503009854526258 0.025882510223964657 0 -0.0017888924613138858 0.026870171788446688 0 -0.0042472831288208682 0.020959841877345533 0 -0.0033968466615848275 0.020731614279229187 0 -0.0036601154887387871 0.020455164456527886 0 -0.0010311894947761316 0.034112118272771989 0 -0.00070732576921295328 0.034067127967456888 0 -0.0010855318453355115 0.034271271067530577 0 -0.00028258299293972363 0.033941198379904371 0 -0.0007562323549778631 0.033805197158183781 0 -0.0010311894947761316 0.034112118272771989 0 -0.00070732576921295328 0.034067127967456888 0 -0.00091117570387168789 0.033963490095487013 0 9.0401444650480407e-05 0.033068297391029421 0 0.00012567558521533282 0.032850104912305965 0 0.00090256321830133501 0.032190434592718191 0 -0.0017888924613138858 0.026870171788446688 0 -0.0012541541027805013 0.026655035499727576 0 -0.003273267799081631 0.020362271010112065 0 -0.0036601154887387871 0.020455164456527886 0 -0.0030393347194308433 0.019911040912881768 0 -0.0033968466615848275 0.020731614279229187 0 -0.003273267799081631 0.020362271010112065 0 -0.0036601154887387871 0.020455164456527886 0 -0.00070732576921295328 0.034067127967456888 0 -0.00084020352412175303 0.033642898228825963 0 6.8694795861755055e-05 0.03354259789957368 0 -0.00084020352412175303 0.033642898228825963 0 6.8694795861755055e-05 0.03354259789957368 0 -0.00073664237479378837 0.032991051570869817 0 -0.00028258299293972363 0.033941198379904371 0 -0.0012541541027805013 0.026655035499727576 0 -0.00084020352412175303 0.033642898228825963 0 -0.0010799874656394703 0.033757102393102929 0 -0.00073664237479378837 0.032991051570869817 0 -0.00084020352412175303 0.033642898228825963 0 -0.0010095200077811283 0.033945489279572048 0 -0.0010799874656394703 0.033757102393102929 0 -0.0010311894947761316 0.034112118272771989 0 -0.0010095200077811283 0.033945489279572048 0 -0.00091117570387168789 0.033963490095487013 0 -0.00084020352412175303 0.033642898228825963 0 -0.0010095200077811283 0.033945489279572048 0 -0.00091117570387168789 0.033963490095487013 0 -0.00070732576921295328 0.034067127967456888 0 -0.00084020352412175303 0.033642898228825963 0 -0.00091117570387168789 0.033963490095487013 0 -0.0024620718021456179 0.020543770273764094 0 -0.0026789741691691533 0.020096707687991888 0 -0.0021505045596554532 0.019831814670694253 0 -0.0024620718021456179 0.020543770273764094 0 -0.0026789741691691533 0.020096707687991888 0 -0.0029935269713980482 0.020341895450585772 0 -0.0033968466615848275 0.020731614279229187 0 -0.0024620718021456179 0.020543770273764094 0 -0.0029935269713980482 0.020341895450585772 0 -0.0026789741691691533 0.020096707687991888 0 -0.0029935269713980482 0.020341895450585772 0 -0.0030393347194308433 0.019911040912881768 0 -0.0033968466615848275 0.020731614279229187 0 -0.003273267799081631 0.020362271010112065 0 -0.0029935269713980482 0.020341895450585772 0 -0.003273267799081631 0.020362271010112065 0 -0.0029935269713980482 0.020341895450585772 0 -0.0030393347194308433 0.019911040912881768 0 -0.0012541541027805013 0.026655035499727576 0 -0.0019407689349252096 0.02064384305133608 0 -0.0026789741691691533 0.020096707687991888 0 -0.0030393347194308433 0.019911040912881768 0 -0.0026457399019909865 0.019642605746729585 0 -0.0026457399019909865 0.019642605746729585 0 -0.0021505045596554532 0.019831814670694253 0 -0.0021993993278400324 0.019155155844680562 0 -0.0012541541027805013 0.026655035499727576 0 -0.00059742188742225092 0.025838905510867694 0 -0.0030871917434925574 0.019950919046709484 0 -0.0026457399019909865 0.019642605746729585 0 -0.0021993993278400324 0.019155155844680562 0 -0.0026789741691691533 0.020096707687991888 0 -0.0026457399019909865 0.019642605746729585 0 -0.0021505045596554532 0.019831814670694253 0 6.8694795861755055e-05 0.03354259789957368 0 0.00019167854271822179 0.03201075674808989 0 0.0011416969336079466 0.032455949597600571 0 6.8694795861755055e-05 0.03354259789957368 0 0.00019167854271822179 0.03201075674808989 0 -0.00073664237479378837 0.032991051570869817 0 0.00019167854271822179 0.03201075674808989 0 0.0011416969336079466 0.032455949597600571 0 0.0012777587478847083 0.031519919988163621 0 0.00019167854271822179 0.03201075674808989 0 0.0012777587478847083 0.031519919988163621 0 0.00075959518873147712 0.03090054443609885 0 -0.0015476191530620922 0.033423900935577247 0 -0.00070153349285149459 0.033072976795577136 0 -0.0018771749660889835 0.033142673750653572 0 -0.00073664237479378837 0.032991051570869817 0 -0.0013295020537357986 0.032298925562007509 0 -0.0018771749660889835 0.033142673750653572 0 -0.0013295020537357986 0.032298925562007509 0 -0.0018920471462714767 0.032071713963734642 0 0.00019167854271822179 0.03201075674808989 0 -0.00073664237479378837 0.032991051570869817 0 -0.00070589415579558909 0.031961035161108549 0 -0.00073664237479378837 0.032991051570869817 0 -0.00070589415579558909 0.031961035161108549 0 -0.0013295020537357986 0.032298925562007509 0 0.00019167854271822179 0.03201075674808989 0 -0.00070589415579558909 0.031961035161108549 0 -0.00048515500184399959 0.030867974399210015 0 -0.00070589415579558909 0.031961035161108549 0 -0.0013175131056460954 0.031500101558550181 0 -0.0013295020537357986 0.032298925562007509 0 -0.0013175131056460954 0.031500101558550181 0 -0.0013295020537357986 0.032298925562007509 0 -0.0018920471462714767 0.032071713963734642 0 -0.0013175131056460954 0.031500101558550181 0 -0.0018920471462714767 0.032071713963734642 0 -0.0020128015489407148 0.031389387694863179 0 -0.0013650489475158247 0.033652549799274567 0 -0.0010322259191298518 0.032742490327244009 0 -0.0026274090476008215 0.032200307403176427 0 -0.0018920471462714767 0.032071713963734642 0 -0.0020128015489407148 0.031389387694863179 0 -0.0026274090476008215 0.032200307403176427 0 -0.0022818509988122657 0.031050039902569364 0 -0.0020128015489407148 0.031389387694863179 0 -0.0018771749660889835 0.033142673750653572 0 -0.0026274090476008215 0.032200307403176427 0 -0.0029378969586561251 0.033350114697870588 0 -0.0018771749660889835 0.033142673750653572 0 -0.0026274090476008215 0.032200307403176427 0 -0.0018920471462714767 0.032071713963734642 0 -3.5888235378556692e-05 0.03496913177217096 0 -2.3376787239172608e-05 0.034979065133117791 0 -3.507476778667767e-05 0.034967956896575336 0 -2.3376787239172608e-05 0.034979065133117791 0 -1.5322213956562496e-05 0.03498076207640715 0 -3.507476778667767e-05 0.034967956896575336 0 -0.0013650489475158247 0.033652549799274567 0 -0.0012928146200638486 0.034121250928383987 0 -3.5888235378556692e-05 0.03496913177217096 0 -2.3376787239172608e-05 0.034979065133117791 0 -2.0288266755432806e-05 0.034983165608960247 0 -3.5888235378556692e-05 0.03496913177217096 0 -2.0288266755432806e-05 0.034983165608960247 0 -4.0877863151861775e-05 0.034967196347590268 0 -2.3376787239172608e-05 0.034979065133117791 0 -1.1489220830905907e-05 0.034989532380570919 0 -2.0288266755432806e-05 0.034983165608960247 0 -1.1489220830905907e-05 0.034989532380570919 0 -7.7321593326736694e-09 0.03499998669061407 0 -6.2853343347633228e-09 0.034999984409475743 0 -1.1489220830905907e-05 0.034989532380570919 0 -6.2853343347633228e-09 0.034999984409475743 0 -2.0288266755432806e-05 0.034983165608960247 0 -1.1489220830905907e-05 0.034989532380570919 0 -7.7321593326736694e-09 0.03499998669061407 0 -1.5322213956562496e-05 0.03498076207640715 0 -2.3376787239172608e-05 0.034979065133117791 0 -1.1489220830905907e-05 0.034989532380570919 0 -1.5322213956562496e-05 0.03498076207640715 0 -0.00039293123089731836 0.034912637239429473 0 -0.00066532779242039456 0.034594424425631265 0 -0.0009956335363657295 0.034486761936934215 0 -9.2051942009158019e-05 0.034750262618107541 0 -2.671650432711571e-07 0.034999216945271638 0 -6.6880218486556885e-08 0.034999804680991051 0 -0.00039293123089731836 0.034912637239429473 0 -0.00066532779242039456 0.034594424425631265 0 -0.00030833493454585764 0.034736621786323502 0 -7.5460151150691355e-05 0.034984755990019961 0 -1.6360845814981372e-07 0.034999971941827406 0 -7.7321593326736694e-09 0.03499998669061407 0 -1.5322213956562496e-05 0.03498076207640715 0 -7.6198287615644223e-09 0.03499996708367302 0 -0.00039293123089731836 0.034912637239429473 0 -6.6880218486556885e-08 0.034999804680991051 0 -0.00030833493454585764 0.034736621786323502 0 -9.2051942009158019e-05 0.034750262618107541 0 -6.6880218486556885e-08 0.034999804680991051 0 -0.00030833493454585764 0.034736621786323502 0 -0.00066532779242039456 0.034594424425631265 0 -0.00030833493454585764 0.034736621786323502 0 -0.00068165845785115491 0.034471530184243239 0 -0.00030833493454585764 0.034736621786323502 0 -0.00038062221565052533 0.03458539617245137 0 -0.00068165845785115491 0.034471530184243239 0 -9.2051942009158019e-05 0.034750262618107541 0 -0.00030833493454585764 0.034736621786323502 0 -0.00038062221565052533 0.03458539617245137 0 -0.00063401298210653476 0.034375619331995864 0 -0.00038062221565052533 0.03458539617245137 0 -0.00068165845785115491 0.034471530184243239 0 -0.00083004552242289039 0.034280447583089201 0 -0.00068165845785115491 0.034471530184243239 0 -0.00089893543974010773 0.034311076431689569 0 -0.00068165845785115491 0.034471530184243239 0 -0.00090980011420341051 0.034413093810585042 0 -0.00089893543974010773 0.034311076431689569 0 -0.00066532779242039456 0.034594424425631265 0 -0.00090980011420341051 0.034413093810585042 0 -0.0009956335363657295 0.034486761936934215 0 -0.00066532779242039456 0.034594424425631265 0 -0.00068165845785115491 0.034471530184243239 0 -0.00090980011420341051 0.034413093810585042 0 -0.00090980011420341051 0.034413093810585042 0 -0.0010221490751255019 0.034332773026972324 0 -0.0009956335363657295 0.034486761936934215 0 -0.00090980011420341051 0.034413093810585042 0 -0.00099679788439719155 0.034299438591668986 0 -0.0010221490751255019 0.034332773026972324 0 -0.00090980011420341051 0.034413093810585042 0 -0.00089893543974010773 0.034311076431689569 0 -0.00099679788439719155 0.034299438591668986 0 -0.00096185693354551376 0.034206898265006509 0 -0.00089737340929549293 0.034230635438743176 0 -0.00089893543974010773 0.034311076431689569 0 -0.00096185693354551376 0.034206898265006509 0 -0.00089893543974010773 0.034311076431689569 0 -0.00099679788439719155 0.034299438591668986 0 -0.00096185693354551376 0.034206898265006509 0 -0.0010306298018083692 0.034260085080547127 0 -0.00099679788439719155 0.034299438591668986 0 -0.00096185693354551376 0.034206898265006509 0 -0.0010306298018083692 0.034260085080547127 0 -0.0010855318453355115 0.034271271067530577 0 -0.0010306298018083692 0.034260085080547127 0 -0.00099679788439719155 0.034299438591668986 0 -0.0010588396314783217 0.034251953235191278 0 -0.0010306298018083692 0.034260085080547127 0 -0.0010855318453355115 0.034271271067530577 0 -0.0010588396314783217 0.034251953235191278 0 -0.0010311894947761316 0.034112118272771989 0 -0.0010855318453355115 0.034271271067530577 0 -0.0010588396314783217 0.034251953235191278 0 -0.0010311894947761316 0.034112118272771989 0 -0.0010588396314783217 0.034251953235191278 0 -0.001063569982493363 0.034186152255920019 0 -0.0010588396314783217 0.034251953235191278 0 -0.0010221490751255019 0.034332773026972324 0 -0.001063569982493363 0.034186152255920019 0 -0.00099679788439719155 0.034299438591668986 0 -0.0010588396314783217 0.034251953235191278 0 -0.0010221490751255019 0.034332773026972324 0 -0.0010799874656394703 0.033757102393102929 0 -0.001063569982493363 0.034186152255920019 0 -0.0010856601092121968 0.034210312423198455 0 -0.0010221490751255019 0.034332773026972324 0 -0.001063569982493363 0.034186152255920019 0 -0.0009956335363657295 0.034486761936934215 0 -0.0015476191530620922 0.033423900935577247 0 -0.0012928146200638486 0.034121250928383987 0 -0.0010311894947761316 0.034112118272771989 0 -0.0010095200077811283 0.033945489279572048 0 -0.001063569982493363 0.034186152255920019 0 -0.0010095200077811283 0.033945489279572048 0 -0.0010799874656394703 0.033757102393102929 0 -0.001063569982493363 0.034186152255920019 0 -7.5460151150691355e-05 0.034984755990019961 0 -0.0012928146200638486 0.034121250928383987 0 -0.0012928146200638486 0.034121250928383987 0 -0.0011642469700731326 0.034465486164706446 0 -0.00039293123089731836 0.034912637239429473 0 -0.0010924172934821913 0.034829127765774126 0 -0.0009956335363657295 0.034486761936934215 0 -0.001063569982493363 0.034186152255920019 0 -0.0010856601092121968 0.034210312423198455 0 -0.0009956335363657295 0.034486761936934215 0 -6.2357173346435734e-07 0.018892134688684288 0 5.142067400801944e-05 0.019230458616538902 0 7.8067756455590506e-05 0.019106712636780071 0 -6.2357173346435734e-07 0.018892134688684288 0 7.8067756455590506e-05 0.019106712636780071 0 -5.3359416672776464e-05 0.018827582667108139 0 5.142067400801944e-05 0.019230458616538902 0 -1.7566586226247131e-06 0.019534245570008827 0 -2.9978688960931156e-05 0.018981247749155272 0 -6.2357173346435734e-07 0.018892134688684288 0 5.142067400801944e-05 0.019230458616538902 0 -2.9978688960931156e-05 0.018981247749155272 0 5.142067400801944e-05 0.019230458616538902 0 7.8067756455590506e-05 0.019106712636780071 0 0.00018955250835030624 0.019725482915096553 0 5.142067400801944e-05 0.019230458616538902 0 0.00018955250835030624 0.019725482915096553 0 -1.7566586226247131e-06 0.019534245570008827 0 7.8067756455590506e-05 0.019106712636780071 0 2.3621386126692878e-05 0.018867704525911386 0 -5.3359416672776464e-05 0.018827582667108139 0 7.8067756455590506e-05 0.019106712636780071 0 2.3621386126692878e-05 0.018867704525911386 0 7.8355594409588002e-05 0.018893445090659912 0 2.3621386126692878e-05 0.018867704525911386 0 7.8355594409588002e-05 0.018893445090659912 0 7.065810654373877e-05 0.018219571636551635 0 7.8355594409588002e-05 0.018893445090659912 0 1.1372960892352539e-06 0.018327709271993269 0 7.065810654373877e-05 0.018219571636551635 0 1.1372960892352539e-06 0.018327709271993269 0 0.00018955250835030624 0.019725482915096553 0 -7.3188027960920364e-08 0.020234009808160418 0 7.8067756455590506e-05 0.019106712636780071 0 7.8355594409588002e-05 0.018893445090659912 0 0.00018955250835030624 0.019725482915096553 0 7.8355594409588002e-05 0.018893445090659912 0 1.1372960892352539e-06 0.018327709271993269 0 0.00018955250835030624 0.019725482915096553 0 0.00018955250835030624 0.019725482915096553 0 9.2355330668502094e-05 0.020810019023149808 0 -2.5488722391205432e-05 0.020391522212842048 0 0.00018955250835030624 0.019725482915096553 0 -7.3188027960920364e-08 0.020234009808160418 0 9.2355330668502094e-05 0.020810019023149808 0 -7.3188027960920364e-08 0.020234009808160418 0 9.2355330668502094e-05 0.020810019023149808 0 1.0057678968210354e-06 0.022141896662055949 0 9.2355330668502094e-05 0.020810019023149808 0 -2.5488722391205432e-05 0.020391522212842048 0 -7.2724997291376086e-05 0.021602183898632627 0 0.00018955250835030624 0.019725482915096553 0 -2.5488722391205432e-05 0.020391522212842048 0 -1.7566586226247131e-06 0.019534245570008827 0 -2.5488722391205432e-05 0.020391522212842048 0 -1.7566586226247131e-06 0.019534245570008827 0 -0.00033861269992871597 0.019762567373478913 0 -0.00077575736029638937 0.020371440781968557 0 -0.00046384113116411672 0.020970319925316835 0 -0.00033861269992871597 0.019762567373478913 0 -0.00077575736029638937 0.020371440781968557 0 -0.00046384113116411672 0.020970319925316835 0 -0.0014141590604894315 0.021198188279380782 0 -2.5488722391205432e-05 0.020391522212842048 0 -0.00046384113116411672 0.020970319925316835 0 -0.00033861269992871597 0.019762567373478913 0 -2.5488722391205432e-05 0.020391522212842048 0 -0.00046384113116411672 0.020970319925316835 0 -7.2724997291376086e-05 0.021602183898632627 0 9.2355330668502094e-05 0.020810019023149808 0 -7.2724997291376086e-05 0.021602183898632627 0 1.0057678968210354e-06 0.022141896662055949 0 -7.2724997291376086e-05 0.021602183898632627 0 1.0057678968210354e-06 0.022141896662055949 0 -3.1302111660465396e-06 0.02404402462427533 0 -7.2724997291376086e-05 0.021602183898632627 0 -3.1302111660465396e-06 0.02404402462427533 0 -0.00062255790267015882 0.02189055553164462 0 -0.00046384113116411672 0.020970319925316835 0 -7.2724997291376086e-05 0.021602183898632627 0 -0.00062255790267015882 0.02189055553164462 0 -0.00062255790267015882 0.02189055553164462 0 -0.0015884866609641205 0.022168729997556341 0 -0.0014141590604894315 0.021198188279380782 0 -3.1302111660465396e-06 0.02404402462427533 0 -0.00062255790267015882 0.02189055553164462 0 -0.0015884866609641205 0.022168729997556341 0 2.6672658164275592e-08 0.024048897911501204 0 -0.00066482502275336209 0.024217225214039552 0 0.00033133904703973175 0.027078467950112466 0 -3.477970145686859e-05 0.026211658527592829 0 4.8282685927962366e-07 0.026118361781583919 0 -9.1968891239157525e-07 0.024050561614852372 0 -3.477970145686859e-05 0.026211658527592829 0 4.8282685927962366e-07 0.026118361781583919 0 -0.00055088177531564765 0.024241774955736404 0 -0.00066482502275336209 0.024217225214039552 0 -0.001652426858876367 0.021576702336563666 0 -0.0015884866609641205 0.022168729997556341 0 -0.0014141590604894315 0.021198188279380782 0 -0.001652426858876367 0.021576702336563666 0 -0.0015286916062986799 0.021624865669351904 0 -0.0014141590604894315 0.021198188279380782 0 -0.00046384113116411672 0.020970319925316835 0 -0.00062255790267015882 0.02189055553164462 0 -0.0014141590604894315 0.021198188279380782 0 -0.00077575736029638937 0.020371440781968557 0 -0.0014141590604894315 0.021198188279380782 0 -0.0013305266230161103 0.020361303788004454 0 -0.0016277827818090621 0.021759975904277876 0 -0.0014141590604894315 0.021198188279380782 0 -0.0013305266230161103 0.020361303788004454 0 -0.0015286916062986799 0.021624865669351904 0 -0.0016277827818090621 0.021759975904277876 0 -0.0014141590604894315 0.021198188279380782 0 -0.0024620718021456179 0.020543770273764094 0 -0.0013305266230161103 0.020361303788004454 0 -0.0021505045596554532 0.019831814670694253 0 -0.0019313449606659365 0.021205902714903489 0 -0.0013216448218388874 0.02044188282015973 0 -0.0013305266230161103 0.020361303788004454 0 -0.0015342644137542735 0.019300978472587989 0 -0.00086999073187722696 0.019303680981976271 0 -0.0013305266230161103 0.020361303788004454 0 -0.0015342644137542735 0.019300978472587989 0 -0.0021505045596554532 0.019831814670694253 0 -0.0015342644137542735 0.019300978472587989 0 -0.0021505045596554532 0.019831814670694253 0 -0.0021993993278400324 0.019155155844680562 0 -0.00059742188742225092 0.025838905510867694 0 0.00025321309876318715 0.024990613517502137 0 -0.0015342644137542735 0.019300978472587989 0 -0.0021993993278400324 0.019155155844680562 0 -0.0013855321127514691 0.018518735314788499 0 0.0011416969336079466 0.032455949597600571 0 0.0012777587478847083 0.031519919988163621 0 0.0019007614975741593 0.031451508606646042 0 0.0012777587478847083 0.031519919988163621 0 0.0019007614975741593 0.031451508606646042 0 0.0016668760310076078 0.03085896528637792 0 -0.0015342644137542735 0.019300978472587989 0 -0.0013855321127514691 0.018518735314788499 0 -0.00086999073187722696 0.019303680981976271 0 -0.0013855321127514691 0.018518735314788499 0 -0.00075229170763515673 0.018553723467194205 0 -0.00086999073187722696 0.019303680981976271 0 -0.0013855321127514691 0.018518735314788499 0 -0.00075229170763515673 0.018553723467194205 0 -0.00082617660694786661 0.018041940942847032 0 0.00025321309876318715 0.024990613517502137 0 0.00080148312750459453 0.024348333337747746 0 -0.00075229170763515673 0.018553723467194205 0 -0.00047524640529065566 0.018168636191731629 0 -0.00082617660694786661 0.018041940942847032 0 -0.00075229170763515673 0.018553723467194205 0 -0.00086999073187722696 0.019303680981976271 0 -0.00038879533549575633 0.018784872499331303 0 -0.00086999073187722696 0.019303680981976271 0 -0.00033861269992871597 0.019762567373478913 0 -0.00038879533549575633 0.018784872499331303 0 -0.00077575736029638937 0.020371440781968557 0 -0.0013305266230161103 0.020361303788004454 0 -0.00086999073187722696 0.019303680981976271 0 -0.00077575736029638937 0.020371440781968557 0 -0.00086999073187722696 0.019303680981976271 0 -0.00033861269992871597 0.019762567373478913 0 -0.00033861269992871597 0.019762567373478913 0 -0.00015091790388875042 0.019122507663596876 0 -0.00038879533549575633 0.018784872499331303 0 -1.7566586226247131e-06 0.019534245570008827 0 -0.00033861269992871597 0.019762567373478913 0 -0.00015091790388875042 0.019122507663596876 0 -1.7566586226247131e-06 0.019534245570008827 0 -0.00015091790388875042 0.019122507663596876 0 -2.9978688960931156e-05 0.018981247749155272 0 -0.00015091790388875042 0.019122507663596876 0 -0.00038879533549575633 0.018784872499331303 0 -0.00012123906234393573 0.01854054767093611 0 -0.00075229170763515673 0.018553723467194205 0 -0.00038879533549575633 0.018784872499331303 0 -0.00047524640529065566 0.018168636191731629 0 -0.00047524640529065566 0.018168636191731629 0 -0.00023352977687805061 0.01813784157423956 0 -0.00024861653285836454 0.017665818039545079 0 -0.00038879533549575633 0.018784872499331303 0 -0.00047524640529065566 0.018168636191731629 0 -0.00023352977687805061 0.01813784157423956 0 -0.00038879533549575633 0.018784872499331303 0 -0.00023352977687805061 0.01813784157423956 0 -0.00012123906234393573 0.01854054767093611 0 -0.00012188639968238867 0.018042377300925266 0 -8.4503348893747078e-05 0.018184990672497219 0 -0.00012123906234393573 0.01854054767093611 0 -0.00023352977687805061 0.01813784157423956 0 -0.00012188639968238867 0.018042377300925266 0 -0.00012123906234393573 0.01854054767093611 0 -0.00023352977687805061 0.01813784157423956 0 -0.00012188639968238867 0.018042377300925266 0 -0.00011023439850847987 0.017604859612546056 0 -0.00012188639968238867 0.018042377300925266 0 -0.00011023439850847987 0.017604859612546056 0 -8.5382143467991071e-05 0.017778101922996267 0 -0.00012188639968238867 0.018042377300925266 0 -8.4503348893747078e-05 0.018184990672497219 0 -8.5382143467991071e-05 0.017778101922996267 0 -8.4503348893747078e-05 0.018184990672497219 0 -4.6615039646896531e-05 0.018496628288204756 0 -0.00012123906234393573 0.01854054767093611 0 -8.4503348893747078e-05 0.018184990672497219 0 -4.6615039646896531e-05 0.018496628288204756 0 -7.0652730025064055e-05 0.018011715049455087 0 -4.6615039646896531e-05 0.018496628288204756 0 -0.00012123906234393573 0.01854054767093611 0 -2.9978688960931156e-05 0.018981247749155272 0 -0.00015091790388875042 0.019122507663596876 0 -0.00012123906234393573 0.01854054767093611 0 -2.9978688960931156e-05 0.018981247749155272 0 -6.2357173346435734e-07 0.018892134688684288 0 -4.6615039646896531e-05 0.018496628288204756 0 -4.1615125380456181e-05 0.018601570668112931 0 -6.2357173346435734e-07 0.018892134688684288 0 -4.6615039646896531e-05 0.018496628288204756 0 -2.9978688960931156e-05 0.018981247749155272 0 0.0019801406572266551 0.023142322935396992 0 0.0024462360882111112 0.022545985861225037 0 0.004170516308830142 0.028971037194797385 0 0.0044552833148138035 0.027947654752127106 0 0.0050040414149327269 0.02821384124276383 0 0.004170516308830142 0.028971037194797385 0 0.0037885091888645904 0.027999309600625785 0 0.0044552833148138035 0.027947654752127106 0 -0.00021595097142518082 0.017269470625661022 0 -8.4961797503250221e-05 0.017260919853350647 0 -1.8409317781021613e-05 0.017067032340137629 0 -8.4961797503250221e-05 0.017260919853350647 0 -0.00011023439850847987 0.017604859612546056 0 -3.4676403022665396e-05 0.017137390105896825 0 -8.4961797503250221e-05 0.017260919853350647 0 -0.00011023439850847987 0.017604859612546056 0 -0.00024861653285836454 0.017665818039545079 0 -0.00023352977687805061 0.01813784157423956 0 -0.00011023439850847987 0.017604859612546056 0 -0.00024861653285836454 0.017665818039545079 0 -0.00021595097142518082 0.017269470625661022 0 -8.4961797503250221e-05 0.017260919853350647 0 -0.00024861653285836454 0.017665818039545079 0 -0.00021595097142518082 0.017269470625661022 0 -0.00024861653285836454 0.017665818039545079 0 -0.00047784855762650677 0.017627613962471179 0 -0.00047524640529065566 0.018168636191731629 0 -0.00024861653285836454 0.017665818039545079 0 -0.00047784855762650677 0.017627613962471179 0 -0.00047524640529065566 0.018168636191731629 0 -0.00047784855762650677 0.017627613962471179 0 -0.00082617660694786661 0.018041940942847032 0 0.0014202874805865002 0.023704546120716853 0 0.00080148312750459453 0.024348333337747746 0 0.0033247768533443177 0.029783923553240825 0 0.0032203618869393719 0.028739234610661326 0 0.0025355442863750459 0.029131806055756819 0 0.004170516308830142 0.028971037194797385 0 0.0033247768533443177 0.029783923553240825 0 0.0032203618869393719 0.028739234610661326 0 0.0019801406572266551 0.023142322935396992 0 0.0014202874805865002 0.023704546120716853 0 0.004170516308830142 0.028971037194797385 0 0.0032203618869393719 0.028739234610661326 0 0.0037885091888645904 0.027999309600625785 0 0.0032203618869393719 0.028739234610661326 0 0.0028204359194332696 0.027892484641258888 0 0.0037885091888645904 0.027999309600625785 0 0.0032203618869393719 0.028739234610661326 0 0.0024595253973406536 0.028618950490385219 0 0.0028204359194332696 0.027892484641258888 0 0.0032203618869393719 0.028739234610661326 0 0.0024595253973406536 0.028618950490385219 0 0.0025355442863750459 0.029131806055756819 0 0.0024595253973406536 0.028618950490385219 0 0.0019896227989198061 0.028552345674933765 0 0.0028204359194332696 0.027892484641258888 0 0.0024595253973406536 0.028618950490385219 0 0.0021789725354310441 0.02896186407445199 0 0.0025355442863750459 0.029131806055756819 0 0.0019843706097286964 0.028710284574921661 0 0.0018326107754607576 0.02909303429530077 0 0.0013097580685303455 0.02919441905966088 0 0.0013980803396087744 0.028338630624954921 0 0.0014639088448396844 0.02915059606240104 0 0.0019894863488556193 0.028552224445706324 0 0.0019843706097286964 0.028710284574921661 0 0.0013097580685303455 0.02919441905966088 0 0.0024595253973406536 0.028618950490385219 0 0.0019896227989198061 0.028552345674933765 0 0.0019843706097286964 0.028710284574921661 0 0.0013980803396087744 0.028338630624954921 0 0.0014565079477586579 0.028440344858476664 0 0.0021789725354310441 0.02896186407445199 0 0.0019843706097286964 0.028710284574921661 0 0.0018326107754607576 0.02909303429530077 0 0.0024595253973406536 0.028618950490385219 0 0.0021789725354310441 0.02896186407445199 0 0.0019843706097286964 0.028710284574921661 0 0.0021789725354310441 0.02896186407445199 0 0.0020721336317928904 0.029256349236529536 0 0.0018326107754607576 0.02909303429530077 0 0.0017432836526972493 0.029363557137460951 0 0.0018326107754607576 0.02909303429530077 0 0.0013097580685303455 0.02919441905966088 0 0.0020721336317928904 0.029256349236529536 0 0.0017432836526972493 0.029363557137460951 0 0.0018326107754607576 0.02909303429530077 0 0.0017432836526972493 0.029363557137460951 0 0.0019739869887134111 0.02962761963672696 0 0.0015324318302039079 0.029706452268027671 0 0.0020721336317928904 0.029256349236529536 0 0.0017432836526972493 0.029363557137460951 0 0.0019739869887134111 0.02962761963672696 0 0.0020721336317928904 0.029256349236529536 0 0.0019739869887134111 0.02962761963672696 0 0.0022996661866320142 0.029505127138567896 0 0.0022996661866320142 0.029505127138567896 0 0.0025355442863750459 0.029131806055756819 0 0.0025876000506465037 0.02988839518079885 0 0.0020721336317928904 0.029256349236529536 0 0.0022996661866320142 0.029505127138567896 0 0.0025355442863750459 0.029131806055756819 0 0.0021789725354310441 0.02896186407445199 0 0.0020721336317928904 0.029256349236529536 0 0.0025355442863750459 0.029131806055756819 0 0.0033247768533443177 0.029783923553240825 0 0.0025876000506465037 0.02988839518079885 0 0.0024393624093471335 0.030640236589082125 0 0.0033247768533443177 0.029783923553240825 0 0.0025355442863750459 0.029131806055756819 0 0.0025876000506465037 0.02988839518079885 0 0.0025876000506465037 0.02988839518079885 0 0.0023227131328979926 0.030203485956147618 0 0.0024393624093471335 0.030640236589082125 0 0.0022996661866320142 0.029505127138567896 0 0.0025876000506465037 0.02988839518079885 0 0.0022636629508465938 0.029852218342782604 0 0.0025876000506465037 0.02988839518079885 0 0.0023227131328979926 0.030203485956147618 0 0.0022636629508465938 0.029852218342782604 0 0.0023227131328979926 0.030203485956147618 0 0.0024393624093471335 0.030640236589082125 0 0.0022265459336957001 0.030558228477895726 0 0.0020100036601794309 0.030900898571202269 0 0.0022265459336957001 0.030558228477895726 0 0.0016668760310076078 0.03085896528637792 0 0.0019007614975741593 0.031451508606646042 0 0.0024393624093471335 0.030640236589082125 0 0.0020100036601794309 0.030900898571202269 0 0.0024393624093471335 0.030640236589082125 0 0.0020100036601794309 0.030900898571202269 0 0.0022265459336957001 0.030558228477895726 0 0.0022265459336957001 0.030558228477895726 0 0.0020576972381848159 0.030044843861565321 0 0.0016304379646156944 0.03010708604964692 0 0.0023227131328979926 0.030203485956147618 0 0.0022265459336957001 0.030558228477895726 0 0.0020576972381848159 0.030044843861565321 0 0.0023227131328979926 0.030203485956147618 0 0.0020576972381848159 0.030044843861565321 0 0.0022636629508465938 0.029852218342782604 0 0.0019739869887134111 0.02962761963672696 0 0.0022996661866320142 0.029505127138567896 0 0.0022636629508465938 0.029852218342782604 0 0.0019739869887134111 0.02962761963672696 0 0.0020576972381848159 0.030044843861565321 0 0.0022636629508465938 0.029852218342782604 0 0.0019739869887134111 0.02962761963672696 0 0.0020576972381848159 0.030044843861565321 0 0.0017987618080581513 0.029882995686155888 0 0.0019739869887134111 0.02962761963672696 0 0.0017987618080581513 0.029882995686155888 0 0.0015324318302039079 0.029706452268027671 0 0.0020576972381848159 0.030044843861565321 0 0.0017987618080581513 0.029882995686155888 0 0.0016304379646156944 0.03010708604964692 0 0.0017987618080581513 0.029882995686155888 0 0.0016304379646156944 0.03010708604964692 0 0.0015324318302039079 0.029706452268027671 0 0.0011029570469274952 0.029816792103218366 0 0.0016304379646156944 0.03010708604964692 0 0.0011522816594893319 0.030531056596529851 0 0.0011029570469274952 0.029816792103218366 0 0.0016304379646156944 0.03010708604964692 0 0.0015324318302039079 0.029706452268027671 0 0.0021970316775054336 0.030584336870039162 0 0.0014308518673987708 0.030684197460246431 0 0.0019007614975741593 0.031451508606646042 0 0.0020100036601794309 0.030900898571202269 0 0.0016668760310076078 0.03085896528637792 0 0.0022265459336957001 0.030558228477895726 0 0.0016304379646156944 0.03010708604964692 0 0.0011522816594893319 0.030531056596529851 0 0.0011522816594893319 0.030531056596529851 0 0.00064906326323144181 0.03012660523623056 0 0.0003295888170464302 0.030616030647420876 0 0.0014308518673987708 0.030684197460246431 0 0.00051412731131439589 0.030766119451495148 0 0.0012777587478847083 0.031519919988163621 0 0.0016668760310076078 0.03085896528637792 0 0.00075959518873147712 0.03090054443609885 0 0.0011029570469274952 0.029816792103218366 0 0.00064906326323144181 0.03012660523623056 0 0.00058220803623879654 0.029638022579819845 0 0.0011029570469274952 0.029816792103218366 0 0.0011522816594893319 0.030531056596529851 0 0.00064906326323144181 0.03012660523623056 0 0.0011029570469274952 0.029816792103218366 0 0.00058220803623879654 0.029638022579819845 0 0.0008932485677624342 0.029312065159041983 0 0.00058220803623879654 0.029638022579819845 0 0.0008932485677624342 0.029312065159041983 0 0.00055625670878422021 0.029181404258404695 0 0.0011029570469274952 0.029816792103218366 0 0.0008932485677624342 0.029312065159041983 0 0.0013097580685303455 0.02919441905966088 0 0.0011029570469274952 0.029816792103218366 0 0.0015324318302039079 0.029706452268027671 0 0.0013097580685303455 0.02919441905966088 0 0.0017432836526972493 0.029363557137460951 0 0.0015324318302039079 0.029706452268027671 0 0.0013097580685303455 0.02919441905966088 0 0.0017784504094460057 0.028894895335074555 0 0.0013097580685303455 0.02919441905966088 0 0.0013394406376092893 0.028723314718748841 0 0.0013097580685303455 0.02919441905966088 0 0.00091266336758258251 0.028798850438443088 0 0.0013394406376092893 0.028723314718748841 0 0.0008932485677624342 0.029312065159041983 0 0.0013097580685303455 0.02919441905966088 0 0.00091266336758258251 0.028798850438443088 0 0.0008932485677624342 0.029312065159041983 0 0.00091266336758258251 0.028798850438443088 0 0.00055625670878422021 0.029181404258404695 0 0.00091266336758258251 0.028798850438443088 0 0.00049639735301415262 0.028806370220830366 0 0.00055625670878422021 0.029181404258404695 0 0.00091266336758258251 0.028798850438443088 0 0.0007885880182677957 0.02837651285470838 0 0.0011326555953813202 0.028344128637118448 0 0.0007885880182677957 0.02837651285470838 0 0.00053524036112193767 0.028516305693572767 0 0.00051560523881623267 0.028240196747844878 0 0.00091266336758258251 0.028798850438443088 0 0.0007885880182677957 0.02837651285470838 0 0.00053524036112193767 0.028516305693572767 0 0.00091266336758258251 0.028798850438443088 0 0.00049639735301415262 0.028806370220830366 0 0.00053524036112193767 0.028516305693572767 0 0.00091266336758258251 0.028798850438443088 0 0.0013394406376092893 0.028723314718748841 0 0.0011326555953813202 0.028344128637118448 0 0.0013394406376092893 0.028723314718748841 0 0.0014681994420120308 0.028337755475941889 0 0.0011326555953813202 0.028344128637118448 0 0.0014681994420120308 0.028337755475941889 0 0.0011326555953813202 0.028344128637118448 0 0.0011206543627206081 0.027935344867368192 0 0.0014681994420120308 0.028337755475941889 0 0.0011206543627206081 0.027935344867368192 0 0.001564244238476674 0.027847848373026736 0 0.0011326555953813202 0.028344128637118448 0 0.0011206543627206081 0.027935344867368192 0 0.00081012268158791082 0.028090858809008908 0 0.0011206543627206081 0.027935344867368192 0 0.00081012268158791082 0.028090858809008908 0 0.00086044603736716444 0.027813482073360096 0 0.0007885880182677957 0.02837651285470838 0 0.0011326555953813202 0.028344128637118448 0 0.00081012268158791082 0.028090858809008908 0 0.00081012268158791082 0.028090858809008908 0 0.00055863775887346435 0.027951795763696986 0 0.00051560523881623267 0.028240196747844878 0 0.0007885880182677957 0.02837651285470838 0 0.00081012268158791082 0.028090858809008908 0 0.00051560523881623267 0.028240196747844878 0 0.00055863775887346435 0.027951795763696986 0 0.00055513828925857689 0.027721373508839329 0 0.00086044603736716444 0.027813482073360096 0 0.00081012268158791082 0.028090858809008908 0 0.00055863775887346435 0.027951795763696986 0 0.00086044603736716444 0.027813482073360096 0 0.00031066254348084715 0.028277273252738329 0 0.0010403018392740756 0.027782653796909973 0 0.0010403018392740756 0.027782653796909973 0 -0.00046147323741066779 0.027922912859556295 0 4.1966649949726625e-05 0.028787201079336043 0 0.0010067244464007172 0.028294899513624058 0 -6.4742557729553823e-05 0.028337676644982216 0 0.00055513828925857689 0.027721373508839329 0 0.00086044603736716444 0.027813482073360096 0 0.0012396506248468196 0.027390936917149424 0 0.00060889235177836846 0.026881290122299596 0 -0.00079422275989283228 0.027644945828986703 0 -0.00041554807386264963 0.02609236263226351 0 0.00060889235177836846 0.026881290122299596 0 0.00094345948886404127 0.027472014077594205 0 -0.00079422275989283228 0.027644945828986703 0 0.00060889235177836846 0.026881290122299596 0 0.0011405513218169078 0.026938306019676651 0 0.0010070102142372465 0.026239853683277994 0 0.0011405513218169078 0.026938306019676651 0 0.001571590785669435 0.026768687227730879 0 0.0010070102142372465 0.026239853683277994 0 0.00060889235177836846 0.026881290122299596 0 0.0010370012020208342 0.027410878731891082 0 0.00094345948886404127 0.027472014077594205 0 0.00060889235177836846 0.026881290122299596 0 0.0011405513218169078 0.026938306019676651 0 0.0010370012020208342 0.027410878731891082 0 0.0011405513218169078 0.026938306019676651 0 0.0010370012020208342 0.027410878731891082 0 0.0014305344740574897 0.027364647268772156 0 0.0011206543627206081 0.027935344867368192 0 0.0012396506248468196 0.027390936917149424 0 0.0013616835731574783 0.027626123130831456 0 0.0010403018392740756 0.027782653796909973 0 0.001294494889570166 0.027605684557000413 0 0.0011206543627206081 0.027935344867368192 0 0.00086044603736716444 0.027813482073360096 0 0.0012396506248468196 0.027390936917149424 0 0.0010370012020208342 0.027410878731891082 0 0.00094795575023175075 0.027471409761015499 0 0.0014305344740574897 0.027364647268772156 0 0.0012396506248468196 0.027390936917149424 0 0.0013616835731574783 0.027626123130831456 0 0.0014305344740574897 0.027364647268772156 0 0.0010477621385915669 0.027769400784662057 0 0.0010403018392740756 0.027782653796909973 0 0.0013616835731574783 0.027626123130831456 0 0.0014305344740574897 0.027364647268772156 0 0.001564244238476674 0.027847848373026736 0 0.0011206543627206081 0.027935344867368192 0 0.0013616835731574783 0.027626123130831456 0 0.001564244238476674 0.027847848373026736 0 0.0019634951021737612 0.027523498266079357 0 0.0014305344740574897 0.027364647268772156 0 0.001564244238476674 0.027847848373026736 0 0.0019634951021737612 0.027523498266079357 0 0.0014305344740574897 0.027364647268772156 0 0.001571590785669435 0.026768687227730879 0 0.0013464997856124526 0.026703869341646584 0 0.0012857156669514311 0.02485992346480452 0 0.0019634951021737612 0.027523498266079357 0 0.001571590785669435 0.026768687227730879 0 0.0021447185506359573 0.026397895000749863 0 0.0011405513218169078 0.026938306019676651 0 0.0014305344740574897 0.027364647268772156 0 0.001571590785669435 0.026768687227730879 0 0.0015070612299406129 0.024738047959364077 0 0.00093307318116817061 0.024141878961612837 0 0.0018118461623237267 0.024199655128545591 0 0.0012189467649535782 0.025604390282741678 0 0.00076399758070459702 0.023858126771696846 0 0.0007049503386890927 0.025630656836403542 0 0.00093672356929263071 0.025157715163095461 0 0.00078615412013319425 0.024650900698995299 0 0.00093672356929263071 0.025157715163095461 0 0.0012145931944977351 0.02560227319003015 0 0.0010501674851176326 0.024666000821300302 0 0.0011496107993834435 0.025336088630254203 0 0.0015070612299406129 0.024738047959364077 0 0.00093307318116817061 0.024141878961612837 0 0.00093672356929263071 0.025157715163095461 0 0.00078615412013319425 0.024650900698995299 0 0.0010501674851176326 0.024666000821300302 0 0.0011496107993834435 0.025336088630254203 0 0.0016587587477347424 0.025131597960695817 0 0.0015070612299406129 0.024738047959364077 0 0.0007049503386890927 0.025630656836403542 0 0.00093672356929263071 0.025157715163095461 0 0.0012145931944977351 0.02560227319003015 0 0.0007049503386890927 0.025630656836403542 0 0.0012145931944977351 0.02560227319003015 0 0.00098886586614584018 0.026160684886363975 0 0.0013915050735424049 0.026534244000113782 0 0.00098886586614584018 0.026160684886363975 0 0.0010174210647149811 0.026863136269354819 0 0.0012189467649535782 0.025604390282741678 0 0.0013619519631869149 0.026405533823136092 0 0.00098886586614584018 0.026160684886363975 0 0.00060681628644756872 0.026636834425376468 0 0.0010174210647149811 0.026863136269354819 0 0.0012145931944977351 0.02560227319003015 0 0.0013915050735424049 0.026534244000113782 0 0.00098886586614584018 0.026160684886363975 0 0.0007049503386890927 0.025630656836403542 0 0.00098886586614584018 0.026160684886363975 0 0.00060681628644756872 0.026636834425376468 0 0.0014681994420120308 0.028337755475941889 0 0.0018376786525918986 0.028233028529235725 0 0.001564244238476674 0.027847848373026736 0 0.0013464997856124526 0.026703869341646584 0 0.0012053044058238167 0.027400969757488253 0 0.0019634951021737612 0.027523498266079357 0 0.0018376786525918986 0.028233028529235725 0 0.001564244238476674 0.027847848373026736 0 0.0017784504094460057 0.028894895335074555 0 0.0013394406376092893 0.028723314718748841 0 0.0014681994420120308 0.028337755475941889 0 0.0017784504094460057 0.028894895335074555 0 0.0014681994420120308 0.028337755475941889 0 0.0018376786525918986 0.028233028529235725 0 0.00052025634873242323 0.027691920473675535 0 0.00060681628644756872 0.026636834425376468 0 0.0010174210647149811 0.026863136269354819 0 0.0013980803396087744 0.028338630624954921 0 0.0012053044058238167 0.027400969757488253 0 0.0013980803396087744 0.028338630624954921 0 0.0021668748553531959 0.027464902530625838 0 0.00052025634873242323 0.027691920473675535 0 0.0010174210647149811 0.026863136269354819 0 0.0015303113567024292 0.027083141624785399 0 0.0013915050735424049 0.026534244000113782 0 0.0010174210647149811 0.026863136269354819 0 0.0015303113567024292 0.027083141624785399 0 0.0021668748553531959 0.027464902530625838 0 0.0031423986745658617 0.026788744168845805 0 0.0028204359194332696 0.027892484641258888 0 0.0037885091888645904 0.027999309600625785 0 0.003607729590616132 0.027274035071713758 0 0.0013915050735424049 0.026534244000113782 0 0.0026885196168309733 0.026395252396572939 0 0.0019370537701037234 0.025558085070009631 0 0.0013915050735424049 0.026534244000113782 0 0.0015303113567024292 0.027083141624785399 0 0.0026885196168309733 0.026395252396572939 0 0.0011496107993834435 0.025336088630254203 0 0.0013915050735424049 0.026534244000113782 0 0.0019370537701037234 0.025558085070009631 0 0.0019370537701037234 0.025558085070009631 0 0.0020409696807236312 0.024895479843528627 0 0.0027440023228352817 0.025056112399020097 0 0.0019370537701037234 0.025558085070009631 0 0.0016587587477347424 0.025131597960695817 0 0.0020409696807236312 0.024895479843528627 0 0.0011496107993834435 0.025336088630254203 0 0.0019370537701037234 0.025558085070009631 0 0.0016587587477347424 0.025131597960695817 0 0.0016587587477347424 0.025131597960695817 0 0.0015070612299406129 0.024738047959364077 0 0.0020409696807236312 0.024895479843528627 0 0.0020409696807236312 0.024895479843528627 0 0.0026807229935831419 0.024253626293257093 0 0.0018118461623237267 0.024199655128545591 0 0.0015070612299406129 0.024738047959364077 0 0.0020409696807236312 0.024895479843528627 0 0.0018118461623237267 0.024199655128545591 0 0.0020409696807236312 0.024895479843528627 0 0.0026807229935831419 0.024253626293257093 0 0.0027440023228352817 0.025056112399020097 0 0.0019309556842791056 0.022817793676447064 0 0.0027027182911337697 0.025364634975075014 0 0.0026885196168309733 0.026395252396572939 0 0.0027440023228352817 0.025056112399020097 0 0.0038924601804315256 0.025657913595423118 0 0.0026885196168309733 0.026395252396572939 0 0.0019370537701037234 0.025558085070009631 0 0.0027440023228352817 0.025056112399020097 0 0.0042720968124718324 0.026589046645879126 0 0.003084178564109208 0.023007925324437923 0 0.0019309556842791056 0.022817793676447064 0 0.003084178564109208 0.023007925324437923 0 0.0027440023228352817 0.025056112399020097 0 0.0038924601804315256 0.025657913595423118 0 0.003950378282563255 0.02431171599844521 0 0.0026719846786103776 0.024228080877945778 0 0.0027440023228352817 0.025056112399020097 0 0.003950378282563255 0.02431171599844521 0 0.0041864550012131636 0.025170401631239035 0 0.0046997822839767063 0.025714301969574825 0 0.004450375058606286 0.02612943073412749 0 0.0041864550012131636 0.025170401631239035 0 0.0046997822839767063 0.025714301969574825 0 0.0052633154002619358 0.025225465960828562 0 0.003084178564109208 0.023007925324437923 0 0.003119568042987336 0.02226423026790544 0 0.0049939939068042657 0.027411765521227389 0 0.003119568042987336 0.02226423026790544 0 0.0018271295989713799 0.020317025892320695 0 0.0027950265632824701 0.020258975370774507 0 0.0027522095567871522 0.020372912845787343 0 0.0046997822839767063 0.025714301969574825 0 0.0047894914665671546 0.026455849777817141 0 0.0052633154002619358 0.025225465960828562 0 0.0046997822839767063 0.025714301969574825 0 0.004450375058606286 0.02612943073412749 0 0.0047894914665671546 0.026455849777817141 0 0.0042091386327835836 0.026522544184674434 0 0.0041864550012131636 0.025170401631239035 0 0.004450375058606286 0.02612943073412749 0 0.004450375058606286 0.02612943073412749 0 0.0045318905520214574 0.02643217502952868 0 0.0047894914665671546 0.026455849777817141 0 0.0042091386327835836 0.026522544184674434 0 0.0045318905520214574 0.02643217502952868 0 0.0046321620164837254 0.026782115578714478 0 0.0042091386327835836 0.026522544184674434 0 0.004450375058606286 0.02612943073412749 0 0.0045318905520214574 0.02643217502952868 0 0.0045318905520214574 0.02643217502952868 0 0.0047894914665671546 0.026455849777817141 0 0.0046321620164837254 0.026782115578714478 0 0.0047894914665671546 0.026455849777817141 0 0.0046321620164837254 0.026782115578714478 0 0.0050855716753968215 0.026634455136504146 0 0.0046321620164837254 0.026782115578714478 0 0.004318879885043079 0.027264292639274001 0 0.0050209634681485163 0.027287772268074145 0 0.0046321620164837254 0.026782115578714478 0 0.0050209634681485163 0.027287772268074145 0 0.0050855716753968215 0.026634455136504146 0 0.0042091386327835836 0.026522544184674434 0 0.0046321620164837254 0.026782115578714478 0 0.004318879885043079 0.027264292639274001 0 0.0042720968124718324 0.026589046645879126 0 0.0042946156809078448 0.027179826284183903 0 0.0031423986745658617 0.026788744168845805 0 0.0042720968124718324 0.026589046645879126 0 0.003607729590616132 0.027274035071713758 0 0.0043408677274609812 0.026757901556949522 0 0.004318879885043079 0.027264292639274001 0 0.0037885091888645904 0.027999309600625785 0 0.003607729590616132 0.027274035071713758 0 0.004318879885043079 0.027264292639274001 0 0.0037885091888645904 0.027999309600625785 0 0.004318879885043079 0.027264292639274001 0 0.0044552833148138035 0.027947654752127106 0 0.0044552833148138035 0.027947654752127106 0 0.0050209634681485163 0.027287772268074145 0 0.0050040414149327269 0.02821384124276383 0 0.004318879885043079 0.027264292639274001 0 0.0044552833148138035 0.027947654752127106 0 0.0050209634681485163 0.027287772268074145 0 -5.8891811823933154e-05 0.034358539182446517 0 -8.600282812811031e-05 0.033964573664853982 0 -0.0004813231603524161 0.03278997111368484 0 -0.0002738704806995848 0.032839978129892498 0 -0.00039078055823021951 0.032686905828376037 0 -0.0004813231603524161 0.03278997111368484 0 -0.00039078055823021951 0.032686905828376037 0 -0.00055112337021929504 0.03268634032887377 0 -0.0004813231603524161 0.03278997111368484 0 -0.00055112337021929504 0.03268634032887377 0 -0.00058875337704220965 0.032830222384538157 0 -0.00015412943646839168 0.033955966021416963 0 -0.00033333785728556259 0.033755679713901567 0 -0.0004813231603524161 0.03278997111368484 0 -0.00050727106885934564 0.032865196689723028 0 -0.00040472008685245488 0.03290605978102943 0 -0.00050727106885934564 0.032865196689723028 0 -0.00040472008685245488 0.03290605978102943 0 -0.00054525669005793119 0.032945118388569221 0 -4.7498790201625007e-07 0.034976292215058227 0 -9.2157504423023335e-06 0.034978777932473094 0 4.443725174985395e-05 0.034988461070842275 0 -0.0004813231603524161 0.03278997111368484 0 -0.00050727106885934564 0.032865196689723028 0 -0.00058875337704220965 0.032830222384538157 0 -0.00050727106885934564 0.032865196689723028 0 -0.00058875337704220965 0.032830222384538157 0 -0.00054525669005793119 0.032945118388569221 0 -0.00015412943646839168 0.033955966021416963 0 -5.8891811823933154e-05 0.034358539182446517 0 -9.2157504423023335e-06 0.034978777932473094 0 -1.0849797621778624e-05 0.034974500791624119 0 -1.1003129143661176e-05 0.034962360268977068 0 -0.0004813231603524161 0.03278997111368484 0 -0.00040472008685245488 0.03290605978102943 0 -0.0002738704806995848 0.032839978129892498 0 -4.7498790201625007e-07 0.034976292215058227 0 -8.6654821741055481e-06 0.034976889401078834 0 -9.2157504423023335e-06 0.034978777932473094 0 -4.7498790201625007e-07 0.034976292215058227 0 -8.6654821741055481e-06 0.034976889401078834 0 -9.3507275944131014e-06 0.034975154310169482 0 -8.6654821741055481e-06 0.034976889401078834 0 -9.2157504423023335e-06 0.034978777932473094 0 -1.0849797621778624e-05 0.034974500791624119 0 -8.6654821741055481e-06 0.034976889401078834 0 -1.0849797621778624e-05 0.034974500791624119 0 -9.3507275944131014e-06 0.034975154310169482 0 -1.0849797621778624e-05 0.034974500791624119 0 -9.3507275944131014e-06 0.034975154310169482 0 -1.0854047089541352e-05 0.034973076645051157 0 -1.0849797621778624e-05 0.034974500791624119 0 -1.0854047089541352e-05 0.034973076645051157 0 -1.1713789950199176e-05 0.034973695435341477 0 -1.1225650974908468e-05 0.034975176967881508 0 -1.1003129143661176e-05 0.034962360268977068 0 -1.4133157096472708e-06 0.034992484391866162 0 -1.0849797621778624e-05 0.034974500791624119 0 -1.1225650974908468e-05 0.034975176967881508 0 -1.1713789950199176e-05 0.034973695435341477 0 -1.0849797621778624e-05 0.034974500791624119 0 -1.1225650974908468e-05 0.034975176967881508 0 -1.1003129143661176e-05 0.034962360268977068 0 -5.8891811823933154e-05 0.034358539182446517 0 6.4265358674554706e-05 0.035230481389460735 0 -7.5991770588272646e-09 0.034999974526207962 0 4.973728732807242e-09 0.035000007929329821 0 1.9581211924922961e-06 0.034996026808775192 0 -7.5991770588272646e-09 0.034999974526207962 0 1.9581211924922961e-06 0.034996026808775192 0 -1.4133157096472708e-06 0.034992484391866162 0 -2.0489335239206057e-07 0.03500046197473388 0 -5.8891811823933154e-05 0.034358539182446517 0 -9.4758158981743421e-09 0.035000000189112077 0 -1.5890609679022825e-05 0.034997732492903902 0 -1.1890777583172891e-05 0.034992925596952773 0 -1.5890609679022825e-05 0.034997732492903902 0 -1.1890777583172891e-05 0.034992925596952773 0 -2.7357877469420657e-05 0.034985575302034215 0 -1.1890777583172891e-05 0.034992925596952773 0 -2.0288266755432806e-05 0.034983165608960247 0 -2.7357877469420657e-05 0.034985575302034215 0 -9.4758158981743421e-09 0.035000000189112077 0 -1.1890777583172891e-05 0.034992925596952773 0 -6.2853343347633228e-09 0.034999984409475743 0 -1.1890777583172891e-05 0.034992925596952773 0 -6.2853343347633228e-09 0.034999984409475743 0 -2.0288266755432806e-05 0.034983165608960247 0 -2.0288266755432806e-05 0.034983165608960247 0 -2.7357877469420657e-05 0.034985575302034215 0 -4.0877863151861775e-05 0.034967196347590268 0 -0.0012151974034621264 0.031252361835623847 0 -0.0010322259191298518 0.032742490327244009 0 -0.0018963719252499155 0.030127715604890186 0 -0.002233777998095249 0.031074997347679011 0 -0.0015043617300257029 0.030730861952346478 0 -8.600282812811031e-05 0.033964573664853982 0 -0.0010322259191298518 0.032742490327244009 0 -0.00039078055823021951 0.032686905828376037 0 -0.00055112337021929504 0.03268634032887377 0 -0.00051228583179343894 0.032538496165085411 0 -0.002233777998095249 0.031074997347679011 0 -0.0020128015489407148 0.031389387694863179 0 -0.0015043617300257029 0.030730861952346478 0 -0.0010322259191298518 0.032742490327244009 0 -0.0020665455134604798 0.031386754948420227 0 -0.0013175131056460954 0.031500101558550181 0 -0.0020128015489407148 0.031389387694863179 0 -0.0015043617300257029 0.030730861952346478 0 -0.0013175131056460954 0.031500101558550181 0 -0.0015043617300257029 0.030730861952346478 0 -0.00048515500184399959 0.030867974399210015 0 -0.00070589415579558909 0.031961035161108549 0 -0.0013175131056460954 0.031500101558550181 0 -0.00048515500184399959 0.030867974399210015 0 -0.0015043617300257029 0.030730861952346478 0 -0.00048515500184399959 0.030867974399210015 0 -0.00094738423428875605 0.030321452017230494 0 -0.00048515500184399959 0.030867974399210015 0 -0.00094738423428875605 0.030321452017230494 0 -0.00049794892900206485 0.029980853187069601 0 -0.00094738423428875605 0.030321452017230494 0 -0.00049794892900206485 0.029980853187069601 0 -0.00090542042301772088 0.02972544955772936 0 -0.0015043617300257029 0.030730861952346478 0 -0.00094738423428875605 0.030321452017230494 0 -0.0013729323933112053 0.029883666716169505 0 -0.0018963719252499155 0.030127715604890186 0 -0.0015043617300257029 0.030730861952346478 0 -0.0013729323933112053 0.029883666716169505 0 0.00019167854271822179 0.03201075674808989 0 -0.00048515500184399959 0.030867974399210015 0 0.00075959518873147712 0.03090054443609885 0 -0.00043725740680521915 0.030847829150010917 0 0.00051412731131439589 0.030766119451495148 0 -0.00048515500184399959 0.030867974399210015 0 0.0003295888170464302 0.030616030647420876 0 9.7783205689157827e-05 0.030030896033335457 0 -0.00048515500184399959 0.030867974399210015 0 -0.00049794892900206485 0.029980853187069601 0 9.7783205689157827e-05 0.030030896033335457 0 0.00064906326323144181 0.03012660523623056 0 0.00058220803623879654 0.029638022579819845 0 9.7783205689157827e-05 0.030030896033335457 0 0.00064906326323144181 0.03012660523623056 0 0.0003295888170464302 0.030616030647420876 0 9.7783205689157827e-05 0.030030896033335457 0 0.00058220803623879654 0.029638022579819845 0 0.00022657387378184491 0.029457539224048489 0 0.00055625670878422021 0.029181404258404695 0 0.00058220803623879654 0.029638022579819845 0 9.7783205689157827e-05 0.030030896033335457 0 0.00022657387378184491 0.029457539224048489 0 9.7783205689157827e-05 0.030030896033335457 0 0.00022657387378184491 0.029457539224048489 0 -0.00021325978541461262 0.02943163612518411 0 -0.00049794892900206485 0.029980853187069601 0 9.7783205689157827e-05 0.030030896033335457 0 -0.00021325978541461262 0.02943163612518411 0 -0.00021325978541461262 0.02943163612518411 0 -0.00050248550730364961 0.029136733735322738 0 -0.00058541230828006217 0.02954526286017143 0 -0.00049794892900206485 0.029980853187069601 0 -0.00021325978541461262 0.02943163612518411 0 -0.00058541230828006217 0.02954526286017143 0 -0.00021325978541461262 0.02943163612518411 0 -0.00050248550730364961 0.029136733735322738 0 -0.00022382021940288714 0.028931972515122903 0 -0.00050248550730364961 0.029136733735322738 0 -0.00022382021940288714 0.028931972515122903 0 -0.00048753185095650337 0.028769378753422135 0 -0.00022382021940288714 0.028931972515122903 0 0.00017507807469285992 0.028989350883506404 0 -3.9386763822308841e-05 0.028609690621230813 0 -0.00021325978541461262 0.02943163612518411 0 -0.00022382021940288714 0.028931972515122903 0 0.00017507807469285992 0.028989350883506404 0 0.00022657387378184491 0.029457539224048489 0 -0.00021325978541461262 0.02943163612518411 0 0.00017507807469285992 0.028989350883506404 0 0.00017507807469285992 0.028989350883506404 0 0.00049639735301415262 0.028806370220830366 0 0.00025367765621436248 0.028607536255643082 0 0.00017507807469285992 0.028989350883506404 0 0.00049639735301415262 0.028806370220830366 0 0.00055625670878422021 0.029181404258404695 0 0.00022657387378184491 0.029457539224048489 0 0.00017507807469285992 0.028989350883506404 0 0.00055625670878422021 0.029181404258404695 0 -0.0018963719252499155 0.030127715604890186 0 -0.0013729323933112053 0.029883666716169505 0 -0.0015868935876143428 0.029313355751682594 0 -0.0012151974034621264 0.031252361835623847 0 -0.0010942627185572494 0.031099102754255103 0 -0.001201040228926879 0.029391064979620563 0 -0.0013729323933112053 0.029883666716169505 0 -0.00090542042301772088 0.02972544955772936 0 -0.001201040228926879 0.029391064979620563 0 -0.0013729323933112053 0.029883666716169505 0 -0.0015868935876143428 0.029313355751682594 0 -0.00094738423428875605 0.030321452017230494 0 -0.0013729323933112053 0.029883666716169505 0 -0.00090542042301772088 0.02972544955772936 0 -0.00049794892900206485 0.029980853187069601 0 -0.00090542042301772088 0.02972544955772936 0 -0.00058541230828006217 0.02954526286017143 0 -0.00090542042301772088 0.02972544955772936 0 -0.00058541230828006217 0.02954526286017143 0 -0.00085047783921929777 0.029253878236891628 0 -0.001201040228926879 0.029391064979620563 0 -0.00090542042301772088 0.02972544955772936 0 -0.00085047783921929777 0.029253878236891628 0 -0.001201040228926879 0.029391064979620563 0 -0.00085047783921929777 0.029253878236891628 0 -0.0010923190461198714 0.029115409023622019 0 -0.00085047783921929777 0.029253878236891628 0 -0.0010923190461198714 0.029115409023622019 0 -0.00094471463511128792 0.029003077070734958 0 -0.00050248550730364961 0.029136733735322738 0 -0.00085047783921929777 0.029253878236891628 0 -0.00070475712965717592 0.028923613573333302 0 -0.00050248550730364961 0.029136733735322738 0 -0.00058541230828006217 0.02954526286017143 0 -0.00085047783921929777 0.029253878236891628 0 -0.00050248550730364961 0.029136733735322738 0 -0.00070475712965717592 0.028923613573333302 0 -0.00048753185095650337 0.028769378753422135 0 -0.00085047783921929777 0.029253878236891628 0 -0.00070475712965717592 0.028923613573333302 0 -0.00094471463511128792 0.029003077070734958 0 -0.0010923190461198714 0.029115409023622019 0 -0.00094471463511128792 0.029003077070734958 0 -0.0010555082999397637 0.028923551725590434 0 -0.00070475712965717592 0.028923613573333302 0 -0.00094471463511128792 0.029003077070734958 0 -0.00092878310006981027 0.028828708685395103 0 -0.00070475712965717592 0.028923613573333302 0 -0.00092878310006981027 0.028828708685395103 0 -0.00080667441611119331 0.028692884639580411 0 -0.00094471463511128792 0.029003077070734958 0 -0.00092878310006981027 0.028828708685395103 0 -0.0010555082999397637 0.028923551725590434 0 -0.00092878310006981027 0.028828708685395103 0 -0.0010555082999397637 0.028923551725590434 0 -0.0010792459295209734 0.028770618745971213 0 -0.0010310153598398625 0.030899336968590277 0 -0.0010173005464565684 0.02991992102551249 0 -0.0010555082999397637 0.028923551725590434 0 -0.0012037501851510962 0.028935629339536553 0 -0.0010792459295209734 0.028770618745971213 0 -0.0012037501851510962 0.028935629339536553 0 -0.0015219259922005781 0.029143723271415033 0 -0.0011112211642048066 0.028497934410611585 0 -0.0010923190461198714 0.029115409023622019 0 -0.0010555082999397637 0.028923551725590434 0 -0.0012037501851510962 0.028935629339536553 0 -0.001201040228926879 0.029391064979620563 0 -0.0012987621302335381 0.029192815279841564 0 -0.0015868935876143428 0.029313355751682594 0 -0.0010923190461198714 0.029115409023622019 0 -0.0012037501851510962 0.028935629339536553 0 -0.0012987621302335381 0.029192815279841564 0 -0.0012037501851510962 0.028935629339536553 0 -0.0012987621302335381 0.029192815279841564 0 -0.0015219259922005781 0.029143723271415033 0 -0.001201040228926879 0.029391064979620563 0 -0.0010923190461198714 0.029115409023622019 0 -0.0012987621302335381 0.029192815279841564 0 -0.0010942627185572494 0.031099102754255103 0 -0.0010310153598398625 0.030899336968590277 0 -0.0012987621302335381 0.029192815279841564 0 -0.0015868935876143428 0.029313355751682594 0 -0.0015219259922005781 0.029143723271415033 0 -0.0010310153598398625 0.030899336968590277 0 -0.0010885832001851759 0.032123908874433428 0 -0.00058875337704220965 0.032830222384538157 0 -0.00059762193411309569 0.032862836725114641 0 -0.00054525669005793119 0.032945118388569221 0 -0.00059762193411309569 0.032862836725114641 0 -0.00062862946798470938 0.032970339285846022 0 -0.00054525669005793119 0.032945118388569221 0 6.7901728979248736e-05 0.034956946817725189 0 9.9361843438111087e-05 0.034981486314315025 0 0.00018385457257611419 0.034909133663346567 0 -0.0010885832001851759 0.032123908874433428 0 -0.00033333785728556259 0.033755679713901567 0 6.7901728979248736e-05 0.034956946817725189 0 9.9361843438111087e-05 0.034981486314315025 0 4.443725174985395e-05 0.034988461070842275 0 -0.0011927866384521578 0.030977775351690631 0 -0.0011146497730139318 0.030846339625187374 0 -0.0011582771192267833 0.030864572073882334 0 -0.0015499880106120052 0.031657905756346735 0 -0.0013815742785219015 0.031542186395936783 0 -0.0014224960458018121 0.031183471604722891 0 -0.00077559257364639533 0.030971555925528301 0 -0.0014356436352100336 0.031239053400495688 0 -0.00062753363877581523 0.030697552903337061 0 -0.0010885832001851759 0.032123908874433428 0 -0.0012480516404585946 0.03028181686873254 0 -0.0010173005464565684 0.02991992102551249 0 -0.0012480516404585946 0.03028181686873254 0 -0.0010173005464565684 0.02991992102551249 0 -0.0010885832001851759 0.032123908874433428 0 -0.0012037501851510962 0.028935629339536553 0 -0.0011112211642048066 0.028497934410611585 0 -0.0010792459295209734 0.028770618745971213 0 -0.00092878310006981027 0.028828708685395103 0 -0.0010792459295209734 0.028770618745971213 0 -0.0009581989692942724 0.028641738559858892 0 -0.0011112211642048066 0.028497934410611585 0 -0.0009581989692942724 0.028641738559858892 0 -0.00077348936322436175 0.028476151656219958 0 -0.0014537657940715178 0.028860442781924608 0 -0.0013974427971744446 0.02875115672005759 0 -0.00039766777304565411 0.028391813723490172 0 -0.0010173005464565684 0.02991992102551249 0 -0.00031311184032464974 0.028137563304136318 0 -0.0011112211642048066 0.028497934410611585 0 -0.00077348936322436175 0.028476151656219958 0 -0.00021656245941112598 0.028190037914497975 0 -0.00092878310006981027 0.028828708685395103 0 -0.00080667441611119331 0.028692884639580411 0 -0.0009581989692942724 0.028641738559858892 0 -0.00080667441611119331 0.028692884639580411 0 -0.0009581989692942724 0.028641738559858892 0 -0.00077348936322436175 0.028476151656219958 0 -0.0011112211642048066 0.028497934410611585 0 -0.0010792459295209734 0.028770618745971213 0 -0.0009581989692942724 0.028641738559858892 0 -0.00080667441611119331 0.028692884639580411 0 -0.00063358331050627332 0.028590211838816104 0 -0.00048753185095650337 0.028769378753422135 0 -0.00070475712965717592 0.028923613573333302 0 -0.00080667441611119331 0.028692884639580411 0 -0.00048753185095650337 0.028769378753422135 0 -0.00080667441611119331 0.028692884639580411 0 -0.00063358331050627332 0.028590211838816104 0 -0.00077348936322436175 0.028476151656219958 0 -0.00063358331050627332 0.028590211838816104 0 -0.00058989048887095883 0.028496551339033758 0 -0.00044930285560587131 0.02852671192775429 0 -0.00063358331050627332 0.028590211838816104 0 -0.00048753185095650337 0.028769378753422135 0 -0.00044930285560587131 0.02852671192775429 0 -0.00058989048887095883 0.028496551339033758 0 -0.00077348936322436175 0.028476151656219958 0 -0.00050418600349955134 0.028392779813623995 0 -0.00058989048887095883 0.028496551339033758 0 -0.00044930285560587131 0.02852671192775429 0 -0.00050418600349955134 0.028392779813623995 0 -0.00063358331050627332 0.028590211838816104 0 -0.00058989048887095883 0.028496551339033758 0 -0.00077348936322436175 0.028476151656219958 0 -0.0012480516404585946 0.03028181686873254 0 -0.0013700076744319011 0.030243210055949914 0 -0.0018507969534946581 0.029753636605214451 0 -0.0014873008027400678 0.02906945415832032 0 -0.00091045231441374392 0.029271221515424807 0 -0.0013815742785219015 0.031542186395936783 0 -0.0011627913434978183 0.031130965060635202 0 -0.0014224960458018121 0.031183471604722891 0 -0.0012480516404585946 0.03028181686873254 0 -0.00067576114836273256 0.028610416387230695 0 0.00018385457257611419 0.034909133663346567 0 8.3911266297522164e-05 0.034839371095746224 0 3.5461516615833972e-05 0.034922588002269404 0 6.7901728979248736e-05 0.034956946817725189 0 0.00018385457257611419 0.034909133663346567 0 3.5461516615833972e-05 0.034922588002269404 0 -0.0010885832001851759 0.032123908874433428 0 -0.00064778271134652689 0.033414753927559188 0 0.00053524036112193767 0.028516305693572767 0 0.00029001349166042075 0.028361893088118942 0 0.00051560523881623267 0.028240196747844878 0 0.00053524036112193767 0.028516305693572767 0 0.00025367765621436248 0.028607536255643082 0 0.00029001349166042075 0.028361893088118942 0 0.00049639735301415262 0.028806370220830366 0 0.00053524036112193767 0.028516305693572767 0 0.00025367765621436248 0.028607536255643082 0 0.00017507807469285992 0.028989350883506404 0 0.00025367765621436248 0.028607536255643082 0 -3.9386763822308841e-05 0.028609690621230813 0 0.00025367765621436248 0.028607536255643082 0 5.1614284101408012e-05 0.02837222394670242 0 -3.9386763822308841e-05 0.028609690621230813 0 0.00025367765621436248 0.028607536255643082 0 0.00029001349166042075 0.028361893088118942 0 5.1614284101408012e-05 0.02837222394670242 0 0.00029001349166042075 0.028361893088118942 0 5.1614284101408012e-05 0.02837222394670242 0 0.00017210080321472269 0.028216906951548392 0 5.1614284101408012e-05 0.02837222394670242 0 -4.6224043589354128e-05 0.028275714829034737 0 0.00017210080321472269 0.028216906951548392 0 5.1614284101408012e-05 0.02837222394670242 0 -4.6224043589354128e-05 0.028275714829034737 0 -0.0001418351709385512 0.028365121094372794 0 -4.6224043589354128e-05 0.028275714829034737 0 -0.0001418351709385512 0.028365121094372794 0 -0.00021656245941112598 0.028190037914497975 0 -0.0001418351709385512 0.028365121094372794 0 -0.00030145461077257845 0.028316521756869089 0 -0.00021656245941112598 0.028190037914497975 0 -0.0001418351709385512 0.028365121094372794 0 -3.9386763822308841e-05 0.028609690621230813 0 -0.00027413788236448381 0.028477913003761179 0 5.1614284101408012e-05 0.02837222394670242 0 -0.0001418351709385512 0.028365121094372794 0 -3.9386763822308841e-05 0.028609690621230813 0 -0.00022382021940288714 0.028931972515122903 0 -3.9386763822308841e-05 0.028609690621230813 0 -0.00029039693807493951 0.02866967611405679 0 -3.9386763822308841e-05 0.028609690621230813 0 -0.00029039693807493951 0.02866967611405679 0 -0.00027413788236448381 0.028477913003761179 0 -0.00029039693807493951 0.02866967611405679 0 -0.00044930285560587131 0.02852671192775429 0 -0.00027413788236448381 0.028477913003761179 0 -0.00022382021940288714 0.028931972515122903 0 -0.00029039693807493951 0.02866967611405679 0 -0.00048753185095650337 0.028769378753422135 0 -0.00029039693807493951 0.02866967611405679 0 -0.00048753185095650337 0.028769378753422135 0 -0.00044930285560587131 0.02852671192775429 0 -0.00044930285560587131 0.02852671192775429 0 -0.00038207492841455047 0.02842862581049296 0 -0.00027413788236448381 0.028477913003761179 0 -0.00077348936322436175 0.028476151656219958 0 -0.00050418600349955134 0.028392779813623995 0 -0.00021656245941112598 0.028190037914497975 0 -0.00044930285560587131 0.02852671192775429 0 -0.00050418600349955134 0.028392779813623995 0 -0.00038207492841455047 0.02842862581049296 0 -0.00038207492841455047 0.02842862581049296 0 -0.00027413788236448381 0.028477913003761179 0 -0.00030145461077257845 0.028316521756869089 0 -0.00050418600349955134 0.028392779813623995 0 -0.00030145461077257845 0.028316521756869089 0 -0.00021656245941112598 0.028190037914497975 0 -0.0001418351709385512 0.028365121094372794 0 -0.00027413788236448381 0.028477913003761179 0 -0.00030145461077257845 0.028316521756869089 0 -0.00050418600349955134 0.028392779813623995 0 -0.00038207492841455047 0.02842862581049296 0 -0.00030145461077257845 0.028316521756869089 0 -0.0013974427971744446 0.02875115672005759 0 -0.00037349977665847414 0.028199505589513306 0 -0.00039766777304565411 0.028391813723490172 0 -4.6224043589354128e-05 0.028275714829034737 0 -0.00021656245941112598 0.028190037914497975 0 0.00017210080321472269 0.028216906951548392 0 0.00055863775887346435 0.027951795763696986 0 -0.00037349977665847414 0.028199505589513306 0 -0.00039766777304565411 0.028391813723490172 0 0.00049701783401845466 0.028010403877831647 0 -0.00031311184032464974 0.028137563304136318 0 0.00055863775887346435 0.027951795763696986 0 0.00055513828925857689 0.027721373508839329 0 -0.00037349977665847414 0.028199505589513306 0 0.00055863775887346435 0.027951795763696986 0 -0.00021656245941112598 0.028190037914497975 0 0.00017210080321472269 0.028216906951548392 0 4.1966649949726625e-05 0.028787201079336043 0 -0.00091045231441374392 0.029271221515424807 0 -0.00058337545895635536 0.02870279057474702 0 0.00031066254348084715 0.028277273252738329 0 -0.00067576114836273256 0.028610416387230695 0 0.00055863775887346435 0.027951795763696986 0 0.00017210080321472269 0.028216906951548392 0 0.00051560523881623267 0.028240196747844878 0 0.00029001349166042075 0.028361893088118942 0 0.00017210080321472269 0.028216906951548392 0 0.00051560523881623267 0.028240196747844878 0 -6.4742557729553823e-05 0.028337676644982216 0 -0.00058337545895635536 0.02870279057474702 0 -0.0011233805898445055 0.028382432813922671 0 -0.00046147323741066779 0.027922912859556295 0 -0.0018221927859443999 0.028747895716620363 0 4.1966649949726625e-05 0.028787201079336043 0 -6.4742557729553823e-05 0.028337676644982216 0 -0.00058337545895635536 0.02870279057474702 0 -0.00091045231441374392 0.029271221515424807 0 -0.00058337545895635536 0.02870279057474702 0 -0.0011233805898445055 0.028382432813922671 0 -0.0014873008027400678 0.02906945415832032 0 -0.00091045231441374392 0.029271221515424807 0 -0.0011233805898445055 0.028382432813922671 0 -0.00079422275989283228 0.027644945828986703 0 -0.0026475261283111064 0.027750649213323472 0 -0.0021033260680811306 0.026728737383518671 0 -0.0026582899043056251 0.02768473421816349 0 -0.0020681002354387421 0.025417546650297915 0 -0.0026457775816757694 0.027570134483710519 0 -0.0021033260680811306 0.026728737383518671 0 -0.0019636550611080539 0.025941548210662545 0 -0.0026457775816757694 0.027570134483710519 0 -0.0025491919803013068 0.02654742835432574 0 -0.0021262644028382629 0.026146429762609832 0 -0.0018221927859443999 0.028747895716620363 0 -0.0020829970108505892 0.026766963432086024 0 -0.0027481457284745628 0.027907323169094354 0 -0.0026457775816757694 0.027570134483710519 0 -0.0021033260680811306 0.026728737383518671 0 -0.0026457775816757694 0.027570134483710519 0 -0.0028836454768004943 0.026856212764421749 0 -0.0025491919803013068 0.02654742835432574 0 -0.00079422275989283228 0.027644945828986703 0 -0.0012378267314600872 0.026510732334079454 0 -0.00041554807386264963 0.02609236263226351 0 -0.00079422275989283228 0.027644945828986703 0 -0.0021033260680811306 0.026728737383518671 0 -0.0012378267314600872 0.026510732334079454 0 0.00018385457257611419 0.034909133663346567 0 0.0002884400902521823 0.034694942066531571 0 8.3911266297522164e-05 0.034839371095746224 0 0.0002884400902521823 0.034694942066531571 0 9.615801720969562e-05 0.0346733487954268 0 8.3911266297522164e-05 0.034839371095746224 0 9.615801720969562e-05 0.0346733487954268 0 8.3911266297522164e-05 0.034839371095746224 0 -5.355570660811801e-05 0.03482681628942462 0 -0.0011627913434978183 0.031130965060635202 0 -0.00094214137697444945 0.030703232827650206 0 -0.0013036440982846385 0.030724771847502132 0 -0.00064778271134652689 0.033414753927559188 0 -0.0013891743834242732 0.031433071391451468 0 -0.0013700076744319011 0.030243210055949914 0 -0.0018221927859443999 0.028747895716620363 0 -0.0011627913434978183 0.031130965060635202 0 -0.0014224960458018121 0.031183471604722891 0 -0.0013036440982846385 0.030724771847502132 0 -0.0027481457284745628 0.027907323169094354 0 -0.0026457775816757694 0.027570134483710519 0 -0.0038002413092832173 0.027943261277843981 0 0.00018385457257611419 0.034909133663346567 0 0.0002884400902521823 0.034694942066531571 0 0.00034369233513784693 0.034687218793856923 0 -0.0018221927859443999 0.028747895716620363 0 -0.0013891743834242732 0.031433071391451468 0 -0.00041275930612094626 0.032092508951870102 0 -0.0013891743834242732 0.031433071391451468 0 -0.0013891743834242732 0.031433071391451468 0 -0.0013230219052554387 0.030151626349614193 0 0.00039652046360569391 0.034298574356482897 0 0.00082290102461108554 0.033824698831908404 0 6.5538417018220609e-05 0.033914734128641447 0 -0.0028836454768004943 0.026856212764421749 0 -0.0038002413092832173 0.027943261277843981 0 -0.0033711342929242999 0.026335985628696507 0 -0.0026457775816757694 0.027570134483710519 0 -0.0028836454768004943 0.026856212764421749 0 -0.0038002413092832173 0.027943261277843981 0 0.00048371902551752166 0.034704477113222117 0 0.00039652046360569391 0.034298574356482897 0 0.00082290102461108554 0.033824698831908404 0 0.0002884400902521823 0.034694942066531571 0 0.00048371902551752166 0.034704477113222117 0 0.00039652046360569391 0.034298574356482897 0 -7.303699164473651e-05 0.034821086116283137 0 5.4678139706102936e-05 0.034297981145571164 0 0.00039652046360569391 0.034298574356482897 0 0.00022191751263677179 0.034406990765690981 0 6.5538417018220609e-05 0.033914734128641447 0 9.615801720969562e-05 0.0346733487954268 0 -5.355570660811801e-05 0.03482681628942462 0 6.5538417018220609e-05 0.033914734128641447 0 9.615801720969562e-05 0.0346733487954268 0 0.00022191751263677179 0.034406990765690981 0 6.5538417018220609e-05 0.033914734128641447 0 0.0002884400902521823 0.034694942066531571 0 0.00039652046360569391 0.034298574356482897 0 0.00022191751263677179 0.034406990765690981 0 0.0002884400902521823 0.034694942066531571 0 9.615801720969562e-05 0.0346733487954268 0 0.00022191751263677179 0.034406990765690981 0 -5.355570660811801e-05 0.03482681628942462 0 -1.9179178905573421e-05 0.034924879021649778 0 -3.8949369912310949e-05 0.034929711149852077 0 -1.6883030789062232e-05 0.03490008098637222 0 -5.355570660811801e-05 0.03482681628942462 0 -1.9179178905573421e-05 0.034924879021649778 0 -1.6883030789062232e-05 0.03490008098637222 0 -5.973051166521534e-06 0.034948640651641182 0 -1.9179178905573421e-05 0.034924879021649778 0 -1.6883030789062232e-05 0.03490008098637222 0 -5.355570660811801e-05 0.03482681628942462 0 -1.8573530593855466e-05 0.03488431620155099 0 8.3911266297522164e-05 0.034839371095746224 0 -5.355570660811801e-05 0.03482681628942462 0 -1.8573530593855466e-05 0.03488431620155099 0 8.3911266297522164e-05 0.034839371095746224 0 -1.8573530593855466e-05 0.03488431620155099 0 3.5461516615833972e-05 0.034922588002269404 0 6.7901728979248736e-05 0.034956946817725189 0 3.5461516615833972e-05 0.034922588002269404 0 1.687129455163088e-05 0.034957532255151122 0 3.5461516615833972e-05 0.034922588002269404 0 -1.0959941253422268e-05 0.034927817898380495 0 1.687129455163088e-05 0.034957532255151122 0 -1.8573530593855466e-05 0.03488431620155099 0 3.5461516615833972e-05 0.034922588002269404 0 -1.0959941253422268e-05 0.034927817898380495 0 -1.6883030789062232e-05 0.03490008098637222 0 -1.8573530593855466e-05 0.03488431620155099 0 -1.0959941253422268e-05 0.034927817898380495 0 -1.6883030789062232e-05 0.03490008098637222 0 -1.5314399093627113e-05 0.034949867064017003 0 -1.0959941253422268e-05 0.034927817898380495 0 -1.5314399093627113e-05 0.034949867064017003 0 -1.0959941253422268e-05 0.034927817898380495 0 -9.2157685529089792e-06 0.034962028613964892 0 -9.2157685529089792e-06 0.034962028613964892 0 5.2045261829852418e-06 0.034971660201995235 0 1.687129455163088e-05 0.034957532255151122 0 -1.0959941253422268e-05 0.034927817898380495 0 -9.2157685529089792e-06 0.034962028613964892 0 1.687129455163088e-05 0.034957532255151122 0 -1.5314399093627113e-05 0.034949867064017003 0 -9.2157685529089792e-06 0.034962028613964892 0 -1.2593642428299354e-05 0.034968358250245551 0 -9.2157685529089792e-06 0.034962028613964892 0 -1.0854047089541352e-05 0.034973076645051157 0 -5.6884541086653942e-06 0.034972138773472647 0 -9.2157685529089792e-06 0.034962028613964892 0 -1.0854047089541352e-05 0.034973076645051157 0 -1.2593642428299354e-05 0.034968358250245551 0 -1.0854047089541352e-05 0.034973076645051157 0 -1.1713789950199176e-05 0.034973695435341477 0 -1.2593642428299354e-05 0.034968358250245551 0 -9.3507275944131014e-06 0.034975154310169482 0 -1.0854047089541352e-05 0.034973076645051157 0 -5.6884541086653942e-06 0.034972138773472647 0 -9.2157685529089792e-06 0.034962028613964892 0 -5.6884541086653942e-06 0.034972138773472647 0 5.2045261829852418e-06 0.034971660201995235 0 -4.7498790201625007e-07 0.034976292215058227 0 -9.3507275944131014e-06 0.034975154310169482 0 -5.6884541086653942e-06 0.034972138773472647 0 -4.7498790201625007e-07 0.034976292215058227 0 -5.6884541086653942e-06 0.034972138773472647 0 5.2045261829852418e-06 0.034971660201995235 0 5.2045261829852418e-06 0.034971660201995235 0 4.443725174985395e-05 0.034988461070842275 0 1.687129455163088e-05 0.034957532255151122 0 -4.7498790201625007e-07 0.034976292215058227 0 5.2045261829852418e-06 0.034971660201995235 0 4.443725174985395e-05 0.034988461070842275 0 6.7901728979248736e-05 0.034956946817725189 0 4.443725174985395e-05 0.034988461070842275 0 1.687129455163088e-05 0.034957532255151122 0 -7.5991770588272646e-09 0.034999974526207962 0 -1.4133157096472708e-06 0.034992484391866162 0 -1.1920627893900327e-08 0.034999946179057662 0 -1.4133157096472708e-06 0.034992484391866162 0 -8.8700687077813719e-06 0.034978723279490843 0 -8.6993576137116919e-06 0.034976399823930318 0 -1.1225650974908468e-05 0.034975176967881508 0 -1.1936888541563035e-05 0.034974003423201193 0 -8.8700687077813719e-06 0.034978723279490843 0 -1.1225650974908468e-05 0.034975176967881508 0 -1.4133157096472708e-06 0.034992484391866162 0 -8.8700687077813719e-06 0.034978723279490843 0 -1.1225650974908468e-05 0.034975176967881508 0 -1.1713789950199176e-05 0.034973695435341477 0 -1.1936888541563035e-05 0.034974003423201193 0 -1.1713789950199176e-05 0.034973695435341477 0 -1.1936888541563035e-05 0.034974003423201193 0 -1.2593642428299354e-05 0.034968358250245551 0 -1.5314399093627113e-05 0.034949867064017003 0 -1.2644940613945438e-05 0.03496853609673891 0 -1.2593642428299354e-05 0.034968358250245551 0 -1.1936888541563035e-05 0.034974003423201193 0 -1.2644940613945438e-05 0.03496853609673891 0 -1.2593642428299354e-05 0.034968358250245551 0 -1.1936888541563035e-05 0.034974003423201193 0 -1.2644940613945438e-05 0.03496853609673891 0 -8.8700687077813719e-06 0.034978723279490843 0 -1.2644940613945438e-05 0.03496853609673891 0 -8.8700687077813719e-06 0.034978723279490843 0 -8.6993576137116919e-06 0.034976399823930318 0 -1.5314399093627113e-05 0.034949867064017003 0 -8.6993576137116919e-06 0.034976399823930318 0 -8.1070078091854311e-06 0.034960309412069776 0 -1.5314399093627113e-05 0.034949867064017003 0 -1.2644940613945438e-05 0.03496853609673891 0 -8.6993576137116919e-06 0.034976399823930318 0 -8.6993576137116919e-06 0.034976399823930318 0 -1.1920627893900327e-08 0.034999946179057662 0 -8.1070078091854311e-06 0.034960309412069776 0 -1.4133157096472708e-06 0.034992484391866162 0 -8.6993576137116919e-06 0.034976399823930318 0 -1.1920627893900327e-08 0.034999946179057662 0 -1.1920627893900327e-08 0.034999946179057662 0 -8.1070078091854311e-06 0.034960309412069776 0 2.0213151931395364e-09 0.034999949048537878 0 -1.6883030789062232e-05 0.03490008098637222 0 -8.1070078091854311e-06 0.034960309412069776 0 -5.973051166521534e-06 0.034948640651641182 0 -1.6883030789062232e-05 0.03490008098637222 0 -1.5314399093627113e-05 0.034949867064017003 0 -8.1070078091854311e-06 0.034960309412069776 0 -5.973051166521534e-06 0.034948640651641182 0 2.0213151931395364e-09 0.034999949048537878 0 -3.1739949153924175e-06 0.03496941798711297 0 -8.1070078091854311e-06 0.034960309412069776 0 -5.973051166521534e-06 0.034948640651641182 0 2.0213151931395364e-09 0.034999949048537878 0 2.0213151931395364e-09 0.034999949048537878 0 -3.1739949153924175e-06 0.03496941798711297 0 -2.6999026869691349e-09 0.034999961917044624 0 -5.973051166521534e-06 0.034948640651641182 0 -3.1739949153924175e-06 0.03496941798711297 0 -9.744689353054459e-06 0.034947749729460929 0 -3.1739949153924175e-06 0.03496941798711297 0 -3.508680226847595e-06 0.034970832748662785 0 -1.0596722252047916e-05 0.034946828171553208 0 -3.1739949153924175e-06 0.03496941798711297 0 -3.508680226847595e-06 0.034970832748662785 0 -2.6999026869691349e-09 0.034999961917044624 0 -1.9179178905573421e-05 0.034924879021649778 0 -2.1959735638341232e-05 0.034925013305044869 0 -3.8949369912310949e-05 0.034929711149852077 0 -1.9179178905573421e-05 0.034924879021649778 0 -1.0596722252047916e-05 0.034946828171553208 0 -2.1959735638341232e-05 0.034925013305044869 0 -5.973051166521534e-06 0.034948640651641182 0 -1.9179178905573421e-05 0.034924879021649778 0 -9.744689353054459e-06 0.034947749729460929 0 -1.9179178905573421e-05 0.034924879021649778 0 -9.744689353054459e-06 0.034947749729460929 0 -1.0596722252047916e-05 0.034946828171553208 0 -3.1739949153924175e-06 0.03496941798711297 0 -9.744689353054459e-06 0.034947749729460929 0 -1.0596722252047916e-05 0.034946828171553208 0 -3.508680226847595e-06 0.034970832748662785 0 -1.0596722252047916e-05 0.034946828171553208 0 -5.6836375831601135e-06 0.034945841814763359 0 -1.0596722252047916e-05 0.034946828171553208 0 -2.1959735638341232e-05 0.034925013305044869 0 -1.1007974755202815e-05 0.034917274597736178 0 -2.1959735638341232e-05 0.034925013305044869 0 -1.1007974755202815e-05 0.034917274597736178 0 -1.8151618495942731e-05 0.0349040860669542 0 -1.1007974755202815e-05 0.034917274597736178 0 -5.6836375831601135e-06 0.034945841814763359 0 -8.5257917516654685e-07 0.034940868289896239 0 -1.0596722252047916e-05 0.034946828171553208 0 -1.1007974755202815e-05 0.034917274597736178 0 -5.6836375831601135e-06 0.034945841814763359 0 -5.6836375831601135e-06 0.034945841814763359 0 -8.5257917516654685e-07 0.034940868289896239 0 -2.492729803804232e-06 0.034967015944266329 0 -8.5257917516654685e-07 0.034940868289896239 0 3.6788231557570023e-06 0.03492809687532035 0 -9.5147943925358533e-06 0.034902479629034387 0 -1.1007974755202815e-05 0.034917274597736178 0 -8.5257917516654685e-07 0.034940868289896239 0 -9.5147943925358533e-06 0.034902479629034387 0 -3.508680226847595e-06 0.034970832748662785 0 -2.6999026869691349e-09 0.034999961917044624 0 2.1966005263815348e-10 0.034999964776214594 0 -3.508680226847595e-06 0.034970832748662785 0 -2.492729803804232e-06 0.034967015944266329 0 2.1966005263815348e-10 0.034999964776214594 0 -3.508680226847595e-06 0.034970832748662785 0 -5.6836375831601135e-06 0.034945841814763359 0 -2.492729803804232e-06 0.034967015944266329 0 -8.5257917516654685e-07 0.034940868289896239 0 -2.492729803804232e-06 0.034967015944266329 0 -1.545266522841405e-06 0.034970379010480279 0 -2.492729803804232e-06 0.034967015944266329 0 2.1966005263815348e-10 0.034999964776214594 0 -1.545266522841405e-06 0.034970379010480279 0 2.1966005263815348e-10 0.034999964776214594 0 -6.1696426390262897e-09 0.034999957822368991 0 -1.545266522841405e-06 0.034970379010480279 0 -3.7060719116203049e-06 0.034972759461147654 0 -6.1696426390262897e-09 0.034999957822368991 0 -5.0037929792210748e-09 0.034999934111242914 0 -3.7060719116203049e-06 0.034972759461147654 0 -6.1696426390262897e-09 0.034999957822368991 0 -1.545266522841405e-06 0.034970379010480279 0 -3.7060719116203049e-06 0.034972759461147654 0 -1.3322389069781268e-06 0.034954864181248144 0 -1.545266522841405e-06 0.034970379010480279 0 -3.7060719116203049e-06 0.034972759461147654 0 -1.3322389069781268e-06 0.034954864181248144 0 -4.1273397576631179e-06 0.034929474650394712 0 -1.3322389069781268e-06 0.034954864181248144 0 -1.545266522841405e-06 0.034970379010480279 0 2.4588374692283528e-06 0.034946968132215553 0 -8.5257917516654685e-07 0.034940868289896239 0 -1.545266522841405e-06 0.034970379010480279 0 2.4588374692283528e-06 0.034946968132215553 0 -8.5257917516654685e-07 0.034940868289896239 0 2.4588374692283528e-06 0.034946968132215553 0 3.6788231557570023e-06 0.03492809687532035 0 2.4588374692283528e-06 0.034946968132215553 0 1.0230253369477168e-05 0.034932112992552979 0 3.6788231557570023e-06 0.03492809687532035 0 1.0230253369477168e-05 0.034932112992552979 0 1.5814018155269661e-05 0.034931642118511901 0 3.6788231557570023e-06 0.03492809687532035 0 -1.3322389069781268e-06 0.034954864181248144 0 2.4588374692283528e-06 0.034946968132215553 0 1.0230253369477168e-05 0.034932112992552979 0 -1.3322389069781268e-06 0.034954864181248144 0 1.0230253369477168e-05 0.034932112992552979 0 -4.1273397576631179e-06 0.034929474650394712 0 1.0230253369477168e-05 0.034932112992552979 0 2.3170500334911126e-05 0.034857158410861684 0 -4.1273397576631179e-06 0.034929474650394712 0 3.9162777169444002e-05 0.034854462612525623 0 -0.00012984420047135412 0.034575291011102634 0 2.3170500334911126e-05 0.034857158410861684 0 -0.00011738698998910789 0.034673304181218487 0 -0.00015059257118904746 0.034381264320299698 0 1.0230253369477168e-05 0.034932112992552979 0 2.3170500334911126e-05 0.034857158410861684 0 1.5814018155269661e-05 0.034931642118511901 0 2.3170500334911126e-05 0.034857158410861684 0 -0.00011738698998910789 0.034673304181218487 0 -5.2133987109935766e-05 0.034798398991099648 0 -0.00011316028529571042 0.0348074236277328 0 -6.1840044985295256e-06 0.034865915026741676 0 -0.00021597760166758349 0.034797313922872601 0 -6.1840044985295256e-06 0.034865915026741676 0 -1.5658379658314284e-06 0.034913673125785527 0 -2.1207325719446114e-07 0.034826241469984968 0 -1.0788093943626218e-05 0.034857778415212551 0 -8.8463424866106581e-05 0.034777186707527524 0 -6.1840044985295256e-06 0.034865915026741676 0 3.5282478063126749e-05 0.034813889097620787 0 -2.1207325719446114e-07 0.034826241469984968 0 -0.00011316028529571042 0.0348074236277328 0 -5.2133987109935766e-05 0.034798398991099648 0 -6.1840044985295256e-06 0.034865915026741676 0 -0.00011738698998910789 0.034673304181218487 0 -0.00011316028529571042 0.0348074236277328 0 -5.2133987109935766e-05 0.034798398991099648 0 2.3170500334911126e-05 0.034857158410861684 0 -5.2133987109935766e-05 0.034798398991099648 0 -6.1840044985295256e-06 0.034865915026741676 0 2.3170500334911126e-05 0.034857158410861684 0 -1.5658379658314284e-06 0.034913673125785527 0 -4.1273397576631179e-06 0.034929474650394712 0 -4.6097468485834235e-07 0.034903609002769752 0 -6.648339263056709e-06 0.034877003615431251 0 2.3170500334911126e-05 0.034857158410861684 0 -6.1840044985295256e-06 0.034865915026741676 0 -1.5658379658314284e-06 0.034913673125785527 0 -1.5658379658314284e-06 0.034913673125785527 0 -6.7762521090205436e-07 0.034961477094610741 0 -4.1273397576631179e-06 0.034929474650394712 0 -1.5658379658314284e-06 0.034913673125785527 0 -6.7762521090205436e-07 0.034961477094610741 0 -8.9644010898964642e-07 0.034957784490191157 0 -6.7762521090205436e-07 0.034961477094610741 0 -5.0037929792210748e-09 0.034999934111242914 0 4.985965503842314e-09 0.034999949021460079 0 -3.7060719116203049e-06 0.034972759461147654 0 -6.7762521090205436e-07 0.034961477094610741 0 -5.0037929792210748e-09 0.034999934111242914 0 -3.7060719116203049e-06 0.034972759461147654 0 -6.7762521090205436e-07 0.034961477094610741 0 -4.1273397576631179e-06 0.034929474650394712 0 -0.00072296979582974928 0.031142312699879372 0 -0.00046307525418049362 0.035126333361484685 0 -0.00090811992514233328 0.034375770074283454 0 -0.0012687523991284648 0.03452484676449933 0 -0.00064742206703532926 0.034697711991767008 0 -0.00072296979582974928 0.031142312699879372 0 -0.00064142893883792579 0.023977765387572389 0 -0.00047625273754613873 0.031484815358740946 0 -0.00016156227452343726 0.035043542875876035 0 -0.00055630485389714991 0.034523816398224792 0 -0.00059823895452937456 0.034678091514575189 0 -0.00041229099822495858 0.034717015514531983 0 2.4743631295117402e-05 0.03471618296593567 0 5.4149455240678013e-05 0.034761643798725372 0 4.241123550184796e-05 0.034747470653240492 0 -0.00094101268850904098 0.027726526471046564 0 -0.00085400264065025135 0.027387875835765359 0 -0.00078783636467918549 0.027557188114887693 0 -0.00072296979582974928 0.031142312699879372 0 -0.00047625273754613873 0.031484815358740946 0 -0.00085400264065025135 0.027387875835765359 0 -0.00078783636467918549 0.027557188114887693 0 -0.00077716566317327716 0.027373425655063004 0 -0.00047625273754613873 0.031484815358740946 0 -0.00056396354748534895 0.030716699191907976 0 -0.00055630485389714991 0.034523816398224792 0 -0.00041229099822495858 0.034717015514531983 0 -0.00034063203831802296 0.034634309510278447 0 -0.00016156227452343726 0.035043542875876035 0 -8.8463424866106581e-05 0.034777186707527524 0 -0.00041229099822495858 0.034717015514531983 0 -0.00021597760166758349 0.034797313922872601 0 -0.00034063203831802296 0.034634309510278447 0 5.4149455240678013e-05 0.034761643798725372 0 3.5282478063126749e-05 0.034813889097620787 0 4.8416832957088969e-05 0.034779270455215283 0 -0.00016770555567252078 0.034670344061267594 0 -0.00046307525418049362 0.035126333361484685 0 -0.00011316028529571042 0.0348074236277328 0 -0.00021597760166758349 0.034797313922872601 0 -0.00034063203831802296 0.034634309510278447 0 -0.00031680707289940342 0.034586511392377416 0 -0.00050886166431297257 0.034397322288209645 0 -0.00015059257118904746 0.034381264320299698 0 -0.00011316028529571042 0.0348074236277328 0 -0.00031680707289940342 0.034586511392377416 0 -0.00064742206703532926 0.034697711991767008 0 -0.00011738698998910789 0.034673304181218487 0 -0.00011316028529571042 0.0348074236277328 0 -0.00031680707289940342 0.034586511392377416 0 -0.00011738698998910789 0.034673304181218487 0 -0.00031680707289940342 0.034586511392377416 0 -0.00015059257118904746 0.034381264320299698 0 -0.00090811992514233328 0.034375770074283454 0 -0.00064742206703532926 0.034697711991767008 0 -0.00050886166431297257 0.034397322288209645 0 -0.00031680707289940342 0.034586511392377416 0 -0.00064742206703532926 0.034697711991767008 0 -0.00050886166431297257 0.034397322288209645 0 -0.00090811992514233328 0.034375770074283454 0 -0.00050886166431297257 0.034397322288209645 0 -0.00054335604127417824 0.033926097831248517 0 1.5814018155269661e-05 0.034931642118511901 0 3.6788231557570023e-06 0.03492809687532035 0 -2.361323292027858e-05 0.034920385032884839 0 -0.00050886166431297257 0.034397322288209645 0 -0.00015059257118904746 0.034381264320299698 0 -0.00054335604127417824 0.033926097831248517 0 -0.00012984420047135412 0.034575291011102634 0 -0.00015090585629671963 0.034860159441404422 0 3.6788231557570023e-06 0.03492809687532035 0 -2.361323292027858e-05 0.034920385032884839 0 -2.6115908957524442e-05 0.03489314776786813 0 -2.361323292027858e-05 0.034920385032884839 0 -6.0334231915413193e-05 0.034868206362610482 0 -2.6115908957524442e-05 0.03489314776786813 0 -0.00054335604127417824 0.033926097831248517 0 -0.0011342019797973759 0.034019739704873764 0 -0.00098938291949047705 0.033479800108203908 0 -0.00015090585629671963 0.034860159441404422 0 -0.00043356573753181661 0.031379891389564263 0 -0.0012023293625701766 0.03109701979560326 0 -0.00043356573753181661 0.031379891389564263 0 -0.00090811992514233328 0.034375770074283454 0 -0.0012687523991284648 0.03452484676449933 0 -0.0011342019797973759 0.034019739704873764 0 -0.00090811992514233328 0.034375770074283454 0 -0.00054335604127417824 0.033926097831248517 0 -0.0011342019797973759 0.034019739704873764 0 -0.00072296979582974928 0.031142312699879372 0 -0.0012023293625701766 0.03109701979560326 0 -0.00084662190798197995 0.027364389948299841 0 -0.00076119274553246112 0.028405248892418369 0 -0.00018237054258916376 0.027486234115785914 0 -0.00084662190798197995 0.027364389948299841 0 -0.0010881978705406361 0.028220656633622099 0 -0.00076119274553246112 0.028405248892418369 0 -0.00076119274553246112 0.028405248892418369 0 -0.0013391089635363558 0.029106217717612577 0 -0.0012491314377609021 0.029181485901943766 0 -0.0011264650626567343 0.024633756355547702 0 -0.0012563585909987623 0.028206950206593279 0 -0.0016270064073842729 0.021500993028643084 0 -0.0013809486389311637 0.022149489002783591 0 -0.0024264576321750162 0.022754465977906806 0 -0.0010881978705406361 0.028220656633622099 0 -0.00076119274553246112 0.028405248892418369 0 -0.0013391089635363558 0.029106217717612577 0 -0.0014292442851710778 0.022624206305275868 0 -0.0010920169578224495 0.023345113593143819 0 -0.0007890796191774665 0.021898146019312573 0 -0.0012875865633875604 0.021468096920702645 0 -0.00063308998637749952 0.027930948101983606 0 -0.0011017531754860858 0.021824136490624202 0 -0.0014292442851710778 0.022624206305275868 0 -0.0024327354047269417 0.022779212098894379 0 -0.0013809486389311637 0.022149489002783591 0 -0.0024264576321750162 0.022754465977906806 0 -0.0025957918189858037 0.023054064407579025 0 -0.0011017531754860858 0.021824136490624202 0 -0.0014292442851710778 0.022624206305275868 0 -0.0007890796191774665 0.021898146019312573 0 -0.0014292442851710778 0.022624206305275868 0 -0.0010920169578224495 0.023345113593143819 0 -0.0018730501043939447 0.023309505105875445 0 -0.0014292442851710778 0.022624206305275868 0 -0.0024327354047269417 0.022779212098894379 0 -0.0018730501043939447 0.023309505105875445 0 -0.00043356573753181661 0.031379891389564263 0 -0.0012563585909987623 0.028206950206593279 0 -0.00062086387132818119 0.029016920292521002 0 -0.00050355462179161063 0.029115819218849835 0 -0.00065062220935157569 0.029339324510465791 0 -5.5036848575603759e-05 0.034857906050101584 0 -4.047802410407319e-05 0.034872431289342629 0 -3.6054852562884755e-05 0.034868648609296213 0 -6.0334231915413193e-05 0.034868206362610482 0 -5.5036848575603759e-05 0.034857906050101584 0 -4.047802410407319e-05 0.034872431289342629 0 0.00030290320843214316 0.034553291175928778 0 0.00031227893053393201 0.034508083196038881 0 0.00011205964320024409 0.034671547800840904 0 -0.00047929379999701638 0.029608678863865083 0 -0.00081063632074493647 0.030247163466319258 0 -0.0025923086212045572 0.02303751339749574 0 -0.0024327354047269417 0.022779212098894379 0 -0.0018730501043939447 0.023309505105875445 0 -0.00062086387132818119 0.029016920292521002 0 -0.00065062220935157569 0.029339324510465791 0 -0.00073054757878267674 0.029390388424118497 0 -0.0012563585909987623 0.028206950206593279 0 -0.00063308998637749952 0.027930948101983606 0 -0.00043356573753181661 0.031379891389564263 0 -0.00081063632074493647 0.030247163466319258 0 -0.00063308998637749952 0.027930948101983606 0 -0.00081063632074493647 0.030247163466319258 0 -0.0011488062355192116 0.029370262083868195 0 -0.0009473515579587992 0.029065360599647361 0 -0.0010851045289323197 0.029153075415038761 0 -0.00047929379999701638 0.029608678863865083 0 -0.00063308998637749952 0.027930948101983606 0 0.0014795042813821521 0.031224214224028206 0 0.00068763556477267234 0.032646970299258671 0 0.0011600507481329234 0.032602945171933413 0 -0.00047929379999701638 0.029608678863865083 0 -0.00084790530078997662 0.028162543665125477 0 -0.0018730501043939447 0.023309505105875445 0 -0.0016005745927687057 0.024775789792197682 0 -0.0030005392453312046 0.024718338992532476 0 -0.0025923086212045572 0.02303751339749574 0 -0.0018730501043939447 0.023309505105875445 0 -0.0030005392453312046 0.024718338992532476 0 -0.00081063632074493647 0.030247163466319258 0 -0.00025835624487964966 0.03476616328693273 0 -0.0011080473750039754 0.022909178543646345 0 -0.0014806972510291656 0.023899898220596426 0 -0.0010890028105646394 0.022451668153129694 0 -0.0014152389515701099 0.023161953400002471 0 -0.00051463323133142203 0.023021985244687748 0 -0.0010920169578224495 0.023345113593143819 0 -0.0018730501043939447 0.023309505105875445 0 -0.0016005745927687057 0.024775789792197682 0 3.6788231557570023e-06 0.03492809687532035 0 -9.5147943925358533e-06 0.034902479629034387 0 -2.6115908957524442e-05 0.03489314776786813 0 -9.5147943925358533e-06 0.034902479629034387 0 -2.6115908957524442e-05 0.03489314776786813 0 -3.6054852562884755e-05 0.034868648609296213 0 -6.0334231915413193e-05 0.034868206362610482 0 -2.6115908957524442e-05 0.03489314776786813 0 -4.047802410407319e-05 0.034872431289342629 0 -2.6115908957524442e-05 0.03489314776786813 0 -4.047802410407319e-05 0.034872431289342629 0 -3.6054852562884755e-05 0.034868648609296213 0 0.00030290320843214316 0.034553291175928778 0 0.00011205964320024409 0.034671547800840904 0 6.2584862787383444e-05 0.034915234990035508 0 -0.00047929379999701638 0.029608678863865083 0 0.00044391483342045023 0.034347937894997731 0 0.00011205964320024409 0.034671547800840904 0 -1.5946746578177514e-05 0.034863096842717371 0 6.2584862787383444e-05 0.034915234990035508 0 -0.00025835624487964966 0.03476616328693273 0 4.6624275714428955e-05 0.034784769038253859 0 -1.1007974755202815e-05 0.034917274597736178 0 -1.5946746578177514e-05 0.034863096842717371 0 -1.8151618495942731e-05 0.0349040860669542 0 -9.5147943925358533e-06 0.034902479629034387 0 -3.6054852562884755e-05 0.034868648609296213 0 -1.5946746578177514e-05 0.034863096842717371 0 -1.1007974755202815e-05 0.034917274597736178 0 -9.5147943925358533e-06 0.034902479629034387 0 -1.5946746578177514e-05 0.034863096842717371 0 -1.1379552825332238e-05 0.034914659273481849 0 6.2584862787383444e-05 0.034915234990035508 0 -3.8949369912310949e-05 0.034929711149852077 0 -2.1959735638341232e-05 0.034925013305044869 0 -1.8151618495942731e-05 0.0349040860669542 0 -1.1379552825332238e-05 0.034914659273481849 0 -1.5946746578177514e-05 0.034863096842717371 0 -1.8151618495942731e-05 0.0349040860669542 0 -1.1379552825332238e-05 0.034914659273481849 0 -1.5946746578177514e-05 0.034863096842717371 0 -1.1379552825332238e-05 0.034914659273481849 0 6.2584862787383444e-05 0.034915234990035508 0 0.00068763556477267234 0.032646970299258671 0 0.00082290102461108554 0.033824698831908404 0 0.0011600507481329234 0.032602945171933413 0 -0.0013230219052554387 0.030151626349614193 0 -0.00084790530078997662 0.028162543665125477 0 0.00068763556477267234 0.032646970299258671 0 0.00082290102461108554 0.033824698831908404 0 6.5538417018220609e-05 0.033914734128641447 0 -0.0033711342929242999 0.026335985628696507 0 -0.0030005392453312046 0.024718338992532476 0 -0.0027485197448361351 0.026026962070305918 0 0.00044391483342045023 0.034347937894997731 0 5.4678139706102936e-05 0.034297981145571164 0 -2.1959735638341232e-05 0.034925013305044869 0 -1.1379552825332238e-05 0.034914659273481849 0 -3.8949369912310949e-05 0.034929711149852077 0 -0.0014152389515701099 0.023161953400002471 0 -0.0012282044535584979 0.023602626360792692 0 -0.00051463323133142203 0.023021985244687748 0 -0.0030005392453312046 0.024718338992532476 0 -0.002384707614081865 0.025611731598300731 0 -0.0027485197448361351 0.026026962070305918 0 -0.0016005745927687057 0.024775789792197682 0 -0.0030005392453312046 0.024718338992532476 0 -0.002384707614081865 0.025611731598300731 0 -0.0016005745927687057 0.024775789792197682 0 -0.002384707614081865 0.025611731598300731 0 -0.0021205663025062721 0.0261468172199762 0 -0.002384707614081865 0.025611731598300731 0 -0.0021205663025062721 0.0261468172199762 0 -0.0023431771713463556 0.026132434583372884 0 -0.002384707614081865 0.025611731598300731 0 -0.0027485197448361351 0.026026962070305918 0 -0.0023431771713463556 0.026132434583372884 0 -0.0028836454768004943 0.026856212764421749 0 -0.0027485197448361351 0.026026962070305918 0 -0.0025491919803013068 0.02654742835432574 0 -0.0028836454768004943 0.026856212764421749 0 -0.0033711342929242999 0.026335985628696507 0 -0.0027485197448361351 0.026026962070305918 0 -0.0027485197448361351 0.026026962070305918 0 -0.0025491919803013068 0.02654742835432574 0 -0.0023431771713463556 0.026132434583372884 0 -0.0020681002354387421 0.025417546650297915 0 -0.0021217652623886267 0.02548322396332164 0 -0.0025491919803013068 0.02654742835432574 0 -0.0021262644028382629 0.026146429762609832 0 -0.0023431771713463556 0.026132434583372884 0 -0.0021033260680811306 0.026728737383518671 0 -0.0012378267314600872 0.026510732334079454 0 -0.0019636550611080539 0.025941548210662545 0 -0.0020681002354387421 0.025417546650297915 0 -0.00062022484389748537 0.024992872555581205 0 -0.0012378267314600872 0.026510732334079454 0 -0.0019636550611080539 0.025941548210662545 0 -0.00041554807386264963 0.02609236263226351 0 -0.0017338372239780854 0.023912156200326478 0 -0.0012282044535584979 0.023602626360792692 0 -0.00087593089502176072 0.023961422244468303 0 -0.0014152389515701099 0.023161953400002471 0 -0.0017338372239780854 0.023912156200326478 0 -0.0012282044535584979 0.023602626360792692 0 -0.0014806972510291656 0.023899898220596426 0 -0.0020681002354387421 0.025417546650297915 0 -0.0012282044535584979 0.023602626360792692 0 -0.00087593089502176072 0.023961422244468303 0 -0.00051463323133142203 0.023021985244687748 0 -0.00062022484389748537 0.024992872555581205 0 0.00053540742406820037 0.025165208614342589 0 -0.00087593089502176072 0.023961422244468303 0 -0.00027517947405156213 0.023573211100129943 0 -4.7637781052568294e-06 0.024027283004750214 0 -0.00087593089502176072 0.023961422244468303 0 -0.00051463323133142203 0.023021985244687748 0 -0.00027517947405156213 0.023573211100129943 0 -0.00051463323133142203 0.023021985244687748 0 -0.00027517947405156213 0.023573211100129943 0 0.00027023470555066878 0.023360089782366023 0 -0.00051463323133142203 0.023021985244687748 0 0.00027023470555066878 0.023360089782366023 0 0.00044153188502036808 0.022698819262460122 0 -0.00027517947405156213 0.023573211100129943 0 -4.7637781052568294e-06 0.024027283004750214 0 0.00027023470555066878 0.023360089782366023 0 0.00060889235177836846 0.026881290122299596 0 -0.00041554807386264963 0.02609236263226351 0 0.0010070102142372465 0.026239853683277994 0 0.00053540742406820037 0.025165208614342589 0 0.0012857156669514311 0.02485992346480452 0 -4.7637781052568294e-06 0.024027283004750214 0 0.00089672727177231922 0.024090838130924906 0 0.00069925182167290064 0.023607474445165932 0 0.001571590785669435 0.026768687227730879 0 0.0010070102142372465 0.026239853683277994 0 0.0021447185506359573 0.026397895000749863 0 0.00089672727177231922 0.024090838130924906 0 0.00069925182167290064 0.023607474445165932 0 0.00098910982405323272 0.023158544525169942 0 -4.7637781052568294e-06 0.024027283004750214 0 0.00069925182167290064 0.023607474445165932 0 0.00027023470555066878 0.023360089782366023 0 0.00076399758070459702 0.023858126771696846 0 0.001492148736373447 0.023211526293689073 0 0.00061429631779024569 0.024217570427497736 0 0.00090663393861977436 0.022464732317710217 0 0.00083525348079659481 0.022064398787307579 0 0.00061429631779024569 0.024217570427497736 0 0.0012225269774642656 0.024255396579588594 0 0.00090663393861977436 0.022464732317710217 0 0.00036107485175787036 0.022165372298143218 0 0.0007144433825587793 0.021688838820234955 0 0.0011090863329029901 0.022208527916712965 0 0.00076399758070459702 0.023858126771696846 0 0.00057836934684598067 0.021861625381327701 0 0.00036107485175787036 0.022165372298143218 0 0.0004681869210815184 0.021484594755657404 0 0.00021250186085053916 0.021310809949626024 0 0.0012857156669514311 0.02485992346480452 0 0.00064676901924440723 0.022145867290457158 0 0.0012857156669514311 0.02485992346480452 0 0.00076399758070459702 0.023858126771696846 0 0.00036107485175787036 0.022165372298143218 0 0.0007144433825587793 0.021688838820234955 0 0.0004681869210815184 0.021484594755657404 0 0.0007144433825587793 0.021688838820234955 0 0.0004681869210815184 0.021484594755657404 0 0.00066783663823568034 0.021217558872399817 0 0.0004681869210815184 0.021484594755657404 0 0.00066783663823568034 0.021217558872399817 0 0.00038577229899527265 0.021044500309770467 0 0.0004681869210815184 0.021484594755657404 0 0.00021250186085053916 0.021310809949626024 0 0.00038577229899527265 0.021044500309770467 0 0.00057836934684598067 0.021861625381327701 0 0.00064676901924440723 0.022145867290457158 0 0.00021250186085053916 0.021310809949626024 0 0.00018144422143675148 0.021121783881772681 0 0.00038577229899527265 0.021044500309770467 0 0.00018144422143675148 0.021121783881772681 0 0.00038577229899527265 0.021044500309770467 0 6.9013668522873383e-05 0.020465285602925737 0 0.00066783663823568034 0.021217558872399817 0 0.00052582218005312877 0.020791239971310951 0 0.0009108875405241159 0.020903486998101715 0 0.00066783663823568034 0.021217558872399817 0 0.00038577229899527265 0.021044500309770467 0 0.00052582218005312877 0.020791239971310951 0 0.00027023470555066878 0.023360089782366023 0 0.00063200736643863277 0.023039793980634399 0 0.00044153188502036808 0.022698819262460122 0 0.00069925182167290064 0.023607474445165932 0 0.00027023470555066878 0.023360089782366023 0 0.00066662564861006248 0.023301539704621201 0 0.00027023470555066878 0.023360089782366023 0 0.00066662564861006248 0.023301539704621201 0 0.00063200736643863277 0.023039793980634399 0 0.00069925182167290064 0.023607474445165932 0 0.00098910982405323272 0.023158544525169942 0 0.00066662564861006248 0.023301539704621201 0 0.00098910982405323272 0.023158544525169942 0 0.00063200736643863277 0.023039793980634399 0 0.00088043371889907354 0.022551754120059241 0 0.00098910982405323272 0.023158544525169942 0 0.00066662564861006248 0.023301539704621201 0 0.00063200736643863277 0.023039793980634399 0 0.00063200736643863277 0.023039793980634399 0 0.00044153188502036808 0.022698819262460122 0 0.00088043371889907354 0.022551754120059241 0 0.00028307980808843958 0.022619342103513445 0 0.00072124526932889222 0.021844701060529007 0 0.00024388171987369518 0.022711622366332788 0 0.00060444855003702303 0.022574809988395193 0 0.00053674294006925713 0.022246172359328534 0 0.00024388171987369518 0.022711622366332788 0 0.00012553738266214291 0.022263565973501407 0 0.00053674294006925713 0.022246172359328534 0 0.00052582218005312877 0.020791239971310951 0 0.00063105138989072928 0.020275642357321221 0 0.0009108875405241159 0.020903486998101715 0 0.00064676901924440723 0.022145867290457158 0 0.00072124526932889222 0.021844701060529007 0 6.9013668522873383e-05 0.020465285602925737 0 0.00052582218005312877 0.020791239971310951 0 0.00063105138989072928 0.020275642357321221 0 0.00038577229899527265 0.021044500309770467 0 6.9013668522873383e-05 0.020465285602925737 0 0.00052582218005312877 0.020791239971310951 0 0.00060444855003702303 0.022574809988395193 0 0.0010340899468848292 0.022415047994498258 0 0.00053674294006925713 0.022246172359328534 0 0.00072124526932889222 0.021844701060529007 0 0.00081302300385345072 0.021657965605132643 0 0.0010340899468848292 0.022415047994498258 0 0.00081145214534446785 0.021973320499116621 0 0.0011958141375990146 0.021787657949423469 0 0.0010340899468848292 0.022415047994498258 0 0.00081145214534446785 0.021973320499116621 0 0.00053674294006925713 0.022246172359328534 0 0.00081145214534446785 0.021973320499116621 0 0.00038164091916044999 0.021771332508420539 0 0.00075417757756022553 0.021567555106164035 0 0.00081145214534446785 0.021973320499116621 0 0.0011958141375990146 0.021787657949423469 0 0.00075417757756022553 0.021567555106164035 0 0.00012553738266214291 0.022263565973501407 0 0.00053674294006925713 0.022246172359328534 0 0.00038164091916044999 0.021771332508420539 0 0.00081145214534446785 0.021973320499116621 0 0.00053674294006925713 0.022246172359328534 0 0.00038164091916044999 0.021771332508420539 0 0.00012553738266214291 0.022263565973501407 0 0.00038164091916044999 0.021771332508420539 0 -6.8022265000790678e-06 0.021864645167493413 0 0.00012553738266214291 0.022263565973501407 0 -6.8022265000790678e-06 0.021864645167493413 0 -0.00025158832612181539 0.022190388805296599 0 -6.8022265000790678e-06 0.021864645167493413 0 -0.00025158832612181539 0.022190388805296599 0 -0.00037167171620697552 0.021781465634926125 0 -0.00025158832612181539 0.022190388805296599 0 -0.0005160178534976054 0.022010993536050575 0 -0.00037167171620697552 0.021781465634926125 0 -0.0010890028105646394 0.022451668153129694 0 -0.0007890796191774665 0.021898146019312573 0 -0.00062720139841775221 0.022190369195524438 0 -0.0005160178534976054 0.022010993536050575 0 -0.0007890796191774665 0.021898146019312573 0 -0.00037167171620697552 0.021781465634926125 0 -0.0005160178534976054 0.022010993536050575 0 -0.0007890796191774665 0.021898146019312573 0 -0.00062720139841775221 0.022190369195524438 0 -0.0011080473750039754 0.022909178543646345 0 -0.00080464325712737751 0.022010100690117926 0 -0.00025158832612181539 0.022190388805296599 0 -0.00062720139841775221 0.022190369195524438 0 -0.00052835036482183704 0.022483927634119442 0 -0.00025158832612181539 0.022190388805296599 0 -0.0005160178534976054 0.022010993536050575 0 -0.00062720139841775221 0.022190369195524438 0 -0.0010890028105646394 0.022451668153129694 0 -0.00062720139841775221 0.022190369195524438 0 -0.00052835036482183704 0.022483927634119442 0 -0.0010890028105646394 0.022451668153129694 0 -0.00051463323133142203 0.023021985244687748 0 -0.00052835036482183704 0.022483927634119442 0 -0.00045013142250359861 0.023013510087195679 0 0.00028307980808843958 0.022619342103513445 0 -0.00051463323133142203 0.023021985244687748 0 -0.00052835036482183704 0.022483927634119442 0 -0.00017263460782390125 0.022580701312133928 0 -0.00051463323133142203 0.023021985244687748 0 0.00024388171987369518 0.022711622366332788 0 -0.00017263460782390125 0.022580701312133928 0 0.00012553738266214291 0.022263565973501407 0 -0.00025158832612181539 0.022190388805296599 0 -0.00017263460782390125 0.022580701312133928 0 0.00024388171987369518 0.022711622366332788 0 0.00012553738266214291 0.022263565973501407 0 -0.00017263460782390125 0.022580701312133928 0 -0.00025158832612181539 0.022190388805296599 0 -0.00052835036482183704 0.022483927634119442 0 -0.00017263460782390125 0.022580701312133928 0 0.001170421480323212 0.017581646362326137 0 0.00015918959806031076 0.015422202815062657 0 0.00016326956094027842 0.016018585881772976 0 0.00032629764396303776 0.015832300881061856 0 0.00015346572969720146 0.015871316024919067 0 0.00016326956094027842 0.016018585881772976 0 0.00032629764396303776 0.015832300881061856 0 0.00034543080813664688 0.016133615377862353 0 0.001170421480323212 0.017581646362326137 0 0.0019751384766964479 0.018976297140053517 0 0.0018271295989713799 0.020317025892320695 0 0.0018525612593166614 0.019654456381629326 0 0.0027950265632824701 0.020258975370774507 0 0.00032629764396303776 0.015832300881061856 0 0.00015346572969720146 0.015871316024919067 0 0.00013762665534481074 0.015738446257328856 0 0.003084178564109208 0.023007925324437923 0 0.001170421480323212 0.017581646362326137 0 0.00087441402515463218 0.021048106295636176 0 0.0024872228719534828 0.020221184669753967 0 0.001604360804474404 0.01966469909760734 0 0.00087441402515463218 0.021048106295636176 0 0.0024508436453029199 0.021143993785502663 0 0.0024872228719534828 0.020221184669753967 0 0.00040015629876641908 0.015998851410798889 0 0.00047629635603759575 0.016038065727086041 0 0.00034543080813664688 0.016133615377862353 0 0.001170421480323212 0.017581646362326137 0 0.00096253129734406927 0.017833721385694463 0 0.00087441402515463218 0.021048106295636176 0 0.001604360804474404 0.01966469909760734 0 0.00072050119837592118 0.019106599370126199 0 0.00047629635603759575 0.016038065727086041 0 0.00058694015721050589 0.016103167890562639 0 0.00049724462553121286 0.016168347938994531 0 0.00096253129734406927 0.017833721385694463 0 0.00098683724815636672 0.019007545623061919 0 0.0019309556842791056 0.022817793676447064 0 0.00098683724815636672 0.019007545623061919 0 0.0018611672735069518 0.022256586407976169 0 0.0017536838950880434 0.02092368137432505 0 0.0014417939669054067 0.021621367940883818 0 0.0018611672735069518 0.022256586407976169 0 0.0014417939669054067 0.021621367940883818 0 0.0011090863329029901 0.022208527916712965 0 0.0019309556842791056 0.022817793676447064 0 0.001492148736373447 0.023211526293689073 0 0.0007144433825587793 0.021688838820234955 0 0.0011090863329029901 0.022208527916712965 0 0.001020087227265406 0.021406478396641192 0 0.0014417939669054067 0.021621367940883818 0 0.0011090863329029901 0.022208527916712965 0 0.001020087227265406 0.021406478396641192 0 0.00066783663823568034 0.021217558872399817 0 0.001020087227265406 0.021406478396641192 0 0.0009108875405241159 0.020903486998101715 0 0.0007144433825587793 0.021688838820234955 0 0.00066783663823568034 0.021217558872399817 0 0.001020087227265406 0.021406478396641192 0 0.0017536838950880434 0.02092368137432505 0 0.0014417939669054067 0.021621367940883818 0 0.0012604008398306773 0.021084895114786634 0 0.0014417939669054067 0.021621367940883818 0 0.001020087227265406 0.021406478396641192 0 0.0012604008398306773 0.021084895114786634 0 0.0017536838950880434 0.02092368137432505 0 0.0012604008398306773 0.021084895114786634 0 0.0011785926993423948 0.020570450966915354 0 0.001020087227265406 0.021406478396641192 0 0.0012604008398306773 0.021084895114786634 0 0.0009108875405241159 0.020903486998101715 0 0.0012604008398306773 0.021084895114786634 0 0.0009108875405241159 0.020903486998101715 0 0.0011785926993423948 0.020570450966915354 0 0.00063105138989072928 0.020275642357321221 0 0.0011785926993423948 0.020570450966915354 0 0.0016357970387370817 0.019941570706703625 0 0.00081302300385345072 0.021657965605132643 0 0.0013547148990903149 0.01867883797434516 0 0.00063105138989072928 0.020275642357321221 0 0.0009108875405241159 0.020903486998101715 0 0.0011785926993423948 0.020570450966915354 0 0.00098683724815636672 0.019007545623061919 0 0.0017204851926455006 0.020734680154353605 0 0.0011958141375990146 0.021787657949423469 0 0.0018519111626274533 0.022122135777838812 0 0.0014525843913128669 0.021428671974430987 0 0.0010340899468848292 0.022415047994498258 0 0.0011958141375990146 0.021787657949423469 0 0.0018519111626274533 0.022122135777838812 0 0.0013547148990903149 0.01867883797434516 0 0.00080135158083546496 0.016125720633857435 0 0.00061254524671779434 0.016281066861908514 0 0.00049724462553121286 0.016168347938994531 0 0.00045776067136737021 0.016322223415710803 0 0.0017630292151709084 0.015966265241491175 0 0.00099113150753341863 0.016207972217231179 0 0.0012926713358937505 0.016728125757625067 0 0.00098683724815636672 0.019007545623061919 0 0.0013547148990903149 0.01867883797434516 0 0.00058694015721050589 0.016103167890562639 0 0.00061254524671779434 0.016281066861908514 0 0.00049724462553121286 0.016168347938994531 0 0.0016987092296041561 0.020885513747118733 0 0.0011785926993423948 0.020570450966915354 0 0.0016357970387370817 0.019941570706703625 0 0.00047629635603759575 0.016038065727086041 0 0.00049724462553121286 0.016168347938994531 0 0.00034543080813664688 0.016133615377862353 0 0.00049724462553121286 0.016168347938994531 0 0.00045776067136737021 0.016322223415710803 0 0.00034543080813664688 0.016133615377862353 0 0.00045776067136737021 0.016322223415710803 0 0.00025370846003758464 0.016228209546141219 0 0.00027600005926566035 0.016422113349682767 0 0.00025370846003758464 0.016228209546141219 0 0.00027600005926566035 0.016422113349682767 0 -3.9073967733522396e-05 0.016313518026170998 0 0.00045776067136737021 0.016322223415710803 0 0.00025370846003758464 0.016228209546141219 0 0.00034543080813664688 0.016133615377862353 0 0.00080135158083546496 0.016125720633857435 0 0.00027141142119987152 0.016430725800983585 0 0.00016326956094027842 0.016018585881772976 0 0.00025370846003758464 0.016228209546141219 0 6.403480264239255e-05 0.016148062294536192 0 0.00016326956094027842 0.016018585881772976 0 0.00025370846003758464 0.016228209546141219 0 0.00034543080813664688 0.016133615377862353 0 -3.6369427349238025e-05 0.016993583877188904 0 -0.0004614867207784301 0.016280222415918161 0 0.00041885730154003986 0.01733983087588568 0 0.0005122990916524735 0.018016606228546183 0 -0.00017895960315051162 0.016999551168691517 0 0.00041885730154003986 0.01733983087588568 0 0.00046331893396229064 0.016901473318354374 0 -0.00017895960315051162 0.016999551168691517 0 0.00060601943649961246 0.017580589732190347 0 0.00041885730154003986 0.01733983087588568 0 0.0005122990916524735 0.018016606228546183 0 0.00060601943649961246 0.017580589732190347 0 0.00041885730154003986 0.01733983087588568 0 0.00069021274369070033 0.017303765710869053 0 0.00041885730154003986 0.01733983087588568 0 0.00046331893396229064 0.016901473318354374 0 0.00069021274369070033 0.017303765710869053 0 0.00027600005926566035 0.016422113349682767 0 0.00046331893396229064 0.016901473318354374 0 -0.00017895960315051162 0.016999551168691517 0 0.00027600005926566035 0.016422113349682767 0 0.00046331893396229064 0.016901473318354374 0 0.00079205429360892758 0.016673505805997708 0 0.00046331893396229064 0.016901473318354374 0 0.00079205429360892758 0.016673505805997708 0 0.00098191520995282041 0.017123936009479694 0 0.00099113150753341863 0.016207972217231179 0 0.00027600005926566035 0.016422113349682767 0 0.00079205429360892758 0.016673505805997708 0 0.00099113150753341863 0.016207972217231179 0 0.00079205429360892758 0.016673505805997708 0 0.0012926713358937505 0.016728125757625067 0 0.00079205429360892758 0.016673505805997708 0 0.00098191520995282041 0.017123936009479694 0 0.0012926713358937505 0.016728125757625067 0 0.00098191520995282041 0.017123936009479694 0 0.0013665937195579075 0.01729892731249141 0 0.0012926713358937505 0.016728125757625067 0 0.00098191520995282041 0.017123936009479694 0 0.00091872679529980401 0.017553269646023707 0 0.0011589077882164956 0.017544258794194974 0 0.00098191520995282041 0.017123936009479694 0 0.0011589077882164956 0.017544258794194974 0 0.0013665937195579075 0.01729892731249141 0 0.00046331893396229064 0.016901473318354374 0 0.00098191520995282041 0.017123936009479694 0 0.00069021274369070033 0.017303765710869053 0 0.00098191520995282041 0.017123936009479694 0 0.00069021274369070033 0.017303765710869053 0 0.00091872679529980401 0.017553269646023707 0 0.00060601943649961246 0.017580589732190347 0 0.00069021274369070033 0.017303765710869053 0 0.00091872679529980401 0.017553269646023707 0 0.00060601943649961246 0.017580589732190347 0 0.00091872679529980401 0.017553269646023707 0 0.00085679589590894603 0.017817347737243718 0 0.00091872679529980401 0.017553269646023707 0 0.0010821503456442524 0.017767614470107423 0 0.00085679589590894603 0.017817347737243718 0 0.00091872679529980401 0.017553269646023707 0 0.0010821503456442524 0.017767614470107423 0 0.0011589077882164956 0.017544258794194974 0 0.0010821503456442524 0.017767614470107423 0 0.0011589077882164956 0.017544258794194974 0 0.0013381385652843159 0.017898965366755882 0 0.0018969394387666717 0.017205761865599283 0 0.0015544921788302902 0.018077826255376701 0 0.0013381385652843159 0.017898965366755882 0 0.0011589077882164956 0.017544258794194974 0 0.0013665937195579075 0.01729892731249141 0 0.0013381385652843159 0.017898965366755882 0 0.0018969394387666717 0.017205761865599283 0 0.0013665937195579075 0.01729892731249141 0 0.0013381385652843159 0.017898965366755882 0 0.0013547148990903149 0.01867883797434516 0 0.0019166860887583669 0.01920446356822364 0 0.0018969394387666717 0.017205761865599283 0 0.0013665937195579075 0.01729892731249141 0 0.0012926713358937505 0.016728125757625067 0 0.0017630292151709084 0.015966265241491175 0 0.0018969394387666717 0.017205761865599283 0 0.0012926713358937505 0.016728125757625067 0 0.0011958141375990146 0.021787657949423469 0 0.0014525843913128669 0.021428671974430987 0 0.00097463690796764364 0.021170114220415953 0 0.0018519111626274533 0.022122135777838812 0 0.0018347078194583823 0.021060233874161585 0 0.0014525843913128669 0.021428671974430987 0 0.0018347078194583823 0.021060233874161585 0 0.0014525843913128669 0.021428671974430987 0 0.0013240689185238744 0.020942982491846479 0 0.0014525843913128669 0.021428671974430987 0 0.0013240689185238744 0.020942982491846479 0 0.00097463690796764364 0.021170114220415953 0 0.0013240689185238744 0.020942982491846479 0 0.00097463690796764364 0.021170114220415953 0 0.001055398354954173 0.020643602932252526 0 0.0018347078194583823 0.021060233874161585 0 0.0013240689185238744 0.020942982491846479 0 0.0014447849098585073 0.020275433826255171 0 0.0013240689185238744 0.020942982491846479 0 0.0014447849098585073 0.020275433826255171 0 0.001055398354954173 0.020643602932252526 0 0.0014447849098585073 0.020275433826255171 0 0.001055398354954173 0.020643602932252526 0 0.0010221197896556618 0.020274823111507859 0 0.0014447849098585073 0.020275433826255171 0 0.0012303629511750487 0.018575746925569025 0 0.0016891240162931287 0.018755253152664155 0 0.0014264366119212705 0.020205397977357376 0 0.0011692530075442169 0.019449552355566325 0 0.0018347078194583823 0.021060233874161585 0 0.0014447849098585073 0.020275433826255171 0 0.0016891240162931287 0.018755253152664155 0 0.0014447849098585073 0.020275433826255171 0 0.0010377081310052965 0.020037987990500886 0 0.0010221197896556618 0.020274823111507859 0 0.0012303629511750487 0.018575746925569025 0 0.0016891240162931287 0.018755253152664155 0 0.0012683384597916604 0.018457862840285947 0 0.0016891240162931287 0.018755253152664155 0 0.0015307938375477613 0.018747487830555687 0 0.0012683384597916604 0.018457862840285947 0 0.0016891240162931287 0.018755253152664155 0 0.0015307938375477613 0.018747487830555687 0 0.0013738891605992809 0.01836341151560214 0 0.0018969394387666717 0.017205761865599283 0 0.0016891240162931287 0.018755253152664155 0 0.0015544921788302902 0.018077826255376701 0 0.0019166860887583669 0.01920446356822364 0 0.0016941409116536402 0.018715676023564939 0 0.0016891240162931287 0.018755253152664155 0 0.0013738891605992809 0.01836341151560214 0 0.0015544921788302902 0.018077826255376701 0 0.0013738891605992809 0.01836341151560214 0 0.0013381385652843159 0.017898965366755882 0 0.0010977075335272626 0.018000651409080051 0 0.0013738891605992809 0.01836341151560214 0 0.0015544921788302902 0.018077826255376701 0 0.0013381385652843159 0.017898965366755882 0 0.0015307938375477613 0.018747487830555687 0 0.00099627700281086163 0.018169654929364225 0 0.00050534247577623253 0.01808337789589495 0 0.0010977075335272626 0.018000651409080051 0 0.00085679589590894603 0.017817347737243718 0 0.00099627700281086163 0.018169654929364225 0 0.0010821503456442524 0.017767614470107423 0 0.0013381385652843159 0.017898965366755882 0 0.0010977075335272626 0.018000651409080051 0 0.0010821503456442524 0.017767614470107423 0 0.0010977075335272626 0.018000651409080051 0 0.00085679589590894603 0.017817347737243718 0 0.00099627700281086163 0.018169654929364225 0 0.00050534247577623253 0.01808337789589495 0 0.00058326841655983043 0.017904271868208994 0 0.00085679589590894603 0.017817347737243718 0 0.00099627700281086163 0.018169654929364225 0 0.00058326841655983043 0.017904271868208994 0 0.00060601943649961246 0.017580589732190347 0 0.00085679589590894603 0.017817347737243718 0 0.00058326841655983043 0.017904271868208994 0 0.0015307938375477613 0.018747487830555687 0 0.0013738891605992809 0.01836341151560214 0 0.00099627700281086163 0.018169654929364225 0 0.0013738891605992809 0.01836341151560214 0 0.0010977075335272626 0.018000651409080051 0 0.00099627700281086163 0.018169654929364225 0 0.0011188921212789706 0.018452638854655895 0 -3.6369427349238025e-05 0.016993583877188904 0 0.00055873167353028062 0.017901911229531831 0 9.4152273904676774e-05 0.017870689209529583 0 0.00019286442692263928 0.018145041951230925 0 0.00055873167353028062 0.017901911229531831 0 9.4152273904676774e-05 0.017870689209529583 0 -6.0679704044953176e-05 0.017463498686068231 0 0.00055873167353028062 0.017901911229531831 0 0.00019286442692263928 0.018145041951230925 0 0.00047632043787273879 0.018221295730310425 0 9.4152273904676774e-05 0.017870689209529583 0 -2.8797805759611833e-05 0.018047850985765064 0 0.00019286442692263928 0.018145041951230925 0 -0.00056623924957911818 0.016512395306501917 0 -3.6369427349238025e-05 0.016993583877188904 0 9.4152273904676774e-05 0.017870689209529583 0 -0.00027565107517054353 0.017887115962274616 0 -6.0679704044953176e-05 0.017463498686068231 0 9.4152273904676774e-05 0.017870689209529583 0 -2.8797805759611833e-05 0.018047850985765064 0 -0.00027565107517054353 0.017887115962274616 0 -2.8797805759611833e-05 0.018047850985765064 0 -0.00027565107517054353 0.017887115962274616 0 -0.00019001608606975757 0.018149913079398828 0 -0.00056623924957911818 0.016512395306501917 0 -0.0003048678873507292 0.016803072989891074 0 -0.00090360713444681768 0.015206907415425264 0 -0.0010060196926744186 0.015418926987214905 0 -0.00081447467039018112 0.015385836557384519 0 0.00060601943649961246 0.017580589732190347 0 0.0005122990916524735 0.018016606228546183 0 0.00058326841655983043 0.017904271868208994 0 -3.6369427349238025e-05 0.016993583877188904 0 -3.7040739583525198e-05 0.017213541949621165 0 -0.00040407868649598657 0.02132071301991588 0 4.5117779987529075e-05 0.021423285051100596 0 0.00026938543989141455 0.020613019752965148 0 -0.00040407868649598657 0.02132071301991588 0 0.00026938543989141455 0.020613019752965148 0 -0.00082764565652941298 0.020354211484310335 0 -0.0011264650626567343 0.024633756355547702 0 -0.00064142893883792579 0.023977765387572389 0 -0.0016270064073842729 0.021500993028643084 0 -0.00040407868649598657 0.02132071301991588 0 -0.00082764565652941298 0.020354211484310335 0 -0.0011017531754860858 0.021824136490624202 0 -0.0007890796191774665 0.021898146019312573 0 -0.00040407868649598657 0.02132071301991588 0 -0.0016270064073842729 0.021500993028643084 0 -0.0013809486389311637 0.022149489002783591 0 -0.00040407868649598657 0.02132071301991588 0 -0.0012875865633875604 0.021468096920702645 0 -0.00049666743560405934 0.021502340356894856 0 -0.0007890796191774665 0.021898146019312573 0 -0.00037167171620697552 0.021781465634926125 0 -0.00040407868649598657 0.02132071301991588 0 -0.00037167171620697552 0.021781465634926125 0 -0.00040407868649598657 0.02132071301991588 0 4.5117779987529075e-05 0.021423285051100596 0 -6.8022265000790678e-06 0.021864645167493413 0 -0.00037167171620697552 0.021781465634926125 0 4.5117779987529075e-05 0.021423285051100596 0 0.00038164091916044999 0.021771332508420539 0 -6.8022265000790678e-06 0.021864645167493413 0 4.5117779987529075e-05 0.021423285051100596 0 0.00038164091916044999 0.021771332508420539 0 4.5117779987529075e-05 0.021423285051100596 0 0.0004362530343145944 0.021136913629379098 0 0.00038164091916044999 0.021771332508420539 0 0.00075417757756022553 0.021567555106164035 0 0.0004362530343145944 0.021136913629379098 0 0.0011958141375990146 0.021787657949423469 0 0.00075417757756022553 0.021567555106164035 0 0.00097463690796764364 0.021170114220415953 0 0.00075417757756022553 0.021567555106164035 0 0.00097463690796764364 0.021170114220415953 0 0.0004362530343145944 0.021136913629379098 0 0.00097463690796764364 0.021170114220415953 0 0.00072059880890751034 0.020818994944380113 0 0.0004362530343145944 0.021136913629379098 0 0.00097463690796764364 0.021170114220415953 0 0.00072059880890751034 0.020818994944380113 0 0.001055398354954173 0.020643602932252526 0 0.00072059880890751034 0.020818994944380113 0 0.001055398354954173 0.020643602932252526 0 0.00072724638851720232 0.020438389668033564 0 4.5117779987529075e-05 0.021423285051100596 0 0.0004362530343145944 0.021136913629379098 0 0.00026938543989141455 0.020613019752965148 0 0.00072059880890751034 0.020818994944380113 0 0.00026938543989141455 0.020613019752965148 0 0.00072724638851720232 0.020438389668033564 0 0.00072059880890751034 0.020818994944380113 0 0.0004362530343145944 0.021136913629379098 0 0.00026938543989141455 0.020613019752965148 0 0.00033166378376058388 0.020265741596854063 0 0.00072724638851720232 0.020438389668033564 0 0.00079100681991625145 0.020131450000917289 0 0.00026938543989141455 0.020613019752965148 0 0.00033166378376058388 0.020265741596854063 0 0.00072724638851720232 0.020438389668033564 0 0.001055398354954173 0.020643602932252526 0 0.0010221197896556618 0.020274823111507859 0 0.00072724638851720232 0.020438389668033564 0 0.0010221197896556618 0.020274823111507859 0 0.00072724638851720232 0.020438389668033564 0 0.00079100681991625145 0.020131450000917289 0 0.0010377081310052965 0.020037987990500886 0 0.0010221197896556618 0.020274823111507859 0 0.00079100681991625145 0.020131450000917289 0 0.0010377081310052965 0.020037987990500886 0 0.00079100681991625145 0.020131450000917289 0 0.00077097171151955385 0.019891660418140424 0 0.00079100681991625145 0.020131450000917289 0 0.00077097171151955385 0.019891660418140424 0 0.00052743724535338037 0.019925521258227014 0 0.00033166378376058388 0.020265741596854063 0 0.00079100681991625145 0.020131450000917289 0 0.00052743724535338037 0.019925521258227014 0 0.00033166378376058388 0.020265741596854063 0 0.00052743724535338037 0.019925521258227014 0 5.1407697535948575e-05 0.019998480166808476 0 0.00026938543989141455 0.020613019752965148 0 0.00033166378376058388 0.020265741596854063 0 -0.00030344628700855984 0.020509699887639302 0 0.00033166378376058388 0.020265741596854063 0 5.1407697535948575e-05 0.019998480166808476 0 -0.00030344628700855984 0.020509699887639302 0 0.00011325809834679462 0.019745253136830763 0 -0.00064142893883792579 0.023977765387572389 0 -0.00094101268850904098 0.027726526471046564 0 -0.00065909195006414757 0.027756986704391178 0 -0.00078783636467918549 0.027557188114887693 0 -0.00065909195006414757 0.027756986704391178 0 -0.00078783636467918549 0.027557188114887693 0 -0.00065783729642114586 0.027492746959303028 0 -0.00078783636467918549 0.027557188114887693 0 -0.00065783729642114586 0.027492746959303028 0 -0.00077716566317327716 0.027373425655063004 0 -0.00014929666131059761 0.023690177328171167 0 -0.00064142893883792579 0.023977765387572389 0 -0.00042487767906875586 0.027419515457309723 0 -0.00065909195006414757 0.027756986704391178 0 -0.00065783729642114586 0.027492746959303028 0 -0.00042487767906875586 0.027419515457309723 0 -0.00065783729642114586 0.027492746959303028 0 -0.00063879214080781713 0.02733857519808227 0 -0.00065783729642114586 0.027492746959303028 0 -0.00063879214080781713 0.02733857519808227 0 -0.00077716566317327716 0.027373425655063004 0 -0.00071265455762258402 0.027241402558173814 0 -0.00060879107023260751 0.027156575969690688 0 -0.00067265212633722013 0.02699115733875115 0 -0.00047625273754613873 0.031484815358740946 0 -0.00030956109203941648 0.030802781051628425 0 -0.00086644923202146415 0.027377329677916149 0 -0.00071265455762258402 0.027241402558173814 0 -0.00067265212633722013 0.02699115733875115 0 -0.00086644923202146415 0.027377329677916149 0 -0.00077716566317327716 0.027373425655063004 0 -0.00071265455762258402 0.027241402558173814 0 -0.00063879214080781713 0.02733857519808227 0 -0.00077716566317327716 0.027373425655063004 0 -0.00071265455762258402 0.027241402558173814 0 -0.00063879214080781713 0.02733857519808227 0 -0.00071265455762258402 0.027241402558173814 0 -0.00060879107023260751 0.027156575969690688 0 -0.00042487767906875586 0.027419515457309723 0 -0.00063879214080781713 0.02733857519808227 0 -0.00060879107023260751 0.027156575969690688 0 -0.00060879107023260751 0.027156575969690688 0 -0.00067265212633722013 0.02699115733875115 0 -0.00053203682653523668 0.026908412135045967 0 -0.00067265212633722013 0.02699115733875115 0 -0.00053203682653523668 0.026908412135045967 0 -0.00058818412283493228 0.026990292825572706 0 -0.00053203682653523668 0.026908412135045967 0 -0.00014890230740575495 0.026467626737366735 0 -0.00054045395588312502 0.025780618722384973 0 -0.00053203682653523668 0.026908412135045967 0 -3.0916340362355365e-05 0.026987664259214394 0 -0.00014890230740575495 0.026467626737366735 0 -0.00042487767906875586 0.027419515457309723 0 -0.00053203682653523668 0.026908412135045967 0 -3.0916340362355365e-05 0.026987664259214394 0 -0.00042487767906875586 0.027419515457309723 0 -0.00060879107023260751 0.027156575969690688 0 -0.00053203682653523668 0.026908412135045967 0 -0.00014929666131059761 0.023690177328171167 0 0.00014712439866691496 0.023507238545351587 0 0.00052743724535338037 0.019925521258227014 0 0.00064974313783859507 0.019752958096204171 0 0.00040994191275477843 0.019584483502789112 0 0.00052743724535338037 0.019925521258227014 0 5.1407697535948575e-05 0.019998480166808476 0 0.00040994191275477843 0.019584483502789112 0 0.0011692530075442169 0.019449552355566325 0 0.0010935642920350459 0.018668606982615271 0 0.00064974313783859507 0.019752958096204171 0 0.00080948871201721214 0.019618539109736145 0 0.00040994191275477843 0.019584483502789112 0 0.0010377081310052965 0.020037987990500886 0 0.00077097171151955385 0.019891660418140424 0 0.00080948871201721214 0.019618539109736145 0 0.00077097171151955385 0.019891660418140424 0 0.00064974313783859507 0.019752958096204171 0 0.00080948871201721214 0.019618539109736145 0 0.00077097171151955385 0.019891660418140424 0 0.00052743724535338037 0.019925521258227014 0 0.00064974313783859507 0.019752958096204171 0 0.0010935642920350459 0.018668606982615271 0 0.000576318284826401 0.021315921645432223 0 0.0013763178758973639 0.018516549760262103 0 0.0016518339430557324 0.019241405154270932 0 0.0011301838036058421 0.019105322742238307 0 0.00080948871201721214 0.019618539109736145 0 0.00040994191275477843 0.019584483502789112 0 0.00065744039594790903 0.019257923477194207 0 0.00014712439866691496 0.023507238545351587 0 0.000576318284826401 0.021315921645432223 0 -3.0916340362355365e-05 0.026987664259214394 0 -0.00014890230740575495 0.026467626737366735 0 0.00075263323443786729 0.025953974377082936 0 -0.00014890230740575495 0.026467626737366735 0 9.1198525303915848e-05 0.02595375512018256 0 0.00075263323443786729 0.025953974377082936 0 -0.00014890230740575495 0.026467626737366735 0 9.1198525303915848e-05 0.02595375512018256 0 -0.00054045395588312502 0.025780618722384973 0 9.1198525303915848e-05 0.02595375512018256 0 0.00039906786817188998 0.025716828212236191 0 0.00010594043942543061 0.025318138311464535 0 9.1198525303915848e-05 0.02595375512018256 0 0.00039906786817188998 0.025716828212236191 0 0.00075263323443786729 0.025953974377082936 0 0.00039906786817188998 0.025716828212236191 0 0.00071193949397479063 0.025570439172229054 0 0.00057442342992888038 0.025322011701951263 0 9.1198525303915848e-05 0.02595375512018256 0 0.00010594043942543061 0.025318138311464535 0 -0.00054045395588312502 0.025780618722384973 0 0.0016518339430557324 0.019241405154270932 0 0.0014451200963785616 0.019571873637727045 0 0.0011301838036058421 0.019105322742238307 0 0.00075263323443786729 0.025953974377082936 0 0.00071193949397479063 0.025570439172229054 0 0.0011460547798773 0.02534473438254637 0 0.000576318284826401 0.021315921645432223 0 0.0010043948818396569 0.02132184734145761 0 0.00039906786817188998 0.025716828212236191 0 0.00075263323443786729 0.025953974377082936 0 0.00071193949397479063 0.025570439172229054 0 0.0010043948818396569 0.02132184734145761 0 0.000658840731814988 0.021623036604310142 0 0.0011460547798773 0.02534473438254637 0 0.00057442342992888038 0.025322011701951263 0 0.00045020965152564498 0.024419825443532172 0 0.00075063118178866808 0.019113921841887836 0 0.00075185787354575145 0.019118526119303408 0 0.00071026522569892696 0.019171481341691186 0 0.00075063118178866808 0.019113921841887836 0 0.00078224030322570097 0.019086951969810362 0 0.00075206829160296958 0.019046200055021216 0 0.0013277030399988542 0.020193835290854611 0 0.0010043948818396569 0.02132184734145761 0 0.00071193949397479063 0.025570439172229054 0 0.0011460547798773 0.02534473438254637 0 0.00057442342992888038 0.025322011701951263 0 0.00010594043942543061 0.025318138311464535 0 0.00057442342992888038 0.025322011701951263 0 0.00045020965152564498 0.024419825443532172 0 0.00010594043942543061 0.025318138311464535 0 -0.0004062923286841997 0.024627562947913986 0 0.00045020965152564498 0.024419825443532172 0 0.00039906786817188998 0.025716828212236191 0 0.00010594043942543061 0.025318138311464535 0 0.00057442342992888038 0.025322011701951263 0 -0.00065782096286761814 0.027244357496411412 0 -0.00070273905144924674 0.027067443298787412 0 -0.00079745568571040174 0.027394387708654926 0 -0.00060195773980058881 0.026372279012879165 0 -0.00057110867243481017 0.026322100115489765 0 0.00010594043942543061 0.025318138311464535 0 -0.00054045395588312502 0.025780618722384973 0 -0.0004062923286841997 0.024627562947913986 0 -0.00065782096286761814 0.027244357496411412 0 -0.00059994864862056155 0.027456153205780327 0 -0.00079745568571040174 0.027394387708654926 0 -0.00065782096286761814 0.027244357496411412 0 -0.00053401067194675618 0.027079012087577594 0 -0.00059994864862056155 0.027456153205780327 0 -0.00026091465476554994 0.030938711057749896 0 -0.00024380579857337522 0.031195252554634369 0 3.4030620783944138e-05 0.034780988502609585 0 3.3935038913932162e-05 0.034790733488325044 0 1.715125509641858e-05 0.034810449229485639 0 3.4030620783944138e-05 0.034780988502609585 0 3.3935038913932162e-05 0.034790733488325044 0 8.4366460447918087e-05 0.034748609659909606 0 1.2198449627665867e-05 0.034759116841159614 0 3.3935038913932162e-05 0.034790733488325044 0 2.7284275418873694e-05 0.034800934367289045 0 -0.00030956109203941648 0.030802781051628425 0 -0.00026091465476554994 0.030938711057749896 0 -0.00067265212633722013 0.02699115733875115 0 -0.00053401067194675618 0.027079012087577594 0 -0.00058818412283493228 0.026990292825572706 0 -0.00053203682653523668 0.026908412135045967 0 -0.00058818412283493228 0.026990292825572706 0 -0.00070273905144924674 0.027067443298787412 0 -0.00056940682536135484 0.026887283718495057 0 -0.00060195773980058881 0.026372279012879165 0 -0.00065782096286761814 0.027244357496411412 0 -0.00053401067194675618 0.027079012087577594 0 -0.00070273905144924674 0.027067443298787412 0 -0.00053401067194675618 0.027079012087577594 0 -0.00058818412283493228 0.026990292825572706 0 -0.00070273905144924674 0.027067443298787412 0 -0.00021888063006431297 0.015363851010076783 0 -0.00046734866337306034 0.015579987475158229 0 -9.5383183636679869e-05 0.015744265758864048 0 -0.00021888063006431297 0.015363851010076783 0 -0.00046734866337306034 0.015579987475158229 0 -0.00053451238821454786 0.015119672729151264 0 -0.00028211647078947555 0.017083599164344716 0 -1.6343265420644074e-05 0.016276520078062438 0 -0.00019001608606975757 0.018149913079398828 0 3.3734985796806598e-05 0.018385712037864852 0 -0.00048974570395136723 0.018303099349062081 0 2.0184564778677353e-05 0.01859847308569914 0 3.3734985796806598e-05 0.018385712037864852 0 -0.00048066176163828994 0.018287683540918143 0 -2.2190764397489847e-05 0.018460608174387095 0 -0.0003048678873507292 0.016803072989891074 0 2.0184564778677353e-05 0.01859847308569914 0 -0.00048066176163828994 0.018287683540918143 0 -0.00050920453639596874 0.018341972996454663 0 -0.00027565107517054353 0.017887115962274616 0 -0.00019001608606975757 0.018149913079398828 0 -0.00048974570395136723 0.018303099349062081 0 -2.8797805759611833e-05 0.018047850985765064 0 -0.00019001608606975757 0.018149913079398828 0 3.3734985796806598e-05 0.018385712037864852 0 3.3734985796806598e-05 0.018385712037864852 0 0.00019088937765448662 0.018514278268631036 0 0.00035026490121460878 0.018416932489887374 0 2.0184564778677353e-05 0.01859847308569914 0 3.3734985796806598e-05 0.018385712037864852 0 0.00019088937765448662 0.018514278268631036 0 -2.8797805759611833e-05 0.018047850985765064 0 3.3734985796806598e-05 0.018385712037864852 0 0.00019286442692263928 0.018145041951230925 0 3.3734985796806598e-05 0.018385712037864852 0 0.00019286442692263928 0.018145041951230925 0 0.00035026490121460878 0.018416932489887374 0 0.00019286442692263928 0.018145041951230925 0 0.00035026490121460878 0.018416932489887374 0 0.00047632043787273879 0.018221295730310425 0 2.0184564778677353e-05 0.01859847308569914 0 0.00019088937765448662 0.018514278268631036 0 0.00050534874583247008 0.018796050792812637 0 0.00019088937765448662 0.018514278268631036 0 0.00035026490121460878 0.018416932489887374 0 0.00050534874583247008 0.018796050792812637 0 -0.00028211647078947555 0.017083599164344716 0 -4.2955468303604138e-05 0.017675508908483729 0 0.000540115380793415 0.018852362712862288 0 -4.2955468303604138e-05 0.017675508908483729 0 -0.00046734866337306034 0.015579987475158229 0 -0.00082819779654199038 0.015427194926494683 0 -0.00053451238821454786 0.015119672729151264 0 0.00035026490121460878 0.018416932489887374 0 0.00057533351721433638 0.01884751575693569 0 0.00061213192626889581 0.018549860316932284 0 0.0006476720764069351 0.018856480477275908 0 0.00081868097669036814 0.018701254604671091 0 0.00079781527794773504 0.018948846371613169 0 0.0006476720764069351 0.018856480477275908 0 0.00057533351721433638 0.01884751575693569 0 0.00066894822207077414 0.018725290830595882 0 0.00022763216419745491 0.017872550774860763 0 -4.2955468303604138e-05 0.017675508908483729 0 0.00081868097669036814 0.018701254604671091 0 0.00066894822207077414 0.018725290830595882 0 0.00061213192626889581 0.018549860316932284 0 0.0006476720764069351 0.018856480477275908 0 0.00081868097669036814 0.018701254604671091 0 0.00066894822207077414 0.018725290830595882 0 0.00057533351721433638 0.01884751575693569 0 0.00066894822207077414 0.018725290830595882 0 0.00061213192626889581 0.018549860316932284 0 0.0011188921212789706 0.018452638854655895 0 0.0012109933750257776 0.018402998604695537 0 0.00035026490121460878 0.018416932489887374 0 0.00061213192626889581 0.018549860316932284 0 0.00047632043787273879 0.018221295730310425 0 0.00055873167353028062 0.017901911229531831 0 0.00075951508704919706 0.018316294358037062 0 0.0012683384597916604 0.018457862840285947 0 0.00061213192626889581 0.018549860316932284 0 0.00047632043787273879 0.018221295730310425 0 0.00075951508704919706 0.018316294358037062 0 0.00055873167353028062 0.017901911229531831 0 0.00047632043787273879 0.018221295730310425 0 0.00075951508704919706 0.018316294358037062 0 0.00061213192626889581 0.018549860316932284 0 0.00075951508704919706 0.018316294358037062 0 0.00091516909743014432 0.018544156727740929 0 0.00081868097669036814 0.018701254604671091 0 0.00061213192626889581 0.018549860316932284 0 0.00091516909743014432 0.018544156727740929 0 0.00075951508704919706 0.018316294358037062 0 0.00091516909743014432 0.018544156727740929 0 0.0012683384597916604 0.018457862840285947 0 0.0012303629511750487 0.018575746925569025 0 0.0013763178758973639 0.018516549760262103 0 0.0012683384597916604 0.018457862840285947 0 0.00091516909743014432 0.018544156727740929 0 0.0012683384597916604 0.018457862840285947 0 0.0011370929863636602 0.018658896720696046 0 0.0013763178758973639 0.018516549760262103 0 0.0012683384597916604 0.018457862840285947 0 0.0011370929863636602 0.018658896720696046 0 0.00081868097669036814 0.018701254604671091 0 0.0011370929863636602 0.018658896720696046 0 0.0011301838036058421 0.019105322742238307 0 0.0013763178758973639 0.018516549760262103 0 0.0011370929863636602 0.018658896720696046 0 0.0011301838036058421 0.019105322742238307 0 0.00081868097669036814 0.018701254604671091 0 0.00091516909743014432 0.018544156727740929 0 0.0011370929863636602 0.018658896720696046 0 0.00087528315160962083 0.01882003426074004 0 0.00081339908227192898 0.018751021979121645 0 0.00079781527794773504 0.018948846371613169 0 0.00075206829160296958 0.019046200055021216 0 0.00067993249273485613 0.019066049934589883 0 0.00078224030322570097 0.019086951969810362 0 0.00079781527794773504 0.018948846371613169 0 0.00075206829160296958 0.019046200055021216 0 0.0010043948818396569 0.02132184734145761 0 0.00081339908227192898 0.018751021979121645 0 -0.00022187259651996867 0.016906607070138659 0 -5.0757414225871928e-05 0.016822266636007603 0 0.00075063118178866808 0.019113921841887836 0 0.00067993249273485613 0.019066049934589883 0 0.00068788381963781153 0.01915476452114321 0 0.00075063118178866808 0.019113921841887836 0 0.00075206829160296958 0.019046200055021216 0 0.00067993249273485613 0.019066049934589883 0 -0.0010188722273111938 0.014970318676584297 0 -0.0007121965478574454 0.014774544692962943 0 -0.0012116779465128789 0.014523513764571498 0 -0.00082819779654199038 0.015427194926494683 0 -0.0010188722273111938 0.014970318676584297 0 -0.00053451238821454786 0.015119672729151264 0 -4.2955468303604138e-05 0.017675508908483729 0 -0.00022187259651996867 0.016906607070138659 0 0.0006476720764069351 0.018856480477275908 0 0.00079781527794773504 0.018948846371613169 0 0.00067993249273485613 0.019066049934589883 0 0.0006476720764069351 0.018856480477275908 0 0.00062420669302253593 0.018843267857343356 0 0.00067993249273485613 0.019066049934589883 0 -0.0010188722273111938 0.014970318676584297 0 -0.00053451238821454786 0.015119672729151264 0 -0.0007121965478574454 0.014774544692962943 0 -0.00053451238821454786 0.015119672729151264 0 -0.0007121965478574454 0.014774544692962943 0 -0.00033736792115748296 0.014678960213449029 0 -0.00053451238821454786 0.015119672729151264 0 -0.00033736792115748296 0.014678960213449029 0 -0.00014639912598758564 0.015047025700867056 0 -0.00021888063006431297 0.015363851010076783 0 -0.00053451238821454786 0.015119672729151264 0 -0.00014639912598758564 0.015047025700867056 0 -0.00035837801886756053 0.014289625242714666 0 -0.00028720709645060536 0.013878442776113281 0 3.2167982733010283e-05 0.014384095150258651 0 -0.00035837801886756053 0.014289625242714666 0 -0.00058327053848352404 0.014132218115866945 0 -0.00028720709645060536 0.013878442776113281 0 -0.00035837801886756053 0.014289625242714666 0 -0.00033736792115748296 0.014678960213449029 0 3.2167982733010283e-05 0.014384095150258651 0 -0.00035837801886756053 0.014289625242714666 0 -0.00033736792115748296 0.014678960213449029 0 -0.0006721202619278272 0.014422712298076802 0 -0.0007121965478574454 0.014774544692962943 0 -0.00033736792115748296 0.014678960213449029 0 -0.0006721202619278272 0.014422712298076802 0 -0.00035837801886756053 0.014289625242714666 0 -0.0006721202619278272 0.014422712298076802 0 -0.00058327053848352404 0.014132218115866945 0 -0.0006721202619278272 0.014422712298076802 0 -0.00058327053848352404 0.014132218115866945 0 -0.0008573130377810004 0.014181889897335858 0 -0.0006721202619278272 0.014422712298076802 0 -0.0008573130377810004 0.014181889897335858 0 -0.0012116779465128789 0.014523513764571498 0 -0.0008573130377810004 0.014181889897335858 0 -0.0012116779465128789 0.014523513764571498 0 -0.0010784220654116005 0.013983108453305223 0 -0.0007121965478574454 0.014774544692962943 0 -0.0006721202619278272 0.014422712298076802 0 -0.0012116779465128789 0.014523513764571498 0 -5.0757414225871928e-05 0.016822266636007603 0 -0.0020967129285898284 0.017143873662207015 0 -0.0012116779465128789 0.014523513764571498 0 -0.0010784220654116005 0.013983108453305223 0 -0.0014107990477664194 0.014078841142097145 0 -0.0025570172116910761 0.011784253343778377 0 -0.0033041271917944679 0.012024090151799213 0 -0.0034626756695034407 0.011659189503320164 0 -0.0017403497910491723 0.012819121245118855 0 -0.0020967129285898284 0.017143873662207015 0 -0.0025570172116910761 0.011784253343778377 0 -0.0023076738617366231 0.011217270794353128 0 -0.0034626756695034407 0.011659189503320164 0 -0.0039684296395304493 0.020719113369232257 0 -0.0027979696379114112 0.020916473991553254 0 -0.0045558533686733231 0.02150661612861475 0 -0.0039684296395304493 0.020719113369232257 0 -0.0027979696379114112 0.020916473991553254 0 -0.0035449774960483373 0.02003783116415063 0 -0.0026499249983020002 0.015926775432324018 0 -0.00346477128986919 0.017626323588353827 0 -0.0008573130377810004 0.014181889897335858 0 -0.0010784220654116005 0.013983108453305223 0 -0.00074410009533675502 0.013889282714671972 0 -0.0017403497910491723 0.012819121245118855 0 -0.001366322854358298 0.012120937542119065 0 -0.0025570172116910761 0.011784253343778377 0 -0.0023076738617366231 0.011217270794353128 0 -0.0018512650450561335 0.011506009537925766 0 -0.001366322854358298 0.012120937542119065 0 -0.0005909148388829116 0.012564198894165745 0 -0.001366322854358298 0.012120937542119065 0 -0.0010668707153917482 0.010868653528576154 0 -0.00058327053848352404 0.014132218115866945 0 -0.00074410009533675502 0.013889282714671972 0 -0.00028720709645060536 0.013878442776113281 0 -0.00058327053848352404 0.014132218115866945 0 -0.0008573130377810004 0.014181889897335858 0 -0.00074410009533675502 0.013889282714671972 0 -0.0027979696379114112 0.020916473991553254 0 -0.0010049681428627038 0.020207507327230752 0 -0.0023607714078295017 0.019314297230533645 0 -0.0023076738617366231 0.011217270794353128 0 -0.0018512650450561335 0.011506009537925766 0 -0.0012799500332957617 0.010772767189713315 0 -0.0026499249983020002 0.015926775432324018 0 -0.0011248931884941592 0.015516643018312341 0 -0.0018512650450561335 0.011506009537925766 0 -0.00091206556480552092 0.011025481149302451 0 -0.0012799500332957617 0.010772767189713315 0 -0.00091206556480552092 0.011025481149302451 0 -0.0012799500332957617 0.010772767189713315 0 -0.0005144982607966028 0.010475071546377019 0 -0.0015291094594588875 0.01120885345546358 0 -0.00091206556480552092 0.011025481149302451 0 -0.0009875519333890628 0.011178223950358732 0 -0.00086093178999955948 0.027746678015853673 0 -0.00071882216604204267 0.027831712037016742 0 -0.00074442456188638219 0.027607041492331213 0 -0.0022335604814506704 0.026653187852317059 0 -0.00058655624572637719 0.030618781882007336 0 -0.0062909822353573105 0.023256873053275073 0 -0.0058860514844792542 0.023160963971367323 0 -0.0065480464242592363 0.02290798958362996 0 -0.00086093178999955948 0.027746678015853673 0 -0.00079534974806600865 0.027842245927462768 0 -0.00071882216604204267 0.027831712037016742 0 -0.0024526806390232974 0.024563341496709769 0 -0.0023248204504136625 0.02473952423564945 0 -0.0024829656445907611 0.024770440665357794 0 -0.0014065749444956096 0.02397697751152994 0 -0.0022335604814506704 0.026653187852317059 0 -0.0022335604814506704 0.026653187852317059 0 -0.0027437027931411398 0.023028050300042745 0 -0.0022335604814506704 0.026653187852317059 0 -0.00093561698664123335 0.029668012918337861 0 -0.00053473946934831087 0.028905988268890289 0 -0.00071003691424079878 0.028948622447910615 0 -0.00065247140279628359 0.028746384571217542 0 -0.00058655624572637719 0.030618781882007336 0 -0.00093561698664123335 0.029668012918337861 0 0.00034169133931238736 0.034005628500898992 0 0.00037408861983386025 0.033907799859567885 0 0.00011641140871034655 0.033895292372756625 0 0.00034169133931238736 0.034005628500898992 0 0.00011641140871034655 0.033895292372756625 0 -0.00016498799926703808 0.034104707643701382 0 5.6806112758144372e-05 0.034645122201111843 0 -5.7460503043184082e-05 0.0348178658009025 0 0.0001685029865373947 0.034510113395916024 0 8.0734918178676472e-05 0.03465650030904633 0 -0.00014646983589705376 0.034572637514000165 0 -0.00058655624572637719 0.030618781882007336 0 -5.7460503043184082e-05 0.0348178658009025 0 0.00011641140871034655 0.033895292372756625 0 -0.00015070640719439877 0.033814363067017378 0 -0.00016498799926703808 0.034104707643701382 0 8.0734918178676472e-05 0.03465650030904633 0 3.1798328092050913e-05 0.034743397334917929 0 1.4617521013298389e-05 0.034730131437465901 0 8.0734918178676472e-05 0.03465650030904633 0 3.1798328092050913e-05 0.034743397334917929 0 8.4366460447918087e-05 0.034748609659909606 0 3.4030620783944138e-05 0.034780988502609585 0 3.1798328092050913e-05 0.034743397334917929 0 8.4366460447918087e-05 0.034748609659909606 0 -0.00059994864862056155 0.027456153205780327 0 -0.00074442456188638219 0.027607041492331213 0 -0.00079745568571040174 0.027394387708654926 0 -0.00058655624572637719 0.030618781882007336 0 -0.00024380579857337522 0.031195252554634369 0 0.0001685029865373947 0.034510113395916024 0 8.0734918178676472e-05 0.03465650030904633 0 8.4366460447918087e-05 0.034748609659909606 0 -0.0014065749444956096 0.02397697751152994 0 -0.00057110867243481017 0.026322100115489765 0 -0.00086093178999955948 0.027746678015853673 0 -0.00074442456188638219 0.027607041492331213 0 -0.00079745568571040174 0.027394387708654926 0 -0.00071882216604204267 0.027831712037016742 0 -0.00059994864862056155 0.027456153205780327 0 -0.00074442456188638219 0.027607041492331213 0 -0.00025322734094258343 0.023488413260843166 0 -0.0004062923286841997 0.024627562947913986 0 0.00045020965152564498 0.024419825443532172 0 -0.0014065749444956096 0.02397697751152994 0 0.000658840731814988 0.021623036604310142 0 0.00071026522569892696 0.019171481341691186 0 0.00070935134014773549 0.019158790444387855 0 0.00068184379482350704 0.019186737476984683 0 0.00068788381963781153 0.01915476452114321 0 0.00070935134014773549 0.019158790444387855 0 0.00068184379482350704 0.019186737476984683 0 0.00075063118178866808 0.019113921841887836 0 0.00071026522569892696 0.019171481341691186 0 0.00070935134014773549 0.019158790444387855 0 0.00075063118178866808 0.019113921841887836 0 0.00068788381963781153 0.01915476452114321 0 0.00070935134014773549 0.019158790444387855 0 0.00068788381963781153 0.01915476452114321 0 0.00068184379482350704 0.019186737476984683 0 0.00066366170480387473 0.019174562803591522 0 0.00067866336378837868 0.01921440630419724 0 0.00071026522569892696 0.019171481341691186 0 0.00068184379482350704 0.019186737476984683 0 0.00068184379482350704 0.019186737476984683 0 0.00067183854338260629 0.019215033701499049 0 0.00066366170480387473 0.019174562803591522 0 0.00067866336378837868 0.01921440630419724 0 0.00068184379482350704 0.019186737476984683 0 0.00067183854338260629 0.019215033701499049 0 -0.0014065749444956096 0.02397697751152994 0 -0.0027437027931411398 0.023028050300042745 0 -0.0057924115576079745 0.022146382789727592 0 -0.0054889350637325951 0.021377367209683466 0 -0.0057175326875144317 0.021070301572802423 0 -0.0057924115576079745 0.022146382789727592 0 -0.0053686272825832658 0.021620742893055267 0 -0.0050357095486508654 0.021673768448386536 0 -0.0027437027931411398 0.023028050300042745 0 -0.0020967129285898284 0.017143873662207015 0 -0.0057924115576079745 0.022146382789727592 0 -0.0053686272825832658 0.021620742893055267 0 -0.0054889350637325951 0.021377367209683466 0 -0.0027437027931411398 0.023028050300042745 0 -0.006371440914366663 0.021098382251204677 0 -0.0053686272825832658 0.021620742893055267 0 -0.0051657411585359627 0.021330776503747602 0 -0.0050357095486508654 0.021673768448386536 0 -0.0053686272825832658 0.021620742893055267 0 -0.0051657411585359627 0.021330776503747602 0 -0.0054889350637325951 0.021377367209683466 0 -0.0057924115576079745 0.022146382789727592 0 -0.0044716725162440739 0.02185007147796807 0 -0.0050357095486508654 0.021673768448386536 0 -0.0044716725162440739 0.02185007147796807 0 -0.0050357095486508654 0.021673768448386536 0 -0.0047124817027521457 0.021474709948103358 0 -0.0051657411585359627 0.021330776503747602 0 -0.0050357095486508654 0.021673768448386536 0 -0.0049346180800604982 0.021360846134484308 0 -0.0050357095486508654 0.021673768448386536 0 -0.0049346180800604982 0.021360846134484308 0 -0.0047124817027521457 0.021474709948103358 0 -0.0047124817027521457 0.021474709948103358 0 -0.0046210657274764659 0.021447045669644792 0 -0.0048115617450453455 0.020930068149758257 0 -0.0044716725162440739 0.02185007147796807 0 -0.0047124817027521457 0.021474709948103358 0 -0.0046329394618115725 0.021449246176775343 0 -0.0020967129285898284 0.017143873662207015 0 -0.00346477128986919 0.017626323588353827 0 -0.0036864196082418707 0.017797890593156961 0 -0.00346477128986919 0.017626323588353827 0 -0.0039684296395304493 0.020719113369232257 0 -0.0045558533686733231 0.02150661612861475 0 -0.0048115617450453455 0.020930068149758257 0 -0.00346477128986919 0.017626323588353827 0 -0.0037856517427836316 0.021089776846032565 0 -0.0051657411585359627 0.021330776503747602 0 -0.0049346180800604982 0.021360846134484308 0 -0.0048115617450453455 0.020930068149758257 0 -0.0051657411585359627 0.021330776503747602 0 -0.0048115617450453455 0.020930068149758257 0 -0.0052930100167497612 0.020902834730504506 0 -0.0049346180800604982 0.021360846134484308 0 -0.0047124817027521457 0.021474709948103358 0 -0.0048115617450453455 0.020930068149758257 0 -0.0048115617450453455 0.020930068149758257 0 -0.005318796685826176 0.02031454222462311 0 -0.0045483852344132556 0.020134046305567067 0 -0.0048115617450453455 0.020930068149758257 0 -0.0052930100167497612 0.020902834730504506 0 -0.005318796685826176 0.02031454222462311 0 -0.0039684296395304493 0.020719113369232257 0 -0.0048115617450453455 0.020930068149758257 0 -0.0045483852344132556 0.020134046305567067 0 -0.0054889350637325951 0.021377367209683466 0 -0.0057175326875144317 0.021070301572802423 0 -0.0052930100167497612 0.020902834730504506 0 -0.0051657411585359627 0.021330776503747602 0 -0.0054889350637325951 0.021377367209683466 0 -0.0052930100167497612 0.020902834730504506 0 -0.0057175326875144317 0.021070301572802423 0 -0.0052930100167497612 0.020902834730504506 0 -0.005318796685826176 0.02031454222462311 0 -0.0057175326875144317 0.021070301572802423 0 -0.0060100249988658504 0.020678590134147044 0 -0.005318796685826176 0.02031454222462311 0 -0.0057175326875144317 0.021070301572802423 0 -0.0060100249988658504 0.020678590134147044 0 -0.0065480464242592363 0.02290798958362996 0 0.0011385684156946386 0.032985255530426118 0 0.00054862515268321293 0.033112497725541971 0 0.00072133032205736966 0.034250046693142133 0 -0.0025875254335084317 0.026652677818115523 0 -0.00093561698664123335 0.029668012918337861 0 -0.00093561698664123335 0.029668012918337861 0 0.0010900533141004216 0.035038278060447223 0 0.00054862515268321293 0.033112497725541971 0 0.00072133032205736966 0.034250046693142133 0 0.00019306699302193563 0.033581930306090232 0 -0.0058860514844792542 0.023160963971367323 0 -0.0057175326875144317 0.021070301572802423 0 -0.0065480464242592363 0.02290798958362996 0 0.00037408861983386025 0.033907799859567885 0 0.00011641140871034655 0.033895292372756625 0 0.00019306699302193563 0.033581930306090232 0 0.00011641140871034655 0.033895292372756625 0 0.00019306699302193563 0.033581930306090232 0 -0.00015070640719439877 0.033814363067017378 0 0.00019306699302193563 0.033581930306090232 0 2.4242258391561222e-05 0.033084700407558031 0 -0.00020538861402668508 0.033536146741334164 0 0.00019306699302193563 0.033581930306090232 0 -0.00020538861402668508 0.033536146741334164 0 -0.00015070640719439877 0.033814363067017378 0 0.00054862515268321293 0.033112497725541971 0 0.00019306699302193563 0.033581930306090232 0 2.4242258391561222e-05 0.033084700407558031 0 2.4242258391561222e-05 0.033084700407558031 0 -0.00020538861402668508 0.033536146741334164 0 -0.00048365527614385219 0.033731372260328969 0 -0.00034228131868599312 0.033736819665740846 0 -0.00020538861402668508 0.033536146741334164 0 -0.00048365527614385219 0.033731372260328969 0 -0.00034228131868599312 0.033736819665740846 0 -0.00020538861402668508 0.033536146741334164 0 -0.00015070640719439877 0.033814363067017378 0 -0.00034228131868599312 0.033736819665740846 0 -0.00045062651744881392 0.033839162544066242 0 -0.00048365527614385219 0.033731372260328969 0 -0.00045062651744881392 0.033839162544066242 0 -0.00049891038024013179 0.033968911312998278 0 -0.00048365527614385219 0.033731372260328969 0 -0.00034228131868599312 0.033736819665740846 0 -0.00045062651744881392 0.033839162544066242 0 -0.00049030133411243732 0.033961769007808701 0 -0.00034228131868599312 0.033736819665740846 0 -0.00015070640719439877 0.033814363067017378 0 -0.00049030133411243732 0.033961769007808701 0 -0.00015070640719439877 0.033814363067017378 0 -0.00016498799926703808 0.034104707643701382 0 -0.00049030133411243732 0.033961769007808701 0 -5.7460503043184082e-05 0.0348178658009025 0 -4.1015433500626095e-05 0.03483154640653157 0 1.4617521013298389e-05 0.034730131437465901 0 -1.2193031352576192e-05 0.034788442420944317 0 7.9512323124433393e-06 0.034771190662383968 0 -5.7460503043184082e-05 0.0348178658009025 0 -0.00030082974348654502 0.034396018122929722 0 -0.00012779761957705532 0.034882434375621281 0 -6.3089151555282557e-05 0.034906141523424548 0 -8.1156898017123547e-05 0.034873913345562384 0 -6.3089151555282557e-05 0.034906141523424548 0 -8.1156898017123547e-05 0.034873913345562384 0 -3.4670432018444237e-05 0.034865516213667368 0 -1.2193031352576192e-05 0.034788442420944317 0 -2.1961032033647445e-05 0.03484214000900078 0 -3.4670432018444237e-05 0.034865516213667368 0 -4.1015433500626095e-05 0.03483154640653157 0 -3.3080349804977006e-05 0.034853208600211245 0 -1.2193031352576192e-05 0.034788442420944317 0 -4.9963556864416613e-06 0.034809753476633162 0 7.9512323124433393e-06 0.034771190662383968 0 -1.2193031352576192e-05 0.034788442420944317 0 -4.9963556864416613e-06 0.034809753476633162 0 -2.1961032033647445e-05 0.03484214000900078 0 -4.9963556864416613e-06 0.034809753476633162 0 7.9512323124433393e-06 0.034771190662383968 0 1.666842911154212e-05 0.034784902064256808 0 3.1798328092050913e-05 0.034743397334917929 0 7.9512323124433393e-06 0.034771190662383968 0 1.666842911154212e-05 0.034784902064256808 0 3.4030620783944138e-05 0.034780988502609585 0 3.1798328092050913e-05 0.034743397334917929 0 1.666842911154212e-05 0.034784902064256808 0 3.1798328092050913e-05 0.034743397334917929 0 1.4617521013298389e-05 0.034730131437465901 0 7.9512323124433393e-06 0.034771190662383968 0 -2.0874749256337143e-05 0.034889028273875106 0 -1.3950794845781255e-05 0.034918414534736694 0 -1.7376790180049256e-05 0.034903286886173404 0 -2.0874749256337143e-05 0.034889028273875106 0 -3.4670432018444237e-05 0.034865516213667368 0 -2.0189702842914554e-05 0.034905878061551342 0 -2.0874749256337143e-05 0.034889028273875106 0 -2.0189702842914554e-05 0.034905878061551342 0 -1.3950794845781255e-05 0.034918414534736694 0 -2.1961032033647445e-05 0.03484214000900078 0 -3.4670432018444237e-05 0.034865516213667368 0 -2.1097678904311043e-05 0.034865692528673088 0 -2.0874749256337143e-05 0.034889028273875106 0 -3.4670432018444237e-05 0.034865516213667368 0 -2.1097678904311043e-05 0.034865692528673088 0 -6.3089151555282557e-05 0.034906141523424548 0 -3.4670432018444237e-05 0.034865516213667368 0 -2.0189702842914554e-05 0.034905878061551342 0 -6.3089151555282557e-05 0.034906141523424548 0 -2.0189702842914554e-05 0.034905878061551342 0 -2.3429636041803968e-05 0.034932688828094707 0 -2.0189702842914554e-05 0.034905878061551342 0 -2.3429636041803968e-05 0.034932688828094707 0 -9.0900348605207229e-06 0.03494290351122302 0 -0.00049030133411243732 0.033961769007808701 0 -0.00046219321867828643 0.033993492243918094 0 -0.00049891038024013179 0.033968911312998278 0 -0.00045062651744881392 0.033839162544066242 0 -0.00049030133411243732 0.033961769007808701 0 -0.00049891038024013179 0.033968911312998278 0 -0.00030082974348654502 0.034396018122929722 0 -0.00023764856618064032 0.034472892063408228 0 -0.00046219321867828643 0.033993492243918094 0 -0.00042282223372595943 0.034176061702593512 0 -0.00024931343065143045 0.034193726886084075 0 -0.00046219321867828643 0.033993492243918094 0 -0.00049891038024013179 0.033968911312998278 0 -0.00042282223372595943 0.034176061702593512 0 -0.00042282223372595943 0.034176061702593512 0 -0.00024931343065143045 0.034193726886084075 0 -0.00026308130185245956 0.034406569218467319 0 -0.00024931343065143045 0.034193726886084075 0 -0.00026308130185245956 0.034406569218467319 0 -0.00010223942084342303 0.03459575907368425 0 -0.00024931343065143045 0.034193726886084075 0 -1.0535558614401899e-05 0.034566148520065169 0 -0.00010223942084342303 0.03459575907368425 0 -0.0001393915026336065 0.034580028277580256 0 -3.0428921604031175e-05 0.034772815583751442 0 -1.0392157250697194e-05 0.034960496569321778 0 -1.6960584876908357e-06 0.034974384254173291 0 -9.0900348605207229e-06 0.03494290351122302 0 -1.0392157250697194e-05 0.034960496569321778 0 -2.0328868093924515e-06 0.034984828625804369 0 -1.6960584876908357e-06 0.034974384254173291 0 -2.3429636041803968e-05 0.034932688828094707 0 -1.0392157250697194e-05 0.034960496569321778 0 -9.0900348605207229e-06 0.03494290351122302 0 -0.00023764856618064032 0.034472892063408228 0 -0.0001393915026336065 0.034580028277580256 0 -3.3851373794823566e-09 0.034999997774250349 0 -2.0328868093924515e-06 0.034984828625804369 0 3.7609328101323676e-09 0.034999967808979085 0 -4.6811747013769002e-08 0.034999894108375867 0 -3.0428921604031175e-05 0.034772815583751442 0 -2.0328868093924515e-06 0.034984828625804369 0 3.7609328101323676e-09 0.034999967808979085 0 -1.6960584876908357e-06 0.034974384254173291 0 3.7609328101323676e-09 0.034999967808979085 0 -1.6960584876908357e-06 0.034974384254173291 0 -1.263893931824462e-09 0.034999962904180747 0 -1.6960584876908357e-06 0.034974384254173291 0 -2.6575719002929869e-06 0.034974822704744966 0 -4.7318398245447606e-06 0.034959416539541849 0 -1.6960584876908357e-06 0.034974384254173291 0 -2.6575719002929869e-06 0.034974822704744966 0 -1.263893931824462e-09 0.034999962904180747 0 -2.0189702842914554e-05 0.034905878061551342 0 -9.0900348605207229e-06 0.03494290351122302 0 -1.3950794845781255e-05 0.034918414534736694 0 -1.6960584876908357e-06 0.034974384254173291 0 -9.0900348605207229e-06 0.03494290351122302 0 -4.7318398245447606e-06 0.034959416539541849 0 -9.0900348605207229e-06 0.03494290351122302 0 -4.7318398245447606e-06 0.034959416539541849 0 -9.0160675580033333e-06 0.034939635967576668 0 -2.6575719002929869e-06 0.034974822704744966 0 -4.7318398245447606e-06 0.034959416539541849 0 -9.0160675580033333e-06 0.034939635967576668 0 -9.0900348605207229e-06 0.03494290351122302 0 -9.0160675580033333e-06 0.034939635967576668 0 -1.3950794845781255e-05 0.034918414534736694 0 -9.0160675580033333e-06 0.034939635967576668 0 -1.3950794845781255e-05 0.034918414534736694 0 -1.7376790180049256e-05 0.034903286886173404 0 -1.3758520380200827e-05 0.034927307328119633 0 -1.8057074736363338e-05 0.034910493236615443 0 -1.7376790180049256e-05 0.034903286886173404 0 -9.0160675580033333e-06 0.034939635967576668 0 -1.3758520380200827e-05 0.034927307328119633 0 -1.7376790180049256e-05 0.034903286886173404 0 -9.0160675580033333e-06 0.034939635967576668 0 -1.3758520380200827e-05 0.034927307328119633 0 -6.1283233827042797e-06 0.034959813844657558 0 -1.3758520380200827e-05 0.034927307328119633 0 -1.3812107303326917e-05 0.034935176646679278 0 -6.1283233827042797e-06 0.034959813844657558 0 -1.3812107303326917e-05 0.034935176646679278 0 -6.1283233827042797e-06 0.034959813844657558 0 -8.6131112300419942e-06 0.034950217143485243 0 -1.3758520380200827e-05 0.034927307328119633 0 -1.3812107303326917e-05 0.034935176646679278 0 -1.8057074736363338e-05 0.034910493236615443 0 -1.3812107303326917e-05 0.034935176646679278 0 -1.8057074736363338e-05 0.034910493236615443 0 -1.8847642307001814e-05 0.034918503567413002 0 -2.6575719002929869e-06 0.034974822704744966 0 -6.1283233827042797e-06 0.034959813844657558 0 -2.2159348008408929e-09 0.034999959306361308 0 -2.6575719002929869e-06 0.034974822704744966 0 -1.263893931824462e-09 0.034999962904180747 0 -2.2159348008408929e-09 0.034999959306361308 0 -2.6575719002929869e-06 0.034974822704744966 0 -9.0160675580033333e-06 0.034939635967576668 0 -6.1283233827042797e-06 0.034959813844657558 0 -6.1283233827042797e-06 0.034959813844657558 0 -1.9462993255200078e-06 0.034974667347886741 0 -8.6131112300419942e-06 0.034950217143485243 0 -6.1283233827042797e-06 0.034959813844657558 0 -2.2159348008408929e-09 0.034999959306361308 0 -1.9462993255200078e-06 0.034974667347886741 0 -2.2159348008408929e-09 0.034999959306361308 0 -1.9462993255200078e-06 0.034974667347886741 0 4.985965503842314e-09 0.034999949021460079 0 -1.9462993255200078e-06 0.034974667347886741 0 -8.9644010898964642e-07 0.034957784490191157 0 -8.6131112300419942e-06 0.034950217143485243 0 -1.9462993255200078e-06 0.034974667347886741 0 -8.9644010898964642e-07 0.034957784490191157 0 4.985965503842314e-09 0.034999949021460079 0 -6.7762521090205436e-07 0.034961477094610741 0 -8.9644010898964642e-07 0.034957784490191157 0 4.985965503842314e-09 0.034999949021460079 0 -1.7111426961807902e-05 0.034930917057608417 0 -1.8847642307001814e-05 0.034918503567413002 0 -2.0100023652395876e-05 0.034917845052937865 0 -1.3812107303326917e-05 0.034935176646679278 0 -1.7111426961807902e-05 0.034930917057608417 0 -1.8847642307001814e-05 0.034918503567413002 0 -1.7111426961807902e-05 0.034930917057608417 0 -8.6131112300419942e-06 0.034950217143485243 0 -1.0742555875081216e-05 0.03493711485613548 0 -1.3812107303326917e-05 0.034935176646679278 0 -1.7111426961807902e-05 0.034930917057608417 0 -8.6131112300419942e-06 0.034950217143485243 0 -1.5658379658314284e-06 0.034913673125785527 0 -8.9644010898964642e-07 0.034957784490191157 0 -1.0742555875081216e-05 0.03493711485613548 0 -8.9644010898964642e-07 0.034957784490191157 0 -8.6131112300419942e-06 0.034950217143485243 0 -1.0742555875081216e-05 0.03493711485613548 0 -1.5658379658314284e-06 0.034913673125785527 0 -1.0742555875081216e-05 0.03493711485613548 0 -2.2516750499368695e-05 0.034926247705394618 0 -1.7111426961807902e-05 0.034930917057608417 0 -1.0742555875081216e-05 0.03493711485613548 0 -2.2516750499368695e-05 0.034926247705394618 0 -1.7111426961807902e-05 0.034930917057608417 0 -2.2516750499368695e-05 0.034926247705394618 0 -2.0100023652395876e-05 0.034917845052937865 0 3.5282478063126749e-05 0.034813889097620787 0 -2.1207325719446114e-07 0.034826241469984968 0 4.0996782867904535e-05 0.034774538472711211 0 -2.2516750499368695e-05 0.034926247705394618 0 -1.4841341259612835e-05 0.034910922459950922 0 -2.0100023652395876e-05 0.034917845052937865 0 -6.648339263056709e-06 0.034877003615431251 0 1.2568890280754061e-05 0.03484374724666988 0 -1.4841341259612835e-05 0.034910922459950922 0 -2.0100023652395876e-05 0.034917845052937865 0 -1.8465484237448534e-05 0.034898031306994731 0 -1.8847642307001814e-05 0.034918503567413002 0 -2.0100023652395876e-05 0.034917845052937865 0 -1.8465484237448534e-05 0.034898031306994731 0 -1.8465484237448534e-05 0.034898031306994731 0 4.7230951560036468e-07 0.034875343411594088 0 -1.1089487331441696e-05 0.034863411441691292 0 1.2568890280754061e-05 0.03484374724666988 0 2.4678208050888851e-05 0.034822094509489254 0 -1.4841341259612835e-05 0.034910922459950922 0 -1.8465484237448534e-05 0.034898031306994731 0 4.7230951560036468e-07 0.034875343411594088 0 3.5282478063126749e-05 0.034813889097620787 0 4.0996782867904535e-05 0.034774538472711211 0 4.8416832957088969e-05 0.034779270455215283 0 4.0996782867904535e-05 0.034774538472711211 0 5.4175909632823379e-05 0.034766157214603965 0 5.5624078125878171e-05 0.03476839874452519 0 4.0996782867904535e-05 0.034774538472711211 0 4.8416832957088969e-05 0.034779270455215283 0 5.4175909632823379e-05 0.034766157214603965 0 5.4149455240678013e-05 0.034761643798725372 0 4.8416832957088969e-05 0.034779270455215283 0 5.4175909632823379e-05 0.034766157214603965 0 5.4149455240678013e-05 0.034761643798725372 0 5.4175909632823379e-05 0.034766157214603965 0 4.241123550184796e-05 0.034747470653240492 0 5.4175909632823379e-05 0.034766157214603965 0 4.241123550184796e-05 0.034747470653240492 0 3.9298994019627056e-05 0.034764247824566996 0 2.4743631295117402e-05 0.03471618296593567 0 4.241123550184796e-05 0.034747470653240492 0 3.9298994019627056e-05 0.034764247824566996 0 2.4743631295117402e-05 0.03471618296593567 0 1.2198449627665867e-05 0.034759116841159614 0 3.9298994019627056e-05 0.034764247824566996 0 3.9298994019627056e-05 0.034764247824566996 0 5.5624078125878171e-05 0.03476839874452519 0 2.7284275418873694e-05 0.034800934367289045 0 2.4678208050888851e-05 0.034822094509489254 0 2.4504899493949479e-05 0.034807000011285102 0 1.2198449627665867e-05 0.034759116841159614 0 3.9298994019627056e-05 0.034764247824566996 0 2.7284275418873694e-05 0.034800934367289045 0 4.7230951560036468e-07 0.034875343411594088 0 7.0307642768925687e-06 0.034835349377417543 0 2.7284275418873694e-05 0.034800934367289045 0 5.4175909632823379e-05 0.034766157214603965 0 3.9298994019627056e-05 0.034764247824566996 0 5.5624078125878171e-05 0.03476839874452519 0 4.7230951560036468e-07 0.034875343411594088 0 7.0307642768925687e-06 0.034835349377417543 0 -1.1089487331441696e-05 0.034863411441691292 0 7.0307642768925687e-06 0.034835349377417543 0 1.715125509641858e-05 0.034810449229485639 0 -7.5654020781035165e-06 0.034838427154687157 0 7.0307642768925687e-06 0.034835349377417543 0 -7.5654020781035165e-06 0.034838427154687157 0 -1.1089487331441696e-05 0.034863411441691292 0 3.3935038913932162e-05 0.034790733488325044 0 2.7284275418873694e-05 0.034800934367289045 0 1.715125509641858e-05 0.034810449229485639 0 7.0307642768925687e-06 0.034835349377417543 0 2.7284275418873694e-05 0.034800934367289045 0 1.715125509641858e-05 0.034810449229485639 0 -4.9963556864416613e-06 0.034809753476633162 0 1.715125509641858e-05 0.034810449229485639 0 1.666842911154212e-05 0.034784902064256808 0 3.4030620783944138e-05 0.034780988502609585 0 1.715125509641858e-05 0.034810449229485639 0 1.666842911154212e-05 0.034784902064256808 0 -4.9963556864416613e-06 0.034809753476633162 0 1.715125509641858e-05 0.034810449229485639 0 -7.5654020781035165e-06 0.034838427154687157 0 -4.9963556864416613e-06 0.034809753476633162 0 -2.1961032033647445e-05 0.03484214000900078 0 -7.5654020781035165e-06 0.034838427154687157 0 -7.5654020781035165e-06 0.034838427154687157 0 -2.1097678904311043e-05 0.034865692528673088 0 -1.1089487331441696e-05 0.034863411441691292 0 -2.1097678904311043e-05 0.034865692528673088 0 -1.8549740584065178e-05 0.034886595643316212 0 -1.1089487331441696e-05 0.034863411441691292 0 -2.1961032033647445e-05 0.03484214000900078 0 -7.5654020781035165e-06 0.034838427154687157 0 -2.1097678904311043e-05 0.034865692528673088 0 -2.0874749256337143e-05 0.034889028273875106 0 -2.1097678904311043e-05 0.034865692528673088 0 -1.7376790180049256e-05 0.034903286886173404 0 -2.1097678904311043e-05 0.034865692528673088 0 -1.7376790180049256e-05 0.034903286886173404 0 -1.8549740584065178e-05 0.034886595643316212 0 -1.8057074736363338e-05 0.034910493236615443 0 -1.7376790180049256e-05 0.034903286886173404 0 -1.8549740584065178e-05 0.034886595643316212 0 -1.8057074736363338e-05 0.034910493236615443 0 -1.8465484237448534e-05 0.034898031306994731 0 -1.8549740584065178e-05 0.034886595643316212 0 -1.8057074736363338e-05 0.034910493236615443 0 -1.8847642307001814e-05 0.034918503567413002 0 -1.8465484237448534e-05 0.034898031306994731 0 -1.8465484237448534e-05 0.034898031306994731 0 -1.8549740584065178e-05 0.034886595643316212 0 -1.1089487331441696e-05 0.034863411441691292 0 0.0057287356939391245 0.0032264233995327875 0 0.0054481354069633343 0.0034528679285139923 0 0.0054407065616891639 0.0031597194819147794 0 0.0054481354069633343 0.0034528679285139923 0 0.0054407065616891639 0.0031597194819147794 0 0.0051512987279411452 0.0034862905174368516 0 0.0060497663650111756 0.0031366521968335687 0 0.0049616122426406626 0.0066283855978549857 0 0.0054481354069633343 0.0034528679285139923 0 0.0052794519110172366 0.0036476447104107222 0 0.005657087347597285 0.0037265516132594296 0 0.0054481354069633343 0.0034528679285139923 0 0.0052794519110172366 0.0036476447104107222 0 0.0051512987279411452 0.0034862905174368516 0 0.0060631100441374585 -0.0021311752712557808 0 0.0048279796766234799 -3.4926360409638369e-05 0 0.0057287356939391245 0.0032264233995327875 0 0.0054481354069633343 0.0034528679285139923 0 0.005657087347597285 0.0037265516132594296 0 0.0063316108507002738 -0.005880320671720409 0 0.0062483356126358993 -0.0068962970850498734 0 0.006343339210420967 -0.007126991826035366 0 0.0062483356126358993 -0.0068962970850498734 0 0.0054346177098253817 -0.0051546928290856749 0 0.0044476185387887406 -0.0054173454724905758 0 0.0062483356126358993 -0.0068962970850498734 0 0.0056107020508534659 -0.0072897999335578773 0 0.0056470050214694071 -0.0067350818203242811 0 0.0063316108507002738 -0.005880320671720409 0 0.0062483356126358993 -0.0068962970850498734 0 0.0054346177098253817 -0.0051546928290856749 0 0.0063118083461820313 -0.0070340115344898028 0 0.0048451621804704408 -0.0056274598582850546 0 0.0063316108507002738 -0.005880320671720409 0 0.0054346177098253817 -0.0051546928290856749 0 0.0062445528858346474 -0.0044833378143652068 0 0.0054346177098253817 -0.0051546928290856749 0 0.0062445528858346474 -0.0044833378143652068 0 0.0049120597072314946 -0.00324869838438016 0 0.0062368720449458943 0.0028821824668162203 0 0.0061308807011698496 0.0051119671634165973 0 0.0063181515882139013 0.0081332523586156481 0 0.0057732093432089956 0.0079204452952133346 0 0.0063278184214477038 0.0078360650535090094 0 0.0063181515882139013 0.0081332523586156481 0 0.0053023126787363952 0.0084151015309591043 0 0.0049313160460080843 0.0095537283182837145 0 0.0062368720449458943 0.0028821824668162203 0 0.0049390749468098119 0.0076050578160008321 0 0.0058125837934212415 0.002592157458091601 0 0.0054407065616891639 0.0031597194819147794 0 0.0049328171034402754 0.00343906253534475 0 0.0057287356939391245 0.0032264233995327875 0 0.0058125837934212415 0.002592157458091601 0 0.0054407065616891639 0.0031597194819147794 0 0.0060631100441374585 -0.0021311752712557808 0 0.0062368720449458943 0.0028821824668162203 0 0.0063181515882139013 0.0081332523586156481 0 0.0053023126787363952 0.0084151015309591043 0 0.0057732093432089956 0.0079204452952133346 0 0.0053023126787363952 0.0084151015309591043 0 0.0045644790913309478 0.0090889544940216706 0 0.0049313160460080843 0.0095537283182837145 0 0.0053023126787363952 0.0084151015309591043 0 0.0045644790913309478 0.0090889544940216706 0 0.0049231689365191325 0.0073112575405065387 0 0.0045644790913309478 0.0090889544940216706 0 0.0035694221079595194 0.0087488227815294122 0 0.0049231689365191325 0.0073112575405065387 0 0.0045644790913309478 0.0090889544940216706 0 0.0035694221079595194 0.0087488227815294122 0 0.0041121262091728976 0.0095040330288111291 0 0.0038500322711777857 0.010027711832934584 0 0.004397450936029436 0.0089766022117732814 0 0.0034770675575630651 0.0098105682622151563 0 0.0041121262091728976 0.0095040330288111291 0 0.0045800593857031075 0.0099305858147737489 0 0.0035694221079595194 0.0087488227815294122 0 0.0034770675575630651 0.0098105682622151563 0 0.0041121262091728976 0.0095040330288111291 0 0.0034770675575630651 0.0098105682622151563 0 0.0045800593857031075 0.0099305858147737489 0 0.0048922395625990937 0.010026692117874516 0 0.0054407065616891639 0.0031597194819147794 0 0.0049328171034402754 0.00343906253534475 0 0.0050484914345677581 0.0035958766353491509 0 0.0049390749468098119 0.0076050578160008321 0 0.0049616122426406626 0.0066283855978549857 0 0.0045644790913309478 0.0090889544940216706 0 0.0049513147449353184 0.0096073176005012154 0 0.0045486348264670443 0.0095376157573631923 0 0.0051603854156628661 0.0089142192346639473 0 0.0049390749468098119 0.0076050578160008321 0 0.0045644790913309478 0.0090889544940216706 0 0.0041121262091728976 0.0095040330288111291 0 0.0045486348264670443 0.0095376157573631923 0 0.0041121262091728976 0.0095040330288111291 0 0.0045486348264670443 0.0095376157573631923 0 0.0045800593857031075 0.0099305858147737489 0 0.0049513147449353184 0.0096073176005012154 0 0.0045486348264670443 0.0095376157573631923 0 0.0045800593857031075 0.0099305858147737489 0 0.0049274408918719469 0.0095803491574797117 0 0.0045800593857031075 0.0099305858147737489 0 0.0048922395625990937 0.010026692117874516 0 0.0049390749468098119 0.0076050578160008321 0 0.0042584583956979749 0.0089843819704674283 0 0.0049274408918719469 0.0095803491574797117 0 0.0048922395625990937 0.010026692117874516 0 0.0051011365350071705 0.0098054966405794631 0 0.004397450936029436 0.0089766022117732814 0 0.0049616122426406626 0.0066283855978549857 0 0.0043034763621625583 0.010802971604416662 0 0.0040970532294505963 0.010692054986756501 0 0.0042790247443902987 0.010817798609636978 0 0.0045856781607961465 0.0074982940597054281 0 0.0051667684776230344 0.0076501758292742946 0 0.0049056065808005585 0.0079180447430955408 0 0.0048509058455309924 0.0067029450644713138 0 0.0049616122426406626 0.0066283855978549857 0 0.0048509058455309924 0.0067029450644713138 0 0.004397450936029436 0.0089766022117732814 0 0.0040970532294505963 0.010692054986756501 0 0.0042790247443902987 0.010817798609636978 0 0.0041026805010466851 0.011305163780679757 0 0.0040970532294505963 0.010692054986756501 0 0.0041026805010466851 0.011305163780679757 0 0.003169207275556008 0.011701350490025292 0 0.0042790247443902987 0.010817798609636978 0 0.0041026805010466851 0.011305163780679757 0 0.0044860580407234743 0.01158637194983729 0 0.0041026805010466851 0.011305163780679757 0 0.003169207275556008 0.011701350490025292 0 0.0041028765632794154 0.011828136166829335 0 0.004397450936029436 0.0089766022117732814 0 0.0033811688883183281 0.011869876257149255 0 0.0041026805010466851 0.011305163780679757 0 0.0041028765632794154 0.011828136166829335 0 0.0044860580407234743 0.01158637194983729 0 0.0034770675575630651 0.0098105682622151563 0 0.0049988215478982793 0.010193303754896075 0 0.0036819106150865924 0.011568054228909042 0 0.0034770675575630651 0.0098105682622151563 0 0.0036819106150865924 0.011568054228909042 0 0.0029203045418396125 0.010812474869434806 0 0.003169207275556008 0.011701350490025292 0 0.0040441558404163726 0.012448843526010297 0 0.0034947625455581709 0.012865222521418701 0 0.003169207275556008 0.011701350490025292 0 0.0023176306483144145 0.01270078247323572 0 0.0034947625455581709 0.012865222521418701 0 0.003169207275556008 0.011701350490025292 0 0.0041028765632794154 0.011828136166829335 0 0.0040441558404163726 0.012448843526010297 0 0.0041028765632794154 0.011828136166829335 0 0.0044967555148159788 0.012020549585996255 0 0.0044860580407234743 0.01158637194983729 0 0.0041028765632794154 0.011828136166829335 0 0.0040441558404163726 0.012448843526010297 0 0.0044967555148159788 0.012020549585996255 0 0.0040441558404163726 0.012448843526010297 0 0.0044967555148159788 0.012020549585996255 0 0.0048548165061255309 0.012669162885716713 0 0.0044967555148159788 0.012020549585996255 0 0.004981287296420331 0.011526846803146522 0 0.0048548165061255309 0.012669162885716713 0 0.0047254067170595547 0.0078200249022783389 0 0.0047441826802273887 0.012404576558266439 0 0.004966641938581054 0.0094777760626071558 0 0.0047810202052376649 0.0092880689739698822 0 0.0046589268352403524 0.011113473846421593 0 0.0044967555148159788 0.012020549585996255 0 0.0044860580407234743 0.01158637194983729 0 0.004981287296420331 0.011526846803146522 0 0.0042790247443902987 0.010817798609636978 0 0.0044860580407234743 0.01158637194983729 0 0.004981287296420331 0.011526846803146522 0 0.0045253257093520703 8.8844658322685772e-05 0 0.0044864965460568226 5.1297082163936428e-05 0 0.0045030882439702812 -0.00016896638740784785 0 0.004584998059080107 0.0060119396936831205 0 0.0047254067170595547 0.0078200249022783389 0 0.0041511723487516021 0.004833803062516513 0 0.0046762539455143352 0.0055717841122806654 0 0.0047258935566972136 0.0049741051611095644 0 0.0047254067170595547 0.0078200249022783389 0 0.0048279796766234799 -3.4926360409638369e-05 0 0.0047890881785670443 0.011499908318675858 0 0.0047254067170595547 0.0078200249022783389 0 0.0043034763621625583 0.010802971604416662 0 0.0042790247443902987 0.010817798609636978 0 0.0043102429193133491 0.010641742089328325 0 0.0048509058455309924 0.0067029450644713138 0 0.0048279796766234799 -3.4926360409638369e-05 0 0.0048509058455309924 0.0067029450644713138 0 0.0047254067170595547 0.0078200249022783389 0 0.0062483356126358993 -0.0068962970850498734 0 0.006343339210420967 -0.007126991826035366 0 0.0056107020508534659 -0.0072897999335578773 0 0.0045253257093520703 8.8844658322685772e-05 0 0.0045030882439702812 -0.00016896638740784785 0 0.004769382712000456 0.00010411729516598717 0 0.0045030882439702812 -0.00016896638740784785 0 0.004769382712000456 0.00010411729516598717 0 0.0049536741259877115 -0.00011666526562646545 0 0.0048279796766234799 -3.4926360409638369e-05 0 0.0055077742099082228 -0.0036063550759314628 0 0.004966641938581054 0.0094777760626071558 0 0.0061013711720104722 0.011016405151299563 0 0.0046589268352403524 0.011113473846421593 0 0.004584998059080107 0.0060119396936831205 0 0.0048086536886943537 0.0026042757453048873 0 0.0052990733918531745 0.0056871799173517611 0 0.0051830879797718186 0.0055707193074891401 0 0.0051938716755705267 0.0055499291716871024 0 0.004584998059080107 0.0060119396936831205 0 0.0060293056605879008 0.0089306609274684926 0 0.0045253257093520703 8.8844658322685772e-05 0 0.004769382712000456 0.00010411729516598717 0 0.0047969398186804638 0.00037532327321364978 0 0.004769382712000456 0.00010411729516598717 0 0.005153709195998054 0.00021822294167420632 0 0.0049536741259877115 -0.00011666526562646545 0 0.004769382712000456 0.00010411729516598717 0 0.005153709195998054 0.00021822294167420632 0 0.0047969398186804638 0.00037532327321364978 0 0.005153709195998054 0.00021822294167420632 0 0.0047969398186804638 0.00037532327321364978 0 0.0051968280012959925 0.00044080424574118211 0 0.005153709195998054 0.00021822294167420632 0 0.0054724303551258423 -6.7067780651169386e-05 0 0.0055111999686224362 0.00046160253973831717 0 0.0048927831760974738 -0.0080680503361530605 0 0.0043017686274713232 -0.0020952946850029889 0 0.0048927831760974738 -0.0080680503361530605 0 0.0055077742099082228 -0.0036063550759314628 0 0.0059859889426082833 -0.017190828991234815 0 0.0060992140560604952 -0.017448650359310931 0 0.0062124655182529687 -0.017428130878419844 0 0.005153709195998054 0.00021822294167420632 0 0.0054724303551258423 -6.7067780651169386e-05 0 0.0049536741259877115 -0.00011666526562646545 0 0.0048927831760974738 -0.0080680503361530605 0 0.0057167978939809544 -0.012898890389640432 0 0.0051121123282587026 -0.0074901770025726112 0 0.0056107020508534659 -0.0072897999335578773 0 0.0051352843728589177 -0.0070480565304618667 0 0.0052484368821195653 -0.017734640419131666 0 0.00526562177749641 -0.017761552568560351 0 0.0052841351556158133 -0.017691157664286632 0 0.0059977358613430816 -0.014957965413093504 0 0.005945350105591345 -0.012962884155448894 0 0.0052484368821195653 -0.017734640419131666 0 0.0052474058852637166 -0.017599369998608599 0 0.0052841351556158133 -0.017691157664286632 0 0.0052484368821195653 -0.017734640419131666 0 0.0052474058852637166 -0.017599369998608599 0 0.0052428808799511693 -0.017560771537340054 0 0.0057459598049522725 -0.013403001295098155 0 0.005945350105591345 -0.012962884155448894 0 0.0058488913378696352 -0.008084570667629673 0 0.0065216376499884834 -0.0073965761636044427 0 0.0050030441136040072 -0.0069818097155273217 0 0.0030775639647957391 -0.0087641138944139427 0 0.0050030441136040072 -0.0069818097155273217 0 0.0031504471003627999 -0.0062398644756346874 0 0.0030775639647957391 -0.0087641138944139427 0 0.0058488913378696352 -0.008084570667629673 0 0.0050030441136040072 -0.0069818097155273217 0 0.0048927831760974738 -0.0080680503361530605 0 0.0059977358613430816 -0.014957965413093504 0 0.0059859889426082833 -0.017190828991234815 0 0.0064683603548745918 -0.016982539323443947 0 0.0062517746976242274 -0.017259969372895406 0 0.0059859889426082833 -0.017190828991234815 0 0.0062517746976242274 -0.017259969372895406 0 0.0060992140560604952 -0.017448650359310931 0 0.0056686449372309131 -0.017686217739452312 0 0.0061143585885552743 -0.017386972810719565 0 0.0055216427613410737 -0.01785914902368084 0 0.0056816673659348437 -0.017514197466219836 0 0.0060992140560604952 -0.017448650359310931 0 0.0052484368821195653 -0.017734640419131666 0 0.0055216427613410737 -0.01785914902368084 0 0.00526562177749641 -0.017761552568560351 0 0.0055216427613410737 -0.01785914902368084 0 0.0052408592379818214 -0.017778980550936668 0 0.00526562177749641 -0.017761552568560351 0 0.0059977358613430816 -0.014957965413093504 0 0.0056686449372309131 -0.017686217739452312 0 0.0055216427613410737 -0.01785914902368084 0 0.0052408592379818214 -0.017778980550936668 0 0.0056816673659348437 -0.017514197466219836 0 0.0052408592379818214 -0.017778980550936668 0 0.00526562177749641 -0.017761552568560351 0 0.0053275208534023137 -0.017733674431596475 0 0.0052408592379818214 -0.017778980550936668 0 0.0050827586758804329 -0.01764589776820678 0 0.0052856510904415836 -0.017807455168869581 0 0.0052408592379818214 -0.017778980550936668 0 0.0050827586758804329 -0.01764589776820678 0 0.0056816673659348437 -0.017514197466219836 0 0.0050827586758804329 -0.01764589776820678 0 0.0056816673659348437 -0.017514197466219836 0 0.0056219604354105822 -0.016831956888405639 0 0.0056816673659348437 -0.017514197466219836 0 0.0060957845184952987 -0.017020077775002647 0 0.0056219604354105822 -0.016831956888405639 0 0.0056816673659348437 -0.017514197466219836 0 0.0060992140560604952 -0.017448650359310931 0 0.0062124655182529687 -0.017428130878419844 0 0.0056816673659348437 -0.017514197466219836 0 0.0060957845184952987 -0.017020077775002647 0 0.0062124655182529687 -0.017428130878419844 0 0.0060957845184952987 -0.017020077775002647 0 0.0062124655182529687 -0.017428130878419844 0 0.0064648621883430166 -0.016357020564020091 0 0.0055066781834031808 -0.017524264227713384 0 0.0055825761540816013 -0.012120383093581056 0 0.0062026147160483295 -0.016342309317622615 0 0.0067787078093058733 -0.016138823684475067 0 0.0068324222989053591 -0.015540462358165516 0 0.0060957845184952987 -0.017020077775002647 0 0.0062026147160483295 -0.016342309317622615 0 0.0067787078093058733 -0.016138823684475067 0 0.0062026147160483295 -0.016342309317622615 0 0.0056219604354105822 -0.016831956888405639 0 0.0057783597675174474 -0.015880899802563561 0 0.0060957845184952987 -0.017020077775002647 0 0.0062026147160483295 -0.016342309317622615 0 0.0056219604354105822 -0.016831956888405639 0 0.0050827586758804329 -0.01764589776820678 0 0.0056219604354105822 -0.016831956888405639 0 0.0045682682825133585 -0.015957375951537914 0 0.0050155182436340175 -0.017622131768499916 0 0.0048126326370277915 -0.017311439507983327 0 0.0056219604354105822 -0.016831956888405639 0 0.0045682682825133585 -0.015957375951537914 0 0.0057783597675174474 -0.015880899802563561 0 0.0056107020508534659 -0.0072897999335578773 0 0.0053468045075072031 -0.0068079297166074538 0 0.0056470050214694071 -0.0067350818203242811 0 0.0056107020508534659 -0.0072897999335578773 0 0.0051352843728589177 -0.0070480565304618667 0 0.0053468045075072031 -0.0068079297166074538 0 0.0057167978939809544 -0.012898890389640432 0 0.0055825761540816013 -0.012120383093581056 0 0.0053468045075072031 -0.0068079297166074538 0 0.0056470050214694071 -0.0067350818203242811 0 0.0052110760517797257 -0.0065392434824035088 0 0.0051352843728589177 -0.0070480565304618667 0 0.0053468045075072031 -0.0068079297166074538 0 0.0051661045668011758 -0.006641456776221538 0 0.0053468045075072031 -0.0068079297166074538 0 0.0051661045668011758 -0.006641456776221538 0 0.0052110760517797257 -0.0065392434824035088 0 0.0044476185387887406 -0.0054173454724905758 0 0.0040723722172806738 -0.0040807474695806973 0 0.0026235464476653944 -0.0040006188901815258 0 0.0048451621804704408 -0.0056274598582850546 0 0.0043737064509186512 -0.0079189025183734243 0 0.0054346177098253817 -0.0051546928290856749 0 0.0044476185387887406 -0.0054173454724905758 0 0.0040723722172806738 -0.0040807474695806973 0 0.0040723722172806738 -0.0040807474695806973 0 0.0035951856676646483 -0.0020231242932784183 0 0.0049120597072314946 -0.00324869838438016 0 0.0054346177098253817 -0.0051546928290856749 0 0.0040723722172806738 -0.0040807474695806973 0 0.0049120597072314946 -0.00324869838438016 0 0.0040723722172806738 -0.0040807474695806973 0 0.0026235464476653944 -0.0040006188901815258 0 0.0035951856676646483 -0.0020231242932784183 0 0.0043737064509186512 -0.0079189025183734243 0 0.0052813074622798791 -0.00084399711549614322 0 0.0044233514979764351 -0.0082628822682643231 0 0.004007853861857185 -0.00794441742898855 0 0.0061635199957188296 -0.0046962245023560584 0 0.0051004118699509316 -0.011390994963990222 0 0.0059655154109538328 -0.0096572500839399653 0 0.0051886032097214563 -0.0090596973416766959 0 0.0055825761540816013 -0.012120383093581056 0 0.0060494585718597997 -0.011448452410104939 0 0.0055825761540816013 -0.012120383093581056 0 0.0043737064509186512 -0.0079189025183734243 0 0.0043737064509186512 -0.0079189025183734243 0 0.0060494585718597997 -0.011448452410104939 0 0.004007853861857185 -0.00794441742898855 0 0.0061635199957188296 -0.0046962245023560584 0 0.0041906083587814353 -0.0033073903762502778 0 0.0060494585718597997 -0.011448452410104939 0 0.0053482844119809216 -0.0079509647953162812 0 0.0052813074622798791 -0.00084399711549614322 0 0.0054387664626929684 -0.0037095826652559401 0 0.0083191497640115793 0.0060664906032632049 0 0.0073003708404983979 0.0060276845837619235 0 0.0073116777345041501 0.0070786634044533959 0 0.0052813074622798791 -0.00084399711549614322 0 0.0060844581740150117 0.0020879085232163334 0 0.0045682682825133585 -0.015957375951537914 0 0.0057783597675174474 -0.015880899802563561 0 0.0056626060863514431 -0.014422334774486074 0 0.0045682682825133585 -0.015957375951537914 0 0.0056626060863514431 -0.014422334774486074 0 0.0042795099449264434 -0.01412527220312597 0 0.0068324222989053591 -0.015540462358165516 0 0.0057783597675174474 -0.015880899802563561 0 0.0056626060863514431 -0.014422334774486074 0 0.0060494585718597997 -0.011448452410104939 0 0.005969889428596528 -0.01447955207947048 0 0.0062026147160483295 -0.016342309317622615 0 0.0068324222989053591 -0.015540462358165516 0 0.0057783597675174474 -0.015880899802563561 0 0.006649255143604078 -0.014282514931241644 0 0.0056916670771273358 -0.013598228951474408 0 0.0067065374779284263 -0.012660193727295713 0 0.0056916670771273358 -0.013598228951474408 0 0.0058754331498828772 -0.012668201402352489 0 0.0067065374779284263 -0.012660193727295713 0 0.0056626060863514431 -0.014422334774486074 0 0.0042795099449264434 -0.01412527220312597 0 0.0044342898161883488 -0.013020150863547218 0 0.0056916670771273358 -0.013598228951474408 0 0.0051241883824307537 -0.012451907855640499 0 0.0044342898161883488 -0.013020150863547218 0 0.005969889428596528 -0.01447955207947048 0 0.004330666195678531 -0.012909001404481889 0 0.0056916670771273358 -0.013598228951474408 0 0.0051241883824307537 -0.012451907855640499 0 0.0058754331498828772 -0.012668201402352489 0 0.0051241883824307537 -0.012451907855640499 0 0.0058754331498828772 -0.012668201402352489 0 0.0059260612646769243 -0.011840943805303634 0 0.0058754331498828772 -0.012668201402352489 0 0.0059260612646769243 -0.011840943805303634 0 0.0067065374779284263 -0.012660193727295713 0 0.0059260612646769243 -0.011840943805303634 0 0.005791815823521472 -0.010909962633915693 0 0.006685176088504231 -0.01110180110627774 0 0.0059260612646769243 -0.011840943805303634 0 0.0067065374779284263 -0.012660193727295713 0 0.006685176088504231 -0.01110180110627774 0 0.0051241883824307537 -0.012451907855640499 0 0.0052207218754591724 -0.011409199673764015 0 0.0046001568461314533 -0.012258544063771691 0 0.0051241883824307537 -0.012451907855640499 0 0.0059260612646769243 -0.011840943805303634 0 0.0052207218754591724 -0.011409199673764015 0 0.0059260612646769243 -0.011840943805303634 0 0.0052207218754591724 -0.011409199673764015 0 0.005791815823521472 -0.010909962633915693 0 0.0052813074622798791 -0.00084399711549614322 0 0.0056009314736950085 0.0036365206092866362 0 0.0083191497640115793 0.0060664906032632049 0 0.0076027794704659037 0.0046604943309628485 0 0.0073003708404983979 0.0060276845837619235 0 0.0055460440192646749 -0.0041561114754231363 0 0.0044628983363265663 -0.0031923326004950408 0 0.0066170351472744516 -0.0019885710002999425 0 0.0044628983363265663 -0.0031923326004950408 0 0.0048775989478312349 -0.0017774341537268095 0 0.0066170351472744516 -0.0019885710002999425 0 0.0061635199957188296 -0.0046962245023560584 0 0.0044628983363265663 -0.0031923326004950408 0 0.0041906083587814353 -0.0033073903762502778 0 0.0044628983363265663 -0.0031923326004950408 0 0.0041906083587814353 -0.0033073903762502778 0 0.0048775989478312349 -0.0017774341537268095 0 0.0048775989478312349 -0.0017774341537268095 0 0.0066170351472744516 -0.0019885710002999425 0 0.0045748607320266243 -0.00024083282803074097 0 0.0041906083587814353 -0.0033073903762502778 0 0.0048775989478312349 -0.0017774341537268095 0 0.0044876746418219182 -0.00027696393325601172 0 0.0048775989478312349 -0.0017774341537268095 0 0.0045748607320266243 -0.00024083282803074097 0 0.0044876746418219182 -0.00027696393325601172 0 0.0053482844119809216 -0.0079509647953162812 0 0.0056092271109210948 -0.0056335443333263959 0 0.0043581444155228475 0.00010043964372530103 0 0.0045748607320266243 -0.00024083282803074097 0 0.0043976079954960064 -0.00021177308229155148 0 0.0043581444155228475 0.00010043964372530103 0 0.0042409822044987954 -0.00013641265609307715 0 0.0043976079954960064 -0.00021177308229155148 0 0.0056009314736950085 0.0036365206092866362 0 0.0050141499508447778 -0.0017475127785166495 0 0.0056009314736950085 0.0036365206092866362 0 0.0037187183523697885 0.005184096544784144 0 0.003516839831227784 0.010023229969400737 0 0.002839924744737841 0.010001105622053389 0 0.0032492653148364246 0.0095375273903986826 0 0.002839924744737841 0.010001105622053389 0 0.0023414997120780267 0.0099302231195213045 0 0.0026230371598938334 0.0095031972105967377 0 0.002839924744737841 0.010001105622053389 0 0.0026230371598938334 0.0095031972105967377 0 0.0032492653148364246 0.0095375273903986826 0 0.002839924744737841 0.010001105622053389 0 0.0029679626878214159 0.010552132840616795 0 0.002251588073005057 0.010439837771832102 0 0.0056009314736950085 0.0036365206092866362 0 0.0044326624327379952 0.0088962705851997857 0 0.0076027794704659037 0.0046604943309628485 0 0.0073003708404983979 0.0060276845837619235 0 0.0062707938372337443 0.005963546327715237 0 0.003516839831227784 0.010023229969400737 0 0.002839924744737841 0.010001105622053389 0 0.0029679626878214159 0.010552132840616795 0 0.0073003708404983979 0.0060276845837619235 0 0.0073116777345041501 0.0070786634044533959 0 0.0065428436474542634 0.0068573419479608759 0 0.0073003708404983979 0.0060276845837619235 0 0.0062707938372337443 0.005963546327715237 0 0.0065428436474542634 0.0068573419479608759 0 0.0062707938372337443 0.005963546327715237 0 0.005969445669269078 0.0071863635629302331 0 0.0065428436474542634 0.0068573419479608759 0 0.0044326624327379952 0.0088962705851997857 0 0.0037377400850573156 0.0090324624723329798 0 0.0062707938372337443 0.005963546327715237 0 0.005969445669269078 0.0071863635629302331 0 0.0049231689365191325 0.0073112575405065387 0 0.005969445669269078 0.0071863635629302331 0 0.0063278184214477038 0.0078360650535090094 0 0.0065428436474542634 0.0068573419479608759 0 0.0053023126787363952 0.0084151015309591043 0 0.0057732093432089956 0.0079204452952133346 0 0.0049231689365191325 0.0073112575405065387 0 0.005969445669269078 0.0071863635629302331 0 0.0057732093432089956 0.0079204452952133346 0 0.0049231689365191325 0.0073112575405065387 0 0.005969445669269078 0.0071863635629302331 0 0.0057732093432089956 0.0079204452952133346 0 0.0063278184214477038 0.0078360650535090094 0 0.006310478160645035 0.0081020585229103961 0 0.0063278184214477038 0.0078360650535090094 0 0.0073116777345041501 0.0070786634044533959 0 0.0062368720449458943 0.0028821824668162203 0 0.0060844581740150117 0.0020879085232163334 0 0.0063278184214477038 0.0078360650535090094 0 0.0073116777345041501 0.0070786634044533959 0 0.0065428436474542634 0.0068573419479608759 0 0.001899719208257224 0.01132320802299859 0 0.0018552476352292244 0.010905779308106831 0 0.0024109732257835059 0.011004226520680954 0 0.001899719208257224 0.01132320802299859 0 0.0018552476352292244 0.010905779308106831 0 0.0017294338229396013 0.011143136928012222 0 0.0027323479363863573 0.010046918092527527 0 0.0037377400850573156 0.0090324624723329798 0 0.0029679626878214159 0.010552132840616795 0 0.0024109732257835059 0.011004226520680954 0 0.002251588073005057 0.010439837771832102 0 0.0018552476352292244 0.010905779308106831 0 0.0024109732257835059 0.011004226520680954 0 0.002251588073005057 0.010439837771832102 0 0.0018552476352292244 0.010905779308106831 0 0.002251588073005057 0.010439837771832102 0 0.0015307979692955379 0.010550705181198057 0 0.002251588073005057 0.010439837771832102 0 0.0018899844645311047 0.010064260275269857 0 0.0015307979692955379 0.010550705181198057 0 0.002839924744737841 0.010001105622053389 0 0.002251588073005057 0.010439837771832102 0 0.0023414997120780267 0.0099302231195213045 0 0.002251588073005057 0.010439837771832102 0 0.0023414997120780267 0.0099302231195213045 0 0.0018899844645311047 0.010064260275269857 0 0.0023414997120780267 0.0099302231195213045 0 0.0018899844645311047 0.010064260275269857 0 0.0020142305070613791 0.0095326333014048685 0 0.0018899844645311047 0.010064260275269857 0 0.0015307979692955379 0.010550705181198057 0 0.0014150467586277159 0.0098067043955924419 0 0.0015307979692955379 0.010550705181198057 0 0.0011079599485178376 0.010273705883880437 0 0.00086240708677473967 0.010631437966580125 0 0.0011079599485178376 0.010273705883880437 0 0.00096597955065797761 0.009947799794073597 0 0.0014150467586277159 0.0098067043955924419 0 0.0015307979692955379 0.010550705181198057 0 0.0011079599485178376 0.010273705883880437 0 0.0014150467586277159 0.0098067043955924419 0 0.00096597955065797761 0.009947799794073597 0 0.00058993740982713589 0.01020787377425266 0 0.00075452523026459984 0.010318150996675572 0 0.00058993740982713589 0.01020787377425266 0 0.00075452523026459984 0.010318150996675572 0 0.00054607232344061109 0.010342282945464441 0 0.0011079599485178376 0.010273705883880437 0 0.00096597955065797761 0.009947799794073597 0 0.00075452523026459984 0.010318150996675572 0 0.00061167189556689445 0.010067050724467728 0 0.00072726902699348417 0.011603384478880529 0 0.00040507883981523581 0.01043884052785256 0 0.00052166132711173666 0.010295147621702307 0 0.00048050697131125431 0.010742345500367182 0 0.00052166132711173666 0.010295147621702307 0 0.00054607232344061109 0.010342282945464441 0 0.00043962187733186548 0.010435197703575287 0 0.00040507883981523581 0.01043884052785256 0 0.00052166132711173666 0.010295147621702307 0 0.00036996328847464631 0.010290015236187024 0 0.00058993740982713589 0.01020787377425266 0 0.00052166132711173666 0.010295147621702307 0 0.00054607232344061109 0.010342282945464441 0 0.00072726902699348417 0.011603384478880529 0 0.00045304272617290384 0.010944997055746707 0 0.00054607232344061109 0.010342282945464441 0 0.00043962187733186548 0.010435197703575287 0 0.00053673920361956983 0.010461074624064804 0 0.00025099766433205224 0.010456129266920645 0 0.00053673920361956983 0.010461074624064804 0 0.00041200588589611234 0.010840691128397308 0 0.00053673920361956983 0.010461074624064804 0 0.00086240708677473967 0.010631437966580125 0 0.00041200588589611234 0.010840691128397308 0 0.0011079599485178376 0.010273705883880437 0 0.00075452523026459984 0.010318150996675572 0 0.00086240708677473967 0.010631437966580125 0 0.00075452523026459984 0.010318150996675572 0 0.00054607232344061109 0.010342282945464441 0 0.00053673920361956983 0.010461074624064804 0 0.00075452523026459984 0.010318150996675572 0 0.00053673920361956983 0.010461074624064804 0 0.00086240708677473967 0.010631437966580125 0 0.00041200588589611234 0.010840691128397308 0 0.00042474765783028 0.011256484232315867 0 0.00092174653703071784 0.011197154901219458 0 0.00086240708677473967 0.010631437966580125 0 0.00041200588589611234 0.010840691128397308 0 0.00092174653703071784 0.011197154901219458 0 0.00025099766433205224 0.010456129266920645 0 0.00041200588589611234 0.010840691128397308 0 2.0909977519857484e-05 0.011076381518074692 0 0.00072726902699348417 0.011603384478880529 0 0.00043237163391759672 0.01276558547251545 0 0.00041200588589611234 0.010840691128397308 0 0.00042474765783028 0.011256484232315867 0 2.0909977519857484e-05 0.011076381518074692 0 0.00042474765783028 0.011256484232315867 0 0.00092174653703071784 0.011197154901219458 0 0.00028027671588754367 0.011808900289596793 0 0.00042474765783028 0.011256484232315867 0 2.0909977519857484e-05 0.011076381518074692 0 0.00028027671588754367 0.011808900289596793 0 0.0010046639962488827 0.011072119869676336 0 0.00028431777008863042 0.011404012819006404 0 0.0010945945304623177 0.01088242908989185 0 0.0011124356511325356 0.011263214176470263 0 0.00039349555918798248 0.011387837802312568 0 0.0010945945304623177 0.01088242908989185 0 0.0011124356511325356 0.011263214176470263 0 0.0014863446512652044 0.011151080643189719 0 0.0018552476352292244 0.010905779308106831 0 0.0014863446512652044 0.011151080643189719 0 0.0017294338229396013 0.011143136928012222 0 0.0018552476352292244 0.010905779308106831 0 0.0015307979692955379 0.010550705181198057 0 0.0014863446512652044 0.011151080643189719 0 0.0015307979692955379 0.010550705181198057 0 0.00086240708677473967 0.010631437966580125 0 0.00092174653703071784 0.011197154901219458 0 0.0015096547809242869 0.01056775454344247 0 0.0010046639962488827 0.011072119869676336 0 0.0015307979692955379 0.010550705181198057 0 0.0010945945304623177 0.01088242908989185 0 0.0014863446512652044 0.011151080643189719 0 -0.00028720709645060536 0.013878442776113281 0 0.00015721696953000886 0.013869473498361311 0 3.2167982733010283e-05 0.014384095150258651 0 -0.0005909148388829116 0.012564198894165745 0 -0.00014965021404028534 0.012436312797509121 0 -0.00091206556480552092 0.011025481149302451 0 -0.0009875519333890628 0.011178223950358732 0 -0.00041032198130322651 0.011026612769987131 0 -0.00091206556480552092 0.011025481149302451 0 -0.00051974588308859612 0.010801951825193109 0 -0.0005144982607966028 0.010475071546377019 0 -0.00091206556480552092 0.011025481149302451 0 -0.00051974588308859612 0.010801951825193109 0 -0.00041032198130322651 0.011026612769987131 0 -0.00051974588308859612 0.010801951825193109 0 -0.00016478749595665382 0.010657214174964765 0 -0.00041032198130322651 0.011026612769987131 0 -0.00051974588308859612 0.010801951825193109 0 -0.00016478749595665382 0.010657214174964765 0 -0.0005144982607966028 0.010475071546377019 0 -0.00016478749595665382 0.010657214174964765 0 -0.00041032198130322651 0.011026612769987131 0 5.799170167236267e-05 0.010847985574152097 0 -0.00014965021404028534 0.012436312797509121 0 0.00032575147857399661 0.012422562673883884 0 0.00015721696953000886 0.013869473498361311 0 0.00059084381100975151 0.013857409630353557 0 0.00046126164964703899 0.014307024797999954 0 -0.00016478749595665382 0.010657214174964765 0 5.799170167236267e-05 0.010847985574152097 0 0.00026917233911571747 0.010524828892602521 0 -0.00016478749595665382 0.010657214174964765 0 0.00026917233911571747 0.010524828892602521 0 5.8747130702909452e-05 0.010245894337149996 0 0.00040507883981523581 0.01043884052785256 0 0.00026917233911571747 0.010524828892602521 0 0.00036996328847464631 0.010290015236187024 0 0.00040507883981523581 0.01043884052785256 0 0.00048050697131125431 0.010742345500367182 0 0.00026917233911571747 0.010524828892602521 0 0.0010306699282552872 0.01383910930963691 0 0.00059084381100975151 0.013857409630353557 0 0.00089612864188626934 0.014252248712933568 0 0.00072726902699348417 0.011603384478880529 0 0.00032575147857399661 0.012422562673883884 0 0.00048050697131125431 0.010742345500367182 0 5.799170167236267e-05 0.010847985574152097 0 0.00026917233911571747 0.010524828892602521 0 2.0909977519857484e-05 0.011076381518074692 0 -0.00020710774219582408 0.011744287998330001 0 0.00028027671588754367 0.011808900289596793 0 0.00089612864188626934 0.014252248712933568 0 0.00046126164964703899 0.014307024797999954 0 0.0007490674922259247 0.014647810137577166 0 0.00043237163391759672 0.01276558547251545 0 0.00026409988707267563 0.013219610011020547 0 0.00046126164964703899 0.014307024797999954 0 0.00033315400190965955 0.014794242502471744 0 0.0007490674922259247 0.014647810137577166 0 0.00059084381100975151 0.013857409630353557 0 0.00089612864188626934 0.014252248712933568 0 0.00046126164964703899 0.014307024797999954 0 0.00015721696953000886 0.013869473498361311 0 0.00046126164964703899 0.014307024797999954 0 3.2167982733010283e-05 0.014384095150258651 0 0.00046126164964703899 0.014307024797999954 0 3.2167982733010283e-05 0.014384095150258651 0 0.00033315400190965955 0.014794242502471744 0 3.2167982733010283e-05 0.014384095150258651 0 -1.0615355126834685e-05 0.014722313277917457 0 0.00033315400190965955 0.014794242502471744 0 -0.00033736792115748296 0.014678960213449029 0 3.2167982733010283e-05 0.014384095150258651 0 -1.0615355126834685e-05 0.014722313277917457 0 -0.00014639912598758564 0.015047025700867056 0 0.00012777283166682306 0.015286337778508902 0 0.00033315400190965955 0.014794242502471744 0 -0.00021888063006431297 0.015363851010076783 0 -0.00014639912598758564 0.015047025700867056 0 0.00012777283166682306 0.015286337778508902 0 -0.00014639912598758564 0.015047025700867056 0 -1.0615355126834685e-05 0.014722313277917457 0 0.00033315400190965955 0.014794242502471744 0 -0.00033736792115748296 0.014678960213449029 0 -0.00014639912598758564 0.015047025700867056 0 -1.0615355126834685e-05 0.014722313277917457 0 0.00021086711109175914 0.015001256505962797 0 0.00030308042793046911 0.014884745096066257 0 0.00021710469093371587 0.015052894991576046 0 0.00033315400190965955 0.014794242502471744 0 0.0003637829885775995 0.014982175900264278 0 0.00021710469093371587 0.015052894991576046 0 0.0003637829885775995 0.014982175900264278 0 0.00033472316055371522 0.015126354532263424 0 0.00013970280808513829 0.01347152963184438 0 0.00038588944433018364 0.015180509332585412 0 0.00033315400190965955 0.014794242502471744 0 0.0003637829885775995 0.014982175900264278 0 0.00059908538242434378 0.014969797921792677 0 0.0003637829885775995 0.014982175900264278 0 0.00059908538242434378 0.014969797921792677 0 0.00033472316055371522 0.015126354532263424 0 0.00033315400190965955 0.014794242502471744 0 0.00059908538242434378 0.014969797921792677 0 0.0007490674922259247 0.014647810137577166 0 0.00013970280808513829 0.01347152963184438 0 0.00028431777008863042 0.011404012819006404 0 -0.00035156055641901877 0.012005445694988339 0 0.00039349555918798248 0.011387837802312568 0 0.00026658357093194715 0.011872583206025637 0 0.00013970280808513829 0.01347152963184438 0 0.00026409988707267563 0.013219610011020547 0 -0.00042806876870200985 0.01244914132305446 0 -0.00020710774219582408 0.011744287998330001 0 0.00028027671588754367 0.011808900289596793 0 -0.00035156055641901877 0.012005445694988339 0 0.00014594038177577549 0.012212763327923488 0 0.00026658357093194715 0.011872583206025637 0 -0.00035156055641901877 0.012005445694988339 0 0.00014594038177577549 0.012212763327923488 0 -0.00015972817265540507 0.01243640523405283 0 0.00014594038177577549 0.012212763327923488 0 -0.00015972817265540507 0.01243640523405283 0 0.00026173834345345997 0.012628183104230077 0 -0.00015972817265540507 0.01243640523405283 0 -0.00011670583191813106 0.012800420611224852 0 -0.00054537400568998912 0.01260076534195796 0 -0.00015972817265540507 0.01243640523405283 0 -0.00011670583191813106 0.012800420611224852 0 0.00026173834345345997 0.012628183104230077 0 0.00017539605467073956 0.012938969383423404 0 -3.3537183405134844e-05 0.013275483192862123 0 -0.00011670583191813106 0.012800420611224852 0 0.00017539605467073956 0.012938969383423404 0 -0.00011670583191813106 0.012800420611224852 0 0.00026173834345345997 0.012628183104230077 0 0.00017539605467073956 0.012938969383423404 0 -3.3537183405134844e-05 0.013275483192862123 0 0.00040347036856908368 0.01307538774070165 0 -3.3537183405134844e-05 0.013275483192862123 0 -0.00011670583191813106 0.012800420611224852 0 -0.00035777776574183912 0.012966666453195849 0 -3.3537183405134844e-05 0.013275483192862123 0 -0.00035777776574183912 0.012966666453195849 0 -0.00073517872362890611 0.013189462387428331 0 -0.00035777776574183912 0.012966666453195849 0 -0.00073517872362890611 0.013189462387428331 0 -0.00054537400568998912 0.01260076534195796 0 -6.5999620644809176e-05 0.013228899317085397 0 -0.00024385231358177756 0.014064676830566938 0 -0.00011670583191813106 0.012800420611224852 0 -0.00035777776574183912 0.012966666453195849 0 -0.00054537400568998912 0.01260076534195796 0 -0.00024385231358177756 0.014064676830566938 0 5.1804722741022514e-05 0.013774997355435381 0 -0.00024385231358177756 0.014064676830566938 0 -0.00051688478087835038 0.014483109921698536 0 -0.00035156055641901877 0.012005445694988339 0 -0.00015972817265540507 0.01243640523405283 0 -0.00054537400568998912 0.01260076534195796 0 0.0007384202561919851 0.014613432185452959 0 0.00063231979400152187 0.014965664033646841 0 0.00041740722959483865 0.014917657551832424 0 0.00013970280808513829 0.01347152963184438 0 5.1804722741022514e-05 0.013774997355435381 0 0.00041740722959483865 0.014917657551832424 0 0.000316454755559 0.015116256900017229 0 0.00013943248464949026 0.015219261902207123 0 0.00063231979400152187 0.014965664033646841 0 0.00041740722959483865 0.014917657551832424 0 0.000316454755559 0.015116256900017229 0 0.00021710469093371587 0.015052894991576046 0 0.00033472316055371522 0.015126354532263424 0 0.00013943248464949026 0.015219261902207123 0 0.00038588944433018364 0.015180509332585412 0 0.00017458113020336861 0.015159286845268181 0 -0.00019664741511211755 0.015596971689173709 0 -0.00051688478087835038 0.014483109921698536 0 -0.00054121757288082631 0.01483110832588894 0 -4.7620816777107599e-05 0.014907732207703302 0 -0.00049767334396353356 0.014699040789479248 0 -0.00024385231358177756 0.014064676830566938 0 -0.00019664741511211755 0.015596971689173709 0 0.00052433625859703477 0.015281477574586479 0 0.00063231979400152187 0.014965664033646841 0 0.000316454755559 0.015116256900017229 0 0.00052433625859703477 0.015281477574586479 0 0.000316454755559 0.015116256900017229 0 0.00015921788400354779 0.015254722826685536 0 0.000316454755559 0.015116256900017229 0 0.00013943248464949026 0.015219261902207123 0 0.00015921788400354779 0.015254722826685536 0 0.00013943248464949026 0.015219261902207123 0 0.00015921788400354779 0.015254722826685536 0 9.4510911705749011e-05 0.015219954284859187 0 -0.00035432769118089348 0.016064953016515723 0 0.000147317506842897 0.016134644192124983 0 8.2917293225105363e-05 0.016259911763999893 0 -0.00019664741511211755 0.015596971689173709 0 -0.0003048678873507292 0.016803072989891074 0 -0.00068159851917057443 0.015003745372920504 0 -0.00079151561137122634 0.014994453602631665 0 -0.00074146734897177985 0.015134448965532604 0 -0.00019664741511211755 0.015596971689173709 0 -1.6343265420644074e-05 0.016276520078062438 0 -0.0003048678873507292 0.016803072989891074 0 -1.6343265420644074e-05 0.016276520078062438 0 0.00021086711109175914 0.015001256505962797 0 -1.6343265420644074e-05 0.016276520078062438 0 0.00021710469093371587 0.015052894991576046 0 0.00013943248464949026 0.015219261902207123 0 9.4510911705749011e-05 0.015219954284859187 0 -0.00021888063006431297 0.015363851010076783 0 0.00012777283166682306 0.015286337778508902 0 -9.5383183636679869e-05 0.015744265758864048 0 0.0013957348724224722 0.011358683890840359 0 0.0011779421169603799 0.011502924273069627 0 0.0013381901153966234 0.011473595879478479 0 0.0013957348724224722 0.011358683890840359 0 0.001547705092412648 0.011442468461188115 0 0.001600244120797576 0.011292314959915353 0 0.0013957348724224722 0.011358683890840359 0 0.001547705092412648 0.011442468461188115 0 0.0013381901153966234 0.011473595879478479 0 0.0034770675575630651 0.0098105682622151563 0 0.002271845963528227 0.010262209008447858 0 0.0029203045418396125 0.010812474869434806 0 0.0027323479363863573 0.010046918092527527 0 0.0019269637471057473 0.010850771536780731 0 0.0035694221079595194 0.0087488227815294122 0 0.0034770675575630651 0.0098105682622151563 0 0.002271845963528227 0.010262209008447858 0 0.001899719208257224 0.01132320802299859 0 0.0017294338229396013 0.011143136928012222 0 0.001600244120797576 0.011292314959915353 0 0.001899719208257224 0.01132320802299859 0 0.001547705092412648 0.011442468461188115 0 0.001600244120797576 0.011292314959915353 0 0.0014863446512652044 0.011151080643189719 0 0.0017294338229396013 0.011143136928012222 0 0.001600244120797576 0.011292314959915353 0 0.0011124356511325356 0.011263214176470263 0 0.0014863446512652044 0.011151080643189719 0 0.001306654734676472 0.011831703114615047 0 0.0014820170125777227 0.011191779834971594 0 0.0013421463224998209 0.011586438712197953 0 0.0014863446512652044 0.011151080643189719 0 0.0013957348724224722 0.011358683890840359 0 0.001600244120797576 0.011292314959915353 0 0.0011124356511325356 0.011263214176470263 0 0.00086715887178047575 0.01157798902384055 0 0.00039349555918798248 0.011387837802312568 0 0.0011124356511325356 0.011263214176470263 0 0.001306654734676472 0.011831703114615047 0 0.00086715887178047575 0.01157798902384055 0 0.00086715887178047575 0.01157798902384055 0 0.00058797352211161977 0.011753641560469584 0 0.00085202472635330536 0.011865761478468319 0 0.00086715887178047575 0.01157798902384055 0 0.00039349555918798248 0.011387837802312568 0 0.00058797352211161977 0.011753641560469584 0 0.00039349555918798248 0.011387837802312568 0 0.00058797352211161977 0.011753641560469584 0 0.00026658357093194715 0.011872583206025637 0 0.00058797352211161977 0.011753641560469584 0 0.00055420719952691726 0.012071032522924078 0 0.00085202472635330536 0.011865761478468319 0 0.00058797352211161977 0.011753641560469584 0 0.00026658357093194715 0.011872583206025637 0 0.00055420719952691726 0.012071032522924078 0 0.00014594038177577549 0.012212763327923488 0 0.00055420719952691726 0.012071032522924078 0 0.00045796277563983954 0.012385384764733264 0 0.00014594038177577549 0.012212763327923488 0 0.00026658357093194715 0.011872583206025637 0 0.00055420719952691726 0.012071032522924078 0 0.001306654734676472 0.011831703114615047 0 0.00094450499626316895 0.012165501422370675 0 0.001063686476155589 0.012542538713471942 0 0.0013421463224998209 0.011586438712197953 0 0.0011095267989554851 0.012062817557104092 0 0.001306654734676472 0.011831703114615047 0 0.00085202472635330536 0.011865761478468319 0 0.00094450499626316895 0.012165501422370675 0 0.001306654734676472 0.011831703114615047 0 0.00086715887178047575 0.01157798902384055 0 0.00085202472635330536 0.011865761478468319 0 0.00055420719952691726 0.012071032522924078 0 0.00094450499626316895 0.012165501422370675 0 0.00070922986837944899 0.012371586157465532 0 0.00055420719952691726 0.012071032522924078 0 0.00085202472635330536 0.011865761478468319 0 0.00094450499626316895 0.012165501422370675 0 0.00094450499626316895 0.012165501422370675 0 0.00088875958712308228 0.012422271853493773 0 0.001063686476155589 0.012542538713471942 0 0.00094450499626316895 0.012165501422370675 0 0.00070922986837944899 0.012371586157465532 0 0.00088875958712308228 0.012422271853493773 0 0.00088875958712308228 0.012422271853493773 0 0.00080739277954728543 0.012563252759733884 0 0.001063686476155589 0.012542538713471942 0 0.00070922986837944899 0.012371586157465532 0 0.00088875958712308228 0.012422271853493773 0 0.00080739277954728543 0.012563252759733884 0 0.00080739277954728543 0.012563252759733884 0 0.001063686476155589 0.012542538713471942 0 0.00075814692947836755 0.012836021570474452 0 0.00080739277954728543 0.012563252759733884 0 0.00058967647982098408 0.012618548560717664 0 0.00075814692947836755 0.012836021570474452 0 0.00070922986837944899 0.012371586157465532 0 0.00080739277954728543 0.012563252759733884 0 0.00058967647982098408 0.012618548560717664 0 0.0012166702428651796 0.011680895972241109 0 0.0011779421169603799 0.011502924273069627 0 0.0013381901153966234 0.011473595879478479 0 0.00014594038177577549 0.012212763327923488 0 0.00045796277563983954 0.012385384764733264 0 0.00026173834345345997 0.012628183104230077 0 0.00070922986837944899 0.012371586157465532 0 0.00045796277563983954 0.012385384764733264 0 0.00058967647982098408 0.012618548560717664 0 0.00055420719952691726 0.012071032522924078 0 0.00070922986837944899 0.012371586157465532 0 0.00045796277563983954 0.012385384764733264 0 0.00058967647982098408 0.012618548560717664 0 0.00047345625507586275 0.012863538954229264 0 0.00075814692947836755 0.012836021570474452 0 0.00045796277563983954 0.012385384764733264 0 0.00058967647982098408 0.012618548560717664 0 0.00026173834345345997 0.012628183104230077 0 0.00058967647982098408 0.012618548560717664 0 0.00026173834345345997 0.012628183104230077 0 0.00047345625507586275 0.012863538954229264 0 -3.3537183405134844e-05 0.013275483192862123 0 0.00049317749506166226 0.013207518549379764 0 0.00040347036856908368 0.01307538774070165 0 -3.3537183405134844e-05 0.013275483192862123 0 0.00049317749506166226 0.013207518549379764 0 0.00068320220172697816 0.013370201540398691 0 0.00017539605467073956 0.012938969383423404 0 0.00026173834345345997 0.012628183104230077 0 0.00047345625507586275 0.012863538954229264 0 0.00017539605467073956 0.012938969383423404 0 0.00047345625507586275 0.012863538954229264 0 0.00040347036856908368 0.01307538774070165 0 0.00047345625507586275 0.012863538954229264 0 0.00062401318305894981 0.01305771006261747 0 0.00075814692947836755 0.012836021570474452 0 0.00047345625507586275 0.012863538954229264 0 0.00062401318305894981 0.01305771006261747 0 0.00040347036856908368 0.01307538774070165 0 0.00062401318305894981 0.01305771006261747 0 0.00049317749506166226 0.013207518549379764 0 0.00077956843869586058 0.01326481644482869 0 0.00049317749506166226 0.013207518549379764 0 0.00077956843869586058 0.01326481644482869 0 0.00068320220172697816 0.013370201540398691 0 0.00062401318305894981 0.01305771006261747 0 0.00049317749506166226 0.013207518549379764 0 0.00040347036856908368 0.01307538774070165 0 0.0012166702428651796 0.011680895972241109 0 0.0011779421169603799 0.011502924273069627 0 0.0007346720775269289 0.012419422296980792 0 0.001063686476155589 0.012542538713471942 0 0.00075814692947836755 0.012836021570474452 0 0.00077956843869586058 0.01326481644482869 0 0.0011095267989554851 0.012062817557104092 0 0.00077835889403397884 0.012759706898144554 0 0.00062401318305894981 0.01305771006261747 0 0.00075814692947836755 0.012836021570474452 0 0.00077956843869586058 0.01326481644482869 0 0.0007346720775269289 0.012419422296980792 0 0.0012941326264585913 0.01226272943925967 0 0.0010782554853580849 0.012626456056579699 0 0.0012166702428651796 0.011680895972241109 0 0.0007346720775269289 0.012419422296980792 0 0.0012941326264585913 0.01226272943925967 0 0.0012941326264585913 0.01226272943925967 0 0.0016577473970606021 0.012013762061113115 0 0.0018284118830858421 0.01254760895517738 0 0.0012166702428651796 0.011680895972241109 0 0.0016577473970606021 0.012013762061113115 0 0.0022876806016472683 0.011576505391299891 0 0.0022876806016472683 0.011576505391299891 0 0.0025103923684236655 0.01271412639546303 0 0.0018284118830858421 0.01254760895517738 0 0.0016577473970606021 0.012013762061113115 0 0.0022876806016472683 0.011576505391299891 0 0.0018284118830858421 0.01254760895517738 0 0.0012166702428651796 0.011680895972241109 0 0.0012941326264585913 0.01226272943925967 0 0.0016577473970606021 0.012013762061113115 0 0.0019269637471057473 0.010850771536780731 0 0.001250251833226297 0.011615283634179546 0 0.001547705092412648 0.011442468461188115 0 0.0012166702428651796 0.011680895972241109 0 0.0013381901153966234 0.011473595879478479 0 0.002271845963528227 0.010262209008447858 0 0.0012166702428651796 0.011680895972241109 0 0.0022876806016472683 0.011576505391299891 0 0.002271845963528227 0.010262209008447858 0 0.0029203045418396125 0.010812474869434806 0 0.0022876806016472683 0.011576505391299891 0 0.0036819106150865924 0.011568054228909042 0 0.0029203045418396125 0.010812474869434806 0 0.0022876806016472683 0.011576505391299891 0 0.0036819106150865924 0.011568054228909042 0 0.0022876806016472683 0.011576505391299891 0 0.0025103923684236655 0.01271412639546303 0 0.0033811688883183281 0.011869876257149255 0 0.0024345748050441113 0.012669006100637811 0 0.0023176306483144145 0.01270078247323572 0 0.002496285260467814 0.013891514755319542 0 0.0030939159297653043 0.013464181558064059 0 0.002496285260467814 0.013891514755319542 0 0.0015149448980596811 0.013705633968226797 0 0.0019576613353338456 0.014554811983197146 0 0.0023176306483144145 0.01270078247323572 0 0.002496285260467814 0.013891514755319542 0 0.0015149448980596811 0.013705633968226797 0 0.0025103923684236655 0.01271412639546303 0 0.0015149448980596811 0.013705633968226797 0 0.0018284118830858421 0.01254760895517738 0 0.0015149448980596811 0.013705633968226797 0 0.0018284118830858421 0.01254760895517738 0 0.0013368060305472764 0.012909045311156095 0 0.0024345748050441113 0.012669006100637811 0 0.0015535513524382769 0.013657206626762612 0 0.0012941326264585913 0.01226272943925967 0 0.0018284118830858421 0.01254760895517738 0 0.0013368060305472764 0.012909045311156095 0 0.0013368060305472764 0.012909045311156095 0 0.0010782554853580849 0.012626456056579699 0 0.00094056497021266928 0.012919247105071714 0 0.0012941326264585913 0.01226272943925967 0 0.0013368060305472764 0.012909045311156095 0 0.0010782554853580849 0.012626456056579699 0 0.0007346720775269289 0.012419422296980792 0 0.0010782554853580849 0.012626456056579699 0 0.00094056497021266928 0.012919247105071714 0 0.0007346720775269289 0.012419422296980792 0 0.00094056497021266928 0.012919247105071714 0 0.00063655904161449449 0.01309390900782911 0 0.00094056497021266928 0.012919247105071714 0 0.00076606277596117539 0.013317854848036883 0 0.0010353654089438401 0.013500329541754778 0 0.00094056497021266928 0.012919247105071714 0 0.00063655904161449449 0.01309390900782911 0 0.00076606277596117539 0.013317854848036883 0 0.00063655904161449449 0.01309390900782911 0 0.00076606277596117539 0.013317854848036883 0 0.0005407445675821768 0.013427461726221869 0 0.0013368060305472764 0.012909045311156095 0 0.00094056497021266928 0.012919247105071714 0 0.0010353654089438401 0.013500329541754778 0 6.4881129033608618e-05 0.013325241845795538 0 0.00068320220172697816 0.013370201540398691 0 0.0003431278729411872 0.013561376372932515 0 0.00077956843869586058 0.01326481644482869 0 0.00068320220172697816 0.013370201540398691 0 0.00052195527841096079 0.013901540146807953 0 0.0003431278729411872 0.013561376372932515 0 0.00052195527841096079 0.013901540146807953 0 -3.588541040725334e-05 0.013646091615627347 0 0.0007346720775269289 0.012419422296980792 0 0.00063655904161449449 0.01309390900782911 0 0.00028910897169700422 0.013662728443893954 0 0.00077835889403397884 0.012759706898144554 0 0.00044016786873444597 0.014226989077935126 0 0.00068320220172697816 0.013370201540398691 0 0.0003431278729411872 0.013561376372932515 0 0.00052195527841096079 0.013901540146807953 0 -6.5999620644809176e-05 0.013228899317085397 0 0.00067259544856238277 0.013382059187716872 0 0.00063655904161449449 0.01309390900782911 0 0.00028910897169700422 0.013662728443893954 0 0.0005407445675821768 0.013427461726221869 0 0.00044016786873444597 0.014226989077935126 0 0.00038906963396386179 0.014122105830815891 0 0.00028910897169700422 0.013662728443893954 0 0.0005407445675821768 0.013427461726221869 0 0.00053324978431003203 0.013612097614845742 0 0.0005407445675821768 0.013427461726221869 0 0.00053324978431003203 0.013612097614845742 0 0.00074736334957018716 0.01359422484289733 0 0.00028910897169700422 0.013662728443893954 0 0.00053324978431003203 0.013612097614845742 0 0.00053517025864941543 0.013762857080770952 0 0.00053324978431003203 0.013612097614845742 0 0.00053517025864941543 0.013762857080770952 0 0.00074736334957018716 0.01359422484289733 0 0.00034201669365487545 0.013679231734301531 0 0.00053517025864941543 0.013762857080770952 0 0.000484660607834124 0.014265281059319679 0 0.00034201669365487545 0.013679231734301531 0 0.00010937879815705398 0.014535671396878006 0 0.000484660607834124 0.014265281059319679 0 0.00053517025864941543 0.013762857080770952 0 0.00095135419963764708 0.013978307877047942 0 0.000484660607834124 0.014265281059319679 0 0.00044016786873444597 0.014226989077935126 0 7.7259178735180465e-05 0.015077170624178966 0 0.00013619557623850917 0.015344723624248996 0 4.6127920646939307e-05 0.015514878737714165 0 -2.6354533119651874e-05 0.01540942355181105 0 0.0015149448980596811 0.013705633968226797 0 0.0013368060305472764 0.012909045311156095 0 0.0010353654089438401 0.013500329541754778 0 0.0015149448980596811 0.013705633968226797 0 0.0010353654089438401 0.013500329541754778 0 0.00095135419963764708 0.013978307877047942 0 0.00053517025864941543 0.013762857080770952 0 0.00074736334957018716 0.01359422484289733 0 0.00095135419963764708 0.013978307877047942 0 0.0010353654089438401 0.013500329541754778 0 0.00074736334957018716 0.01359422484289733 0 0.00095135419963764708 0.013978307877047942 0 0.00076606277596117539 0.013317854848036883 0 0.0010353654089438401 0.013500329541754778 0 0.00074736334957018716 0.01359422484289733 0 0.00076606277596117539 0.013317854848036883 0 0.0005407445675821768 0.013427461726221869 0 0.00074736334957018716 0.01359422484289733 0 0.0015149448980596811 0.013705633968226797 0 0.00095135419963764708 0.013978307877047942 0 0.0013510522826873307 0.01433338425172761 0 0.00095135419963764708 0.013978307877047942 0 0.0013510522826873307 0.01433338425172761 0 0.00090879259095767132 0.014706073182558541 0 0.00095135419963764708 0.013978307877047942 0 0.00090879259095767132 0.014706073182558541 0 0.000484660607834124 0.014265281059319679 0 0.0013510522826873307 0.01433338425172761 0 0.00090879259095767132 0.014706073182558541 0 0.0014141278014557471 0.014848945780709309 0 0.00090879259095767132 0.014706073182558541 0 0.0014141278014557471 0.014848945780709309 0 0.0011070708635521917 0.015334709811424856 0 0.00010937879815705398 0.014535671396878006 0 0.000484660607834124 0.014265281059319679 0 0.00052185928900552747 0.014786796102448296 0 0.00090879259095767132 0.014706073182558541 0 0.000484660607834124 0.014265281059319679 0 0.00052185928900552747 0.014786796102448296 0 0.00090879259095767132 0.014706073182558541 0 0.00052185928900552747 0.014786796102448296 0 0.00059183917864233252 0.015299173273596173 0 0.00010937879815705398 0.014535671396878006 0 0.00052185928900552747 0.014786796102448296 0 2.4216042415346178e-05 0.015556135308562776 0 0.00059183917864233252 0.015299173273596173 0 2.4216042415346178e-05 0.015556135308562776 0 0.00046206761202514165 0.015959795704454657 0 0.00059183917864233252 0.015299173273596173 0 0.0011070708635521917 0.015334709811424856 0 0.00046206761202514165 0.015959795704454657 0 0.00052185928900552747 0.014786796102448296 0 0.00059183917864233252 0.015299173273596173 0 2.4216042415346178e-05 0.015556135308562776 0 0.0011070708635521917 0.015334709811424856 0 0.0017482896968202494 0.015297536403974606 0 0.0011573657260577387 0.016027100331695309 0 0.00090879259095767132 0.014706073182558541 0 0.00059183917864233252 0.015299173273596173 0 0.0011070708635521917 0.015334709811424856 0 0.0017482896968202494 0.015297536403974606 0 0.0024276183303221163 0.015355506371842765 0 0.0019576613353338456 0.014554811983197146 0 0.0014141278014557471 0.014848945780709309 0 0.0017482896968202494 0.015297536403974606 0 0.0019576613353338456 0.014554811983197146 0 0.0014141278014557471 0.014848945780709309 0 0.0011070708635521917 0.015334709811424856 0 0.0017482896968202494 0.015297536403974606 0 0.0017482896968202494 0.015297536403974606 0 0.0024276183303221163 0.015355506371842765 0 0.0018591930849547111 0.015885459331766088 0 0.0024276183303221163 0.015355506371842765 0 0.0027048644941373577 0.014653701248757759 0 0.003296611619961014 0.015168198139783011 0 0.0024276183303221163 0.015355506371842765 0 0.0027048644941373577 0.014653701248757759 0 0.0019576613353338456 0.014554811983197146 0 0.002496285260467814 0.013891514755319542 0 0.0027048644941373577 0.014653701248757759 0 0.0033173855523444791 0.014167162495102626 0 0.002496285260467814 0.013891514755319542 0 0.0027048644941373577 0.014653701248757759 0 0.0019576613353338456 0.014554811983197146 0 0.0015149448980596811 0.013705633968226797 0 0.0013510522826873307 0.01433338425172761 0 0.0019576613353338456 0.014554811983197146 0 0.0013510522826873307 0.01433338425172761 0 0.0014141278014557471 0.014848945780709309 0 0.0019576613353338456 0.014554811983197146 0 -0.0010060196926744186 0.015418926987214905 0 -0.00081447467039018112 0.015385836557384519 0 -0.00070594167243751796 0.015657994832347619 0 -0.00063326189525237124 0.015377612394479311 0 -0.00081447467039018112 0.015385836557384519 0 -0.00070594167243751796 0.015657994832347619 0 -0.00063326189525237124 0.015377612394479311 0 -0.00081447467039018112 0.015385836557384519 0 -0.00077573961497919648 0.015260290851609131 0 -0.00090360713444681768 0.015206907415425264 0 -0.00077573961497919648 0.015260290851609131 0 -0.00074146734897177985 0.015134448965532604 0 -0.00090360713444681768 0.015206907415425264 0 -0.00081447467039018112 0.015385836557384519 0 -0.00077573961497919648 0.015260290851609131 0 -0.00090360713444681768 0.015206907415425264 0 -0.00079151561137122634 0.014994453602631665 0 -0.00074146734897177985 0.015134448965532604 0 -0.00068159851917057443 0.015003745372920504 0 -0.00064999450283302032 0.015128732320841989 0 -0.00054406524629915234 0.015148667495505204 0 -0.00064999450283302032 0.015128732320841989 0 -0.00065721758524098532 0.015232137245738074 0 -0.00054406524629915234 0.015148667495505204 0 -0.00068159851917057443 0.015003745372920504 0 -0.00074146734897177985 0.015134448965532604 0 -0.00064999450283302032 0.015128732320841989 0 -0.00074146734897177985 0.015134448965532604 0 -0.00064999450283302032 0.015128732320841989 0 -0.00065721758524098532 0.015232137245738074 0 -0.00063326189525237124 0.015377612394479311 0 -0.00077573961497919648 0.015260290851609131 0 -0.00065721758524098532 0.015232137245738074 0 -0.00077573961497919648 0.015260290851609131 0 -0.00074146734897177985 0.015134448965532604 0 -0.00065721758524098532 0.015232137245738074 0 -0.00063326189525237124 0.015377612394479311 0 -0.00065721758524098532 0.015232137245738074 0 -0.00052871542162810897 0.015252860583102818 0 -0.00065721758524098532 0.015232137245738074 0 -0.00052871542162810897 0.015252860583102818 0 -0.00054406524629915234 0.015148667495505204 0 -0.00068159851917057443 0.015003745372920504 0 -0.00054406524629915234 0.015148667495505204 0 -0.00039310395576481376 0.015109276243695144 0 -0.00054406524629915234 0.015148667495505204 0 -0.0004137726374214106 0.015176306446930942 0 -0.00039310395576481376 0.015109276243695144 0 -0.00056710282285404986 0.01486920924078579 0 -0.00051688478087835038 0.014483109921698536 0 -0.00052871542162810897 0.015252860583102818 0 -0.00054406524629915234 0.015148667495505204 0 -0.0004137726374214106 0.015176306446930942 0 -0.00052871542162810897 0.015252860583102818 0 -0.0004137726374214106 0.015176306446930942 0 -0.00039688609953064847 0.015295964362347916 0 -0.00039688609953064847 0.015295964362347916 0 -0.00047949314078956143 0.01537146249244103 0 -0.00035079361294765537 0.015403151905722333 0 -0.00052871542162810897 0.015252860583102818 0 -0.00039688609953064847 0.015295964362347916 0 -0.00047949314078956143 0.01537146249244103 0 -0.00063326189525237124 0.015377612394479311 0 -0.00052871542162810897 0.015252860583102818 0 -0.00047949314078956143 0.01537146249244103 0 -0.00063326189525237124 0.015377612394479311 0 -0.00047949314078956143 0.01537146249244103 0 -0.00043788571062003618 0.015526546286248942 0 -0.00047949314078956143 0.01537146249244103 0 -0.00035079361294765537 0.015403151905722333 0 -0.00043788571062003618 0.015526546286248942 0 -0.00035079361294765537 0.015403151905722333 0 -0.00025025870375674114 0.015515919036540598 0 -0.00043788571062003618 0.015526546286248942 0 -0.00035079361294765537 0.015403151905722333 0 -0.00016084606103158335 0.015426604570982091 0 -0.00025025870375674114 0.015515919036540598 0 -0.00016084606103158335 0.015426604570982091 0 -0.00026460303020528898 0.015317369724172315 0 -9.7373431720162607e-05 0.015231085020717574 0 -0.00035079361294765537 0.015403151905722333 0 -0.00016084606103158335 0.015426604570982091 0 -0.00026460303020528898 0.015317369724172315 0 -0.00039688609953064847 0.015295964362347916 0 -0.00035079361294765537 0.015403151905722333 0 -0.00026460303020528898 0.015317369724172315 0 -0.00051688478087835038 0.014483109921698536 0 -7.1499557116843206e-05 0.014453024411494703 0 -0.00039688609953064847 0.015295964362347916 0 -0.00026460303020528898 0.015317369724172315 0 -0.0003216433322507049 0.015230216448167624 0 -0.00050607063721344202 0.013267919800446299 0 -0.0005571199432963936 0.013425029274553319 0 -3.588541040725334e-05 0.013646091615627347 0 6.4881129033608618e-05 0.013325241845795538 0 -0.00050607063721344202 0.013267919800446299 0 -3.588541040725334e-05 0.013646091615627347 0 -0.0004137726374214106 0.015176306446930942 0 -0.00039688609953064847 0.015295964362347916 0 -0.0003216433322507049 0.015230216448167624 0 -0.00026460303020528898 0.015317369724172315 0 -0.0003216433322507049 0.015230216448167624 0 -9.7373431720162607e-05 0.015231085020717574 0 -0.0003216433322507049 0.015230216448167624 0 -0.00038676225961246452 0.015100193807846005 0 -9.7373431720162607e-05 0.015231085020717574 0 -0.0004137726374214106 0.015176306446930942 0 -0.0003216433322507049 0.015230216448167624 0 -0.00038676225961246452 0.015100193807846005 0 6.4881129033608618e-05 0.013325241845795538 0 0.0003431278729411872 0.013561376372932515 0 -3.588541040725334e-05 0.013646091615627347 0 0.00044016786873444597 0.014226989077935126 0 -7.1499557116843206e-05 0.014453024411494703 0 0.00013619557623850917 0.015344723624248996 0 -9.7373431720162607e-05 0.015231085020717574 0 -2.6354533119651874e-05 0.01540942355181105 0 -0.00016084606103158335 0.015426604570982091 0 -9.7373431720162607e-05 0.015231085020717574 0 -2.6354533119651874e-05 0.01540942355181105 0 -0.00016084606103158335 0.015426604570982091 0 -2.6354533119651874e-05 0.01540942355181105 0 -7.730126341587235e-05 0.015537465112938785 0 -7.730126341587235e-05 0.015537465112938785 0 2.4216042415346178e-05 0.015556135308562776 0 -0.00020715821647431624 0.015681691587181114 0 4.6127920646939307e-05 0.015514878737714165 0 -2.6354533119651874e-05 0.01540942355181105 0 -7.730126341587235e-05 0.015537465112938785 0 4.6127920646939307e-05 0.015514878737714165 0 -7.730126341587235e-05 0.015537465112938785 0 2.4216042415346178e-05 0.015556135308562776 0 7.7259178735180465e-05 0.015077170624178966 0 1.6111171457122489e-05 0.01543615847085451 0 2.4216042415346178e-05 0.015556135308562776 0 -0.00032513222640929496 0.01604625312371602 0 -0.00013087579104336075 0.016088795213260693 0 2.4216042415346178e-05 0.015556135308562776 0 -0.00032513222640929496 0.01604625312371602 0 -0.00020715821647431624 0.015681691587181114 0 -0.00032513222640929496 0.01604625312371602 0 -0.00020715821647431624 0.015681691587181114 0 -0.00043788571062003618 0.015526546286248942 0 -0.00016084606103158335 0.015426604570982091 0 -7.730126341587235e-05 0.015537465112938785 0 -0.00025025870375674114 0.015515919036540598 0 -7.730126341587235e-05 0.015537465112938785 0 -0.00020715821647431624 0.015681691587181114 0 -0.00025025870375674114 0.015515919036540598 0 -0.00020715821647431624 0.015681691587181114 0 -0.00025025870375674114 0.015515919036540598 0 -0.00043788571062003618 0.015526546286248942 0 -0.00063326189525237124 0.015377612394479311 0 -0.00043788571062003618 0.015526546286248942 0 -0.00070594167243751796 0.015657994832347619 0 -0.00032513222640929496 0.01604625312371602 0 -0.00043788571062003618 0.015526546286248942 0 -0.00070594167243751796 0.015657994832347619 0 -0.00032513222640929496 0.01604625312371602 0 -0.0002341730780555199 0.016254766247941869 0 -0.00017895960315051162 0.016999551168691517 0 -0.00029788997031556023 0.016128870953984055 0 -0.0004614867207784301 0.016280222415918161 0 -0.00032513222640929496 0.01604625312371602 0 -0.0002341730780555199 0.016254766247941869 0 -0.00027353461143773532 0.01613631946288669 0 -0.0002341730780555199 0.016254766247941869 0 -0.00017895960315051162 0.016999551168691517 0 -3.9073967733522396e-05 0.016313518026170998 0 0.00027600005926566035 0.016422113349682767 0 -0.00017895960315051162 0.016999551168691517 0 -3.9073967733522396e-05 0.016313518026170998 0 6.403480264239255e-05 0.016148062294536192 0 -8.4837859100641538e-05 0.016183677133166145 0 -7.0707682978029879e-06 0.015949714726584262 0 0.00016326956094027842 0.016018585881772976 0 6.403480264239255e-05 0.016148062294536192 0 -7.0707682978029879e-06 0.015949714726584262 0 0.00025370846003758464 0.016228209546141219 0 6.403480264239255e-05 0.016148062294536192 0 -3.9073967733522396e-05 0.016313518026170998 0 -0.0002341730780555199 0.016254766247941869 0 -3.9073967733522396e-05 0.016313518026170998 0 -8.4837859100641538e-05 0.016183677133166145 0 6.403480264239255e-05 0.016148062294536192 0 -3.9073967733522396e-05 0.016313518026170998 0 -8.4837859100641538e-05 0.016183677133166145 0 -0.0002341730780555199 0.016254766247941869 0 -8.4837859100641538e-05 0.016183677133166145 0 -0.0002355349165728557 0.016163027312759141 0 -0.0002341730780555199 0.016254766247941869 0 -0.0002355349165728557 0.016163027312759141 0 -0.00027353461143773532 0.01613631946288669 0 -0.0002355349165728557 0.016163027312759141 0 -0.00022597799987521491 0.016173780104739219 0 -0.00027353461143773532 0.01613631946288669 0 -0.00019505177648518554 0.016377761674854503 0 -0.00040440529578177862 0.015658292868583851 0 -8.4837859100641538e-05 0.016183677133166145 0 -0.0002355349165728557 0.016163027312759141 0 -7.0707682978029879e-06 0.015949714726584262 0 -0.0002355349165728557 0.016163027312759141 0 -0.0002093659460656601 0.016310222265306457 0 -0.00022597799987521491 0.016173780104739219 0 -0.0002355349165728557 0.016163027312759141 0 -0.0002093659460656601 0.016310222265306457 0 -0.00034457231293826809 0.016419664909380575 0 -0.00018671277574326323 0.016189546519833325 0 0.000153419597381623 0.016312038901092819 0 -5.867199043973528e-05 0.016267381551499774 0 -0.00022597799987521491 0.016173780104739219 0 0.0002573068035042627 0.016165570906624641 0 -5.867199043973528e-05 0.016267381551499774 0 0.0002573068035042627 0.016165570906624641 0 -2.7815532072331818e-06 0.016407549988084684 0 -0.0002093659460656601 0.016310222265306457 0 -5.867199043973528e-05 0.016267381551499774 0 -2.7815532072331818e-06 0.016407549988084684 0 -0.0002093659460656601 0.016310222265306457 0 -5.867199043973528e-05 0.016267381551499774 0 -0.00022597799987521491 0.016173780104739219 0 -0.00032513222640929496 0.01604625312371602 0 -0.00027353461143773532 0.01613631946288669 0 -0.00013087579104336075 0.016088795213260693 0 -0.00022597799987521491 0.016173780104739219 0 -0.00027353461143773532 0.01613631946288669 0 -0.00013087579104336075 0.016088795213260693 0 -0.00022597799987521491 0.016173780104739219 0 -0.00013087579104336075 0.016088795213260693 0 3.3555366509561456e-05 0.016455837373728195 0 2.4216042415346178e-05 0.015556135308562776 0 -0.00013087579104336075 0.016088795213260693 0 0.00046206761202514165 0.015959795704454657 0 -0.00013087579104336075 0.016088795213260693 0 3.3555366509561456e-05 0.016455837373728195 0 0.00046206761202514165 0.015959795704454657 0 0.0002573068035042627 0.016165570906624641 0 0.00024477138742373629 0.016570140504682879 0 0.00047996331483067626 0.016417371844751776 0 0.0002573068035042627 0.016165570906624641 0 0.00024477138742373629 0.016570140504682879 0 -2.7815532072331818e-06 0.016407549988084684 0 0.00024477138742373629 0.016570140504682879 0 0.00056304430069576794 0.016665178122273288 0 0.00034044343691645913 0.016904586427256972 0 0.00024477138742373629 0.016570140504682879 0 0.00011750721022454288 0.016732126061454879 0 0.00034044343691645913 0.016904586427256972 0 0.00024477138742373629 0.016570140504682879 0 2.8603093690159465e-05 0.016586135468927926 0 0.00011750721022454288 0.016732126061454879 0 2.8603093690159465e-05 0.016586135468927926 0 0.00011750721022454288 0.016732126061454879 0 -5.5173567231715796e-05 0.016713686709507548 0 0.00011750721022454288 0.016732126061454879 0 -5.5173567231715796e-05 0.016713686709507548 0 6.3011642950979463e-06 0.016890340045526472 0 8.3277921384913796e-05 0.016476936244423906 0 0.0011258774243238789 0.017722205973821788 0 2.8603093690159465e-05 0.016586135468927926 0 -5.5173567231715796e-05 0.016713686709507548 0 -0.00014185664284388464 0.016515320946807199 0 2.8603093690159465e-05 0.016586135468927926 0 -2.7815532072331818e-06 0.016407549988084684 0 -0.00014185664284388464 0.016515320946807199 0 -0.0002093659460656601 0.016310222265306457 0 -2.7815532072331818e-06 0.016407549988084684 0 -0.00014185664284388464 0.016515320946807199 0 0.00024477138742373629 0.016570140504682879 0 2.8603093690159465e-05 0.016586135468927926 0 -2.7815532072331818e-06 0.016407549988084684 0 -0.0002093659460656601 0.016310222265306457 0 -0.00014185664284388464 0.016515320946807199 0 -0.00034457231293826809 0.016419664909380575 0 -0.00014185664284388464 0.016515320946807199 0 -0.00026674871015495765 0.01670515706600266 0 -0.00034457231293826809 0.016419664909380575 0 -5.5173567231715796e-05 0.016713686709507548 0 -0.00014185664284388464 0.016515320946807199 0 -0.00026674871015495765 0.01670515706600266 0 -5.5173567231715796e-05 0.016713686709507548 0 -0.00026674871015495765 0.01670515706600266 0 -0.00020137516433568889 0.016871387587702853 0 -0.00040440529578177862 0.015658292868583851 0 0.0019751384766964479 0.018976297140053517 0 -0.00026674871015495765 0.01670515706600266 0 -0.00034457231293826809 0.016419664909380575 0 -0.00046577027261055529 0.016828766634195042 0 0.00015346572969720146 0.015871316024919067 0 -7.0707682978029879e-06 0.015949714726584262 0 0.00013762665534481074 0.015738446257328856 0 -0.00026674871015495765 0.01670515706600266 0 -0.00040472474459896958 0.016866523514524473 0 -0.00046577027261055529 0.016828766634195042 0 0.00016326956094027842 0.016018585881772976 0 0.00015346572969720146 0.015871316024919067 0 -7.0707682978029879e-06 0.015949714726584262 0 0.0016105354062781652 0.016402340181955671 0 0.0018462564158446683 0.016810580524933671 0 0.00085738457419168995 0.016849141571242874 0 0.0016105354062781652 0.016402340181955671 0 0.0018462564158446683 0.016810580524933671 0 0.0023686392185877998 0.016390427499122714 0 0.0027699625592629983 0.016913674833219441 0 0.0023686392185877998 0.016390427499122714 0 0.0031010458779274089 0.016519572282464621 0 0.0018462564158446683 0.016810580524933671 0 0.0023411278109253036 0.016899570205079009 0 0.0023686392185877998 0.016390427499122714 0 0.0023686392185877998 0.016390427499122714 0 0.0031010458779274089 0.016519572282464621 0 0.0028354947758357828 0.015885010957761011 0 0.0023411278109253036 0.016899570205079009 0 0.0027699625592629983 0.016913674833219441 0 0.0023686392185877998 0.016390427499122714 0 0.0023686392185877998 0.016390427499122714 0 0.002364428448939998 0.015891121124577409 0 0.0018591930849547111 0.015885459331766088 0 0.0023686392185877998 0.016390427499122714 0 0.002364428448939998 0.015891121124577409 0 0.0028354947758357828 0.015885010957761011 0 0.0024276183303221163 0.015355506371842765 0 0.002364428448939998 0.015891121124577409 0 0.0028354947758357828 0.015885010957761011 0 0.0024276183303221163 0.015355506371842765 0 0.002364428448939998 0.015891121124577409 0 0.0018591930849547111 0.015885459331766088 0 0.0016105354062781652 0.016402340181955671 0 0.0023686392185877998 0.016390427499122714 0 0.0018591930849547111 0.015885459331766088 0 0.0016105354062781652 0.016402340181955671 0 0.0018591930849547111 0.015885459331766088 0 0.0011573657260577387 0.016027100331695309 0 0.0017482896968202494 0.015297536403974606 0 0.0018591930849547111 0.015885459331766088 0 0.0011573657260577387 0.016027100331695309 0 0.0011573657260577387 0.016027100331695309 0 0.00046206761202514165 0.015959795704454657 0 0.00085738457419168995 0.016849141571242874 0 0.0011070708635521917 0.015334709811424856 0 0.0011573657260577387 0.016027100331695309 0 0.00046206761202514165 0.015959795704454657 0 3.3555366509561456e-05 0.016455837373728195 0 0.00046206761202514165 0.015959795704454657 0 0.00085738457419168995 0.016849141571242874 0 0.0002573068035042627 0.016165570906624641 0 0.00070442350264435867 0.016233229934805551 0 0.00047996331483067626 0.016417371844751776 0 0.000153419597381623 0.016312038901092819 0 0.00081918689529239237 0.016567921900371811 0 0.0016105354062781652 0.016402340181955671 0 0.0011573657260577387 0.016027100331695309 0 0.00085738457419168995 0.016849141571242874 0 0.00070442350264435867 0.016233229934805551 0 0.00075840456368128791 0.016504941844157919 0 0.00094558037206431491 0.01642061882965256 0 0.00070442350264435867 0.016233229934805551 0 0.00094558037206431491 0.01642061882965256 0 0.0010713877517197624 0.016309339904250719 0 0.00081918689529239237 0.016567921900371811 0 0.0014262664844109023 0.016597697469664954 0 0.00070442350264435867 0.016233229934805551 0 0.00047996331483067626 0.016417371844751776 0 0.00075840456368128791 0.016504941844157919 0 0.00047996331483067626 0.016417371844751776 0 0.00056304430069576794 0.016665178122273288 0 0.00075840456368128791 0.016504941844157919 0 0.00024477138742373629 0.016570140504682879 0 0.00047996331483067626 0.016417371844751776 0 0.00056304430069576794 0.016665178122273288 0 0.00075840456368128791 0.016504941844157919 0 0.00082650893021469422 0.016719174546566996 0 0.001083074718570404 0.016590755810301921 0 0.00075840456368128791 0.016504941844157919 0 0.001083074718570404 0.016590755810301921 0 0.00094558037206431491 0.01642061882965256 0 0.00056304430069576794 0.016665178122273288 0 0.00075840456368128791 0.016504941844157919 0 0.00082650893021469422 0.016719174546566996 0 0.00056304430069576794 0.016665178122273288 0 0.00082650893021469422 0.016719174546566996 0 0.00073113962885934969 0.016889039699803429 0 0.001083074718570404 0.016590755810301921 0 0.0014394702283759674 0.016612617550201013 0 0.00096927601917692332 0.016862771538179756 0 0.0013578865075487634 0.011722164147846633 0 0.00059873573786377819 0.012336733333628669 0 0.00082650893021469422 0.016719174546566996 0 0.001083074718570404 0.016590755810301921 0 0.00096927601917692332 0.016862771538179756 0 0.001083074718570404 0.016590755810301921 0 0.00111797089228483 0.016449344865566113 0 0.0012767142901036637 0.016475145640574177 0 0.001083074718570404 0.016590755810301921 0 0.00094558037206431491 0.01642061882965256 0 0.00111797089228483 0.016449344865566113 0 0.00094558037206431491 0.01642061882965256 0 0.00111797089228483 0.016449344865566113 0 0.001095709306709218 0.016371028848756328 0 0.0018462564158446683 0.016810580524933671 0 0.00085738457419168995 0.016849141571242874 0 0.0019021240101295695 0.017257333337725819 0 0.00070442350264435867 0.016233229934805551 0 0.0011544498527154398 0.016304976398906566 0 0.0010713877517197624 0.016309339904250719 0 0.00094558037206431491 0.01642061882965256 0 0.001095709306709218 0.016371028848756328 0 0.0010713877517197624 0.016309339904250719 0 0.00111797089228483 0.016449344865566113 0 0.0011955267278038445 0.01637977738599251 0 0.001095709306709218 0.016371028848756328 0 0.0011955267278038445 0.01637977738599251 0 0.001290525838834382 0.016298594944967767 0 0.0012767142901036637 0.016475145640574177 0 0.00111797089228483 0.016449344865566113 0 0.0011955267278038445 0.01637977738599251 0 0.0012767142901036637 0.016475145640574177 0 0.0014262664844109023 0.016597697469664954 0 0.0012640267415379956 0.016472605581528462 0 0.0011955267278038445 0.01637977738599251 0 0.0011620499772326703 0.01629218668772699 0 0.001290525838834382 0.016298594944967767 0 0.0011955267278038445 0.01637977738599251 0 0.001095709306709218 0.016371028848756328 0 0.0011620499772326703 0.01629218668772699 0 0.001095709306709218 0.016371028848756328 0 0.0011620499772326703 0.01629218668772699 0 0.0010713877517197624 0.016309339904250719 0 0.0014262664844109023 0.016597697469664954 0 0.0012481890657101327 0.016534311125297751 0 0.0018462564158446683 0.016810580524933671 0 0.0019021240101295695 0.017257333337725819 0 0.0021859517896629399 0.017075918794109014 0 0.0014262664844109023 0.016597697469664954 0 0.0021995631278104522 0.016743296971635787 0 0.0019021240101295695 0.017257333337725819 0 0.0021859517896629399 0.017075918794109014 0 0.0026583674079501663 0.017342202030459369 0 0.0011542891822370449 0.016272846151193815 0 0.001290525838834382 0.016298594944967767 0 0.0015514500852126236 0.016252603918704093 0 0.0023411278109253036 0.016899570205079009 0 0.0027699625592629983 0.016913674833219441 0 0.0026583674079501663 0.017342202030459369 0 0.0023411278109253036 0.016899570205079009 0 0.0021859517896629399 0.017075918794109014 0 0.0026583674079501663 0.017342202030459369 0 0.0018462564158446683 0.016810580524933671 0 0.0023411278109253036 0.016899570205079009 0 0.0021859517896629399 0.017075918794109014 0 0.001290525838834382 0.016298594944967767 0 0.0015514500852126236 0.016252603918704093 0 0.0012767142901036637 0.016475145640574177 0 0.001083074718570404 0.016590755810301921 0 0.0012767142901036637 0.016475145640574177 0 0.0014394702283759674 0.016612617550201013 0 0.0015514500852126236 0.016252603918704093 0 0.0012767142901036637 0.016475145640574177 0 0.0014394702283759674 0.016612617550201013 0 0.0013653404037356996 0.0071159179718352046 0 0.0022367717609413961 0.0066602335737106179 0 0.0021118421105717953 0.0074823980171010388 0 0.0013578865075487634 0.011722164147846633 0 0.0026908233933912434 0.012731800917796885 0 0.0027821062241209144 0.0073842786685765945 0 0.0022367717609413961 0.0066602335737106179 0 0.0021118421105717953 0.0074823980171010388 0 0.0027821062241209144 0.0073842786685765945 0 0.0022367717609413961 0.0066602335737106179 0 0.0030694960873546796 0.0067438507926458856 0 0.0026908233933912434 0.012731800917796885 0 0.0031610701803993007 0.0064159160852881834 0 0.003434145719938362 0.017415376294501662 0 0.0042566962239845426 0.016918951793795576 0 0.0037018165636853819 0.016502719041060897 0 0.0026908233933912434 0.012731800917796885 0 0.0036015319970546071 0.013978127151277376 0 0.0028094105328357669 0.010637371070593003 0 0.0034633885942113294 0.010668632786862156 0 0.0032890167531313074 0.010315147811415562 0 0.0021995631278104522 0.016743296971635787 0 0.0026908233933912434 0.012731800917796885 0 0.0015514500852126236 0.016252603918704093 0 0.0014394702283759674 0.016612617550201013 0 0.0019777255446207843 0.016256976829655795 0 0.0027699625592629983 0.016913674833219441 0 0.0026583674079501663 0.017342202030459369 0 0.003434145719938362 0.017415376294501662 0 0.0027699625592629983 0.016913674833219441 0 0.003434145719938362 0.017415376294501662 0 0.0031010458779274089 0.016519572282464621 0 0.004259338301707721 0.0051682109363091634 0 0.00506488406742859 0.0056943094480324868 0 0.0040252502449098383 0.0065425350758526396 0 0.0036100529040749554 0.0058121365149279855 0 0.004259338301707721 0.0051682109363091634 0 0.0040252502449098383 0.0065425350758526396 0 0.0028005727680341149 0.0063571170560306834 0 0.0036100529040749554 0.0058121365149279855 0 0.0040252502449098383 0.0065425350758526396 0 0.0028362423146721539 0.0068065349275998515 0 0.0031610701803993007 0.0064159160852881834 0 0.0028005727680341149 0.0063571170560306834 0 0.0036100529040749554 0.0058121365149279855 0 0.0032105916275943611 0.0051515123539339746 0 0.0036100529040749554 0.0058121365149279855 0 0.0032105916275943611 0.0051515123539339746 0 0.004259338301707721 0.0051682109363091634 0 0.0031610701803993007 0.0064159160852881834 0 0.00420360529743903 0.0051425702792390702 0 0.0031610701803993007 0.0064159160852881834 0 0.0040326076103289416 0.0097732728853651887 0 0.0034633885942113294 0.010668632786862156 0 0.0037679162573282707 0.010003147283763817 0 0.0032890167531313074 0.010315147811415562 0 0.0035172060199582852 0.0051172817934012106 0 0.004259338301707721 0.0051682109363091634 0 0.0044331688087919201 0.004403356118884494 0 0.004259338301707721 0.0051682109363091634 0 0.0044331688087919201 0.004403356118884494 0 0.0050163246458147384 0.0044360106181471305 0 0.0035172060199582852 0.0051172817934012106 0 0.0044331688087919201 0.004403356118884494 0 0.0039717402538123657 0.0041328814473298933 0 0.0044331688087919201 0.004403356118884494 0 0.0043622103400769935 0.0038932523832101548 0 0.0047517801607106155 0.004102395249693214 0 0.0044331688087919201 0.004403356118884494 0 0.0039717402538123657 0.0041328814473298933 0 0.0043622103400769935 0.0038932523832101548 0 0.0040326076103289416 0.0097732728853651887 0 0.0042034086033452683 0.0060883341463468165 0 0.0038013241801773149 0.0081741046939100108 0 0.0039094945809935834 0.0080406635453020882 0 0.00406988463311955 0.0079924498654349897 0 0.0040326076103289416 0.0097732728853651887 0 0.0036015319970546071 0.013978127151277376 0 0.0051452850882832872 0.016391074554350054 0 0.0042566962239845426 0.016918951793795576 0 0.0042277133043266977 0.015681644547360846 0 0.0051452850882832872 0.016391074554350054 0 0.0042277133043266977 0.015681644547360846 0 0.0056938435792416716 0.015381906591462342 0 0.0040326076103289416 0.0097732728853651887 0 0.0048341584100256019 0.011834425147641339 0 0.0038013241801773149 0.0081741046939100108 0 0.0039094945809935834 0.0080406635453020882 0 0.0040609692508593526 0.007587426638637206 0 0.0039094945809935834 0.0080406635453020882 0 0.0040698229530780079 0.0079925092229847401 0 0.0040609692508593526 0.007587426638637206 0 0.00383249502489335 0.0066947915062242659 0 0.0042034086033452683 0.0060883341463468165 0 0.003434145719938362 0.017415376294501662 0 0.0031010458779274089 0.016519572282464621 0 0.0037018165636853819 0.016502719041060897 0 0.0031010458779274089 0.016519572282464621 0 0.0037018165636853819 0.016502719041060897 0 0.0035050474353548098 0.015947379818996018 0 0.0042566962239845426 0.016918951793795576 0 0.0037018165636853819 0.016502719041060897 0 0.0042277133043266977 0.015681644547360846 0 0.0042277133043266977 0.015681644547360846 0 0.0035050474353548098 0.015947379818996018 0 0.003296611619961014 0.015168198139783011 0 0.0037018165636853819 0.016502719041060897 0 0.0042277133043266977 0.015681644547360846 0 0.0035050474353548098 0.015947379818996018 0 0.0035050474353548098 0.015947379818996018 0 0.0028354947758357828 0.015885010957761011 0 0.003296611619961014 0.015168198139783011 0 0.0031010458779274089 0.016519572282464621 0 0.0035050474353548098 0.015947379818996018 0 0.0028354947758357828 0.015885010957761011 0 0.0024276183303221163 0.015355506371842765 0 0.0028354947758357828 0.015885010957761011 0 0.003296611619961014 0.015168198139783011 0 0.0027048644941373577 0.014653701248757759 0 0.003296611619961014 0.015168198139783011 0 0.0033173855523444791 0.014167162495102626 0 0.003296611619961014 0.015168198139783011 0 0.0033173855523444791 0.014167162495102626 0 0.0039184304575757781 0.014519825532815698 0 0.0033173855523444791 0.014167162495102626 0 0.0039184304575757781 0.014519825532815698 0 0.0038212301971274325 0.013655633326148978 0 0.0042277133043266977 0.015681644547360846 0 0.0039184304575757781 0.014519825532815698 0 0.0045948867388703575 0.014600166331769469 0 0.0042277133043266977 0.015681644547360846 0 0.003296611619961014 0.015168198139783011 0 0.0039184304575757781 0.014519825532815698 0 0.0042277133043266977 0.015681644547360846 0 0.0045948867388703575 0.014600166331769469 0 0.0056938435792416716 0.015381906591462342 0 0.0045948867388703575 0.014600166331769469 0 0.0056938435792416716 0.015381906591462342 0 0.0064339460000138061 0.014064930952402851 0 0.0048341584100256019 0.011834425147641339 0 0.005344136924731022 0.010879076426328037 0 0.0045948867388703575 0.014600166331769469 0 0.004600626076770014 0.012874593583288536 0 0.0064339460000138061 0.014064930952402851 0 0.0039184304575757781 0.014519825532815698 0 0.0045948867388703575 0.014600166331769469 0 0.00470722019637389 0.013721243756067564 0 0.0045895501082416166 0.01453275430546005 0 0.0046650217041439984 0.013194673536576216 0 0.004600626076770014 0.012874593583288536 0 0.0058341708841256282 0.012395446968596367 0 0.0046589268352403524 0.011113473846421593 0 0.004600626076770014 0.012874593583288536 0 0.0058341708841256282 0.012395446968596367 0 0.0064339460000138061 0.014064930952402851 0 0.0058341708841256282 0.012395446968596367 0 0.0061013711720104722 0.011016405151299563 0 0.0046589268352403524 0.011113473846421593 0 0.0046650217041439984 0.013194673536576216 0 0.0047441826802273887 0.012404576558266439 0 0.0040441558404163726 0.012448843526010297 0 0.0048548165061255309 0.012669162885716713 0 0.0041859703119050563 0.013079246980703408 0 0.00470722019637389 0.013721243756067564 0 0.0048548165061255309 0.012669162885716713 0 0.0041859703119050563 0.013079246980703408 0 0.0041859703119050563 0.013079246980703408 0 0.0034947625455581709 0.012865222521418701 0 0.0038212301971274325 0.013655633326148978 0 0.0040441558404163726 0.012448843526010297 0 0.0041859703119050563 0.013079246980703408 0 0.0034947625455581709 0.012865222521418701 0 0.0023176306483144145 0.01270078247323572 0 0.0034947625455581709 0.012865222521418701 0 0.0030939159297653043 0.013464181558064059 0 0.0034947625455581709 0.012865222521418701 0 0.0030939159297653043 0.013464181558064059 0 0.0038212301971274325 0.013655633326148978 0 0.002496285260467814 0.013891514755319542 0 0.0033173855523444791 0.014167162495102626 0 0.0030939159297653043 0.013464181558064059 0 0.0033173855523444791 0.014167162495102626 0 0.0030939159297653043 0.013464181558064059 0 0.0038212301971274325 0.013655633326148978 0 0.00470722019637389 0.013721243756067564 0 0.0041859703119050563 0.013079246980703408 0 0.0038212301971274325 0.013655633326148978 0 0.0039184304575757781 0.014519825532815698 0 0.00470722019637389 0.013721243756067564 0 0.0038212301971274325 0.013655633326148978 0 0.0032314783086884484 -0.0037089354723434135 0 0.0051237360619873816 -0.0051729722487106715 0 0.0058734987458151679 -0.0026870104352115548 0 0.0043553551969085823 -0.0017052414138600512 0 0.0043017686274713232 -0.0020952946850029889 0 0.0065994242231770164 -0.0046968618617560043 0 0.0051237360619873816 -0.0051729722487106715 0 0.0058734987458151679 -0.0026870104352115548 0 0.0050030441136040072 -0.0069818097155273217 0 0.0051237360619873816 -0.0051729722487106715 0 0.006133344764150065 -0.0060204476699875636 0 0.0065994242231770164 -0.0046968618617560043 0 0.0051237360619873816 -0.0051729722487106715 0 0.006133344764150065 -0.0060204476699875636 0 0.0065216376499884834 -0.0073965761636044427 0 0.0050030441136040072 -0.0069818097155273217 0 0.006133344764150065 -0.0060204476699875636 0 0.0032314783086884484 -0.0037089354723434135 0 0.0051237360619873816 -0.0051729722487106715 0 0.0031504471003627999 -0.0062398644756346874 0 0.0050030441136040072 -0.0069818097155273217 0 0.0051237360619873816 -0.0051729722487106715 0 0.0031504471003627999 -0.0062398644756346874 0 0.0055111999686224362 0.00046160253973831717 0 0.0051968280012959925 0.00044080424574118211 0 0.0053142696916754625 0.00060455110160811357 0 0.005153709195998054 0.00021822294167420632 0 0.0055111999686224362 0.00046160253973831717 0 0.0051968280012959925 0.00044080424574118211 0 0.0051968280012959925 0.00044080424574118211 0 0.0053142696916754625 0.00060455110160811357 0 0.0051437039758313362 0.00064833325558473769 0 0.0053142696916754625 0.00060455110160811357 0 0.0052448732200588944 0.00071126390240380658 0 0.0053580472299262615 0.00081903976906792548 0 0.0052448732200588944 0.00071126390240380658 0 0.0051437039758313362 0.00064833325558473769 0 0.0050994959113105347 0.0007535981514476248 0 0.0053142696916754625 0.00060455110160811357 0 0.0052448732200588944 0.00071126390240380658 0 0.0051437039758313362 0.00064833325558473769 0 0.0055111999686224362 0.00046160253973831717 0 0.0053142696916754625 0.00060455110160811357 0 0.0053580472299262615 0.00081903976906792548 0 0.0048086536886943537 0.0026042757453048873 0 0.0055244182015084086 0.0026270212934032013 0 0.0047969398186804638 0.00037532327321364978 0 0.0051968280012959925 0.00044080424574118211 0 0.0051437039758313362 0.00064833325558473769 0 0.0060293056605879008 0.0089306609274684926 0 0.0052067830391510526 0.006922158267285569 0 0.0051830879797718186 0.0055707193074891401 0 0.0051938716755705267 0.0055499291716871024 0 0.0050311551385245901 0.0054248910368006852 0 0.0051938716755705267 0.0055499291716871024 0 0.0050539823337566511 0.0053774532538857734 0 0.0050311551385245901 0.0054248910368006852 0 0.0058341708841256282 0.012395446968596367 0 0.0061013711720104722 0.011016405151299563 0 0.0071714492085634355 0.012467211268265707 0 0.0047969398186804638 0.00037532327321364978 0 0.0051437039758313362 0.00064833325558473769 0 0.0051076207660891082 0.0007343592295043403 0 0.0056724575927943558 0.0018484465741058897 0 0.0055244182015084086 0.0026270212934032013 0 0.0058341708841256282 0.012395446968596367 0 0.0071714492085634355 0.012467211268265707 0 0.0064339460000138061 0.014064930952402851 0 0.0052067830391510526 0.006922158267285569 0 0.0055244182015084086 0.0026270212934032013 0 0.0054941748614148267 0.0012714443339662497 0 0.005486301996672458 0.0012939268831841807 0 0.0054952169041313269 0.0011567796039783159 0 0.0055244182015084086 0.0026270212934032013 0 0.005238417873619468 0.00065255987987721583 0 0.0055225604122206172 0.0010529642550170485 0 0.0055111999686224362 0.00046160253973831717 0 0.0053580472299262615 0.00081903976906792548 0 0.0054941748614148267 0.0012714443339662497 0 0.0054952169041313269 0.0011567796039783159 0 0.0054659877645981906 0.0011960965082738805 0 0.0050994959113105347 0.0007535981514476248 0 0.0053580472299262615 0.00081903976906792548 0 0.0054952169041313269 0.0011567796039783159 0 0.0052448732200588944 0.00071126390240380658 0 0.0050994959113105347 0.0007535981514476248 0 0.0053580472299262615 0.00081903976906792548 0 0.0052067830391510526 0.006922158267285569 0 0.0051962393781552372 0.0040608154830747674 0 0.0055225604122206172 0.0010529642550170485 0 0.0053580472299262615 0.00081903976906792548 0 0.0054952169041313269 0.0011567796039783159 0 0.0054952169041313269 0.0011567796039783159 0 0.0054659877645981906 0.0011960965082738805 0 0.0055144537842115662 0.0014058823814347317 0 0.0051962393781552372 0.0040608154830747674 0 0.0046264361561946851 0.0012146941624314015 0 0.0048548904815525363 0.0068124722639989321 0 0.0048177918039960079 0.0071590372364168393 0 0.0051414508494851685 0.0071669471775594315 0 0.0052067830391510526 0.006922158267285569 0 0.005344136924731022 0.010879076426328037 0 0.0045710754779383486 0.006448725778197527 0 0.0048548904815525363 0.0068124722639989321 0 0.0043193478892148548 0.0070065330911063166 0 0.0048548904815525363 0.0068124722639989321 0 0.0043193478892148548 0.0070065330911063166 0 0.0048177918039960079 0.0071590372364168393 0 0.0043193478892148548 0.0070065330911063166 0 0.0048177918039960079 0.0071590372364168393 0 0.0046192439168919073 0.0076018523390558677 0 0.0040609692508593526 0.007587426638637206 0 0.0043193478892148548 0.0070065330911063166 0 0.0046192439168919073 0.0076018523390558677 0 0.0045457677148945412 0.002611914829082229 0 0.0044016344457755169 0.0062242953332130105 0 0.0052574508560865171 0.0035571528692398555 0 0.0052826274245714403 0.0042044231262940643 0 0.0044090203246674436 0.0041347778896637273 0 0.0048177918039960079 0.0071590372364168393 0 0.005143845863472679 0.0072079335061908814 0 0.0046192439168919073 0.0076018523390558677 0 0.0048177918039960079 0.0071590372364168393 0 0.005143845863472679 0.0072079335061908814 0 0.0051414508494851685 0.0071669471775594315 0 0.004575524353741197 -0.00038094869308553784 0 0.0054617231734923055 -0.00039508715597603734 0 0.0040231803004883359 1.5502449625607655e-05 0 0.0045457677148945412 0.002611914829082229 0 0.0050796813067524888 0.0018813976654820778 0 0.004575524353741197 -0.00038094869308553784 0 0.0040158537179157535 -0.00098974320375386335 0 0.0040231803004883359 1.5502449625607655e-05 0 0.004575524353741197 -0.00038094869308553784 0 0.0039458742629531274 -0.0011960451495055524 0 0.00569083119508061 -0.0011686082951306942 0 0.0040095379057252054 -0.00086590081921215662 0 0.0046264361561946851 0.0012146941624314015 0 0.004575524353741197 -0.00038094869308553784 0 0.0040158537179157535 -0.00098974320375386335 0 0.0040115935886329938 -0.0010883415570460732 0 0.0045457677148945412 0.002611914829082229 0 0.0046264361561946851 0.0012146941624314015 0 0.0032314783086884484 -0.0037089354723434135 0 0.0033242903926977265 -0.0011615685930218141 0 0.0058734987458151679 -0.0026870104352115548 0 0.0046264361561946851 0.0012146941624314015 0 0.0057413905848845651 -0.002374011810742236 0 0.0043553551969085823 -0.0017052414138600512 0 0.0046264361561946851 0.0012146941624314015 0 0.0055225604122206172 0.0010529642550170485 0 0.0054952169041313269 0.0011567796039783159 0 0.0055144537842115662 0.0014058823814347317 0 0.0039458742629531274 -0.0011960451495055524 0 0.0056067447688375642 -0.0022151654735780798 0 0.00569083119508061 -0.0011686082951306942 0 0.0056067447688375642 -0.0022151654735780798 0 0.00569083119508061 -0.0011686082951306942 0 0.0067305803813184281 -0.0019673896678202634 0 0.00569083119508061 -0.0011686082951306942 0 0.0054617231734923055 -0.00039508715597603734 0 0.0069478215034075516 -0.00082310043673101149 0 0.004575524353741197 -0.00038094869308553784 0 0.00569083119508061 -0.0011686082951306942 0 0.0054617231734923055 -0.00039508715597603734 0 0.0065407883927423504 6.4555478633123066e-05 0 0.0064831888323482155 0.0011232258194532191 0 0.0071682739156549548 0.00057645727673413338 0 0.0059753499173682287 -0.00026520957977379644 0 0.0050796813067524888 0.0018813976654820778 0 0.0065407883927423504 6.4555478633123066e-05 0 0.00543548117338269 0.00031422648781839952 0 0.0064831888323482155 0.0011232258194532191 0 0.00543548117338269 0.00031422648781839952 0 0.005419041016163445 0.0019430815539270797 0 0.0064831888323482155 0.0011232258194532191 0 0.005419041016163445 0.0019430815539270797 0 0.0064831888323482155 0.0011232258194532191 0 0.0067777604893244758 0.0023891054691705183 0 0.0050796813067524888 0.0018813976654820778 0 0.0056886129973677231 0.0032598232468691226 0 0.0064831888323482155 0.0011232258194532191 0 0.0067777604893244758 0.0023891054691705183 0 0.0074976475889541047 0.0015879808757118924 0 0.0043622103400769935 0.0038932523832101548 0 0.0050974607829091115 0.0037310889072333952 0 0.0047517801607106155 0.004102395249693214 0 0.0035739550387228589 0.0047181109823536448 0 0.0044090203246674436 0.0041347778896637273 0 0.0044221517979974312 0.0044576924598946806 0 0.0040698229530780079 0.0079925092229847401 0 0.0040609692508593526 0.007587426638637206 0 0.0046192439168919073 0.0076018523390558677 0 0.0042034086033452683 0.0060883341463468165 0 0.0044016344457755169 0.0062242953332130105 0 0.0042034086033452683 0.0060883341463468165 0 0.0047841220148317504 0.004099732897125629 0 0.0052826274245714403 0.0042044231262940643 0 0.0044090203246674436 0.0041347778896637273 0 0.0044221517979974312 0.0044576924598946806 0 0.0050796813067524888 0.0018813976654820778 0 0.0047841220148317504 0.004099732897125629 0 0.0057524744836098141 0.0035455915349429813 0 0.005769089809767639 0.0045069713887991485 0 0.0050974607829091115 0.0037310889072333952 0 0.005769089809767639 0.0045069713887991485 0 0.0050974607829091115 0.0037310889072333952 0 0.0050163246458147384 0.0044360106181471305 0 0.0050974607829091115 0.0037310889072333952 0 0.0050163246458147384 0.0044360106181471305 0 0.0047517801607106155 0.004102395249693214 0 0.0044331688087919201 0.004403356118884494 0 0.0050163246458147384 0.0044360106181471305 0 0.0047517801607106155 0.004102395249693214 0 0.004259338301707721 0.0051682109363091634 0 0.0050163246458147384 0.0044360106181471305 0 0.0054586822995844296 0.004857814080832407 0 0.005769089809767639 0.0045069713887991485 0 0.0050163246458147384 0.0044360106181471305 0 0.0054586822995844296 0.004857814080832407 0 0.005769089809767639 0.0045069713887991485 0 0.0054586822995844296 0.004857814080832407 0 0.0058541415841024784 0.0048230713990117455 0 0.0054586822995844296 0.004857814080832407 0 0.00506488406742859 0.0056943094480324868 0 0.0058541415841024784 0.0048230713990117455 0 0.004259338301707721 0.0051682109363091634 0 0.0054586822995844296 0.004857814080832407 0 0.00506488406742859 0.0056943094480324868 0 0.0067777604893244758 0.0023891054691705183 0 0.0058541415841024784 0.0048230713990117455 0 0.0077665187181715787 0.0029998546472250207 0 0.005419041016163445 0.0019430815539270797 0 0.0067777604893244758 0.0023891054691705183 0 0.0058541415841024784 0.0048230713990117455 0 0.0056886129973677231 0.0032598232468691226 0 0.0057933989790862122 0.004717855510916474 0 0.0058541415841024784 0.0048230713990117455 0 0.0064897211680207297 0.0061649852802342702 0 0.0077665187181715787 0.0029998546472250207 0 0.0064897211680207297 0.0061649852802342702 0 0.007945465135326445 0.006385653556740126 0 0.0077665187181715787 0.0029998546472250207 0 0.0064897211680207297 0.0061649852802342702 0 0.007945465135326445 0.006385653556740126 0 0.0075430032718902572 0.0086213106124512981 0 0.0058541415841024784 0.0048230713990117455 0 0.0064897211680207297 0.0061649852802342702 0 0.0054928836981688288 0.0068697270589219983 0 0.0064897211680207297 0.0061649852802342702 0 0.0075430032718902572 0.0086213106124512981 0 0.0061592499016531344 0.0082200212380239175 0 0.007680561195903688 0.0042330344784162217 0 0.0072068704091216157 0.0053368882989019992 0 0.0075430032718902572 0.0086213106124512981 0 0.0066842596111242663 0.0094042341366848692 0 0.0070220135706386575 0.010072123093665461 0 0.0075430032718902572 0.0086213106124512981 0 0.0066842596111242663 0.0094042341366848692 0 0.0061592499016531344 0.0082200212380239175 0 0.0069011290210436432 0.0019163302095108589 0 0.0063496865623113704 0.0022488421599150643 0 0.0068542996051540774 0.0020739293028825766 0 0.0072068704091216157 0.0053368882989019992 0 0.0067166168475739857 0.0059695382524082626 0 0.0050878682423161408 0.0087688971178524807 0 0.0043671181653601723 0.010113476936059337 0 0.0053463947444507484 0.010315260768924415 0 0.0060485882905519789 0.0095054024562464829 0 0.0050878682423161408 0.0087688971178524807 0 0.0053463947444507484 0.010315260768924415 0 0.0060485882905519789 0.0095054024562464829 0 0.0061592499016531344 0.0082200212380239175 0 0.0050878682423161408 0.0087688971178524807 0 0.0066842596111242663 0.0094042341366848692 0 0.0060485882905519789 0.0095054024562464829 0 0.0061592499016531344 0.0082200212380239175 0 0.0061592499016531344 0.0082200212380239175 0 0.0050878682423161408 0.0087688971178524807 0 0.0054928836981688288 0.0068697270589219983 0 0.0050878682423161408 0.0087688971178524807 0 0.0054928836981688288 0.0068697270589219983 0 0.0044471967121268554 0.0075647370194013141 0 0.0064897211680207297 0.0061649852802342702 0 0.0061592499016531344 0.0082200212380239175 0 0.0054928836981688288 0.0068697270589219983 0 0.00506488406742859 0.0056943094480324868 0 0.0058541415841024784 0.0048230713990117455 0 0.0054928836981688288 0.0068697270589219983 0 0.00506488406742859 0.0056943094480324868 0 0.0054928836981688288 0.0068697270589219983 0 0.0044471967121268554 0.0075647370194013141 0 0.0040252502449098383 0.0065425350758526396 0 0.0034768530864841673 0.0074728071953881516 0 0.0044471967121268554 0.0075647370194013141 0 0.00506488406742859 0.0056943094480324868 0 0.0040252502449098383 0.0065425350758526396 0 0.0044471967121268554 0.0075647370194013141 0 0.0028005727680341149 0.0063571170560306834 0 0.0040252502449098383 0.0065425350758526396 0 0.0034768530864841673 0.0074728071953881516 0 0.0034768530864841673 0.0074728071953881516 0 0.0025446227110818768 0.0079269860821824956 0 0.0035562696199805911 0.0085541873549564041 0 0.0034768530864841673 0.0074728071953881516 0 0.0044471967121268554 0.0075647370194013141 0 0.0035562696199805911 0.0085541873549564041 0 0.0021118421105717953 0.0074823980171010388 0 0.0025446227110818768 0.0079269860821824956 0 0.0015263912389704376 0.0082837861294606536 0 0.0028362423146721539 0.0068065349275998515 0 0.0025329388659602937 0.0078097337878152038 0 0.0027821062241209144 0.0073842786685765945 0 0.0021118421105717953 0.0074823980171010388 0 0.0025446227110818768 0.0079269860821824956 0 0.0028005727680341149 0.0063571170560306834 0 0.0034768530864841673 0.0074728071953881516 0 0.0025446227110818768 0.0079269860821824956 0 0.0025446227110818768 0.0079269860821824956 0 0.0030118432237842322 0.0093116568225916126 0 0.0035562696199805911 0.0085541873549564041 0 0.0025446227110818768 0.0079269860821824956 0 0.0022980655829112516 0.0092795009939965981 0 0.0015263912389704376 0.0082837861294606536 0 0.0022980655829112516 0.0092795009939965981 0 0.0021628963722278528 0.010546229517595823 0 0.0013828021794205874 0.0096396451332399317 0 0.0022980655829112516 0.0092795009939965981 0 0.0030118432237842322 0.0093116568225916126 0 0.0030329440156181475 0.010227420490887066 0 0.0025446227110818768 0.0079269860821824956 0 0.0022980655829112516 0.0092795009939965981 0 0.0030118432237842322 0.0093116568225916126 0 0.0030118432237842322 0.0093116568225916126 0 0.0030329440156181475 0.010227420490887066 0 0.0036149124660093744 0.009610135127379113 0 0.0022980655829112516 0.0092795009939965981 0 0.0030329440156181475 0.010227420490887066 0 0.0021628963722278528 0.010546229517595823 0 0.0030329440156181475 0.010227420490887066 0 0.0021628963722278528 0.010546229517595823 0 0.0025016289147325016 0.012035129562844613 0 0.0044471967121268554 0.0075647370194013141 0 0.004238495737231081 0.0088977376253825281 0 0.0035562696199805911 0.0085541873549564041 0 0.0050878682423161408 0.0087688971178524807 0 0.0044471967121268554 0.0075647370194013141 0 0.004238495737231081 0.0088977376253825281 0 0.0030118432237842322 0.0093116568225916126 0 0.0035562696199805911 0.0085541873549564041 0 0.0036149124660093744 0.009610135127379113 0 0.004238495737231081 0.0088977376253825281 0 0.0035562696199805911 0.0085541873549564041 0 0.0036149124660093744 0.009610135127379113 0 0.0036149124660093744 0.009610135127379113 0 0.0043671181653601723 0.010113476936059337 0 0.0036362320283978892 0.010513908903506581 0 0.0030329440156181475 0.010227420490887066 0 0.0036149124660093744 0.009610135127379113 0 0.0036362320283978892 0.010513908903506581 0 0.0050878682423161408 0.0087688971178524807 0 0.004238495737231081 0.0088977376253825281 0 0.0043671181653601723 0.010113476936059337 0 0.004238495737231081 0.0088977376253825281 0 0.0036149124660093744 0.009610135127379113 0 0.0043671181653601723 0.010113476936059337 0 0.0043671181653601723 0.010113476936059337 0 0.0039367001987127455 0.011183148415632086 0 0.005045526662738286 0.011337527096867908 0 0.0039367001987127455 0.011183148415632086 0 0.0036362320283978892 0.010513908903506581 0 0.0032262184147841891 0.011355960303346471 0 0.0043671181653601723 0.010113476936059337 0 0.0039367001987127455 0.011183148415632086 0 0.0036362320283978892 0.010513908903506581 0 0.0032471955428556064 0.011418771957845804 0 0.0041211681675249528 0.01277857186745745 0 0.0039367001987127455 0.011183148415632086 0 0.0032262184147841891 0.011355960303346471 0 0.0038108840739992252 0.012115113844211021 0 0.0039367001987127455 0.011183148415632086 0 0.0038108840739992252 0.012115113844211021 0 0.005045526662738286 0.011337527096867908 0 0.0030121271999503127 0.010396800927010985 0 0.0022200469392992341 0.011869138320765485 0 0.0030329440156181475 0.010227420490887066 0 0.0019447540039484055 0.011718234032224382 0 0.0032262184147841891 0.011355960303346471 0 0.0030329440156181475 0.010227420490887066 0 0.0036362320283978892 0.010513908903506581 0 0.0032262184147841891 0.011355960303346471 0 0.0019447540039484055 0.011718234032224382 0 0.0032262184147841891 0.011355960303346471 0 0.0027597566982378884 0.013390875508531543 0 0.0032262184147841891 0.011355960303346471 0 0.0027597566982378884 0.013390875508531543 0 0.0044737734221064768 0.013486333240880216 0 0.0019447540039484055 0.011718234032224382 0 0.0027597566982378884 0.013390875508531543 0 0.001059214913291424 0.013530606894217867 0 0.0027597566982378884 0.013390875508531543 0 0.0021284287487765849 0.01478635699395116 0 0.001059214913291424 0.013530606894217867 0 0.0027597566982378884 0.013390875508531543 0 0.0021284287487765849 0.01478635699395116 0 0.0036848755413859233 0.014886054557587619 0 0.0021284287487765849 0.01478635699395116 0 0.0036848755413859233 0.014886054557587619 0 0.0025800163854013546 0.015807387093924073 0 0.0041211681675249528 0.01277857186745745 0 0.0050369727416183568 0.014277908762910673 0 0.0027597566982378884 0.013390875508531543 0 0.0044737734221064768 0.013486333240880216 0 0.0036848755413859233 0.014886054557587619 0 0.0044737734221064768 0.013486333240880216 0 0.0036848755413859233 0.014886054557587619 0 0.0052272964671624964 0.014812126330123411 0 0.0038108840739992252 0.012115113844211021 0 0.0047816667344938602 0.013715825418633608 0 0.0057125598701749441 0.012629350233194546 0 0.0038108840739992252 0.012115113844211021 0 0.0057125598701749441 0.012629350233194546 0 0.005045526662738286 0.011337527096867908 0 0.0057125598701749441 0.012629350233194546 0 0.0068326530317690069 0.013859983960327867 0 0.0071665096808547343 0.012273939666882869 0 0.0057125598701749441 0.012629350233194546 0 0.0071665096808547343 0.012273939666882869 0 0.0059678399743762116 0.011669306233709032 0 0.0047816667344938602 0.013715825418633608 0 0.0057125598701749441 0.012629350233194546 0 0.0068326530317690069 0.013859983960327867 0 0.0055435466191595126 0.0053335927813251104 0 0.0054365408453278061 0.005352020685673419 0 0.0055136065304012254 0.0056320298967312277 0 0.0055435466191595126 0.0053335927813251104 0 0.0054365408453278061 0.005352020685673419 0 0.0054868779850479081 0.0053126046355968905 0 0.0058829629191454701 0.0033599133433628854 0 0.0060797952482521947 0.0030799710388893947 0 0.005903618658666971 0.0028108865960013779 0 0.0054746113381455644 0.00364481434860691 0 0.0062648733385960147 0.0078402534373584014 0 0.0061548755566353825 0.0097678129471943046 0 0.0062648733385960147 0.0078402534373584014 0 0.0060356672971924649 0.0034160628005865984 0 0.0060797952482521947 0.0030799710388893947 0 0.0064390281043403743 0.0027689287889491837 0 0.0058829629191454701 0.0033599133433628854 0 0.0060356672971924649 0.0034160628005865984 0 0.0060797952482521947 0.0030799710388893947 0 0.0064390281043403743 0.0027689287889491837 0 0.005903618658666971 0.0028108865960013779 0 0.0065426148238001266 0.0024224983933103148 0 0.0060797952482521947 0.0030799710388893947 0 0.0064390281043403743 0.0027689287889491837 0 0.005903618658666971 0.0028108865960013779 0 0.0062648733385960147 0.0078402534373584014 0 0.0067338039366363692 0.011406482044584746 0 0.0066609080563001929 0.011037422489813173 0 0.0070220135706386575 0.010072123093665461 0 0.0064165361180336849 0.010311714624226411 0 0.0062648733385960147 0.0078402534373584014 0 0.0067166168475739857 0.0059695382524082626 0 0.005903618658666971 0.0028108865960013779 0 0.0065426148238001266 0.0024224983933103148 0 0.0063496865623113704 0.0022488421599150643 0 0.0065426148238001266 0.0024224983933103148 0 0.0063496865623113704 0.0022488421599150643 0 0.0068542996051540774 0.0020739293028825766 0 0.0066842596111242663 0.0094042341366848692 0 0.0070220135706386575 0.010072123093665461 0 0.0064165361180336849 0.010311714624226411 0 0.0066842596111242663 0.0094042341366848692 0 0.0060485882905519789 0.0095054024562464829 0 0.0064165361180336849 0.010311714624226411 0 0.0060485882905519789 0.0095054024562464829 0 0.0053463947444507484 0.010315260768924415 0 0.0066605259070333716 0.010982256320996872 0 0.0060164036663318595 0.0092949730504857577 0 0.0067338039366363692 0.011406482044584746 0 0.0043671181653601723 0.010113476936059337 0 0.0053463947444507484 0.010315260768924415 0 0.005045526662738286 0.011337527096867908 0 0.0057125598701749441 0.012629350233194546 0 0.005045526662738286 0.011337527096867908 0 0.0059678399743762116 0.011669306233709032 0 0.0053463947444507484 0.010315260768924415 0 0.005045526662738286 0.011337527096867908 0 0.0059678399743762116 0.011669306233709032 0 0.0053463947444507484 0.010315260768924415 0 0.0066605259070333716 0.010982256320996872 0 0.0059678399743762116 0.011669306233709032 0 0.0071665096808547343 0.012273939666882869 0 0.0066605259070333716 0.010982256320996872 0 0.0059678399743762116 0.011669306233709032 0 0.0032631740654046741 0.022973338883223862 0 0.0024462360882111112 0.022545985861225037 0 0.00587129222098671 0.027464123254815946 0 0.0050209634681485163 0.027287772268074145 0 0.0050040414149327269 0.02821384124276383 0 0.00587129222098671 0.027464123254815946 0 0.005586187790873819 0.026684345163630517 0 0.0061363009197270011 0.026691813085422334 0 0.005586187790873819 0.026684345163630517 0 0.0050209634681485163 0.027287772268074145 0 0.0050855716753968215 0.026634455136504146 0 0.00587129222098671 0.027464123254815946 0 0.005586187790873819 0.026684345163630517 0 0.0050209634681485163 0.027287772268074145 0 0.0047894914665671546 0.026455849777817141 0 0.0050855716753968215 0.026634455136504146 0 0.0051467295723151641 0.026126806325698908 0 0.005586187790873819 0.026684345163630517 0 0.0050855716753968215 0.026634455136504146 0 0.0051467295723151641 0.026126806325698908 0 0.0047894914665671546 0.026455849777817141 0 0.0051467295723151641 0.026126806325698908 0 0.005063038598572895 0.025617535673132397 0 0.0051467295723151641 0.026126806325698908 0 0.0052563898367353765 0.025631560702231059 0 0.0059492642517643655 0.026091176663724128 0 0.002723271510012882 0.021031096713917338 0 0.003119568042987336 0.02226423026790544 0 0.0020135680455310649 0.02126961645145042 0 0.0033707526307766079 0.022122356996955316 0 0.0036612769367303888 0.021374322437370627 0 0.0051467295723151641 0.026126806325698908 0 0.0052563898367353765 0.025631560702231059 0 0.005063038598572895 0.025617535673132397 0 0.002723271510012882 0.021031096713917338 0 0.0019751384766964479 0.018976297140053517 0 0.0019751384766964479 0.018976297140053517 0 0.003119568042987336 0.02226423026790544 0 0.002581078793325987 0.020562071097679106 0 0.002822185936448212 0.02057588046308835 0 0.0028909261320593503 0.020763268522171578 0 0.002723271510012882 0.021031096713917338 0 0.0051151071022506201 0.024128854487549936 0 -0.00026674871015495765 0.01670515706600266 0 -0.00040472474459896958 0.016866523514524473 0 -0.00020137516433568889 0.016871387587702853 0 0.002723271510012882 0.021031096713917338 0 0.0011196064626601682 0.018767790909352679 0 0.002822185936448212 0.02057588046308835 0 0.0028909261320593503 0.020763268522171578 0 0.0030675545418727885 0.020582677037205264 0 0.005586187790873819 0.026684345163630517 0 0.0059492642517643655 0.026091176663724128 0 0.0061363009197270011 0.026691813085422334 0 0.005586187790873819 0.026684345163630517 0 0.0051467295723151641 0.026126806325698908 0 0.0059492642517643655 0.026091176663724128 0 0.00078214058648345627 0.01692471811634557 0 0.00081034298044897226 0.0169985192092568 0 0.00076354380535341947 0.016957232042578693 0 0.0051151071022506201 0.024128854487549936 0 0.0034886705994918317 0.020793188182356658 0 0.0034886705994918317 0.020793188182356658 0 0.0011258774243238789 0.017722205973821788 0 0.0028909261320593503 0.020763268522171578 0 0.0032066699008863543 0.020962685067813312 0 0.0030675545418727885 0.020582677037205264 0 0.0059492642517643655 0.026091176663724128 0 0.0065703556081852634 0.026476194047301435 0 0.0061363009197270011 0.026691813085422334 0 0.0011196064626601682 0.018767790909352679 0 0.0011258774243238789 0.017722205973821788 0 -5.5173567231715796e-05 0.016713686709507548 0 -0.00020137516433568889 0.016871387587702853 0 1.6339332019061808e-05 0.016887504741596379 0 0.0011258774243238789 0.017722205973821788 0 0.00038948845025379444 0.01688026630796971 0 0.00081034298044897226 0.0169985192092568 0 0.00072644149984634637 0.016963974971586721 0 0.00076354380535341947 0.016957232042578693 0 0.00011750721022454288 0.016732126061454879 0 6.3011642950979463e-06 0.016890340045526472 0 0.00034044343691645913 0.016904586427256972 0 0.00072644149984634637 0.016963974971586721 0 0.00076354380535341947 0.016957232042578693 0 0.00073996695397371859 0.016939423977890299 0 0.00078214058648345627 0.01692471811634557 0 0.00076354380535341947 0.016957232042578693 0 0.00073996695397371859 0.016939423977890299 0 0.00078214058648345627 0.01692471811634557 0 0.00073996695397371859 0.016939423977890299 0 0.00074174017090185447 0.016895283383891593 0 0.0034886705994918317 0.020793188182356658 0 -0.0010223961797039402 0.013573288574956748 0 -0.0025564958526350452 0.0096155710413312837 0 -0.002919952314162544 0.0098685506364291128 0 -0.0024332323824930156 0.011338448896292624 0 4.7237322543404857e-06 0.017104479422169704 0 -0.00029349549588735842 0.017048134010448669 0 -0.00016123593930993777 0.016890715105701649 0 4.7237322543404857e-06 0.017104479422169704 0 -0.00021299313178749023 0.017248738977136517 0 -0.00029349549588735842 0.017048134010448669 0 0.0027332101399624407 0.019141089993903102 0 -0.00026329437446909968 0.017242987728060322 0 0.0016214072336833819 0.016027697246394329 0 0.0034886705994918317 0.020793188182356658 0 0.0006949584995131475 0.017381452152784815 0 -0.0010223961797039402 0.013573288574956748 0 0.0006949584995131475 0.017381452152784815 0 0.0065703556081852634 0.026476194047301435 0 0.0066753287021297687 0.026757735278993219 0 0.0061363009197270011 0.026691813085422334 0 0.00587129222098671 0.027464123254815946 0 0.0066753287021297687 0.026757735278993219 0 0.0061363009197270011 0.026691813085422334 0 0.0032631740654046741 0.022973338883223862 0 0.0006949584995131475 0.017381452152784815 0 0.0006949584995131475 0.017381452152784815 0 -0.0017470692075608478 0.013358923688722466 0 -0.0024332323824930156 0.011338448896292624 0 -0.00075952523179357461 0.010577422948606478 0 -0.0006808605062269727 0.011949400389953336 0 -0.00075952523179357461 0.010577422948606478 0 0.00044511601471168718 0.010363183699690529 0 -0.0006808605062269727 0.011949400389953336 0 -0.00075952523179357461 0.010577422948606478 0 -0.0010779919625244104 0.008574187423453861 0 0.00027576827128587101 0.0091219444365814428 0 -0.00075952523179357461 0.010577422948606478 0 0.00027576827128587101 0.0091219444365814428 0 0.00044511601471168718 0.010363183699690529 0 -0.0010223961797039402 0.013573288574956748 0 -0.0016931355232562781 0.0091145920156200377 0 -0.0025564958526350452 0.0096155710413312837 0 -0.0024332323824930156 0.011338448896292624 0 -0.00075952523179357461 0.010577422948606478 0 -0.0024672077723969787 0.0095165953293132443 0 -0.00075952523179357461 0.010577422948606478 0 -0.0010779919625244104 0.008574187423453861 0 0.00073996695397371859 0.016939423977890299 0 0.00074174017090185447 0.016895283383891593 0 0.00070050140103489265 0.016942499836470181 0 -0.0010223961797039402 0.013573288574956748 0 -0.00013084901630817 0.012700052305305038 0 0.00072644149984634637 0.016963974971586721 0 0.00070050140103489265 0.016942499836470181 0 0.00073113962885934969 0.016889039699803429 0 0.00056304430069576794 0.016665178122273288 0 0.00034044343691645913 0.016904586427256972 0 0.00073113962885934969 0.016889039699803429 0 0.00038948845025379444 0.01688026630796971 0 0.00077222836621968546 0.01691161430248558 0 0.00072644149984634637 0.016963974971586721 0 0.00073996695397371859 0.016939423977890299 0 0.00070050140103489265 0.016942499836470181 0 -0.00013084901630817 0.012700052305305038 0 0.00059873573786377819 0.012336733333628669 0 0.00070050140103489265 0.016942499836470181 0 0.00073113962885934969 0.016889039699803429 0 0.00096927601917692332 0.016862771538179756 0 0.00082650893021469422 0.016719174546566996 0 0.00073113962885934969 0.016889039699803429 0 0.00096927601917692332 0.016862771538179756 0 -0.0010779919625244104 0.008574187423453861 0 0.00027576827128587101 0.0091219444365814428 0 0.00025155202285180903 0.0077570441771248272 0 0.00027576827128587101 0.0091219444365814428 0 0.00025155202285180903 0.0077570441771248272 0 0.0015263912389704376 0.0082837861294606536 0 0.0013653404037356996 0.0071159179718352046 0 0.00025155202285180903 0.0077570441771248272 0 0.0015263912389704376 0.0082837861294606536 0 0.0013653404037356996 0.0071159179718352046 0 0.0021118421105717953 0.0074823980171010388 0 0.0015263912389704376 0.0082837861294606536 0 0.00027576827128587101 0.0091219444365814428 0 0.0015263912389704376 0.0082837861294606536 0 0.0013828021794205874 0.0096396451332399317 0 0.0022980655829112516 0.0092795009939965981 0 0.0015263912389704376 0.0082837861294606536 0 0.0013828021794205874 0.0096396451332399317 0 0.00027576827128587101 0.0091219444365814428 0 0.0013828021794205874 0.0096396451332399317 0 0.00044511601471168718 0.010363183699690529 0 0.00044511601471168718 0.010363183699690529 0 0.00099044976455944225 0.011683759795775817 0 -0.0006808605062269727 0.011949400389953336 0 0.0013828021794205874 0.0096396451332399317 0 0.00044511601471168718 0.010363183699690529 0 0.00099044976455944225 0.011683759795775817 0 0.0021628963722278528 0.010546229517595823 0 0.0013828021794205874 0.0096396451332399317 0 0.00099044976455944225 0.011683759795775817 0 0.0025016289147325016 0.012035129562844613 0 0.00099044976455944225 0.011683759795775817 0 0.001605119138453806 0.013862008486363214 0 0.0021628963722278528 0.010546229517595823 0 0.0025016289147325016 0.012035129562844613 0 0.00099044976455944225 0.011683759795775817 0 0.00099044976455944225 0.011683759795775817 0 0.001605119138453806 0.013862008486363214 0 0.00013138242252058605 0.013737194579154991 0 0.0022200469392992341 0.011869138320765485 0 0.0013390589909978094 0.013707174326284481 0 0.0021284287487765849 0.01478635699395116 0 0.001059214913291424 0.013530606894217867 0 0.0012695133099486888 0.0149411101037005 0 0.0021284287487765849 0.01478635699395116 0 0.0012695133099486888 0.0149411101037005 0 0.0014158469688443556 0.015841502528173686 0 0.0012695133099486888 0.0149411101037005 0 0.00056245600761835367 0.015373698979938866 0 0.0014158469688443556 0.015841502528173686 0 0.001059214913291424 0.013530606894217867 0 0.0012695133099486888 0.0149411101037005 0 0.00056245600761835367 0.015373698979938866 0 0.001605119138453806 0.013862008486363214 0 0.00056245600761835367 0.015373698979938866 0 0.00013138242252058605 0.013737194579154991 0 0.0013390589909978094 0.013707174326284481 0 0.00057577793311823402 0.015197672225365087 0 0.00056245600761835367 0.015373698979938866 0 -0.00058730258800619673 0.015589047487754974 0 0.00013138242252058605 0.013737194579154991 0 0.00056245600761835367 0.015373698979938866 0 1.2058402121262165e-05 0.016228625050133696 0 -0.00058730258800619673 0.015589047487754974 0 1.2058402121262165e-05 0.016228625050133696 0 -0.00058730258800619673 0.015589047487754974 0 -0.00018406610822263749 0.016507149810491593 0 -0.00058730258800619673 0.015589047487754974 0 -0.00046128737845618463 0.016733038554915047 0 -0.0001719704884223046 0.01643117644364931 0 -0.00058730258800619673 0.015589047487754974 0 -0.0018343582734271419 0.013176784591897226 0 0.00013138242252058605 0.013737194579154991 0 -0.00070861395353089213 0.015480658234473582 0 -0.0010270788734132623 0.015133634236824824 0 0.00099044976455944225 0.011683759795775817 0 0.00013138242252058605 0.013737194579154991 0 -0.0006808605062269727 0.011949400389953336 0 -0.0018343582734271419 0.013176784591897226 0 0.00013138242252058605 0.013737194579154991 0 -0.0006808605062269727 0.011949400389953336 0 -0.0024332323824930156 0.011338448896292624 0 -0.0018343582734271419 0.013176784591897226 0 -0.0006808605062269727 0.011949400389953336 0 4.7237322543404857e-06 0.017104479422169704 0 -0.00016123593930993777 0.016890715105701649 0 -3.8007883207022841e-05 0.01687600205429669 0 -0.0017470692075608478 0.013358923688722466 0 -0.0010270788734132623 0.015133634236824824 0 -0.00029349549588735842 0.017048134010448669 0 -0.00046128737845618463 0.016733038554915047 0 -0.00016123593930993777 0.016890715105701649 0 -0.00016123593930993777 0.016890715105701649 0 -3.8007883207022841e-05 0.01687600205429669 0 -0.0001719704884223046 0.01643117644364931 0 -0.00046128737845618463 0.016733038554915047 0 -0.00016123593930993777 0.016890715105701649 0 -0.0001719704884223046 0.01643117644364931 0 -0.00058730258800619673 0.015589047487754974 0 -0.0001719704884223046 0.01643117644364931 0 -0.00018406610822263749 0.016507149810491593 0 -0.0001719704884223046 0.01643117644364931 0 -0.00018406610822263749 0.016507149810491593 0 -8.6422464009445959e-05 0.016793629071893156 0 -0.00018406610822263749 0.016507149810491593 0 -8.0255017309001397e-05 0.017078887098468099 0 -0.00010261475802806293 0.017049411951774108 0 -0.00018406610822263749 0.016507149810491593 0 -8.6422464009445959e-05 0.016793629071893156 0 -8.0255017309001397e-05 0.017078887098468099 0 -3.8007883207022841e-05 0.01687600205429669 0 -0.0001719704884223046 0.01643117644364931 0 -8.6422464009445959e-05 0.016793629071893156 0 -8.6422464009445959e-05 0.016793629071893156 0 -8.0255017309001397e-05 0.017078887098468099 0 -3.4676403022665396e-05 0.017137390105896825 0 -3.8007883207022841e-05 0.01687600205429669 0 -8.6422464009445959e-05 0.016793629071893156 0 -3.4676403022665396e-05 0.017137390105896825 0 -8.0255017309001397e-05 0.017078887098468099 0 -3.4676403022665396e-05 0.017137390105896825 0 -7.2578343361383145e-05 0.017433047554806586 0 -0.00011023439850847987 0.017604859612546056 0 -3.4676403022665396e-05 0.017137390105896825 0 -7.2578343361383145e-05 0.017433047554806586 0 -8.4961797503250221e-05 0.017260919853350647 0 -7.0252203521593441e-06 0.017036083303972813 0 -1.8409317781021613e-05 0.017067032340137629 0 4.7237322543404857e-06 0.017104479422169704 0 -3.8007883207022841e-05 0.01687600205429669 0 -7.0252203521593441e-06 0.017036083303972813 0 -8.4961797503250221e-05 0.017260919853350647 0 -3.4676403022665396e-05 0.017137390105896825 0 -7.0252203521593441e-06 0.017036083303972813 0 -3.8007883207022841e-05 0.01687600205429669 0 -3.4676403022665396e-05 0.017137390105896825 0 -7.0252203521593441e-06 0.017036083303972813 0 4.7237322543404857e-06 0.017104479422169704 0 -7.0252203521593441e-06 0.017036083303972813 0 -1.8409317781021613e-05 0.017067032340137629 0 -4.6615039646896531e-05 0.018496628288204756 0 -5.4135853987645257e-05 0.018187653091118541 0 -4.1615125380456181e-05 0.018601570668112931 0 -3.8664124803766505e-05 0.018308292143241603 0 -5.4135853987645257e-05 0.018187653091118541 0 -4.1615125380456181e-05 0.018601570668112931 0 -3.8664124803766505e-05 0.018308292143241603 0 -2.6029207504656369e-05 0.01796818425409203 0 -3.168748163203585e-06 0.018306047878809854 0 -3.8664124803766505e-05 0.018308292143241603 0 -4.289965740516533e-05 0.018488739318488163 0 -4.1615125380456181e-05 0.018601570668112931 0 -3.8664124803766505e-05 0.018308292143241603 0 -5.4135853987645257e-05 0.018187653091118541 0 -2.6029207504656369e-05 0.01796818425409203 0 -3.8664124803766505e-05 0.018308292143241603 0 -3.168748163203585e-06 0.018306047878809854 0 -4.289965740516533e-05 0.018488739318488163 0 -5.4135853987645257e-05 0.018187653091118541 0 -7.1191595537477192e-05 0.017678320775959797 0 -2.6029207504656369e-05 0.01796818425409203 0 -4.6615039646896531e-05 0.018496628288204756 0 -5.4135853987645257e-05 0.018187653091118541 0 -7.0652730025064055e-05 0.018011715049455087 0 -7.0652730025064055e-05 0.018011715049455087 0 -8.5382143467991071e-05 0.017778101922996267 0 -7.1191595537477192e-05 0.017678320775959797 0 -8.4503348893747078e-05 0.018184990672497219 0 -7.0652730025064055e-05 0.018011715049455087 0 -8.5382143467991071e-05 0.017778101922996267 0 -5.4135853987645257e-05 0.018187653091118541 0 -7.0652730025064055e-05 0.018011715049455087 0 -7.1191595537477192e-05 0.017678320775959797 0 -0.00011023439850847987 0.017604859612546056 0 -7.2578343361383145e-05 0.017433047554806586 0 -8.5382143467991071e-05 0.017778101922996267 0 -7.2578343361383145e-05 0.017433047554806586 0 -8.5382143467991071e-05 0.017778101922996267 0 -7.1191595537477192e-05 0.017678320775959797 0 -8.0255017309001397e-05 0.017078887098468099 0 -7.2578343361383145e-05 0.017433047554806586 0 -7.1191595537477192e-05 0.017678320775959797 0 -8.0255017309001397e-05 0.017078887098468099 0 -7.1191595537477192e-05 0.017678320775959797 0 -0.00010261475802806293 0.017049411951774108 0 -7.1191595537477192e-05 0.017678320775959797 0 -3.5923439247980255e-05 0.017430075300552933 0 -2.6029207504656369e-05 0.01796818425409203 0 -7.1191595537477192e-05 0.017678320775959797 0 -3.5923439247980255e-05 0.017430075300552933 0 -0.00010261475802806293 0.017049411951774108 0 -0.00018406610822263749 0.016507149810491593 0 -0.00010261475802806293 0.017049411951774108 0 2.998496455075079e-05 0.016926399507951669 0 -3.5923439247980255e-05 0.017430075300552933 0 0.00010384949637832117 0.017615346861231267 0 2.998496455075079e-05 0.016926399507951669 0 -3.5923439247980255e-05 0.017430075300552933 0 -0.00010261475802806293 0.017049411951774108 0 2.998496455075079e-05 0.016926399507951669 0 0.00010384949637832117 0.017615346861231267 0 -2.6029207504656369e-05 0.01796818425409203 0 8.0381558124306118e-05 0.018090760586594222 0 -3.5923439247980255e-05 0.017430075300552933 0 0.00010384949637832117 0.017615346861231267 0 -2.6029207504656369e-05 0.01796818425409203 0 -2.6029207504656369e-05 0.01796818425409203 0 -3.168748163203585e-06 0.018306047878809854 0 8.0381558124306118e-05 0.018090760586594222 0 0.00010384949637832117 0.017615346861231267 0 8.0381558124306118e-05 0.018090760586594222 0 0.00037103466631287018 0.018027162467227815 0 8.0381558124306118e-05 0.018090760586594222 0 0.00037103466631287018 0.018027162467227815 0 0.00021381825685343504 0.018246851934303702 0 0.00037103466631287018 0.018027162467227815 0 0.00089929792338338599 0.017451468007744841 0 0.00088927458030438604 0.018107716919796665 0 0.00037103466631287018 0.018027162467227815 0 0.00037752226795519312 0.017343077163731263 0 0.00089929792338338599 0.017451468007744841 0 0.00037752226795519312 0.017343077163731263 0 0.00061480424252497031 0.01662362207778003 0 0.00089929792338338599 0.017451468007744841 0 0.00010384949637832117 0.017615346861231267 0 0.00037103466631287018 0.018027162467227815 0 0.00037752226795519312 0.017343077163731263 0 0.00037752226795519312 0.017343077163731263 0 2.998496455075079e-05 0.016926399507951669 0 0.00061480424252497031 0.01662362207778003 0 0.00010384949637832117 0.017615346861231267 0 0.00037752226795519312 0.017343077163731263 0 2.998496455075079e-05 0.016926399507951669 0 1.2058402121262165e-05 0.016228625050133696 0 -0.00018406610822263749 0.016507149810491593 0 2.998496455075079e-05 0.016926399507951669 0 1.2058402121262165e-05 0.016228625050133696 0 2.998496455075079e-05 0.016926399507951669 0 0.00061480424252497031 0.01662362207778003 0 0.00056245600761835367 0.015373698979938866 0 1.2058402121262165e-05 0.016228625050133696 0 0.00061480424252497031 0.01662362207778003 0 0.00061480424252497031 0.01662362207778003 0 0.0012815701693241976 0.016757866743840541 0 0.0014158469688443556 0.015841502528173686 0 0.00061480424252497031 0.01662362207778003 0 0.0012815701693241976 0.016757866743840541 0 0.00089929792338338599 0.017451468007744841 0 0.00056245600761835367 0.015373698979938866 0 0.00061480424252497031 0.01662362207778003 0 0.0014158469688443556 0.015841502528173686 0 0.0012815701693241976 0.016757866743840541 0 0.0014158469688443556 0.015841502528173686 0 0.0019073936468024652 0.016494704632479082 0 0.0012815701693241976 0.016757866743840541 0 0.0019073936468024652 0.016494704632479082 0 0.0016886692735028307 0.017249349619251782 0 0.0012815701693241976 0.016757866743840541 0 0.0016886692735028307 0.017249349619251782 0 0.00089929792338338599 0.017451468007744841 0 0.0016886692735028307 0.017249349619251782 0 0.00089929792338338599 0.017451468007744841 0 0.0014953334945774451 0.017925029265985191 0 0.00089929792338338599 0.017451468007744841 0 0.0014953334945774451 0.017925029265985191 0 0.00088927458030438604 0.018107716919796665 0 0.0014953334945774451 0.017925029265985191 0 0.0022329877424390309 0.017743986871000293 0 0.0021867441390636183 0.01846761990902088 0 0.0016886692735028307 0.017249349619251782 0 0.0014953334945774451 0.017925029265985191 0 0.0022329877424390309 0.017743986871000293 0 0.0007540660176840238 0.014219710246206541 0 0.0010227888153907137 0.014319827983795226 0 0.00011442139251420149 0.010020625015219458 0 -3.8905120102329404e-06 0.0099830733384334604 0 -0.00010039815566981582 0.010090599435287319 0 0.0014953334945774451 0.017925029265985191 0 0.0013089308303440206 0.018528521945864389 0 0.0021867441390636183 0.01846761990902088 0 0.0014953334945774451 0.017925029265985191 0 0.0013089308303440206 0.018528521945864389 0 0.00088927458030438604 0.018107716919796665 0 0.0013089308303440206 0.018528521945864389 0 0.00063601783353078075 0.018569909279867028 0 0.00088927458030438604 0.018107716919796665 0 0.00011442139251420149 0.010020625015219458 0 0.00019492091475321232 0.0098595699970626671 0 0.00041736059789514851 0.0099969739746658924 0 0.0007540660176840238 0.014219710246206541 0 0.00045344044238148002 0.014833994494967391 0 0.00011442139251420149 0.010020625015219458 0 0.00019492091475321232 0.0098595699970626671 0 7.49751729502026e-05 0.0098100053688513628 0 7.49751729502026e-05 0.0098100053688513628 0 -3.8905120102329404e-06 0.0099830733384334604 0 -0.00012790911325761924 0.010021788825463196 0 0.00013018082025846928 0.009818369443769924 0 -0.00040309671105548931 0.010000946245550785 0 0.00011442139251420149 0.010020625015219458 0 7.49751729502026e-05 0.0098100053688513628 0 -3.8905120102329404e-06 0.0099830733384334604 0 5.3600001515561814e-05 0.0096432139481890632 0 -0.0001183135338380264 0.0095337949523386523 0 -0.00021659198685459113 0.0097641366465822822 0 7.49751729502026e-05 0.0098100053688513628 0 5.3600001515561814e-05 0.0096432139481890632 0 -0.00021659198685459113 0.0097641366465822822 0 5.3600001515561814e-05 0.0096432139481890632 0 0.00011599049456095112 0.0095180205405791148 0 0.00017558722917295432 0.0096301009251610111 0 5.3600001515561814e-05 0.0096432139481890632 0 0.00011599049456095112 0.0095180205405791148 0 -0.0001183135338380264 0.0095337949523386523 0 5.4270302835280339e-07 0.0099570906515547928 0 -5.5613855941826462e-07 0.0084393720994284122 0 -9.9390828682025065e-06 0.0087408281867069493 0 -4.5780216638490687e-05 0.0092540090242935278 0 0.00011599049456095112 0.0095180205405791148 0 -0.0001183135338380264 0.0095337949523386523 0 0.00011599049456095112 0.0095180205405791148 0 5.4270302835280339e-07 0.0099570906515547928 0 -9.9390828682025065e-06 0.0087408281867069493 0 -4.5780216638490687e-05 0.0092540090242935278 0 0.00011599049456095112 0.0095180205405791148 0 -9.9390828682025065e-06 0.0087408281867069493 0 -1.773679191656422e-06 0.0099620676643074526 0 -0.00029828449826030086 0.012386163072777373 0 6.8547636682768308e-07 0.011574335850151629 0 0.00011599049456095112 0.0095180205405791148 0 5.4270302835280339e-07 0.0099570906515547928 0 0.00017558722917295432 0.0096301009251610111 0 4.0569414339916149e-07 0.0099604946525312533 0 -0.00016440322857569866 0.010439504963893616 0 0.00019492091475321232 0.0098595699970626671 0 7.49751729502026e-05 0.0098100053688513628 0 0.00017558722917295432 0.0096301009251610111 0 7.49751729502026e-05 0.0098100053688513628 0 5.3600001515561814e-05 0.0096432139481890632 0 0.00017558722917295432 0.0096301009251610111 0 -0.00029828449826030086 0.012386163072777373 0 0.00020423891785139293 0.01292863914744001 0 -4.152769328016024e-05 0.013229105154599914 0 -0.00029828449826030086 0.012386163072777373 0 6.8547636682768308e-07 0.011574335850151629 0 0.00020423891785139293 0.01292863914744001 0 6.8547636682768308e-07 0.011574335850151629 0 0.00020423891785139293 0.01292863914744001 0 3.1096137921265196e-07 0.013189854722455596 0 0.0005591379777700093 0.018349978716398742 0 0.00021381825685343504 0.018246851934303702 0 0.00019274355941673596 0.018475039394185197 0 0.00020423891785139293 0.01292863914744001 0 -4.152769328016024e-05 0.013229105154599914 0 0.00031044609756452799 0.013353328809940028 0 0.00045344044238148002 0.014833994494967391 0 0.00019366777015828967 0.015912140424932542 0 0.00019492091475321232 0.0098595699970626671 0 0.00017558722917295432 0.0096301009251610111 0 0.00041736059789514851 0.0099969739746658924 0 -0.00016440322857569866 0.010439504963893616 0 0.00045344044238148002 0.014833994494967391 0 0.00073764905735064891 0.019395155819873857 0 0.00045344044238148002 0.014833994494967391 0 0.00037103466631287018 0.018027162467227815 0 0.00063601783353078075 0.018569909279867028 0 0.00088927458030438604 0.018107716919796665 0 0.00037103466631287018 0.018027162467227815 0 0.0005591379777700093 0.018349978716398742 0 0.00021381825685343504 0.018246851934303702 0 0.00021381825685343504 0.018246851934303702 0 7.4829976382888614e-05 0.018417947719107187 0 0.00019274355941673596 0.018475039394185197 0 8.0381558124306118e-05 0.018090760586594222 0 0.00021381825685343504 0.018246851934303702 0 7.4829976382888614e-05 0.018417947719107187 0 -3.168748163203585e-06 0.018306047878809854 0 8.0381558124306118e-05 0.018090760586594222 0 7.4829976382888614e-05 0.018417947719107187 0 -3.168748163203585e-06 0.018306047878809854 0 7.4829976382888614e-05 0.018417947719107187 0 -1.8557545105244484e-05 0.01851352133014417 0 7.4829976382888614e-05 0.018417947719107187 0 0.00019274355941673596 0.018475039394185197 0 -1.5130960505052091e-05 0.018606252301340546 0 0.00019274355941673596 0.018475039394185197 0 -2.9768183254507946e-05 0.018650794501433011 0 -1.5130960505052091e-05 0.018606252301340546 0 0.00019366777015828967 0.015912140424932542 0 3.1641518320047454e-06 0.017266286908520966 0 7.4829976382888614e-05 0.018417947719107187 0 -1.5130960505052091e-05 0.018606252301340546 0 -1.8557545105244484e-05 0.01851352133014417 0 0.00020423891785139293 0.01292863914744001 0 0.00031044609756452799 0.013353328809940028 0 0.00016310713453799404 0.013898365858338457 0 0.00020423891785139293 0.01292863914744001 0 3.1096137921265196e-07 0.013189854722455596 0 0.00016310713453799404 0.013898365858338457 0 3.1096137921265196e-07 0.013189854722455596 0 8.3106842243386953e-07 0.01480518110816172 0 0.00016310713453799404 0.013898365858338457 0 8.3106842243386953e-07 0.01480518110816172 0 0.00016310713453799404 0.013898365858338457 0 -0.00027149775378836874 0.014579146863930784 0 0.00031044609756452799 0.013353328809940028 0 0.00016310713453799404 0.013898365858338457 0 -0.0001605235873956741 0.013766442834324573 0 -0.00040302941046191213 0.016185389154746311 0 3.1641518320047454e-06 0.017266286908520966 0 0.00016310713453799404 0.013898365858338457 0 -0.00027149775378836874 0.014579146863930784 0 -0.0001605235873956741 0.013766442834324573 0 -0.00076957042566358329 0.018035852092756148 0 -0.00019093759552724752 0.018762657746630426 0 -0.0010726884854685556 0.018911667565709687 0 8.3106842243386953e-07 0.01480518110816172 0 -0.00027149775378836874 0.014579146863930784 0 -1.8884704423429153e-06 0.01641764385599008 0 -0.00040302941046191213 0.016185389154746311 0 -2.7526011029509926e-07 0.016420348355819302 0 1.1372960892352539e-06 0.018327709271993269 0 -1.9911487387311811e-06 0.016423509785299176 0 7.065810654373877e-05 0.018219571636551635 0 -0.00076957042566358329 0.018035852092756148 0 -1.9911487387311811e-06 0.016423509785299176 0 7.065810654373877e-05 0.018219571636551635 0 -0.00076957042566358329 0.018035852092756148 0 7.065810654373877e-05 0.018219571636551635 0 -0.00019093759552724752 0.018762657746630426 0 2.3621386126692878e-05 0.018867704525911386 0 7.065810654373877e-05 0.018219571636551635 0 -0.00019093759552724752 0.018762657746630426 0 2.3621386126692878e-05 0.018867704525911386 0 -0.00019093759552724752 0.018762657746630426 0 -5.3359416672776464e-05 0.018827582667108139 0 -5.3359416672776464e-05 0.018827582667108139 0 -9.7425287721464394e-05 0.018673171172865724 0 -5.8693662978374445e-05 0.018624373791143251 0 -0.00019093759552724752 0.018762657746630426 0 -5.3359416672776464e-05 0.018827582667108139 0 -9.7425287721464394e-05 0.018673171172865724 0 -0.00050487883638948062 0.018766465174998918 0 3.1641518320047454e-06 0.017266286908520966 0 -0.00019093759552724752 0.018762657746630426 0 -9.7425287721464394e-05 0.018673171172865724 0 -2.9850632227486893e-05 0.018689596399372121 0 -9.7425287721464394e-05 0.018673171172865724 0 -2.9850632227486893e-05 0.018689596399372121 0 -1.5130960505052091e-05 0.018606252301340546 0 3.1641518320047454e-06 0.017266286908520966 0 -0.00018824316811962157 0.018101313395968131 0 -1.5130960505052091e-05 0.018606252301340546 0 -5.1947450460388048e-05 0.018599320475610154 0 -1.8557545105244484e-05 0.01851352133014417 0 -9.7425287721464394e-05 0.018673171172865724 0 -1.5130960505052091e-05 0.018606252301340546 0 -5.1947450460388048e-05 0.018599320475610154 0 -9.7425287721464394e-05 0.018673171172865724 0 -5.1947450460388048e-05 0.018599320475610154 0 -5.8693662978374445e-05 0.018624373791143251 0 -5.8693662978374445e-05 0.018624373791143251 0 -1.8557545105244484e-05 0.01851352133014417 0 -4.289965740516533e-05 0.018488739318488163 0 -5.1947450460388048e-05 0.018599320475610154 0 -5.8693662978374445e-05 0.018624373791143251 0 -1.8557545105244484e-05 0.01851352133014417 0 -3.168748163203585e-06 0.018306047878809854 0 -1.8557545105244484e-05 0.01851352133014417 0 -4.289965740516533e-05 0.018488739318488163 0 -5.8693662978374445e-05 0.018624373791143251 0 -4.289965740516533e-05 0.018488739318488163 0 -4.1615125380456181e-05 0.018601570668112931 0 -6.2357173346435734e-07 0.018892134688684288 0 -5.3359416672776464e-05 0.018827582667108139 0 -4.1615125380456181e-05 0.018601570668112931 0 -5.3359416672776464e-05 0.018827582667108139 0 -5.8693662978374445e-05 0.018624373791143251 0 -4.1615125380456181e-05 0.018601570668112931 0 0.004935646530966219 0.0094738025314428532 0 0.0058890436423983152 0.010831865079168319 0 0.004935646530966219 0.0094738025314428532 0 0.0059572914921697155 0.0038816676474461112 0 0.0060245820485971581 0.016928489349611539 0 0.0050294614116505928 0.016398018006641233 0 0.0047855435862063393 0.017719707555887618 0 0.0060245820485971581 0.016928489349611539 0 0.0057778434246412705 0.016079376585448692 0 0.0050294614116505928 0.016398018006641233 0 0.0039560289082756286 0.010677314241068757 0 0.0028307252357561265 0.010433065796418553 0 0.0026851093707505116 0.010936763284181963 0 0.0042537562603298948 0.0096698275841925335 0 0.0039560289082756286 0.010677314241068757 0 0.0028307252357561265 0.010433065796418553 0 0.004935646530966219 0.0094738025314428532 0 0.0037123642295024874 0.014901326890870967 0 0.0026197150224090142 0.0061695853990377135 0 0.0018829324814933794 0.00909256725764831 0 0.004935646530966219 0.0094738025314428532 0 0.0026197150224090142 0.0061695853990377135 0 0.0026197150224090142 0.0061695853990377135 0 0.0029844315942064445 0.0030984135392430555 0 0.0054665282222147969 0.0050451836533545354 0 0.0054130978641179555 0.0051166589938682764 0 0.0055062839749643279 0.0050719759446229704 0 0.0029844315942064445 0.0030984135392430555 0 0.0034199943200976068 0.0033391356815901242 0 0.0055062839749643279 0.0050719759446229704 0 0.0056028663903884886 0.0050214812636485079 0 0.0055434909924608504 0.0050183504309663481 0 0.0054665282222147969 0.0050451836533545354 0 0.0055062839749643279 0.0050719759446229704 0 0.0055434909924608504 0.0050183504309663481 0 0.00036564584566490101 0.0015320873468517508 0 0.00097480765099665378 0.0013751600123489982 0 0.00096883529960408441 0.0018296049705244244 0 0.0056028663903884886 0.0050214812636485079 0 0.0056459647997672488 0.0047768791603297221 0 0.0055434909924608504 0.0050183504309663481 0 0.0056459647997672488 0.0047768791603297221 0 0.0055434909924608504 0.0050183504309663481 0 0.0055851803290174014 0.0051261381891323466 0 0.0056028663903884886 0.0050214812636485079 0 0.0056459647997672488 0.0047768791603297221 0 0.0060370342014340371 0.0046791669807641056 0 0.005166888400707682 0.0059272172056360518 0 0.0055851803290174014 0.0051261381891323466 0 0.0054876625914171773 0.0052532825450517934 0 0.0054665282222147969 0.0050451836533545354 0 0.0055434909924608504 0.0050183504309663481 0 0.0055851803290174014 0.0051261381891323466 0 0.0055851803290174014 0.0051261381891323466 0 0.0055186469302441876 0.005226913310053225 0 0.0054876625914171773 0.0052532825450517934 0 0.0055851803290174014 0.0051261381891323466 0 0.0055186469302441876 0.005226913310053225 0 0.0054710580582338153 0.0052466279897723563 0 0.0055186469302441876 0.005226913310053225 0 0.0054710580582338153 0.0052466279897723563 0 0.005487107138865811 0.0052755986917274117 0 0.0054876625914171773 0.0052532825450517934 0 0.005487107138865811 0.0052755986917274117 0 0.0054594231189208755 0.0052927823126877266 0 0.0055186469302441876 0.005226913310053225 0 0.0054876625914171773 0.0052532825450517934 0 0.005487107138865811 0.0052755986917274117 0 0.0056459647997672488 0.0047768791603297221 0 0.0057339869000287138 0.0038800450883482401 0 0.0059206210142224635 0.0043442974230576284 0 0.0056459647997672488 0.0047768791603297221 0 0.0055851803290174014 0.0051261381891323466 0 0.0054710580582338153 0.0052466279897723563 0 0.0056376602172886862 0.0047368117672229905 0 0.005669218265176146 0.0047470769049124239 0 0.0057339869000287138 0.0038800450883482401 0 0.006020930145593119 0.0039743672378704711 0 0.0059206210142224635 0.0043442974230576284 0 0.0058829629191454701 0.0033599133433628854 0 0.0057339869000287138 0.0038800450883482401 0 0.0059494832422467784 0.0036497967201055436 0 0.0054746113381455644 0.00364481434860691 0 0.005669218265176146 0.0047470769049124239 0 0.0057339869000287138 0.0038800450883482401 0 0.0059494832422467784 0.0036497967201055436 0 0.006020930145593119 0.0039743672378704711 0 0.0058829629191454701 0.0033599133433628854 0 0.0060356672971924649 0.0034160628005865984 0 0.0059494832422467784 0.0036497967201055436 0 0.0060356672971924649 0.0034160628005865984 0 0.0059494832422467784 0.0036497967201055436 0 0.0061140105494328781 0.0036766941284496297 0 0.0054365408453278061 0.005352020685673419 0 0.0054710580582338153 0.0052466279897723563 0 0.0054868779850479081 0.0053126046355968905 0 0.0055435466191595126 0.0053335927813251104 0 0.005487107138865811 0.0052755986917274117 0 0.0054594231189208755 0.0052927823126877266 0 0.0054710580582338153 0.0052466279897723563 0 0.005487107138865811 0.0052755986917274117 0 0.0054868779850479081 0.0053126046355968905 0 0.0055435466191595126 0.0053335927813251104 0 0.005487107138865811 0.0052755986917274117 0 0.0054868779850479081 0.0053126046355968905 0 0.0055435466191595126 0.0053335927813251104 0 0.0054594231189208755 0.0052927823126877266 0 0.0053391354135310072 0.0053129251306267894 0 0.0047816667344938602 0.013715825418633608 0 0.0068326530317690069 0.013859983960327867 0 0.006067279661963877 0.0156234819002131 0 0.0061548755566353825 0.0097678129471943046 0 0.0058890436423983152 0.010831865079168319 0 0.0068326530317690069 0.013859983960327867 0 0.0063888841257189639 0.015665916621702469 0 0.006067279661963877 0.0156234819002131 0 0.0060245820485971581 0.016928489349611539 0 0.0063888841257189639 0.015665916621702469 0 0.0057778434246412705 0.016079376585448692 0 0.005166888400707682 0.0059272172056360518 0 0.0054876625914171773 0.0052532825450517934 0 0.0053391354135310072 0.0053129251306267894 0 0.0054876625914171773 0.0052532825450517934 0 0.0054594231189208755 0.0052927823126877266 0 0.0053391354135310072 0.0053129251306267894 0 0.0063888841257189639 0.015665916621702469 0 0.006067279661963877 0.0156234819002131 0 0.0057778434246412705 0.016079376585448692 0 0.0057778434246412705 0.016079376585448692 0 0.0053254977739549897 0.015701184194080745 0 0.0050294614116505928 0.016398018006641233 0 0.006067279661963877 0.0156234819002131 0 0.0057778434246412705 0.016079376585448692 0 0.0053254977739549897 0.015701184194080745 0 0.0052272964671624964 0.014812126330123411 0 0.006067279661963877 0.0156234819002131 0 0.0053254977739549897 0.015701184194080745 0 0.0050369727416183568 0.014277908762910673 0 0.0060236414133679039 0.015577107818825767 0 0.0036848755413859233 0.014886054557587619 0 0.0052272964671624964 0.014812126330123411 0 0.0045080479626315598 0.015678159507411769 0 0.0052272964671624964 0.014812126330123411 0 0.0053254977739549897 0.015701184194080745 0 0.0045080479626315598 0.015678159507411769 0 0.0036848755413859233 0.014886054557587619 0 0.0045080479626315598 0.015678159507411769 0 0.0035786874580894558 0.015792117820935724 0 0.0045080479626315598 0.015678159507411769 0 0.0035786874580894558 0.015792117820935724 0 0.003874630939138039 0.016527282699243813 0 0.0045080479626315598 0.015678159507411769 0 0.003874630939138039 0.016527282699243813 0 0.0050294614116505928 0.016398018006641233 0 0.0053254977739549897 0.015701184194080745 0 0.0045080479626315598 0.015678159507411769 0 0.0050294614116505928 0.016398018006641233 0 0.0021284287487765849 0.01478635699395116 0 0.0014158469688443556 0.015841502528173686 0 0.0025800163854013546 0.015807387093924073 0 0.0014158469688443556 0.015841502528173686 0 0.0019073936468024652 0.016494704632479082 0 0.0025800163854013546 0.015807387093924073 0 0.0036848755413859233 0.014886054557587619 0 0.0035786874580894558 0.015792117820935724 0 0.0025800163854013546 0.015807387093924073 0 0.0035786874580894558 0.015792117820935724 0 0.003874630939138039 0.016527282699243813 0 0.0027430504268487069 0.016970001170832496 0 0.0035786874580894558 0.015792117820935724 0 0.0025800163854013546 0.015807387093924073 0 0.0027430504268487069 0.016970001170832496 0 0.0019073936468024652 0.016494704632479082 0 0.0025800163854013546 0.015807387093924073 0 0.0027430504268487069 0.016970001170832496 0 0.0019073936468024652 0.016494704632479082 0 0.0016886692735028307 0.017249349619251782 0 0.0027430504268487069 0.016970001170832496 0 0.0016886692735028307 0.017249349619251782 0 0.0027430504268487069 0.016970001170832496 0 0.0022329877424390309 0.017743986871000293 0 0.003874630939138039 0.016527282699243813 0 0.0033430083672196268 0.017251508964443624 0 0.0027430504268487069 0.016970001170832496 0 0.0033430083672196268 0.017251508964443624 0 0.0027430504268487069 0.016970001170832496 0 0.0030646929841063844 0.017875649462531479 0 0.0027430504268487069 0.016970001170832496 0 0.0030646929841063844 0.017875649462531479 0 0.0022329877424390309 0.017743986871000293 0 0.0030646929841063844 0.017875649462531479 0 0.0022329877424390309 0.017743986871000293 0 0.0021867441390636183 0.01846761990902088 0 0.003874630939138039 0.016527282699243813 0 0.0050294614116505928 0.016398018006641233 0 0.0044026637548078233 0.017011889527500094 0 0.0050294614116505928 0.016398018006641233 0 0.0044026637548078233 0.017011889527500094 0 0.0047855435862063393 0.017719707555887618 0 0.003874630939138039 0.016527282699243813 0 0.0044026637548078233 0.017011889527500094 0 0.0039054470460476794 0.017546352585335295 0 0.003874630939138039 0.016527282699243813 0 0.0033430083672196268 0.017251508964443624 0 0.0039054470460476794 0.017546352585335295 0 0.0039054470460476794 0.017546352585335295 0 0.0047855435862063393 0.017719707555887618 0 0.0035716980357172034 0.018350672521593205 0 0.0030646929841063844 0.017875649462531479 0 0.0039054470460476794 0.017546352585335295 0 0.0035716980357172034 0.018350672521593205 0 0.0037123642295024874 0.014901326890870967 0 0.0018310474931007318 0.01215073731541875 0 0.0033430083672196268 0.017251508964443624 0 0.0030646929841063844 0.017875649462531479 0 0.0039054470460476794 0.017546352585335295 0 0.0028307252357561265 0.010433065796418553 0 0.0026851093707505116 0.010936763284181963 0 0.001426790750870357 0.01119906309308057 0 0.0044026637548078233 0.017011889527500094 0 0.0039054470460476794 0.017546352585335295 0 0.0047855435862063393 0.017719707555887618 0 0.0012569391422518055 0.0072407683192587486 0 0.0012365372789772025 0.007280549809724768 0 0.0012939555205598659 0.0072718333752350948 0 0.0012037914535217486 0.0072842397412095057 0 0.0012010725750708328 0.0073040601737665968 0 0.0011950454383010093 0.0072946379484699732 0 0.0018829324814933794 0.00909256725764831 0 0.0018310474931007318 0.01215073731541875 0 0.0012037914535217486 0.0072842397412095057 0 0.0012010725750708328 0.0073040601737665968 0 0.0012365372789772025 0.007280549809724768 0 0.0012569391422518055 0.0072407683192587486 0 0.0012037914535217486 0.0072842397412095057 0 0.0012365372789772025 0.007280549809724768 0 0.0018310474931007318 0.01215073731541875 0 0.0015374536188961037 0.013824971964689896 0 0.0018310474931007318 0.01215073731541875 0 0.00073727449796999131 0.010922370618685753 0 0.00014783694681697501 0.0085574796571292831 0 0.00073727449796999131 0.010922370618685753 0 0.0012010725750708328 0.0073040601737665968 0 0.0012365372789772025 0.007280549809724768 0 0.001245032373971645 0.0073028370847173733 0 0.0012010725750708328 0.0073040601737665968 0 0.001245032373971645 0.0073028370847173733 0 0.0012064355551926007 0.0073235710697850684 0 0.00014783694681697501 0.0085574796571292831 0 -0.00012945103161376674 0.0066901372274392051 0 -0.00087053187275117723 0.0099363978519989692 0 -0.000684837648412536 0.009782212547441195 0 -0.00097687220563712944 0.009611751394071371 0 0.0012365372789772025 0.007280549809724768 0 0.001245032373971645 0.0073028370847173733 0 0.0012939555205598659 0.0072718333752350948 0 0.00064622920573864477 0.0050097870332643322 0 2.7846914731914557e-05 0.0034935073583907609 0 -0.00010039815566981582 0.010090599435287319 0 -0.00021302167987643391 0.010157731522052457 0 -0.00012790911325761924 0.010021788825463196 0 -0.00021302167987643391 0.010157731522052457 0 -0.00021662614302966072 0.010146551480583375 0 -0.00012790911325761924 0.010021788825463196 0 0.0010227888153907137 0.014319827983795226 0 0.0015374536188961037 0.013824971964689896 0 0.00073727449796999131 0.010922370618685753 0 -0.00040309671105548931 0.010000946245550785 0 0.0030646929841063844 0.017875649462531479 0 0.0021867441390636183 0.01846761990902088 0 0.0032066457661507372 0.018307369086816395 0 0.0030646929841063844 0.017875649462531479 0 0.0035716980357172034 0.018350672521593205 0 0.0032585865899527151 0.018402753377120433 0 0.0033365612993001715 0.018760137812551057 0 0.0015374536188961037 0.013824971964689896 0 0.002300928615618366 0.012037702279234674 0 -0.0003038267051542651 0.012518696168001154 0 -4.5406510175796349e-05 0.013262412721973411 0 0.0015374536188961037 0.013824971964689896 0 0.00073727449796999131 0.010922370618685753 0 -0.00075057692103333855 0.010275980668290359 0 -0.00061612851143614752 0.0099921129661580052 0 -0.00029895217375754671 0.010035410389756347 0 -0.00087053187275117723 0.0099363978519989692 0 -0.00075057692103333855 0.010275980668290359 0 -0.00061612851143614752 0.0099921129661580052 0 -0.00087053187275117723 0.0099363978519989692 0 -0.000684837648412536 0.009782212547441195 0 -0.00061612851143614752 0.0099921129661580052 0 -0.000684837648412536 0.009782212547441195 0 -0.00045861226323599122 0.0098894834091486639 0 -0.00049759431548464185 0.0097095945848727598 0 -0.000684837648412536 0.009782212547441195 0 -0.00061612851143614752 0.0099921129661580052 0 -0.00045861226323599122 0.0098894834091486639 0 7.49751729502026e-05 0.0098100053688513628 0 -0.00029895217375754671 0.010035410389756347 0 -0.00021659198685459113 0.0097641366465822822 0 -0.00061612851143614752 0.0099921129661580052 0 -0.00029895217375754671 0.010035410389756347 0 -0.00045861226323599122 0.0098894834091486639 0 -0.00045861226323599122 0.0098894834091486639 0 -0.00021659198685459113 0.0097641366465822822 0 -0.00049759431548464185 0.0097095945848727598 0 -0.00029895217375754671 0.010035410389756347 0 -0.00045861226323599122 0.0098894834091486639 0 -0.00021659198685459113 0.0097641366465822822 0 -3.8905120102329404e-06 0.0099830733384334604 0 -0.00010039815566981582 0.010090599435287319 0 -0.00012790911325761924 0.010021788825463196 0 -0.0001183135338380264 0.0095337949523386523 0 -0.00040324066438159907 0.0095375246061304882 0 -0.00024355676068078632 0.0093182828495216603 0 -0.0001183135338380264 0.0095337949523386523 0 -0.00021659198685459113 0.0097641366465822822 0 -0.00040324066438159907 0.0095375246061304882 0 -0.00021659198685459113 0.0097641366465822822 0 -0.00040324066438159907 0.0095375246061304882 0 -0.00049759431548464185 0.0097095945848727598 0 -0.00065348228268143332 0.009601665375913844 0 -0.00063885026371868236 0.0093679085071569669 0 -0.00097687220563712944 0.009611751394071371 0 6.9479371023150534e-05 0.0068208860072725992 0 -9.1126153460445368e-05 0.0068595996355932812 0 5.4186903062980765e-05 0.0064814305706088161 0 -0.00037385434882844065 0.0083628091320292058 0 -0.00012945103161376674 0.0066901372274392051 0 -0.000684837648412536 0.009782212547441195 0 -0.00065348228268143332 0.009601665375913844 0 -0.00097687220563712944 0.009611751394071371 0 -0.00040324066438159907 0.0095375246061304882 0 -0.00065348228268143332 0.009601665375913844 0 -0.00063885026371868236 0.0093679085071569669 0 -0.00040324066438159907 0.0095375246061304882 0 -0.00065348228268143332 0.009601665375913844 0 -0.00049759431548464185 0.0097095945848727598 0 -0.000684837648412536 0.009782212547441195 0 -0.00065348228268143332 0.009601665375913844 0 -0.00049759431548464185 0.0097095945848727598 0 7.2878195938241124e-07 0.0069167541954254881 0 6.9479371023150534e-05 0.0068208860072725992 0 -5.5613855941826462e-07 0.0084393720994284122 0 7.2878195938241124e-07 0.0069167541954254881 0 6.9479371023150534e-05 0.0068208860072725992 0 5.4186903062980765e-05 0.0064814305706088161 0 6.9479371023150534e-05 0.0068208860072725992 0 -5.5613855941826462e-07 0.0084393720994284122 0 -9.9390828682025065e-06 0.0087408281867069493 0 -0.00063885026371868236 0.0093679085071569669 0 -9.9390828682025065e-06 0.0087408281867069493 0 -0.00024355676068078632 0.0093182828495216603 0 -0.00037385434882844065 0.0083628091320292058 0 9.1879657030393585e-05 0.0084618832786252755 0 -0.00040324066438159907 0.0095375246061304882 0 -0.00063885026371868236 0.0093679085071569669 0 -0.00024355676068078632 0.0093182828495216603 0 -4.5780216638490687e-05 0.0092540090242935278 0 -9.9390828682025065e-06 0.0087408281867069493 0 -0.00024355676068078632 0.0093182828495216603 0 -4.5780216638490687e-05 0.0092540090242935278 0 -0.0001183135338380264 0.0095337949523386523 0 -0.00024355676068078632 0.0093182828495216603 0 -0.0001582307409852014 0.003484493916150752 0 -5.3773126589321723e-05 0.0038437409390281413 0 0.00029656741127585633 0.0032179021474697234 0 -8.6092366731427888e-05 0.0036882732580835105 0 9.366776057842779e-05 0.002703535980517572 0 -0.0001668692355040615 0.0028667179004216803 0 -0.0001582307409852014 0.003484493916150752 0 0.00029656741127585633 0.0032179021474697234 0 0.00064622920573864477 0.0050097870332643322 0 -0.00012945103161376674 0.0066901372274392051 0 -0.0001668692355040615 0.0028667179004216803 0 -0.0001582307409852014 0.003484493916150752 0 -0.0011526525989761531 0.0033045247391314007 0 7.2878195938241124e-07 0.0069167541954254881 0 5.4186903062980765e-05 0.0064814305706088161 0 -8.0765785926596637e-07 0.0054000622209413266 0 -0.00012945103161376674 0.0066901372274392051 0 -1.004571264437566e-06 0.0053949042211592895 0 -9.1126153460445368e-05 0.0068595996355932812 0 5.4186903062980765e-05 0.0064814305706088161 0 -8.0765785926596637e-07 0.0054000622209413266 0 -0.0001582307409852014 0.003484493916150752 0 -0.0011526525989761531 0.0033045247391314007 0 -1.983050107282378e-06 0.0053938756063620147 0 -0.0001582307409852014 0.003484493916150752 0 -5.3773126589321723e-05 0.0038437409390281413 0 -1.983050107282378e-06 0.0053938756063620147 0 -5.3773126589321723e-05 0.0038437409390281413 0 -1.983050107282378e-06 0.0053938756063620147 0 2.4670391998074571e-07 0.0033158977743916302 0 -5.3773126589321723e-05 0.0038437409390281413 0 2.4670391998074571e-07 0.0033158977743916302 0 -0.0001677471976449685 0.0024024400021659007 0 2.4670391998074571e-07 0.0033158977743916302 0 -0.0001677471976449685 0.0024024400021659007 0 -0.00017057583117491989 0.0011406481149236138 0 -0.0001677471976449685 0.0024024400021659007 0 -7.980842545199398e-05 0.0023007369281733627 0 0.00032550469745877997 0.0022884432709054017 0 -0.0001677471976449685 0.0024024400021659007 0 -0.00059092372354452684 -0.00061749060466897803 0 -0.00017057583117491989 0.0011406481149236138 0 -0.00017440045562546643 0.0021228653632590342 0 9.4161152781790002e-06 0.00086888421224658033 0 -5.3773126589321723e-05 0.0038437409390281413 0 -0.0001677471976449685 0.0024024400021659007 0 -0.00027388562520081194 0.002499326207883176 0 -0.0001677471976449685 0.0024024400021659007 0 -0.00027388562520081194 0.002499326207883176 0 -7.980842545199398e-05 0.0023007369281733627 0 9.366776057842779e-05 0.002703535980517572 0 2.7846914731914557e-05 0.0034935073583907609 0 -0.00027388562520081194 0.002499326207883176 0 -0.00023100611594546015 0.0021766105302802345 0 -7.980842545199398e-05 0.0023007369281733627 0 -0.0001668692355040615 0.0028667179004216803 0 0.00029656741127585633 0.0032179021474697234 0 0.0005059999804552139 0.0024904225071425167 0 -0.00023100611594546015 0.0021766105302802345 0 -7.980842545199398e-05 0.0023007369281733627 0 -1.7607448319832734e-05 0.0020337197708409772 0 2.7846914731914557e-05 0.0034935073583907609 0 0.000137560744586851 0.0021763162509911035 0 -7.980842545199398e-05 0.0023007369281733627 0 -1.7607448319832734e-05 0.0020337197708409772 0 0.00032550469745877997 0.0022884432709054017 0 -1.7607448319832734e-05 0.0020337197708409772 0 0.0003952504973327056 0.0019245694531893304 0 0.00032550469745877997 0.0022884432709054017 0 -0.0001345095484626884 0.0016710452351436 0 0.00036564584566490101 0.0015320873468517508 0 -1.7607448319832734e-05 0.0020337197708409772 0 0.00036564584566490101 0.0015320873468517508 0 -1.7607448319832734e-05 0.0020337197708409772 0 0.0003952504973327056 0.0019245694531893304 0 -0.0001345095484626884 0.0016710452351436 0 -0.00029938015248166024 0.0022210747967279379 0 -1.7607448319832734e-05 0.0020337197708409772 0 0.0026197150224090142 0.0061695853990377135 0 2.7846914731914557e-05 0.0034935073583907609 0 0.001328689663999673 0.0072055284789513674 0 0.0012569391422518055 0.0072407683192587486 0 0.0012939555205598659 0.0072718333752350948 0 0.00036564584566490101 0.0015320873468517508 0 0.00096883529960408441 0.0018296049705244244 0 0.0003952504973327056 0.0019245694531893304 0 0.00015186562075387834 -0.00065308596133264421 0 9.4161152781790002e-06 0.00086888421224658033 0 0.00096883529960408441 0.0018296049705244244 0 0.0003952504973327056 0.0019245694531893304 0 0.00032550469745877997 0.0022884432709054017 0 -0.00059092372354452684 -0.00061749060466897803 0 -6.1528930788090481e-05 -0.0012846574143190236 0 -7.2698088619401166e-05 -2.0868684363194174e-05 0 -0.00021454730594530288 -0.0025584340091611944 0 -0.00059092372354452684 -0.00061749060466897803 0 -6.1528930788090481e-05 -0.0012846574143190236 0 -0.00021454730594530288 -0.0025584340091611944 0 -6.1528930788090481e-05 -0.0012846574143190236 0 0.00018542488409698381 -0.0020681133441154687 0 -7.2698088619401166e-05 -2.0868684363194174e-05 0 -2.8371744941021775e-07 0.0012340146439975212 0 0.00016273945964421607 -0.001082283917573844 0 -6.1528930788090481e-05 -0.0012846574143190236 0 -7.2698088619401166e-05 -2.0868684363194174e-05 0 0.00016273945964421607 -0.001082283917573844 0 -0.00059092372354452684 -0.00061749060466897803 0 -0.00017057583117491989 0.0011406481149236138 0 -7.2698088619401166e-05 -2.0868684363194174e-05 0 2.4670391998074571e-07 0.0033158977743916302 0 -0.00017057583117491989 0.0011406481149236138 0 -2.8371744941021775e-07 0.0012340146439975212 0 -0.00017057583117491989 0.0011406481149236138 0 -7.2698088619401166e-05 -2.0868684363194174e-05 0 -2.8371744941021775e-07 0.0012340146439975212 0 -2.8371744941021775e-07 0.0012340146439975212 0 5.2910272455594507e-07 -0.00084657859141029157 0 0.00016273945964421607 -0.001082283917573844 0 5.2910272455594507e-07 -0.00084657859141029157 0 0.0002939441848994802 -0.0021513655791795617 0 0.00016273945964421607 -0.001082283917573844 0 5.2910272455594507e-07 -0.00084657859141029157 0 0.0002939441848994802 -0.0021513655791795617 0 7.0585373533056306e-07 -0.002927736674936472 0 0.0002939441848994802 -0.0021513655791795617 0 0.00016273945964421607 -0.001082283917573844 0 0.00051089222314629548 -0.0026475727458089558 0 7.0585373533056306e-07 -0.002927736674936472 0 0.00056388259455352472 -0.0034588247673650288 0 1.0163405836078612e-06 -0.0050082834340794474 0 0.0002939441848994802 -0.0021513655791795617 0 7.0585373533056306e-07 -0.002927736674936472 0 0.00056388259455352472 -0.0034588247673650288 0 0.0002939441848994802 -0.0021513655791795617 0 0.00056388259455352472 -0.0034588247673650288 0 0.00051089222314629548 -0.0026475727458089558 0 0.00056388259455352472 -0.0034588247673650288 0 0.00078301262257692884 -0.0035726555247058965 0 0.0010202689169998866 -0.0042351698034754784 0 0.00056388259455352472 -0.0034588247673650288 0 0.00078301262257692884 -0.0035726555247058965 0 0.00051089222314629548 -0.0026475727458089558 0 0.00078301262257692884 -0.0035726555247058965 0 0.00072038757742649362 -0.0035615679290816509 0 0.00051089222314629548 -0.0026475727458089558 0 0.00078301262257692884 -0.0035726555247058965 0 0.00072038757742649362 -0.0035615679290816509 0 0.0010513738516719992 -0.0041246204344555009 0 0.00078301262257692884 -0.0035726555247058965 0 0.0010513738516719992 -0.0041246204344555009 0 0.0010202689169998866 -0.0042351698034754784 0 -6.1528930788090481e-05 -0.0012846574143190236 0 0.00016273945964421607 -0.001082283917573844 0 0.00018542488409698381 -0.0020681133441154687 0 0.00018542488409698381 -0.0020681133441154687 0 0.00051089222314629548 -0.0026475727458089558 0 0.00035338845244218067 -0.0028788268915883736 0 0.00016273945964421607 -0.001082283917573844 0 0.00018542488409698381 -0.0020681133441154687 0 0.00051089222314629548 -0.0026475727458089558 0 0.00072038757742649362 -0.0035615679290816509 0 0.00051089222314629548 -0.0026475727458089558 0 0.00035338845244218067 -0.0028788268915883736 0 -0.00021454730594530288 -0.0025584340091611944 0 0.00018542488409698381 -0.0020681133441154687 0 0.00035338845244218067 -0.0028788268915883736 0 0.00097480765099665378 0.0013751600123489982 0 0.00096883529960408441 0.0018296049705244244 0 0.0016511581043109316 0.0012457150032602988 0 -0.00021454730594530288 -0.0025584340091611944 0 0.00035338845244218067 -0.0028788268915883736 0 0.0002857869633541303 -0.003651089309984062 0 0.0034199943200976068 0.0033391356815901242 0 0.0029123366315689835 0.00085454136328335815 0 0.00015186562075387834 -0.00065308596133264421 0 0.0029123366315689835 0.00085454136328335815 0 0.0056028663903884886 0.0050214812636485079 0 0.0061665337006768916 0.0047905965059889368 0 0.0060370342014340371 0.0046791669807641056 0 0.0061665337006768916 0.0047905965059889368 0 0.0062104108824971469 0.0045312290246190979 0 0.0060370342014340371 0.0046791669807641056 0 0.0062104108824971469 0.0045312290246190979 0 0.0060370342014340371 0.0046791669807641056 0 0.0061580523530867706 0.0043324977716167013 0 0.0060370342014340371 0.0046791669807641056 0 0.0061580523530867706 0.0043324977716167013 0 0.0059206210142224635 0.0043442974230576284 0 0.0056459647997672488 0.0047768791603297221 0 0.0060370342014340371 0.0046791669807641056 0 0.0059206210142224635 0.0043442974230576284 0 0.0029123366315689835 0.00085454136328335815 0 0.003788203102570306 0.00013938890835880267 0 0.0061665337006768916 0.0047905965059889368 0 0.0064292953216678996 0.0043536730981341108 0 0.0066688547394127386 0.0044391718089603401 0 0.0064292953216678996 0.0043536730981341108 0 0.0066688547394127386 0.0044391718089603401 0 0.006564999675035244 0.0040620558426315827 0 0.0062104108824971469 0.0045312290246190979 0 0.0061580523530867706 0.0043324977716167013 0 0.0064292953216678996 0.0043536730981341108 0 0.0061665337006768916 0.0047905965059889368 0 0.0062104108824971469 0.0045312290246190979 0 0.0064292953216678996 0.0043536730981341108 0 0.00072038757742649362 -0.0035615679290816509 0 0.00035338845244218067 -0.0028788268915883736 0 0.0002857869633541303 -0.003651089309984062 0 0.00072038757742649362 -0.0035615679290816509 0 0.0002857869633541303 -0.003651089309984062 0 0.00073380525680726547 -0.004094452857337564 0 0.00072038757742649362 -0.0035615679290816509 0 0.00097565037193904868 -0.0041480961792624942 0 0.00073380525680726547 -0.004094452857337564 0 0.00072038757742649362 -0.0035615679290816509 0 0.0010513738516719992 -0.0041246204344555009 0 0.00097565037193904868 -0.0041480961792624942 0 0.0010513738516719992 -0.0041246204344555009 0 0.00097565037193904868 -0.0041480961792624942 0 0.0011821144237229813 -0.0044235654100787201 0 0.00097565037193904868 -0.0041480961792624942 0 0.0011322566769156562 -0.0045881866881078322 0 0.0011821144237229813 -0.0044235654100787201 0 0.00097565037193904868 -0.0041480961792624942 0 0.0011322566769156562 -0.0045881866881078322 0 0.00073380525680726547 -0.004094452857337564 0 0.0070464435262427468 0.0042192096734858728 0 0.0066688547394127386 0.0044391718089603401 0 0.0068710236605128462 0.0038467178232966604 0 0.0040493797843254107 -0.00017587720938676805 0 0.003788203102570306 0.00013938890835880267 0 0.006564999675035244 0.0040620558426315827 0 0.0068710236605128462 0.0038467178232966604 0 0.0065379340680247278 0.0036746408310041456 0 0.0068710236605128462 0.0038467178232966604 0 0.0065379340680247278 0.0036746408310041456 0 0.0068515573850945252 0.0032000182568105479 0 0.0068710236605128462 0.0038467178232966604 0 0.0071979772274086478 0.0034980817233555587 0 0.0068515573850945252 0.0032000182568105479 0 0.0066688547394127386 0.0044391718089603401 0 0.006564999675035244 0.0040620558426315827 0 0.0068710236605128462 0.0038467178232966604 0 0.0070464435262427468 0.0042192096734858728 0 0.0068710236605128462 0.0038467178232966604 0 0.0072033871988289077 0.0038624087026471331 0 0.0068710236605128462 0.0038467178232966604 0 0.0071979772274086478 0.0034980817233555587 0 0.0072033871988289077 0.0038624087026471331 0 0.0065379340680247278 0.0036746408310041456 0 0.0063211923165622224 0.0036678723024234829 0 0.006354885858981401 0.0033871356502077677 0 0.0065379340680247278 0.0036746408310041456 0 0.0063211923165622224 0.0036678723024234829 0 0.0062861355992252345 0.0039849153892957323 0 0.0063211923165622224 0.0036678723024234829 0 0.0061140105494328781 0.0036766941284496297 0 0.006354885858981401 0.0033871356502077677 0 0.0059494832422467784 0.0036497967201055436 0 0.0061140105494328781 0.0036766941284496297 0 0.006020930145593119 0.0039743672378704711 0 0.0063211923165622224 0.0036678723024234829 0 0.0061140105494328781 0.0036766941284496297 0 0.0062861355992252345 0.0039849153892957323 0 0.0061140105494328781 0.0036766941284496297 0 0.006020930145593119 0.0039743672378704711 0 0.0062861355992252345 0.0039849153892957323 0 0.0061580523530867706 0.0043324977716167013 0 0.006020930145593119 0.0039743672378704711 0 0.0059206210142224635 0.0043442974230576284 0 0.0061580523530867706 0.0043324977716167013 0 0.006020930145593119 0.0039743672378704711 0 0.0062861355992252345 0.0039849153892957323 0 0.0061580523530867706 0.0043324977716167013 0 0.0064292953216678996 0.0043536730981341108 0 0.0062861355992252345 0.0039849153892957323 0 0.006564999675035244 0.0040620558426315827 0 0.0065379340680247278 0.0036746408310041456 0 0.0062861355992252345 0.0039849153892957323 0 0.0064292953216678996 0.0043536730981341108 0 0.006564999675035244 0.0040620558426315827 0 0.0062861355992252345 0.0039849153892957323 0 0.0056424241202292147 -0.00039271138369174088 0 0.003775377744076555 -0.0019500904936624081 0 0.0076763360965551326 0.0037559123286904097 0 0.0079261637790423323 0.003576299521285453 0 0.0077948742204679167 0.0039132805932058428 0 0.0076763360965551326 0.0037559123286904097 0 0.0074215583691290398 0.0040495567347409722 0 0.0077948742204679167 0.0039132805932058428 0 0.003775377744076555 -0.0019500904936624081 0 0.0022728213990188505 -0.0037260827372099484 0 0.0039734487421783267 -0.002142100899957265 0 0.0043309356452898937 -0.003126550515371676 0 0.0033295251831878831 -0.0029595400479821591 0 0.0048367192776400964 -0.005749254076215609 0 0.0048756003197234577 -0.005805137112970914 0 0.0049081426275352337 -0.0058306304566652731 0 0.0080125802444053588 0.0035924645307141671 0 0.0077438255433477958 0.0035615578426992371 0 0.0078929835369309764 0.0032342505587776753 0 0.0076763360965551326 0.0037559123286904097 0 0.0077438255433477958 0.0035615578426992371 0 0.0074672587815971985 0.0036859823221284055 0 0.0076763360965551326 0.0037559123286904097 0 0.0079261637790423323 0.003576299521285453 0 0.0077438255433477958 0.0035615578426992371 0 0.0056424241202292147 -0.00039271138369174088 0 0.0085725510737441613 0.0029412966038708161 0 0.0074672587815971985 0.0036859823221284055 0 0.0071979772274086478 0.0034980817233555587 0 0.0075664378126523964 0.0032534376899544613 0 0.0077438255433477958 0.0035615578426992371 0 0.0074672587815971985 0.0036859823221284055 0 0.0075664378126523964 0.0032534376899544613 0 0.0074672587815971985 0.0036859823221284055 0 0.0071979772274086478 0.0034980817233555587 0 0.0072033871988289077 0.0038624087026471331 0 0.0074672587815971985 0.0036859823221284055 0 0.0072033871988289077 0.0038624087026471331 0 0.0074215583691290398 0.0040495567347409722 0 0.0076763360965551326 0.0037559123286904097 0 0.0074672587815971985 0.0036859823221284055 0 0.0074215583691290398 0.0040495567347409722 0 0.0014499217301857069 -0.0047542468651319159 0 0.0019086835729235469 -0.0049699179757066655 0 0.0015923231486370244 -0.0048966644222862175 0 0.0018030809086758701 -0.0048096600240722445 0 0.0013859036960382643 -0.0047001574669501426 0 0.0013859036960382643 -0.0047001574669501426 0 0.001671981622394111 -0.0049965684326553983 0 0.0018460014151623421 -0.0052086807214792386 0 0.0015923231486370244 -0.0048966644222862175 0 0.0018030809086758701 -0.0048096600240722445 0 0.0020884727359753532 -0.0049349510306780755 0 0.0018030809086758701 -0.0048096600240722445 0 0.0013859036960382643 -0.0047001574669501426 0 0.0020210794755399684 -0.0047784371801607673 0 0.0070464435262427468 0.0042192096734858728 0 0.0072033871988289077 0.0038624087026471331 0 0.0074215583691290398 0.0040495567347409722 0 0.0040493797843254107 -0.00017587720938676805 0 0.0047182416051229671 -0.00030337884340236935 0 0.0011322566769156562 -0.0045881866881078322 0 0.0015923231486370244 -0.0048966644222862175 0 0.0013859036960382643 -0.0047001574669501426 0 0.0011322566769156562 -0.0045881866881078322 0 0.0013859036960382643 -0.0047001574669501426 0 0.0011821144237229813 -0.0044235654100787201 0 0.0013859036960382643 -0.0047001574669501426 0 0.0013361973886658305 -0.0045702102509909033 0 0.0015643071842071036 -0.0048557086195857215 0 0.0013859036960382643 -0.0047001574669501426 0 0.0011821144237229813 -0.0044235654100787201 0 0.0013361973886658305 -0.0045702102509909033 0 0.0010513738516719992 -0.0041246204344555009 0 0.0011821144237229813 -0.0044235654100787201 0 0.0013361973886658305 -0.0045702102509909033 0 0.0013859036960382643 -0.0047001574669501426 0 0.001671981622394111 -0.0049965684326553983 0 0.0015643071842071036 -0.0048557086195857215 0 0.001671981622394111 -0.0049965684326553983 0 0.0015643071842071036 -0.0048557086195857215 0 0.0017089681490163669 -0.0050336204808551039 0 0.0013361973886658305 -0.0045702102509909033 0 0.0015643071842071036 -0.0048557086195857215 0 0.0015984578308115215 -0.0048187435488005401 0 0.0015643071842071036 -0.0048557086195857215 0 0.0017089681490163669 -0.0050336204808551039 0 0.0015984578308115215 -0.0048187435488005401 0 0.0017089681490163669 -0.0050336204808551039 0 0.0018345995138057979 -0.0052497037169428693 0 0.0018075868767791555 -0.0051766956243575963 0 0.0017089681490163669 -0.0050336204808551039 0 0.0018345995138057979 -0.0052497037169428693 0 0.0015984578308115215 -0.0048187435488005401 0 0.0018345995138057979 -0.0052497037169428693 0 0.0017966016720954326 -0.0053020836774164146 0 0.0017965102841531501 -0.0054328028658338591 0 0.0018345995138057979 -0.0052497037169428693 0 0.0017965102841531501 -0.0054328028658338591 0 0.0018412656889058743 -0.0055513838739835357 0 0.0018345995138057979 -0.0052497037169428693 0 0.0017966016720954326 -0.0053020836774164146 0 0.0018075868767791555 -0.0051766956243575963 0 0.0017962478282792845 -0.0052598310657266077 0 0.0018460014151623421 -0.0052086807214792386 0 0.0016800410571431116 -0.0053240217161318144 0 0.0017966016720954326 -0.0053020836774164146 0 0.0017962478282792845 -0.0052598310657266077 0 0.0018075868767791555 -0.0051766956243575963 0 0.0017962478282792845 -0.0052598310657266077 0 0.0018075868767791555 -0.0051766956243575963 0 0.0018460014151623421 -0.0052086807214792386 0 0.001671981622394111 -0.0049965684326553983 0 0.0018075868767791555 -0.0051766956243575963 0 0.0018460014151623421 -0.0052086807214792386 0 0.001671981622394111 -0.0049965684326553983 0 0.0017089681490163669 -0.0050336204808551039 0 0.0018075868767791555 -0.0051766956243575963 0 0.0020210794755399684 -0.0047784371801607673 0 0.0018574769766875846 -0.0047042260945603263 0 0.0016112487933239298 -0.0047249599615869949 0 0.0018030809086758701 -0.0048096600240722445 0 0.0019360039883028184 -0.0047916981007401207 0 0.0020210794755399684 -0.0047784371801607673 0 0.0047182416051229671 -0.00030337884340236935 0 0.003775377744076555 -0.0019500904936624081 0 0.0019360039883028184 -0.0047916981007401207 0 0.0020210794755399684 -0.0047784371801607673 0 0.0020019030114129671 -0.0047648397973078741 0 0.0020210794755399684 -0.0047784371801607673 0 0.0020019030114129671 -0.0047648397973078741 0 0.0018574769766875846 -0.0047042260945603263 0 0.0032015386021314761 -0.0043525117344556446 0 0.003775377744076555 -0.0019500904936624081 0 0.0019360039883028184 -0.0047916981007401207 0 0.0020019030114129671 -0.0047648397973078741 0 0.0020884727359753532 -0.0049349510306780755 0 0.0020019030114129671 -0.0047648397973078741 0 0.0019436992877789861 -0.0045216532643282629 0 0.0018574769766875846 -0.0047042260945603263 0 0.0018030809086758701 -0.0048096600240722445 0 0.0019360039883028184 -0.0047916981007401207 0 0.0020884727359753532 -0.0049349510306780755 0 0.0019436992877789861 -0.0045216532643282629 0 0.0016112487933239298 -0.0047249599615869949 0 0.0013642513332422221 -0.0043808055566127149 0 0.0018460014151623421 -0.0052086807214792386 0 0.0016800410571431116 -0.0053240217161318144 0 0.0014184302677798944 -0.0051931893524712822 0 0.0020210794755399684 -0.0047784371801607673 0 0.0016112487933239298 -0.0047249599615869949 0 0.0012622817587887812 -0.004971397450750357 0 0.0016112487933239298 -0.0047249599615869949 0 0.0012622817587887812 -0.004971397450750357 0 0.0013642513332422221 -0.0043808055566127149 0 0.0019086835729235469 -0.0049699179757066655 0 0.0013016350860986221 -0.0050804744681262979 0 0.0019436992877789861 -0.0045216532643282629 0 0.0018574769766875846 -0.0047042260945603263 0 0.0016112487933239298 -0.0047249599615869949 0 0.0016800410571431116 -0.0053240217161318144 0 0.0017053515649988068 -0.0054952905549319007 0 0.0015336325355527606 -0.0055189811355470216 0 0.0016800410571431116 -0.0053240217161318144 0 0.0015336325355527606 -0.0055189811355470216 0 0.0014184302677798944 -0.0051931893524712822 0 0.0017966016720954326 -0.0053020836774164146 0 0.0017962478282792845 -0.0052598310657266077 0 0.0016800410571431116 -0.0053240217161318144 0 0.0016800410571431116 -0.0053240217161318144 0 0.0017481129839829071 -0.005390477391726641 0 0.0017053515649988068 -0.0054952905549319007 0 0.0017966016720954326 -0.0053020836774164146 0 0.0016800410571431116 -0.0053240217161318144 0 0.0017481129839829071 -0.005390477391726641 0 0.0017966016720954326 -0.0053020836774164146 0 0.0017481129839829071 -0.005390477391726641 0 0.0017965102841531501 -0.0054328028658338591 0 0.0017481129839829071 -0.005390477391726641 0 0.0017053515649988068 -0.0054952905549319007 0 0.0017965102841531501 -0.0054328028658338591 0 0.0017053515649988068 -0.0054952905549319007 0 0.0016382103228444725 -0.0057260549281959745 0 0.0017565127065450974 -0.0056662564207006407 0 0.0017965102841531501 -0.0054328028658338591 0 0.0017565127065450974 -0.0056662564207006407 0 0.0018412656889058743 -0.0055513838739835357 0 0.0017053515649988068 -0.0054952905549319007 0 0.0017965102841531501 -0.0054328028658338591 0 0.0017565127065450974 -0.0056662564207006407 0 0.0017053515649988068 -0.0054952905549319007 0 0.0015336325355527606 -0.0055189811355470216 0 0.0016382103228444725 -0.0057260549281959745 0 0.0015336325355527606 -0.0055189811355470216 0 0.0016382103228444725 -0.0057260549281959745 0 0.0014500623658099095 -0.0058197379028660599 0 0.001612820548334283 -0.0059447591681801226 0 0.0014742281627738939 -0.0060889939438549829 0 0.0014500623658099095 -0.0058197379028660599 0 0.0016382103228444725 -0.0057260549281959745 0 0.001612820548334283 -0.0059447591681801226 0 0.0014500623658099095 -0.0058197379028660599 0 0.0016382103228444725 -0.0057260549281959745 0 0.001612820548334283 -0.0059447591681801226 0 0.0017346054828120338 -0.0059138680943546639 0 0.001612820548334283 -0.0059447591681801226 0 0.0016270005170071534 -0.0061384498469255226 0 0.0017346054828120338 -0.0059138680943546639 0 0.001612820548334283 -0.0059447591681801226 0 0.0016270005170071534 -0.0061384498469255226 0 0.0014742281627738939 -0.0060889939438549829 0 0.0016270005170071534 -0.0061384498469255226 0 0.0016709098993103065 -0.0063555203049821983 0 0.0014505029822774497 -0.006386962338788933 0 0.0016270005170071534 -0.0061384498469255226 0 0.0014742281627738939 -0.0060889939438549829 0 0.0014505029822774497 -0.006386962338788933 0 0.0016270005170071534 -0.0061384498469255226 0 0.0016709098993103065 -0.0063555203049821983 0 0.0017531122005802423 -0.0061057322170698751 0 0.0016270005170071534 -0.0061384498469255226 0 0.0017531122005802423 -0.0061057322170698751 0 0.0017346054828120338 -0.0059138680943546639 0 0.0016709098993103065 -0.0063555203049821983 0 0.0017859329209561643 -0.0062319061632965592 0 0.001754394211181406 -0.0064580910223686061 0 0.0016709098993103065 -0.0063555203049821983 0 0.0017859329209561643 -0.0062319061632965592 0 0.0017531122005802423 -0.0061057322170698751 0 0.0016709098993103065 -0.0063555203049821983 0 0.001754394211181406 -0.0064580910223686061 0 0.001527855871909861 -0.0066981265317524801 0 0.0016709098993103065 -0.0063555203049821983 0 0.0014505029822774497 -0.006386962338788933 0 0.001527855871909861 -0.0066981265317524801 0 0.0018424119425295112 -0.0058698734580109914 0 0.0019353735803142133 -0.0056293383679628869 0 0.0018649802889841075 -0.0063846687938008276 0 0.0019353735803142133 -0.0056293383679628869 0 0.0018702906496401283 -0.0065119101850170192 0 0.0018649802889841075 -0.0063846687938008276 0 0.0017859329209561643 -0.0062319061632965592 0 0.0018424119425295112 -0.0058698734580109914 0 0.0018649802889841075 -0.0063846687938008276 0 0.0017859329209561643 -0.0062319061632965592 0 0.001754394211181406 -0.0064580910223686061 0 0.0018649802889841075 -0.0063846687938008276 0 0.0017531122005802423 -0.0061057322170698751 0 0.0018424119425295112 -0.0058698734580109914 0 0.0017346054828120338 -0.0059138680943546639 0 0.0017859329209561643 -0.0062319061632965592 0 0.0017531122005802423 -0.0061057322170698751 0 0.0018424119425295112 -0.0058698734580109914 0 0.0018424119425295112 -0.0058698734580109914 0 0.0017565127065450974 -0.0056662564207006407 0 0.0018412656889058743 -0.0055513838739835357 0 0.0018424119425295112 -0.0058698734580109914 0 0.0017346054828120338 -0.0059138680943546639 0 0.0017565127065450974 -0.0056662564207006407 0 0.0016382103228444725 -0.0057260549281959745 0 0.0017346054828120338 -0.0059138680943546639 0 0.0017565127065450974 -0.0056662564207006407 0 0.0018345995138057979 -0.0052497037169428693 0 0.0018412656889058743 -0.0055513838739835357 0 0.0019353735803142133 -0.0056293383679628869 0 0.0018424119425295112 -0.0058698734580109914 0 0.0018412656889058743 -0.0055513838739835357 0 0.0019353735803142133 -0.0056293383679628869 0 0.001702595981030757 -0.0051782990346081687 0 0.0015355618992699076 -0.0049999146689565675 0 0.0018345995138057979 -0.0052497037169428693 0 0.0019353735803142133 -0.0056293383679628869 0 0.0015984578308115215 -0.0048187435488005401 0 0.0013455039771308737 -0.0046997075081267724 0 0.0015984578308115215 -0.0048187435488005401 0 0.0015144492333124047 -0.0047295532692213501 0 0.001702595981030757 -0.0051782990346081687 0 0.001036769348922459 -0.007396950952033794 0 0.001303554819208227 -0.0051612464647419346 0 0.0015144492333124047 -0.0047295532692213501 0 0.0017279423250032672 -0.0055077158575074911 0 0.0013455039771308737 -0.0046997075081267724 0 0.001303554819208227 -0.0051612464647419346 0 0.00065022899336404497 -0.0049473782157891449 0 0.0013455039771308737 -0.0046997075081267724 0 0.001303554819208227 -0.0051612464647419346 0 0.0015144492333124047 -0.0047295532692213501 0 0.001036769348922459 -0.007396950952033794 0 -0.00015481840548726904 -0.0087362195674798079 0 0.001303554819208227 -0.0051612464647419346 0 0.00065022899336404497 -0.0049473782157891449 0 0.00078693115360476144 -0.0060995993570181388 0 0.001754394211181406 -0.0064580910223686061 0 0.0018674219446670338 -0.0065632568683005677 0 0.001527855871909861 -0.0066981265317524801 0 0.0018674219446670338 -0.0065632568683005677 0 0.0014125918576756514 -0.0070461728859055398 0 0.001527855871909861 -0.0066981265317524801 0 0.001754394211181406 -0.0064580910223686061 0 0.0018674219446670338 -0.0065632568683005677 0 0.0018649802889841075 -0.0063846687938008276 0 0.001036769348922459 -0.007396950952033794 0 0.0011469602828102132 -0.0072304684074087329 0 0.0010513738516719992 -0.0041246204344555009 0 0.0013361973886658305 -0.0045702102509909033 0 0.001287233186179711 -0.004502008121611948 0 0.0010513738516719992 -0.0041246204344555009 0 0.001287233186179711 -0.004502008121611948 0 0.0010202689169998866 -0.0042351698034754784 0 0.001287233186179711 -0.004502008121611948 0 0.0015984578308115215 -0.0048187435488005401 0 0.0015144492333124047 -0.0047295532692213501 0 0.0013361973886658305 -0.0045702102509909033 0 0.001287233186179711 -0.004502008121611948 0 0.0015984578308115215 -0.0048187435488005401 0 0.001287233186179711 -0.004502008121611948 0 0.0015144492333124047 -0.0047295532692213501 0 0.0010202689169998866 -0.0042351698034754784 0 0.0015144492333124047 -0.0047295532692213501 0 0.0010202689169998866 -0.0042351698034754784 0 0.0017279423250032672 -0.0055077158575074911 0 0.0010088921376085228 -0.0044378343575303195 0 0.00086875338109478116 -0.005303729760416852 0 0.00056388259455352472 -0.0034588247673650288 0 0.0010202689169998866 -0.0042351698034754784 0 0.00048359005143314707 -0.0047114186976962959 0 0.00048359005143314707 -0.0047114186976962959 0 6.5917537286316267e-05 -0.0049938383174880988 0 0.00016456651315723876 -0.0057285888833711269 0 0.0010202689169998866 -0.0042351698034754784 0 0.00048359005143314707 -0.0047114186976962959 0 6.5917537286316267e-05 -0.0049938383174880988 0 0.00048359005143314707 -0.0047114186976962959 0 0.00016456651315723876 -0.0057285888833711269 0 1.0163405836078612e-06 -0.0050082834340794474 0 0.00016456651315723876 -0.0057285888833711269 0 1.0163405836078612e-06 -0.0050082834340794474 0 4.8707832493301977e-08 -0.0070893985472209303 0 0.00056388259455352472 -0.0034588247673650288 0 0.00048359005143314707 -0.0047114186976962959 0 1.0163405836078612e-06 -0.0050082834340794474 0 0.00065022899336404497 -0.0049473782157891449 0 0.00078693115360476144 -0.0060995993570181388 0 -0.00024425130707974446 -0.0068511366914793311 0 0.00050038755205800221 -0.0069071658287906401 0 0.00078693115360476144 -0.0060995993570181388 0 0.0010452616167738627 -0.0072808427928445314 0 0.00050038755205800221 -0.0069071658287906401 0 0.00078693115360476144 -0.0060995993570181388 0 -0.00024425130707974446 -0.0068511366914793311 0 0.0017279423250032672 -0.0055077158575074911 0 0.00078693115360476144 -0.0060995993570181388 0 0.0010452616167738627 -0.0072808427928445314 0 0.00086875338109478116 -0.005303729760416852 0 0.00046938093282371902 -0.0070253719010619758 0 6.5917537286316267e-05 -0.0049938383174880988 0 0.00016456651315723876 -0.0057285888833711269 0 -0.00024252855076101304 -0.0067789137852156236 0 0.001303554819208227 -0.0051612464647419346 0 0.0017279423250032672 -0.0055077158575074911 0 0.00078693115360476144 -0.0060995993570181388 0 0.00016456651315723876 -0.0057285888833711269 0 4.8707832493301977e-08 -0.0070893985472209303 0 -0.00024252855076101304 -0.0067789137852156236 0 4.8707832493301977e-08 -0.0070893985472209303 0 -0.00024252855076101304 -0.0067789137852156236 0 -1.1006333572731523e-06 -0.0091695294765023489 0 0.00046938093282371902 -0.0070253719010619758 0 6.4446119642453502e-08 -0.0091703988919139764 0 0.00050038755205800221 -0.0069071658287906401 0 0.0010452616167738627 -0.0072808427928445314 0 2.1430663807989442e-06 -0.00917339559233127 0 -0.00015481840548726904 -0.0087362195674798079 0 1.2989678681683202e-07 -0.0099375575392966105 0 2.1430663807989442e-06 -0.00917339559233127 0 -0.00024425130707974446 -0.0068511366914793311 0 -2.6690661715398939e-06 -0.0099351972361997349 0 0.00050038755205800221 -0.0069071658287906401 0 2.1430663807989442e-06 -0.00917339559233127 0 -0.00024425130707974446 -0.0068511366914793311 0 -4.7023511424119898e-05 -0.01052077404075427 0 0.00011320064892204823 -0.010452786129027024 0 5.2268321528177153e-07 -0.0099408387799391935 0 -4.7023511424119898e-05 -0.01052077404075427 0 0.00011320064892204823 -0.010452786129027024 0 -3.1177957264018282e-06 -0.010538395719119764 0 0.00028584081009508708 -0.0097121717318601371 0 0.00053027093554812259 -0.0092642732676010333 0 0.00011320064892204823 -0.010452786129027024 0 0.00021542390468255105 -0.010436719066975325 0 -3.1177957264018282e-06 -0.010538395719119764 0 0.00011320064892204823 -0.010452786129027024 0 0.00021542390468255105 -0.010436719066975325 0 0.00014798169243803491 -0.010622168898663379 0 0.00014798169243803491 -0.010622168898663379 0 5.2268321528177153e-07 -0.0099408387799391935 0 -2.4769867284155172e-07 -0.011547000085482938 0 0.00011320064892204823 -0.010452786129027024 0 0.00014798169243803491 -0.010622168898663379 0 5.2268321528177153e-07 -0.0099408387799391935 0 -9.6253545445742136e-05 -0.010988097283434108 0 -0.00058620749006997488 -0.010506261232706893 0 -0.0014135744068286414 -0.010270502006686963 0 0.00014798169243803491 -0.010622168898663379 0 -2.4769867284155172e-07 -0.011547000085482938 0 -9.6253545445742136e-05 -0.010988097283434108 0 0.00021542390468255105 -0.010436719066975325 0 -9.6253545445742136e-05 -0.010988097283434108 0 -0.00058620749006997488 -0.010506261232706893 0 0.00021542390468255105 -0.010436719066975325 0 0.00014798169243803491 -0.010622168898663379 0 -9.6253545445742136e-05 -0.010988097283434108 0 -9.6253545445742136e-05 -0.010988097283434108 0 -0.0014135744068286414 -0.010270502006686963 0 -0.0020982838164933697 -0.010393611012454019 0 -2.4769867284155172e-07 -0.011547000085482938 0 -9.6253545445742136e-05 -0.010988097283434108 0 -2.434751930101399e-05 -0.013117247199798817 0 -2.4769867284155172e-07 -0.011547000085482938 0 -6.397433621744896e-09 -0.013159135766248794 0 -2.434751930101399e-05 -0.013117247199798817 0 8.6509455968205634e-06 -0.011160579106309786 0 -0.0009420252890678585 -0.011532017964670157 0 -0.00058620749006997488 -0.010506261232706893 0 -0.0014135744068286414 -0.010270502006686963 0 -0.00098760160019305114 -0.009504201378644472 0 -0.0018861467429244563 -0.0099962647358660082 0 -0.0014135744068286414 -0.010270502006686963 0 -0.0017439877116142239 -0.0093505908330895667 0 -0.0018861467429244563 -0.0099962647358660082 0 -0.0014135744068286414 -0.010270502006686963 0 -0.0020982838164933697 -0.010393611012454019 0 -0.0017439877116142239 -0.0093505908330895667 0 -0.00080389034293220567 -0.0083661308231237821 0 -0.0020531299528146153 -0.0082838200901638476 0 -0.0018861467429244563 -0.0099962647358660082 0 -0.0017439877116142239 -0.0093505908330895667 0 -0.0022055156603380211 -0.0097394838871196869 0 -0.0014135744068286414 -0.010270502006686963 0 -0.0017439877116142239 -0.0093505908330895667 0 -0.00098760160019305114 -0.009504201378644472 0 -0.0017439877116142239 -0.0093505908330895667 0 -0.00098760160019305114 -0.009504201378644472 0 -0.00080389034293220567 -0.0083661308231237821 0 0.00049577986515236643 -0.0089326047089661673 0 -0.00028992613349052812 -0.0092246654908162001 0 -0.00080389034293220567 -0.0083661308231237821 0 0.00028584081009508708 -0.0097121717318601371 0 -0.00058885615098332818 -0.010443701188680052 0 0.00049577986515236643 -0.0089326047089661673 0 -0.00058620749006997488 -0.010506261232706893 0 -0.00028992613349052812 -0.0092246654908162001 0 -0.00058620749006997488 -0.010506261232706893 0 -0.00098760160019305114 -0.009504201378644472 0 -0.00028992613349052812 -0.0092246654908162001 0 -0.00098760160019305114 -0.009504201378644472 0 -0.00028992613349052812 -0.0092246654908162001 0 -0.00080389034293220567 -0.0083661308231237821 0 0.00049577986515236643 -0.0089326047089661673 0 -0.00080389034293220567 -0.0083661308231237821 0 0.00016874963031194366 -0.0076163422578931685 0 -0.00080389034293220567 -0.0083661308231237821 0 -0.00024508184602907619 -0.0069667032506253567 0 0.00016874963031194366 -0.0076163422578931685 0 -0.00080389034293220567 -0.0083661308231237821 0 -0.0014823697889303987 -0.0069792543381254615 0 -0.00024508184602907619 -0.0069667032506253567 0 -0.00080389034293220567 -0.0083661308231237821 0 -0.0014823697889303987 -0.0069792543381254615 0 -0.0020531299528146153 -0.0082838200901638476 0 -0.0014823697889303987 -0.0069792543381254615 0 -0.00024508184602907619 -0.0069667032506253567 0 -0.00032774553050234447 -0.0061887795752471175 0 -0.00024508184602907619 -0.0069667032506253567 0 0.00025925696036509227 -0.0061151751556243255 0 -0.00032774553050234447 -0.0061887795752471175 0 -0.00024508184602907619 -0.0069667032506253567 0 0.00063795225892131538 -0.0066885910674307726 0 0.00016874963031194366 -0.0076163422578931685 0 -0.00024508184602907619 -0.0069667032506253567 0 0.00063795225892131538 -0.0066885910674307726 0 0.00025925696036509227 -0.0061151751556243255 0 0.00063795225892131538 -0.0066885910674307726 0 0.00079201505754766029 -0.0060112423561731838 0 0.00025925696036509227 -0.0061151751556243255 0 0.00063795225892131538 -0.0066885910674307726 0 0.0011845555129148904 -0.0061634097248945792 0 0.00079201505754766029 -0.0060112423561731838 0 0.0011845555129148904 -0.0061634097248945792 0 0.0014742281627738939 -0.0060889939438549829 0 0.0014500623658099095 -0.0058197379028660599 0 0.0011845555129148904 -0.0061634097248945792 0 0.0014742281627738939 -0.0060889939438549829 0 0.0014505029822774497 -0.006386962338788933 0 0.0011845555129148904 -0.0061634097248945792 0 0.0014505029822774497 -0.006386962338788933 0 0.0011951012279152271 -0.006711562904123375 0 0.0014505029822774497 -0.006386962338788933 0 0.0011951012279152271 -0.006711562904123375 0 0.001527855871909861 -0.0066981265317524801 0 0.00063795225892131538 -0.0066885910674307726 0 0.0011845555129148904 -0.0061634097248945792 0 0.0011951012279152271 -0.006711562904123375 0 0.0018674219446670338 -0.0065632568683005677 0 0.0014125918576756514 -0.0070461728859055398 0 0.001286366088545522 -0.0077405530899134775 0 0.001036769348922459 -0.007396950952033794 0 0.00053027093554812259 -0.0092642732676010333 0 3.8633243247540357e-05 -0.010473745339257243 0 -4.7023511424119898e-05 -0.01052077404075427 0 -3.1177957264018282e-06 -0.010538395719119764 0 0.00063795225892131538 -0.0066885910674307726 0 0.0011951012279152271 -0.006711562904123375 0 0.00088750259106361057 -0.0074298234622647355 0 0.0011951012279152271 -0.006711562904123375 0 0.0014125918576756514 -0.0070461728859055398 0 0.00088750259106361057 -0.0074298234622647355 0 0.0011951012279152271 -0.006711562904123375 0 0.0014125918576756514 -0.0070461728859055398 0 0.001527855871909861 -0.0066981265317524801 0 0.0014125918576756514 -0.0070461728859055398 0 0.001286366088545522 -0.0077405530899134775 0 0.00088750259106361057 -0.0074298234622647355 0 0.00049577986515236643 -0.0089326047089661673 0 0.001286366088545522 -0.0077405530899134775 0 0.00088750259106361057 -0.0074298234622647355 0 0.00049577986515236643 -0.0089326047089661673 0 0.00016874963031194366 -0.0076163422578931685 0 0.00088750259106361057 -0.0074298234622647355 0 0.00063795225892131538 -0.0066885910674307726 0 0.00016874963031194366 -0.0076163422578931685 0 0.00088750259106361057 -0.0074298234622647355 0 -0.0011904214955972899 -0.017344599033905585 0 -0.0015986515203021559 -0.017426056977862873 0 -0.0012600010178191263 -0.017640473193302 0 -0.00054286236365950612 -0.017254106136320394 0 -0.0020889485635197502 -0.015034045695434201 0 8.8892978047374794e-05 -0.017811283438971044 0 -0.00019847493580825532 -0.017608637778725556 0 -0.00034885375976530274 -0.017963237758869079 0 8.8892978047374794e-05 -0.017811283438971044 0 1.9600010304025793e-05 -0.017627843614053573 0 -0.00019847493580825532 -0.017608637778725556 0 7.5915728554075073e-06 -0.01716917332317951 0 1.1150778043966258e-07 -0.016730238966867046 0 -1.8227880759201968e-07 -0.018687817795489704 0 1.9600010304025793e-05 -0.017627843614053573 0 7.5915728554075073e-06 -0.01716917332317951 0 -0.00019847493580825532 -0.017608637778725556 0 1.9600010304025793e-05 -0.017627843614053573 0 7.5915728554075073e-06 -0.01716917332317951 0 0.00011042634420800237 -0.017864551833004918 0 1.8284569272992491e-05 -0.016934418213078777 0 -4.2973586053477384e-05 -0.016516603848972161 0 7.5915728554075073e-06 -0.01716917332317951 0 -0.00019847493580825532 -0.017608637778725556 0 -0.00053047584494353168 -0.017228424708295064 0 7.5915728554075073e-06 -0.01716917332317951 0 1.1150778043966258e-07 -0.016730238966867046 0 1.6611482062376675e-06 -0.01597090565538355 0 -0.00019847493580825532 -0.017608637778725556 0 -0.00053047584494353168 -0.017228424708295064 0 -0.0006160157561772542 -0.018020192038193682 0 -0.00053047584494353168 -0.017228424708295064 0 -0.0006160157561772542 -0.018020192038193682 0 -0.0010190043123630376 -0.017238098718281934 0 1.1150778043966258e-07 -0.016730238966867046 0 1.6611482062376675e-06 -0.01597090565538355 0 -1.1017807895072448e-07 -0.014769025041623893 0 -4.2973586053477384e-05 -0.016516603848972161 0 -0.0014673222682597849 -0.014312441651449315 0 -0.0019656743699222635 -0.012099880969454666 0 -0.0014673222682597849 -0.014312441651449315 0 -0.0020889485635197502 -0.015034045695434201 0 -0.0019656743699222635 -0.012099880969454666 0 -0.00019847493580825532 -0.017608637778725556 0 -0.00034885375976530274 -0.017963237758869079 0 -0.0006160157561772542 -0.018020192038193682 0 -0.0019656743699222635 -0.012099880969454666 0 -0.0027218053947428282 -0.011627861992486953 0 -0.0037040817161401018 -0.00935957988026637 0 -0.0035981084662432637 -0.009620513153203487 0 -0.003577934344081061 -0.0094196344669898492 0 -0.0037040817161401018 -0.00935957988026637 0 -0.003577934344081061 -0.0094196344669898492 0 -0.0034699452493248445 -0.010145422702397345 0 -0.003068892938193209 -0.0091755446880141377 0 -0.003577934344081061 -0.0094196344669898492 0 -0.0033539218563732394 -0.0087263546673424681 0 -0.003068892938193209 -0.0091755446880141377 0 -0.0029395451971423745 -0.0083776267815008389 0 -0.0033539218563732394 -0.0087263546673424681 0 -0.003068892938193209 -0.0091755446880141377 0 -0.0032402631799545163 -0.0096789231253258442 0 -0.003577934344081061 -0.0094196344669898492 0 -0.003068892938193209 -0.0091755446880141377 0 -0.0032402631799545163 -0.0096789231253258442 0 -0.0027382059719859224 -0.0096644526577101802 0 1.6611482062376675e-06 -0.01597090565538355 0 -1.1179125739203389e-05 -0.015024677956916305 0 -1.1017807895072448e-07 -0.014769025041623893 0 -2.9466346371428137e-05 -0.014736696301104147 0 -2.4342100787081048e-07 -0.01476736838913526 0 -2.434751930101399e-05 -0.013117247199798817 0 -0.0032402631799545163 -0.0096789231253258442 0 -0.003577934344081061 -0.0094196344669898492 0 -0.0034699452493248445 -0.010145422702397345 0 -0.0014673222682597849 -0.014312441651449315 0 -2.0627476930836168e-06 -0.014769134820359336 0 -0.0032402631799545163 -0.0096789231253258442 0 -0.0028974853791853329 -0.0099632476833528133 0 -0.0027382059719859224 -0.0096644526577101802 0 -0.0032402631799545163 -0.0096789231253258442 0 -0.0034699452493248445 -0.010145422702397345 0 -0.0028974853791853329 -0.0099632476833528133 0 -0.0028974853791853329 -0.0099632476833528133 0 -0.0020982838164933697 -0.010393611012454019 0 -0.0027382059719859224 -0.0096644526577101802 0 -0.0014673222682597849 -0.014312441651449315 0 -0.0009420252890678585 -0.011532017964670157 0 -0.0034699452493248445 -0.010145422702397345 0 -0.0028974853791853329 -0.0099632476833528133 0 -0.0020982838164933697 -0.010393611012454019 0 -2.4342100787081048e-07 -0.01476736838913526 0 -6.397433621744896e-09 -0.013159135766248794 0 -2.434751930101399e-05 -0.013117247199798817 0 -0.0018861467429244563 -0.0099962647358660082 0 -0.0020982838164933697 -0.010393611012454019 0 -0.0022055156603380211 -0.0097394838871196869 0 -0.0020982838164933697 -0.010393611012454019 0 -0.0022055156603380211 -0.0097394838871196869 0 -0.0027382059719859224 -0.0096644526577101802 0 -0.0017439877116142239 -0.0093505908330895667 0 -0.0022055156603380211 -0.0097394838871196869 0 -0.0024938475612706797 -0.0091681652393388168 0 -0.003068892938193209 -0.0091755446880141377 0 -0.0027382059719859224 -0.0096644526577101802 0 -0.0024938475612706797 -0.0091681652393388168 0 -0.0022055156603380211 -0.0097394838871196869 0 -0.0027382059719859224 -0.0096644526577101802 0 -0.0024938475612706797 -0.0091681652393388168 0 -0.003068892938193209 -0.0091755446880141377 0 -0.0024938475612706797 -0.0091681652393388168 0 -0.0029395451971423745 -0.0083776267815008389 0 -0.0017439877116142239 -0.0093505908330895667 0 -0.0024938475612706797 -0.0091681652393388168 0 -0.0020531299528146153 -0.0082838200901638476 0 -0.0024938475612706797 -0.0091681652393388168 0 -0.0020531299528146153 -0.0082838200901638476 0 -0.0029395451971423745 -0.0083776267815008389 0 -0.0020531299528146153 -0.0082838200901638476 0 -0.0025861364855299484 -0.0074081023760080647 0 -0.0029395451971423745 -0.0083776267815008389 0 -0.0014823697889303987 -0.0069792543381254615 0 -0.0021955628328838009 -0.0068592595032364607 0 -0.0025861364855299484 -0.0074081023760080647 0 -0.0014823697889303987 -0.0069792543381254615 0 -0.0020531299528146153 -0.0082838200901638476 0 -0.0025861364855299484 -0.0074081023760080647 0 -0.0014823697889303987 -0.0069792543381254615 0 -0.0021955628328838009 -0.0068592595032364607 0 -0.0022677640188979516 -0.0062009684252184016 0 -0.0021955628328838009 -0.0068592595032364607 0 -0.0026986992400429761 -0.0067219336161120956 0 -0.0025861364855299484 -0.0074081023760080647 0 -0.0025861364855299484 -0.0074081023760080647 0 -0.0032472579283247304 -0.007549961050820877 0 -0.0032294387546332338 -0.0069586103765390973 0 -0.0026986992400429761 -0.0067219336161120956 0 -0.0032294387546332338 -0.0069586103765390973 0 -0.0030945972609002967 -0.0065624319650724001 0 -0.0026986992400429761 -0.0067219336161120956 0 -0.0025861364855299484 -0.0074081023760080647 0 -0.0032294387546332338 -0.0069586103765390973 0 -0.0032294387546332338 -0.0069586103765390973 0 -0.0035807600347717464 -0.0068923466178320127 0 -0.0035389257635876407 -0.0066754905439297772 0 -0.0032294387546332338 -0.0069586103765390973 0 -0.0035807600347717464 -0.0068923466178320127 0 -0.0035713051475851566 -0.0072409743076730067 0 -0.0032472579283247304 -0.007549961050820877 0 -0.0032294387546332338 -0.0069586103765390973 0 -0.0035713051475851566 -0.0072409743076730067 0 -0.0032472579283247304 -0.007549961050820877 0 -0.0035713051475851566 -0.0072409743076730067 0 -0.0038862495360881587 -0.0078767364295912537 0 -0.003577934344081061 -0.0094196344669898492 0 -0.0033539218563732394 -0.0087263546673424681 0 -0.0038862495360881587 -0.0078767364295912537 0 -0.0036226318757460775 -0.0093976830977946756 0 -0.0037805161986117271 -0.0090805230171140741 0 -0.0032472579283247304 -0.007549961050820877 0 -0.0029395451971423745 -0.0083776267815008389 0 -0.0038862495360881587 -0.0078767364295912537 0 -0.0025861364855299484 -0.0074081023760080647 0 -0.0032472579283247304 -0.007549961050820877 0 -0.0029395451971423745 -0.0083776267815008389 0 -0.0029395451971423745 -0.0083776267815008389 0 -0.0033539218563732394 -0.0087263546673424681 0 -0.0038862495360881587 -0.0078767364295912537 0 -0.0035981084662432637 -0.009620513153203487 0 -0.003577934344081061 -0.0094196344669898492 0 -0.0037124754807466506 -0.010193403893915837 0 -0.002263789779201809 -0.010499012176718586 0 -0.002515231478597797 -0.0105672946256771 0 -0.002291594815863403 -0.011008386475888267 0 -0.0033500128972827545 -0.0095080373281514422 0 -0.0027706919667489032 -0.010332982504401516 0 -0.0037124754807466506 -0.010193403893915837 0 -0.0033500128972827545 -0.0095080373281514422 0 -0.0035981084662432637 -0.009620513153203487 0 -0.0037124754807466506 -0.010193403893915837 0 -0.0019656743699222635 -0.012099880969454666 0 -0.0026960638022969444 -0.010390409681830694 0 -0.0035713051475851566 -0.0072409743076730067 0 -0.0038862495360881587 -0.0078767364295912537 0 -0.0037753220521620067 -0.0067528831769384807 0 -0.0037124754807466506 -0.010193403893915837 0 -0.0029014203721920949 -0.011256542664647888 0 -0.0034450665345677556 -0.011981799899264622 0 -0.0037805161986117271 -0.0090805230171140741 0 -0.0030132691297087484 -0.0093570160295826151 0 -0.0035807600347717464 -0.0068923466178320127 0 -0.0035713051475851566 -0.0072409743076730067 0 -0.0037753220521620067 -0.0067528831769384807 0 -0.0029014203721920949 -0.011256542664647888 0 -0.0024932351223083487 -0.012169461204368277 0 -0.0034450665345677556 -0.011981799899264622 0 -0.0027706919667489032 -0.010332982504401516 0 -0.0037124754807466506 -0.010193403893915837 0 -0.0029014203721920949 -0.011256542664647888 0 -0.0026960638022969444 -0.010390409681830694 0 -0.0020526764915740048 -0.011706487645000169 0 -0.001314272620600332 -0.018051116731442142 0 -0.0011164601631397939 -0.018423485627951163 0 -0.0010316944416521134 -0.018665856080187875 0 -0.002291594815863403 -0.011008386475888267 0 -0.0020584290460057145 -0.011732922554072737 0 -0.0018751720498272843 -0.011144948080779985 0 -0.0015970433991457774 -0.014451296603925752 0 -0.0011375872075005821 -0.015466769507151482 0 -0.0020584290460057145 -0.011732922554072737 0 -0.0018751720498272843 -0.011144948080779985 0 -0.0010903441259510415 -0.012490573469935352 0 -0.0027706919667489032 -0.010332982504401516 0 -0.0029014203721920949 -0.011256542664647888 0 -0.0020584290460057145 -0.011732922554072737 0 -0.0029014203721920949 -0.011256542664647888 0 -0.0020584290460057145 -0.011732922554072737 0 -0.0024932351223083487 -0.012169461204368277 0 -0.001314272620600332 -0.018051116731442142 0 -0.0012600010178191263 -0.017640473193302 0 -0.00094202244305613826 -0.017731953925915145 0 -0.0020889485635197502 -0.015034045695434201 0 -0.0015970433991457774 -0.014451296603925752 0 -0.002263789779201809 -0.010499012176718586 0 -0.002291594815863403 -0.011008386475888267 0 -0.0018751720498272843 -0.011144948080779985 0 -0.0015986515203021559 -0.017426056977862873 0 -0.001314272620600332 -0.018051116731442142 0 -0.0012600010178191263 -0.017640473193302 0 -0.0019372071048649265 -0.011736788814386081 0 2.4400667765276892e-05 -0.014320193512551071 0 -0.0022154293804019496 -0.013294805378257373 0 -0.001215956722887918 -0.013538590849894892 0 -0.0010252105884434332 -0.014636853404480973 0 -0.0017415656085504334 -0.011142213047408884 0 -0.0014659931810997555 -0.010282133499564023 0 -0.00022959947268380666 -0.011637936835838632 0 -0.0022154293804019496 -0.013294805378257373 0 -0.0016031202550124788 -0.012955332711376324 0 -0.001215956722887918 -0.013538590849894892 0 -0.0016031202550124788 -0.012955332711376324 0 -0.0018914377346347573 -0.01250962857662704 0 -0.0010903441259510415 -0.012490573469935352 0 -0.0022154293804019496 -0.013294805378257373 0 -0.0016031202550124788 -0.012955332711376324 0 -0.0018914377346347573 -0.01250962857662704 0 -0.0020584290460057145 -0.011732922554072737 0 -0.0018914377346347573 -0.01250962857662704 0 -0.0010903441259510415 -0.012490573469935352 0 -0.0020584290460057145 -0.011732922554072737 0 -0.0018914377346347573 -0.01250962857662704 0 -0.0024932351223083487 -0.012169461204368277 0 -0.0022154293804019496 -0.013294805378257373 0 -0.0018914377346347573 -0.01250962857662704 0 -0.0024932351223083487 -0.012169461204368277 0 -0.0030132691297087484 -0.0093570160295826151 0 -0.0030732260387875193 -0.0081572086565402657 0 -0.0019372071048649265 -0.011736788814386081 0 -0.0030132691297087484 -0.0093570160295826151 0 -0.0037753220521620067 -0.0067528831769384807 0 -0.0036055271272561421 -0.0066850146839037075 0 -0.0035536999669267132 -0.0066768220032664763 0 -0.0022154293804019496 -0.013294805378257373 0 -0.0024932351223083487 -0.012169461204368277 0 -0.0034450665345677556 -0.011981799899264622 0 -0.0014659931810997555 -0.010282133499564023 0 -0.0026963947144316527 -0.0089485280333948328 0 -0.0024038190570168341 -0.010393131933190403 0 -0.0036558260144957293 -0.0067374657783827842 0 -0.0037753220521620067 -0.0067528831769384807 0 -0.0036055271272561421 -0.0066850146839037075 0 -0.0035807600347717464 -0.0068923466178320127 0 -0.0036558260144957293 -0.0067374657783827842 0 -0.0037753220521620067 -0.0067528831769384807 0 -0.0036055271272561421 -0.0066850146839037075 0 -0.0035536999669267132 -0.0066768220032664763 0 -0.0035580122410364887 -0.0066839995069561406 0 -0.0017415656085504334 -0.011142213047408884 0 -0.0024038190570168341 -0.010393131933190403 0 -0.002110347257094448 -0.011828330965225585 0 -0.0030732260387875193 -0.0081572086565402657 0 -0.0020800726444003227 -0.0099982303751677409 0 -0.0035536999669267132 -0.0066768220032664763 0 -0.0035370806444346981 -0.0067091305383664684 0 -0.0035580122410364887 -0.0066839995069561406 0 -0.0035536999669267132 -0.0066768220032664763 0 -0.0035370806444346981 -0.0067091305383664684 0 -0.0035100193039693628 -0.0067350100641207769 0 -0.0017415656085504334 -0.011142213047408884 0 -0.0014659931810997555 -0.010282133499564023 0 -0.0024038190570168341 -0.010393131933190403 0 -0.0022175455656238425 -0.011268263432993022 0 -0.0020800726444003227 -0.0099982303751677409 0 -0.0035339614692801429 -0.0067069405908842545 0 -0.0035390568729997567 -0.0066935859692915647 0 -0.0035019490844743891 -0.006728340069232429 0 -0.0035370806444346981 -0.0067091305383664684 0 -0.0035339614692801429 -0.0067069405908842545 0 -0.003523224156574324 -0.0067208440433275118 0 -0.0035339614692801429 -0.0067069405908842545 0 -0.0035580122410364887 -0.0066839995069561406 0 -0.0035390568729997567 -0.0066935859692915647 0 -0.0035370806444346981 -0.0067091305383664684 0 -0.0035339614692801429 -0.0067069405908842545 0 -0.0035580122410364887 -0.0066839995069561406 0 -0.0036055271272561421 -0.0066850146839037075 0 -0.0035580122410364887 -0.0066839995069561406 0 -0.0035389257635876407 -0.0066754905439297772 0 -0.0035580122410364887 -0.0066839995069561406 0 -0.0035389257635876407 -0.0066754905439297772 0 -0.0035390568729997567 -0.0066935859692915647 0 -0.0036558260144957293 -0.0067374657783827842 0 -0.0036055271272561421 -0.0066850146839037075 0 -0.0035389257635876407 -0.0066754905439297772 0 -0.0032294387546332338 -0.0069586103765390973 0 -0.0035389257635876407 -0.0066754905439297772 0 -0.0030945972609002967 -0.0065624319650724001 0 -0.0035807600347717464 -0.0068923466178320127 0 -0.0036558260144957293 -0.0067374657783827842 0 -0.0035389257635876407 -0.0066754905439297772 0 -0.0035389257635876407 -0.0066754905439297772 0 -0.0030945972609002967 -0.0065624319650724001 0 -0.0028239894892424589 -0.0058549712712036815 0 -0.0030945972609002967 -0.0065624319650724001 0 -0.0028239894892424589 -0.0058549712712036815 0 -0.0027610774364095507 -0.0063551719990444511 0 -0.0026986992400429761 -0.0067219336161120956 0 -0.0030945972609002967 -0.0065624319650724001 0 -0.0027610774364095507 -0.0063551719990444511 0 -0.0034767246602804389 -0.0066140698472198231 0 -0.002952600874980226 -0.0065619423668791281 0 -0.0028239894892424589 -0.0058549712712036815 0 -0.0027610774364095507 -0.0063551719990444511 0 -0.0022677640188979516 -0.0062009684252184016 0 -0.0026986992400429761 -0.0067219336161120956 0 -0.0027610774364095507 -0.0063551719990444511 0 -0.0022677640188979516 -0.0062009684252184016 0 -0.0021955628328838009 -0.0068592595032364607 0 -0.0026986992400429761 -0.0067219336161120956 0 -0.0022677640188979516 -0.0062009684252184016 0 -0.0025067520206439198 -0.007139840030753802 0 -0.0016839933569778949 -0.0063663439058211065 0 -0.0017203553749889065 -0.0057393635842583977 0 -0.002952600874980226 -0.0065619423668791281 0 -0.0020419936850825555 -0.0067183939425329514 0 -0.0028239894892424589 -0.0058549712712036815 0 -0.0022677640188979516 -0.0062009684252184016 0 -0.0020282010369531188 -0.0051158607013466785 0 -0.0035390568729997567 -0.0066935859692915647 0 -0.0035014573379350878 -0.0067311450978255081 0 -0.0035019490844743891 -0.006728340069232429 0 -0.0022677640188979516 -0.0062009684252184016 0 -0.0020282010369531188 -0.0051158607013466785 0 -0.0014020769099708221 -0.0056974643273459092 0 -0.002952600874980226 -0.0065619423668791281 0 -0.0018979327211418183 -0.0057406047514779821 0 -0.0020419936850825555 -0.0067183939425329514 0 -0.003694453607291827 -0.006842871942330046 0 -0.0034138243412597026 -0.0067354208529017854 0 -0.0035019490844743891 -0.006728340069232429 0 -0.0034778806140503128 -0.0066892450667705196 0 -0.0020419936850825555 -0.0067183939425329514 0 0.00095560884566140737 -0.0069060277104983411 0 -0.0034138243412597026 -0.0067354208529017854 0 -0.0034778806140503128 -0.0066892450667705196 0 -0.0033661628026059893 -0.0066879202932132271 0 -0.0012147188403449326 -0.0079733080159283629 0 0.00095560884566140737 -0.0069060277104983411 0 0.0023452213907409467 -0.0084438553461924516 0 0.0014620202755153944 -0.0092908475374330092 0 0.0028627606159233121 -0.0095341536024950557 0 0.0023452213907409467 -0.0084438553461924516 0 0.0014620202755153944 -0.0092908475374330092 0 0.0013186158647529216 -0.0081072327583147797 0 6.9243165863566643e-05 -0.0090609759858146059 0 -0.0004373868329997273 -0.0089757773887956631 0 0.00039073599491697841 -0.0074517023642063761 0 -0.0034778806140503128 -0.0066892450667705196 0 -0.0035126746168331192 -0.0067209560063779877 0 -0.0035100041812557259 -0.006716097542132567 0 -0.00068053979931052898 -0.011595686344460947 0 0.00057812350445436635 -0.011911828470225011 0 0.0014620202755153944 -0.0092908475374330092 0 0.0013186158647529216 -0.0081072327583147797 0 6.9243165863566643e-05 -0.0090609759858146059 0 -0.0012147188403449326 -0.0079733080159283629 0 -0.001600970905731269 -0.0097879088683638354 0 0.0013186158647529216 -0.0081072327583147797 0 6.9243165863566643e-05 -0.0090609759858146059 0 0.00039073599491697841 -0.0074517023642063761 0 -0.0035126746168331192 -0.0067209560063779877 0 -0.0035174873296391755 -0.0067252440612473596 0 -0.0035100041812557259 -0.006716097542132567 0 -0.0035174873296391755 -0.0067252440612473596 0 -0.0035100041812557259 -0.006716097542132567 0 -0.003523224156574324 -0.0067208440433275118 0 -0.0035174873296391755 -0.0067252440612473596 0 -0.003523224156574324 -0.0067208440433275118 0 -0.0035222136586942872 -0.0067276910891477734 0 -0.0035019490844743891 -0.006728340069232429 0 -0.0034778806140503128 -0.0066892450667705196 0 -0.0035100041812557259 -0.006716097542132567 0 -0.0035019490844743891 -0.006728340069232429 0 -0.0035100041812557259 -0.006716097542132567 0 -0.003523224156574324 -0.0067208440433275118 0 -0.0035339614692801429 -0.0067069405908842545 0 -0.0035019490844743891 -0.006728340069232429 0 -0.003523224156574324 -0.0067208440433275118 0 -0.0035370806444346981 -0.0067091305383664684 0 -0.0035222136586942872 -0.0067276910891477734 0 -0.0035100193039693628 -0.0067350100641207769 0 -0.0035370806444346981 -0.0067091305383664684 0 -0.003523224156574324 -0.0067208440433275118 0 -0.0035222136586942872 -0.0067276910891477734 0 -0.0020800726444003227 -0.0099982303751677409 0 -0.0014082847912211946 -0.01042050886674099 0 -0.0017906626714897986 -0.010994561305924834 0 -0.0017977729114437532 -0.010946909952061417 0 -0.0017434143774330904 -0.010919465255077119 0 -0.0011917781568934816 -0.012718169059789872 0 -0.0014082847912211946 -0.01042050886674099 0 -0.0020800726444003227 -0.0099982303751677409 0 -0.0011917781568934816 -0.012718169059789872 0 -0.0035174873296391755 -0.0067252440612473596 0 -0.0035222136586942872 -0.0067276910891477734 0 -0.0035157694428990739 -0.0067362782771613573 0 -0.0035222136586942872 -0.0067276910891477734 0 -0.0035100193039693628 -0.0067350100641207769 0 -0.0035157694428990739 -0.0067362782771613573 0 -0.0035126746168331192 -0.0067209560063779877 0 -0.0035174873296391755 -0.0067252440612473596 0 -0.0035157694428990739 -0.0067362782771613573 0 -0.0012315528625332771 -0.010213629420265383 0 -0.0015125088202678596 -0.010359199825141868 0 -0.0014171649439696772 -0.010180987435582474 0 -0.001600970905731269 -0.0097879088683638354 0 -0.0014082847912211946 -0.01042050886674099 0 -0.0014082847912211946 -0.01042050886674099 0 -0.00068053979931052898 -0.011595686344460947 0 -0.001600970905731269 -0.0097879088683638354 0 -0.00068053979931052898 -0.011595686344460947 0 0.00099141454864495058 -0.01590759614562921 0 0.0012364112510228188 -0.016110000001306135 0 0.0010809186495831617 -0.016290739984713028 0 0.00099141454864495058 -0.01590759614562921 0 0.0012364112510228188 -0.016110000001306135 0 0.0013177146528400242 -0.015985992939312146 0 0.0012364112510228188 -0.016110000001306135 0 0.0013177146528400242 -0.015985992939312146 0 0.0013281114229860315 -0.016041375072499486 0 -0.00031346891248960554 -0.012426536969648091 0 -0.0007135514907736307 -0.012627646227012837 0 -0.00019323730961523863 -0.013022531095897835 0 -0.0011917781568934816 -0.012718169059789872 0 0.00067383862254789795 -0.015113174788676933 0 -0.0007135514907736307 -0.012627646227012837 0 -0.0008531558432723045 -0.012890338492518109 0 -0.00019323730961523863 -0.013022531095897835 0 -0.00068053979931052898 -0.011595686344460947 0 0.00067383862254789795 -0.015113174788676933 0 0.00058636693496205673 -0.01564916667724885 0 -0.00040116136591220497 -0.016208946972749636 0 0.0011919641920565232 -0.016527971201928827 0 -0.00056882242184766408 -0.015365420912469528 0 0.00058636693496205673 -0.01564916667724885 0 -0.00040116136591220497 -0.016208946972749636 0 0.00067383862254789795 -0.015113174788676933 0 0.0016062853718822922 -0.016213419016824351 0 0.0013152106961725656 -0.015990239002548728 0 0.0014680054521552753 -0.016144412918347627 0 0.0018868266004004827 -0.016074906529490299 0 0.0014680054521552753 -0.016144412918347627 0 0.0015929068683132358 -0.016317744443013329 0 0.0018868266004004827 -0.016074906529490299 0 0.00067383862254789795 -0.015113174788676933 0 0.00072473410491639425 -0.015268547242345564 0 0.0013152106961725656 -0.015990239002548728 0 0.0013281114229860315 -0.016041375072499486 0 0.0014680054521552753 -0.016144412918347627 0 0.0012364112510228188 -0.016110000001306135 0 0.0013531838093749989 -0.016152074133267996 0 0.0013429563487803093 -0.016277364608355653 0 0.0013281114229860315 -0.016041375072499486 0 0.0014680054521552753 -0.016144412918347627 0 0.0013531838093749989 -0.016152074133267996 0 0.0012364112510228188 -0.016110000001306135 0 0.0013281114229860315 -0.016041375072499486 0 0.0013531838093749989 -0.016152074133267996 0 -0.0017415656085504334 -0.011142213047408884 0 -0.0021173589837080505 -0.011852267703611816 0 -0.00022959947268380666 -0.011637936835838632 0 -0.00056882242184766408 -0.015365420912469528 0 0.00058636693496205673 -0.01564916667724885 0 0.00093615121848804306 -0.014606938107299227 0 -0.0011917781568934816 -0.012718169059789872 0 2.4400667765276892e-05 -0.014320193512551071 0 -0.0021173589837080505 -0.011852267703611816 0 -0.0019848889403319826 -0.012518320296007402 0 -0.00022959947268380666 -0.011637936835838632 0 -0.00056370414906198286 -0.0055959102518179267 0 0.0012977782459178727 -0.0041567360489690114 0 0.00082561891824609317 -0.0046416927067548987 0 3.3875492165618288e-05 -0.0051080290254326682 0 0.00055696821287814623 -0.0041618860131949131 0 -0.00032434168216242303 -0.0052420098821697927 0 3.3875492165618288e-05 -0.0051080290254326682 0 0.00055696821287814623 -0.0041618860131949131 0 0.0013016350860986221 -0.0050804744681262979 0 9.7013057244823452e-05 -0.0051048594444466138 0 0.00082561891824609317 -0.0046416927067548987 0 0.0012622817587887812 -0.004971397450750357 0 3.3875492165618288e-05 -0.0051080290254326682 0 0.00082561891824609317 -0.0046416927067548987 0 0.0012622817587887812 -0.004971397450750357 0 0.0013642513332422221 -0.0043808055566127149 0 0.0014184302677798944 -0.0051931893524712822 0 0.001200254610331756 -0.0056454144340330409 0 0.00064378023623043695 -0.0055854772987633952 0 0.0015336325355527606 -0.0055189811355470216 0 0.0014184302677798944 -0.0051931893524712822 0 0.001200254610331756 -0.0056454144340330409 0 0.0015336325355527606 -0.0055189811355470216 0 0.0014500623658099095 -0.0058197379028660599 0 0.001200254610331756 -0.0056454144340330409 0 0.0011845555129148904 -0.0061634097248945792 0 0.0014500623658099095 -0.0058197379028660599 0 0.001200254610331756 -0.0056454144340330409 0 0.001200254610331756 -0.0056454144340330409 0 0.00079201505754766029 -0.0060112423561731838 0 0.00064378023623043695 -0.0055854772987633952 0 0.0011845555129148904 -0.0061634097248945792 0 0.001200254610331756 -0.0056454144340330409 0 0.00079201505754766029 -0.0060112423561731838 0 0.0014184302677798944 -0.0051931893524712822 0 0.00064378023623043695 -0.0055854772987633952 0 3.3875492165618288e-05 -0.0051080290254326682 0 0.00079201505754766029 -0.0060112423561731838 0 0.00064378023623043695 -0.0055854772987633952 0 0.00025925696036509227 -0.0061151751556243255 0 0.00064378023623043695 -0.0055854772987633952 0 6.1279192212097225e-05 -0.0056450781207589406 0 3.3875492165618288e-05 -0.0051080290254326682 0 0.00064378023623043695 -0.0055854772987633952 0 0.00025925696036509227 -0.0061151751556243255 0 6.1279192212097225e-05 -0.0056450781207589406 0 0.00025925696036509227 -0.0061151751556243255 0 -0.00032774553050234447 -0.0061887795752471175 0 6.1279192212097225e-05 -0.0056450781207589406 0 -0.0014823697889303987 -0.0069792543381254615 0 -0.00032774553050234447 -0.0061887795752471175 0 -0.00032434168216242303 -0.0052420098821697927 0 -0.00032774553050234447 -0.0061887795752471175 0 -0.00032434168216242303 -0.0052420098821697927 0 6.1279192212097225e-05 -0.0056450781207589406 0 -0.00032434168216242303 -0.0052420098821697927 0 6.1279192212097225e-05 -0.0056450781207589406 0 3.3875492165618288e-05 -0.0051080290254326682 0 -0.0014823697889303987 -0.0069792543381254615 0 -0.00050392763528987544 -0.0057723436449276582 0 -0.0014020769099708221 -0.0056974643273459092 0 -0.0014823697889303987 -0.0069792543381254615 0 -0.0022677640188979516 -0.0062009684252184016 0 -0.0014020769099708221 -0.0056974643273459092 0 -0.0013764430365934735 -0.0068609640632070592 0 -0.00056370414906198286 -0.0055959102518179267 0 -0.0014020769099708221 -0.0056974643273459092 0 -0.0013609170591694596 -0.005036681776996026 0 -0.00075832240427346905 -0.0049413159378837255 0 -0.0020282010369531188 -0.0051158607013466785 0 -0.0014020769099708221 -0.0056974643273459092 0 -0.0013609170591694596 -0.005036681776996026 0 -0.00050392763528987544 -0.0057723436449276582 0 -0.00075832240427346905 -0.0049413159378837255 0 0.00053138987999591192 -0.0044529293979246078 0 -0.00050392763528987544 -0.0057723436449276582 0 -0.0014020769099708221 -0.0056974643273459092 0 -0.00075832240427346905 -0.0049413159378837255 0 -0.00075832240427346905 -0.0049413159378837255 0 -0.00053160918319475369 -0.0042611443171084199 0 0.00053138987999591192 -0.0044529293979246078 0 -0.00075832240427346905 -0.0049413159378837255 0 -0.00053160918319475369 -0.0042611443171084199 0 -0.0012580222368367045 -0.004393712622353294 0 0.0023880697398883776 -0.0053480065287937239 0 0.0016924057286746943 -0.0052252544085599588 0 0.0013698107595943995 -0.0055364482418424569 0 0.002176144054963866 -0.0051737254705279505 0 0.00028120006389061475 -0.0057801806147196443 0 0.002176144054963866 -0.0051737254705279505 0 0.0030593567295547422 -0.0057532307181837094 0 -0.0020419936850825555 -0.0067183939425329514 0 0.00028120006389061475 -0.0057801806147196443 0 -0.0020282010369531188 -0.0051158607013466785 0 -0.0013609170591694596 -0.005036681776996026 0 -0.0012580222368367045 -0.004393712622353294 0 -0.0018979327211418183 -0.0057406047514779821 0 0.00028120006389061475 -0.0057801806147196443 0 -0.0016839933569778949 -0.0063663439058211065 0 -0.0017203553749889065 -0.0057393635842583977 0 -0.00085382556459092393 -0.0055892829984844914 0 -0.0013609170591694596 -0.005036681776996026 0 -0.00075832240427346905 -0.0049413159378837255 0 -0.0012580222368367045 -0.004393712622353294 0 0.0017304036669695043 -0.0060615648920564211 0 0.0011638859239766245 -0.0066039797680330177 0 -0.00013072405324774021 -0.0057235078661907806 0 0.0030593567295547422 -0.0057532307181837094 0 0.00028120006389061475 -0.0057801806147196443 0 -0.00081167576447956817 -0.0069559040511008915 0 0.0011638859239766245 -0.0066039797680330177 0 -0.00013072405324774021 -0.0057235078661907806 0 0.0030593567295547422 -0.0057532307181837094 0 0.00095560884566140737 -0.0069060277104983411 0 0.0044064024337090403 -0.0064513745408152677 0 0.0041930124379226863 -0.0064218820141720475 0 0.0043864969433337168 -0.0061482545694204081 0 0.0023452213907409467 -0.0084438553461924516 0 0.0028627606159233121 -0.0095341536024950557 0 0.0038212478215653325 -0.0077910340353869335 0 0.00095560884566140737 -0.0069060277104983411 0 0.0042761760753063909 -0.0069905250898735886 0 0.0044064024337090403 -0.0064513745408152677 0 0.0046620081068153895 -0.0062007204903370356 0 0.0043864969433337168 -0.0061482545694204081 0 0.0047230894252619409 -0.0058953353903737297 0 0.004663000354362388 -0.0058842579353957612 0 0.0048016597769607455 -0.0058085973236837807 0 0.0030593567295547422 -0.0057532307181837094 0 0.0049463513303301555 -0.0059829305320013128 0 0.0048016597769607455 -0.0058085973236837807 0 0.0048465663956328356 -0.0058554249254642483 0 0.0048756003197234577 -0.005805137112970914 0 0.0047230894252619409 -0.0058953353903737297 0 0.0048016597769607455 -0.0058085973236837807 0 0.0048465663956328356 -0.0058554249254642483 0 0.002176144054963866 -0.0051737254705279505 0 0.003708684981084003 -0.0049875794123151211 0 0.002176144054963866 -0.0051737254705279505 0 0.0012977782459178727 -0.0041567360489690114 0 0.002027694266751888 -0.0049475691489932212 0 0.0025885811847042271 -0.005045887739926736 0 0.0027674214456334611 -0.0048111835371408207 0 0.0012977782459178727 -0.0041567360489690114 0 0.003708684981084003 -0.0049875794123151211 0 0.00082561891824609317 -0.0046416927067548987 0 0.00055696821287814623 -0.0041618860131949131 0 0.0013642513332422221 -0.0043808055566127149 0 0.0012977782459178727 -0.0041567360489690114 0 0.0022728213990188505 -0.0037260827372099484 0 0.0023178613057224409 -0.0027942639838463776 0 0.0033295251831878831 -0.0029595400479821591 0 0.0026107824958024163 -0.0024058511467141886 0 0.0039734487421783267 -0.002142100899957265 0 0.0033295251831878831 -0.0029595400479821591 0 0.0026107824958024163 -0.0024058511467141886 0 0.0048367192776400964 -0.005749254076215609 0 0.0048929376123486657 -0.0057665297900457192 0 0.0048756003197234577 -0.005805137112970914 0 0.0056424241202292147 -0.00039271138369174088 0 0.003708684981084003 -0.0049875794123151211 0 0.003708684981084003 -0.0049875794123151211 0 0.0046777974067671356 -0.0056487988345675904 0 0.0048756003197234577 -0.005805137112970914 0 0.0048670548484214936 -0.0058587854268388204 0 0.0049081426275352337 -0.0058306304566652731 0 0.0048670548484214936 -0.0058587854268388204 0 0.0048511679135523327 -0.0057640275485552226 0 0.0049081426275352337 -0.0058306304566652731 0 0.0048511679135523327 -0.0057640275485552226 0 0.0049401507651738071 -0.0055806441606349065 0 0.0049081426275352337 -0.0058306304566652731 0 0.0068113697165341578 -0.0015576604719571602 0 0.0067155396962913236 -0.0015718801283632049 0 0.0048670548484214936 -0.0058587854268388204 0 0.0047360769993482306 -0.0058287514475161267 0 0.0046398862054539986 -0.0060155888514353568 0 0.0048511679135523327 -0.0057640275485552226 0 0.0047360769993482306 -0.0058287514475161267 0 0.004757499684456005 -0.0056683595453146168 0 0.0048670548484214936 -0.0058587854268388204 0 0.0048511679135523327 -0.0057640275485552226 0 0.0047360769993482306 -0.0058287514475161267 0 0.0047360769993482306 -0.0058287514475161267 0 0.0046398862054539986 -0.0060155888514353568 0 0.0046256069301489665 -0.0058888189072819628 0 0.0049463513303301555 -0.0059829305320013128 0 0.0047815800078504136 -0.0059068191048283793 0 0.0048016597769607455 -0.0058085973236837807 0 0.0048756003197234577 -0.005805137112970914 0 0.0048670548484214936 -0.0058587854268388204 0 0.0046620081068153895 -0.0062007204903370356 0 0.0048670548484214936 -0.0058587854268388204 0 0.0046398862054539986 -0.0060155888514353568 0 0.0042761760753063909 -0.0069905250898735886 0 0.004494196875833808 -0.0061216315696235061 0 0.0046398862054539986 -0.0060155888514353568 0 0.0043864969433337168 -0.0061482545694204081 0 0.0045612791180711107 -0.0060092930075994443 0 0.0046620081068153895 -0.0062007204903370356 0 0.0046398862054539986 -0.0060155888514353568 0 0.0043864969433337168 -0.0061482545694204081 0 0.0023452213907409467 -0.0084438553461924516 0 0.0038212478215653325 -0.0077910340353869335 0 0.0022788944621281193 -0.0073991308093828119 0 0.0038212478215653325 -0.0077910340353869335 0 0.0034898889439936354 -0.006674933696875808 0 0.0045612791180711107 -0.0060092930075994443 0 0.0038212478215653325 -0.0077910340353869335 0 0.0034898889439936354 -0.006674933696875808 0 0.0022788944621281193 -0.0073991308093828119 0 0.0034898889439936354 -0.006674933696875808 0 0.0042392532540800835 -0.0058508134803870512 0 0.0027785264669997556 -0.0057739498384551885 0 0.0041214223679041477 -0.0058603238180891465 0 0.003412131361025349 -0.006003369632190318 0 0.0042392532540800835 -0.0058508134803870512 0 0.0042042078917696344 -0.0057255610341396855 0 0.0040648588991606931 -0.0059136652719487745 0 0.0034898889439936354 -0.006674933696875808 0 0.0042392532540800835 -0.0058508134803870512 0 0.0045612791180711107 -0.0060092930075994443 0 0.0042392532540800835 -0.0058508134803870512 0 0.0043677968209457517 -0.0057263223118861955 0 0.0042042078917696344 -0.0057255610341396855 0 0.0046398862054539986 -0.0060155888514353568 0 0.0045612791180711107 -0.0060092930075994443 0 0.0046256069301489665 -0.0058888189072819628 0 0.0042392532540800835 -0.0058508134803870512 0 0.0044833098973607998 -0.0058199228691269535 0 0.0043677968209457517 -0.0057263223118861955 0 0.0042392532540800835 -0.0058508134803870512 0 0.0045612791180711107 -0.0060092930075994443 0 0.0044833098973607998 -0.0058199228691269535 0 0.0044833098973607998 -0.0058199228691269535 0 0.0046256069301489665 -0.0058888189072819628 0 0.0045780854412599391 -0.0056922120416842571 0 0.0047360769993482306 -0.0058287514475161267 0 0.0046256069301489665 -0.0058888189072819628 0 0.0045780854412599391 -0.0056922120416842571 0 0.0045612791180711107 -0.0060092930075994443 0 0.0044833098973607998 -0.0058199228691269535 0 0.0046256069301489665 -0.0058888189072819628 0 0.0045780854412599391 -0.0056922120416842571 0 0.004424734004686833 -0.0055371028813050753 0 0.0046545773284170661 -0.0054782898004636796 0 0.0044833098973607998 -0.0058199228691269535 0 0.0045780854412599391 -0.0056922120416842571 0 0.0043677968209457517 -0.0057263223118861955 0 0.0045780854412599391 -0.0056922120416842571 0 0.0043677968209457517 -0.0057263223118861955 0 0.004424734004686833 -0.0055371028813050753 0 0.0042042078917696344 -0.0057255610341396855 0 0.0040648588991606931 -0.0059136652719487745 0 0.0039341140241390665 -0.0056492442760420558 0 0.0043677968209457517 -0.0057263223118861955 0 0.004424734004686833 -0.0055371028813050753 0 0.0042042078917696344 -0.0057255610341396855 0 0.004424734004686833 -0.0055371028813050753 0 0.0042042078917696344 -0.0057255610341396855 0 0.0041573749877151893 -0.0055670431972024677 0 0.0042042078917696344 -0.0057255610341396855 0 0.0041573749877151893 -0.0055670431972024677 0 0.0039341140241390665 -0.0056492442760420558 0 0.004424734004686833 -0.0055371028813050753 0 0.0041573749877151893 -0.0055670431972024677 0 0.004089553309289169 -0.0053435874879467294 0 0.004097926633271692 -0.0050681176486764134 0 0.0039100957018822248 -0.0084492671905598577 0 0.004424734004686833 -0.0055371028813050753 0 0.0044340733069741503 -0.0054576743039296913 0 0.0045216001770897107 -0.0054524231992872521 0 0.0044340733069741503 -0.0054576743039296913 0 0.0046545773284170661 -0.0054782898004636796 0 0.0045945698517250912 -0.0052534412308944973 0 0.004424734004686833 -0.0055371028813050753 0 0.0044340733069741503 -0.0054576743039296913 0 0.0046545773284170661 -0.0054782898004636796 0 0.0046545773284170661 -0.0054782898004636796 0 0.0049401507651738071 -0.0055806441606349065 0 0.0048776818521260269 -0.0052191206200996806 0 0.0068113697165341578 -0.0015576604719571602 0 0.0065238280380332881 -0.0016132151121275597 0 0.0085581347340553723 0.0024710813558204148 0 0.0091570856694853965 0.0017963415588650269 0 0.0082144475705077692 0.0020506408426225488 0 0.0048511679135523327 -0.0057640275485552226 0 0.0049401507651738071 -0.0055806441606349065 0 0.004757499684456005 -0.0056683595453146168 0 0.0046545773284170661 -0.0054782898004636796 0 0.0049401507651738071 -0.0055806441606349065 0 0.004757499684456005 -0.0056683595453146168 0 0.0045780854412599391 -0.0056922120416842571 0 0.0046545773284170661 -0.0054782898004636796 0 0.004757499684456005 -0.0056683595453146168 0 0.0047360769993482306 -0.0058287514475161267 0 0.0045780854412599391 -0.0056922120416842571 0 0.004757499684456005 -0.0056683595453146168 0 0.0015124860644228568 -0.016850654573577852 0 0.001590367277502023 -0.016998221552412457 0 0.0017641850439005862 -0.016874927449791521 0 0.0013575723114877709 -0.01664979119741725 0 0.0011653334543016178 -0.016810866547800136 0 0.0017641850439005862 -0.016874927449791521 0 0.0011135151852018957 -0.017137063857779411 0 0.0018265770469751475 -0.016817631434228958 0 0.001598326621798848 -0.016654480139596105 0 0.0017641850439005862 -0.016874927449791521 0 0.0018142344733315502 -0.016582584840714988 0 0.0013575723114877709 -0.01664979119741725 0 0.001598326621798848 -0.016654480139596105 0 0.0017641850439005862 -0.016874927449791521 0 0.0015929068683132358 -0.016317744443013329 0 0.0014848259729670246 -0.016491550957589144 0 0.0018142344733315502 -0.016582584840714988 0 0.001598326621798848 -0.016654480139596105 0 0.0014848259729670246 -0.016491550957589144 0 0.0018142344733315502 -0.016582584840714988 0 0.0015929068683132358 -0.016317744443013329 0 0.0013429563487803093 -0.016277364608355653 0 0.0014848259729670246 -0.016491550957589144 0 0.0014680054521552753 -0.016144412918347627 0 0.0015929068683132358 -0.016317744443013329 0 0.0013429563487803093 -0.016277364608355653 0 0.0014680054521552753 -0.016144412918347627 0 0.0013531838093749989 -0.016152074133267996 0 0.0013429563487803093 -0.016277364608355653 0 0.0013575723114877709 -0.01664979119741725 0 0.001598326621798848 -0.016654480139596105 0 0.0014848259729670246 -0.016491550957589144 0 0.0013429563487803093 -0.016277364608355653 0 0.0014848259729670246 -0.016491550957589144 0 0.0012741142685118881 -0.01644315088583723 0 0.0013575723114877709 -0.01664979119741725 0 0.0014848259729670246 -0.016491550957589144 0 0.0012741142685118881 -0.01644315088583723 0 0.00099141454864495058 -0.01590759614562921 0 0.0010809186495831617 -0.016290739984713028 0 0.000792903627394 -0.016319741452003024 0 0.0012741142685118881 -0.01644315088583723 0 0.0010809186495831617 -0.016290739984713028 0 0.0008934477961334825 -0.016625277418260101 0 0.0013575723114877709 -0.01664979119741725 0 0.0012741142685118881 -0.01644315088583723 0 0.0008934477961334825 -0.016625277418260101 0 0.0012364112510228188 -0.016110000001306135 0 0.0013429563487803093 -0.016277364608355653 0 0.0010809186495831617 -0.016290739984713028 0 0.0013429563487803093 -0.016277364608355653 0 0.0012741142685118881 -0.01644315088583723 0 0.0010809186495831617 -0.016290739984713028 0 0.0013575723114877709 -0.01664979119741725 0 0.0011653334543016178 -0.016810866547800136 0 0.0008934477961334825 -0.016625277418260101 0 0.0015124860644228568 -0.016850654573577852 0 0.0012794400902400847 -0.016805670151482332 0 0.0014258802481927795 -0.017009630073294285 0 0.0011135151852018957 -0.017137063857779411 0 0.0020715226516397072 -0.012919143350710998 0 0.00059775605927845569 -0.01669624217435816 0 0.0008934477961334825 -0.016625277418260101 0 0.000792903627394 -0.016319741452003024 0 0.0011653334543016178 -0.016810866547800136 0 0.00063088732158037854 -0.016737142158643255 0 0.0008934477961334825 -0.016625277418260101 0 0.0034115125426816442 -0.011940982563949848 0 0.0033446094750023054 -0.01193925820534672 0 0.0033788157373035111 -0.012247635800241748 0 0.0020715226516397072 -0.012919143350710998 0 0.0019245108527740412 -0.012001690962947278 0 0.0020715226516397072 -0.012919143350710998 0 0.0025795043328587682 -0.010662935004936043 0 0.0019318218647686794 -0.012278232365624324 0 0.00086381548574945301 -0.012265408912422487 0 0.00127029890019044 -0.011504380286645178 0 0.0025795043328587682 -0.010662935004936043 0 0.0019245108527740412 -0.012001690962947278 0 0.00063088732158037854 -0.016737142158643255 0 0.00059775605927845569 -0.01669624217435816 0 0.0008934477961334825 -0.016625277418260101 0 0.0019245108527740412 -0.012001690962947278 0 0.00057812350445436635 -0.011911828470225011 0 0.001223636738025222 -0.005936383917925633 0 0.00039073599491697841 -0.0074517023642063761 0 0.001292883716845004 -0.0069884267311056472 0 0.0010809186495831617 -0.016290739984713028 0 0.0008934477961334825 -0.016625277418260101 0 0.000792903627394 -0.016319741452003024 0 0.0013186158647529216 -0.0081072327583147797 0 0.00039073599491697841 -0.0074517023642063761 0 0.001292883716845004 -0.0069884267311056472 0 0.001292883716845004 -0.0069884267311056472 0 0.0022788944621281193 -0.0073991308093828119 0 0.0020730487619152159 -0.0064372182575942894 0 0.0013186158647529216 -0.0081072327583147797 0 0.001292883716845004 -0.0069884267311056472 0 0.0022788944621281193 -0.0073991308093828119 0 0.0023452213907409467 -0.0084438553461924516 0 0.0013186158647529216 -0.0081072327583147797 0 0.0022788944621281193 -0.0073991308093828119 0 0.0034898889439936354 -0.006674933696875808 0 0.0022788944621281193 -0.0073991308093828119 0 0.0020730487619152159 -0.0064372182575942894 0 0.0034898889439936354 -0.006674933696875808 0 0.0020730487619152159 -0.0064372182575942894 0 0.0027785264669997556 -0.0057739498384551885 0 0.0013094380399947148 -0.0057789320154189852 0 0.0020730487619152159 -0.0064372182575942894 0 0.0027785264669997556 -0.0057739498384551885 0 0.0025795043328587682 -0.010662935004936043 0 0.003412131361025349 -0.006003369632190318 0 0.0037656646379401223 -0.0059538630011467435 0 0.0040648588991606931 -0.0059136652719487745 0 0.0039341140241390665 -0.0056492442760420558 0 0.001223636738025222 -0.005936383917925633 0 0.001292883716845004 -0.0069884267311056472 0 0.0020730487619152159 -0.0064372182575942894 0 0.0013094380399947148 -0.0057789320154189852 0 0.001223636738025222 -0.005936383917925633 0 0.0020730487619152159 -0.0064372182575942894 0 0.0033446094750023054 -0.01193925820534672 0 0.0031187984436059583 -0.012384694865188221 0 0.0033788157373035111 -0.012247635800241748 0 0.0025795043328587682 -0.010662935004936043 0 0.003626951455610311 -0.0088260934783427579 0 0.0031187984436059583 -0.012384694865188221 0 0.0032357858669815327 -0.012680442815346986 0 0.0033788157373035111 -0.012247635800241748 0 0.0039100957018822248 -0.0084492671905598577 0 0.003626951455610311 -0.0088260934783427579 0 0.0029045016486682982 -0.012805937556308865 0 0.0031187984436059583 -0.012384694865188221 0 0.0032357858669815327 -0.012680442815346986 0 0.0041573749877151893 -0.0055670431972024677 0 0.004089553309289169 -0.0053435874879467294 0 0.0039341140241390665 -0.0056492442760420558 0 0.0029045016486682982 -0.012805937556308865 0 0.0032357858669815327 -0.012680442815346986 0 0.0032275927031059264 -0.013062998168833499 0 0.0039100957018822248 -0.0084492671905598577 0 0.003813626342731271 -0.011573050715665672 0 0.0032357858669815327 -0.012680442815346986 0 0.0035636882106009236 -0.012865977505094993 0 0.0033788157373035111 -0.012247635800241748 0 0.0032357858669815327 -0.012680442815346986 0 0.0035636882106009236 -0.012865977505094993 0 0.0032275927031059264 -0.013062998168833499 0 0.0031369711408056277 -0.013097783702124235 0 0.003813626342731271 -0.011573050715665672 0 0.0020715226516397072 -0.012919143350710998 0 0.0027144652600136821 -0.014739576073034125 0 0.0035636882106009236 -0.012865977505094993 0 0.0033788157373035111 -0.012247635800241748 0 0.003797625325984821 -0.012400597085565705 0 0.0034115125426816442 -0.011940982563949848 0 0.0033788157373035111 -0.012247635800241748 0 0.003797625325984821 -0.012400597085565705 0 0.0014258802481927795 -0.017009630073294285 0 0.0015634106438669477 -0.017167258558463815 0 0.001590367277502023 -0.016998221552412457 0 0.0015124860644228568 -0.016850654573577852 0 0.0014258802481927795 -0.017009630073294285 0 0.001590367277502023 -0.016998221552412457 0 0.0027144652600136821 -0.014739576073034125 0 0.0021426061342034865 -0.016712530055679797 0 0.0035636882106009236 -0.012865977505094993 0 0.003797625325984821 -0.012400597085565705 0 0.0042078011396299948 -0.012887679595008651 0 5.0542265703928496e-05 -0.019686195937631101 0 0.0014439673936116001 -0.019147958455177812 0 0.0013698363872152234 -0.019955479767388658 0 0.0021426061342034865 -0.016712530055679797 0 0.0011069341705092048 -0.018032385805754229 0 5.0542265703928496e-05 -0.019686195937631101 0 0.0010674739043328395 -0.018281593052149211 0 0.0014439673936116001 -0.019147958455177812 0 0.0015634106438669477 -0.017167258558463815 0 0.001590367277502023 -0.016998221552412457 0 0.0017269908226216644 -0.017000939064732476 0 0.001590367277502023 -0.016998221552412457 0 0.0017641850439005862 -0.016874927449791521 0 0.0017269908226216644 -0.017000939064732476 0 0.0033205787258619945 -0.018207969602481406 0 0.0031313444922782051 -0.018741661962837976 0 0.0036168843478577148 -0.018575008393207523 0 5.0542265703928496e-05 -0.019686195937631101 0 0.00091278855256215802 -0.020667688310402985 0 0.0013698363872152234 -0.019955479767388658 0 0.0021426061342034865 -0.016712530055679797 0 0.0022177845249165482 -0.019674192263936418 0 0.0030255605210544696 -0.017846660704854651 0 0.0033205787258619945 -0.018207969602481406 0 0.002642731434695289 -0.018346678423294203 0 0.0021426061342034865 -0.016712530055679797 0 0.0045384809744719616 -0.016357385856358635 0 0.0035636882106009236 -0.012865977505094993 0 0.0042078011396299948 -0.012887679595008651 0 0.0036945142308675133 -0.013578240669001502 0 0.0049697675002823597 -0.016600734492600116 0 0.004946924634857284 -0.016487909975016986 0 0.0048233083952545167 -0.016560864034722692 0 0.0033205787258619945 -0.018207969602481406 0 0.002642731434695289 -0.018346678423294203 0 0.0031313444922782051 -0.018741661962837976 0 0.0045384809744719616 -0.016357385856358635 0 0.0038849651480512564 -0.017611436019939149 0 0.0049697675002823597 -0.016600734492600116 0 0.0050681116317949975 -0.016428640648971427 0 0.004946924634857284 -0.016487909975016986 0 0.0052852003216246144 -0.016164160045719526 0 0.0050222878283644251 -0.016224802322624767 0 0.0050681116317949975 -0.016428640648971427 0 0.0045384809744719616 -0.016357385856358635 0 0.0051935494010183301 -0.016357237319198751 0 0.0045384809744719616 -0.016357385856358635 0 0.003813626342731271 -0.011573050715665672 0 0.0035636882106009236 -0.012865977505094993 0 0.0036945142308675133 -0.013578240669001502 0 0.0031573561727797125 -0.013161815675098868 0 0.0052852003216246144 -0.016164160045719526 0 0.0050451756695296234 -0.015967766896889168 0 0.0050222878283644251 -0.016224802322624767 0 0.003813626342731271 -0.011573050715665672 0 0.0079425634447274126 -0.0093750099047954193 0 0.0045216001770897107 -0.0054524231992872521 0 0.0047222715240647179 -0.0056262777994614006 0 0.0044949544611242592 -0.0057816999090924779 0 0.0050451756695296234 -0.015967766896889168 0 0.0050222878283644251 -0.016224802322624767 0 0.0048621195928638663 -0.016137288042448798 0 0.0050222878283644251 -0.016224802322624767 0 0.005003975440875703 -0.016428454637512243 0 0.0048621195928638663 -0.016137288042448798 0 0.0050222878283644251 -0.016224802322624767 0 0.005003975440875703 -0.016428454637512243 0 0.0050681116317949975 -0.016428640648971427 0 0.005003975440875703 -0.016428454637512243 0 0.0050681116317949975 -0.016428640648971427 0 0.0050308106945442322 -0.016441446093447876 0 0.011348244671060263 -0.012298903635469281 0 0.011037774305061931 -0.010886262028823281 0 0.005003975440875703 -0.016428454637512243 0 0.0050308106945442322 -0.016441446093447876 0 0.0050782432773431091 -0.016393226839033902 0 0.0050308106945442322 -0.016441446093447876 0 0.004979549047080486 -0.016404914604936826 0 0.0050782432773431091 -0.016393226839033902 0 0.0050308106945442322 -0.016441446093447876 0 0.0049413091616150612 -0.016457140556868737 0 0.004979549047080486 -0.016404914604936826 0 0.0050681116317949975 -0.016428640648971427 0 0.0050308106945442322 -0.016441446093447876 0 0.004946924634857284 -0.016487909975016986 0 0.0050308106945442322 -0.016441446093447876 0 0.004946924634857284 -0.016487909975016986 0 0.0049413091616150612 -0.016457140556868737 0 0.004946924634857284 -0.016487909975016986 0 0.004821146741294819 -0.01651618040051522 0 0.0048233083952545167 -0.016560864034722692 0 0.004946924634857284 -0.016487909975016986 0 0.0049413091616150612 -0.016457140556868737 0 0.004821146741294819 -0.01651618040051522 0 0.0049413091616150612 -0.016457140556868737 0 0.004847096582202521 -0.016448989315677107 0 0.004821146741294819 -0.01651618040051522 0 0.0049413091616150612 -0.016457140556868737 0 0.004847096582202521 -0.016448989315677107 0 0.004979549047080486 -0.016404914604936826 0 0.004821146741294819 -0.01651618040051522 0 0.0047299301708050951 -0.016539564457784449 0 0.0046968867270838011 -0.016564079163036087 0 0.004847096582202521 -0.016448989315677107 0 0.004821146741294819 -0.01651618040051522 0 0.0047299301708050951 -0.016539564457784449 0 0.0038849651480512564 -0.017611436019939149 0 0.0038938629169359327 -0.019093940377455338 0 0.004821146741294819 -0.01651618040051522 0 0.0048233083952545167 -0.016560864034722692 0 0.0046968867270838011 -0.016564079163036087 0 0.0065238280380332881 -0.0016132151121275597 0 0.010681747658513041 -0.0022375324358142614 0 0.0091570856694853965 0.0017963415588650269 0 0.009962038832039272 0.00061676288218310215 0 0.0091413869792440084 0.00087128714093969578 0 0.0048776818521260269 -0.0052191206200996806 0 0.0046024793416108252 -0.0049827788132321216 0 0.0048234417703858275 -0.0048138712565997032 0 0.0091570856694853965 0.0017963415588650269 0 0.0091413869792440084 0.00087128714093969578 0 0.0084634563127486892 0.001250949935036596 0 0.0091570856694853965 0.0017963415588650269 0 0.0084634563127486892 0.001250949935036596 0 0.0082144475705077692 0.0020506408426225488 0 0.0046545773284170661 -0.0054782898004636796 0 0.0048776818521260269 -0.0052191206200996806 0 0.0045945698517250912 -0.0052534412308944973 0 0.0048776818521260269 -0.0052191206200996806 0 0.0045945698517250912 -0.0052534412308944973 0 0.0046024793416108252 -0.0049827788132321216 0 0.0044340733069741503 -0.0054576743039296913 0 0.0045945698517250912 -0.0052534412308944973 0 0.0043750064993855475 -0.0051584686709815744 0 0.0044340733069741503 -0.0054576743039296913 0 0.0045216001770897107 -0.0054524231992872521 0 0.0044949544611242592 -0.0057816999090924779 0 0.0037883348552315062 -0.0038580391762645361 0 0.0079425634447274126 -0.0093750099047954193 0 0.016892990275844393 -0.0068610973253393015 0 0.016673851200637767 -0.0065264919258228513 0 0.016507282746767708 -0.0066397166957655723 0 0.011348244671060263 -0.012298903635469281 0 0.0079425634447274126 -0.0093750099047954193 0 0.0079425634447274126 -0.0093750099047954193 0 0.01081014199020564 -0.0056144918071775445 0 0.0045945698517250912 -0.0052534412308944973 0 0.0043750064993855475 -0.0051584686709815744 0 0.0046024793416108252 -0.0049827788132321216 0 0.01081014199020564 -0.0056144918071775445 0 0.010681747658513041 -0.0022375324358142614 0 0.016636952237748883 -0.0069271055916812841 0 0.016528351332007803 -0.007203667105542863 0 0.017159369140441978 -0.0072566158675839067 0 0.016507282746767708 -0.0066397166957655723 0 0.016636952237748883 -0.0069271055916812841 0 0.016283793817281459 -0.0067614723042777004 0 0.016892990275844393 -0.0068610973253393015 0 0.016507282746767708 -0.0066397166957655723 0 0.016636952237748883 -0.0069271055916812841 0 0.016892990275844393 -0.0068610973253393015 0 0.016636952237748883 -0.0069271055916812841 0 0.017159369140441978 -0.0072566158675839067 0 0.016636952237748883 -0.0069271055916812841 0 0.016528351332007803 -0.007203667105542863 0 0.016283793817281459 -0.0067614723042777004 0 0.016631243728763713 -0.0050659361798826297 0 0.010681747658513041 -0.0022375324358142614 0 0.015524150061636604 -0.0025128526109092077 0 0.013845957224876681 0.0020549194774428267 0 0.011327035979992132 0.00028158498780392138 0 0.015524150061636604 -0.0025128526109092077 0 0.011327035979992132 0.00028158498780392138 0 0.011918417435770696 -0.0032195896168283502 0 0.009962038832039272 0.00061676288218310215 0 0.0091413869792440084 0.00087128714093969578 0 0.0094532740634015108 -2.1574572478125974e-05 0 0.010681747658513041 -0.0022375324358142614 0 0.01077423513956165 0.00041649732256603773 0 0.0091413869792440084 0.00087128714093969578 0 0.0094532740634015108 -2.1574572478125974e-05 0 0.0082677404002689144 0.00050920660431493902 0 0.0091413869792440084 0.00087128714093969578 0 0.0082677404002689144 0.00050920660431493902 0 0.0084634563127486892 0.001250949935036596 0 0.011327035979992132 0.00028158498780392138 0 0.008859598145504315 -0.0012408215074035266 0 0.011918417435770696 -0.0032195896168283502 0 0.01077423513956165 0.00041649732256603773 0 0.0087937323482384245 -0.0012052861821396945 0 0.0094532740634015108 -2.1574572478125974e-05 0 0.008859598145504315 -0.0012408215074035266 0 0.0082677404002689144 0.00050920660431493902 0 0.008859598145504315 -0.0012408215074035266 0 0.0065910510506344841 0.00028193043059713564 0 0.0082677404002689144 0.00050920660431493902 0 0.008859598145504315 -0.0012408215074035266 0 0.0065910510506344841 0.00028193043059713564 0 0.0069932425815800517 -0.0027951488717313875 0 0.0065910510506344841 0.00028193043059713564 0 0.0072057219630676118 0.0010771294709039771 0 0.0069148921684490374 0.001022164964655427 0 0.0065910510506344841 0.00028193043059713564 0 0.0072057219630676118 0.0010771294709039771 0 0.0082677404002689144 0.00050920660431493902 0 0.0072057219630676118 0.0010771294709039771 0 0.0082677404002689144 0.00050920660431493902 0 0.0084634563127486892 0.001250949935036596 0 0.0072057219630676118 0.0010771294709039771 0 0.0084634563127486892 0.001250949935036596 0 0.0077480267714612099 0.0016507583335886146 0 0.0072057219630676118 0.0010771294709039771 0 0.0077480267714612099 0.0016507583335886146 0 0.0073895323064836508 0.0016285979844624201 0 0.0077480267714612099 0.0016507583335886146 0 0.0076576095297137643 0.0020074946767710197 0 0.0073895323064836508 0.0016285979844624201 0 0.0077480267714612099 0.0016507583335886146 0 0.0076576095297137643 0.0020074946767710197 0 0.0082144475705077692 0.0020506408426225488 0 0.0084634563127486892 0.001250949935036596 0 0.0077480267714612099 0.0016507583335886146 0 0.0082144475705077692 0.0020506408426225488 0 0.007351524192963527 0.0019001609783642693 0 0.00717582036713218 0.001853776554111296 0 0.0073036230529975486 0.002198433357804631 0 0.0076576095297137643 0.0020074946767710197 0 0.007351524192963527 0.0019001609783642693 0 0.0073895323064836508 0.0016285979844624201 0 0.007351524192963527 0.0019001609783642693 0 0.0073895323064836508 0.0016285979844624201 0 0.0072848118535574239 0.0016449287965109871 0 0.0072057219630676118 0.0010771294709039771 0 0.0073895323064836508 0.0016285979844624201 0 0.0072848118535574239 0.0016449287965109871 0 0.0072394112934212459 0.0011332923131257707 0 0.007133836838492189 0.0014352503215953824 0 0.0069632105877361393 0.001258905462286782 0 0.0071300486690321447 0.001447798997427942 0 0.0071731687074815739 0.0015738531901049156 0 0.007351524192963527 0.0019001609783642693 0 0.0072848118535574239 0.0016449287965109871 0 0.00717582036713218 0.001853776554111296 0 0.007133836838492189 0.0014352503215953824 0 0.0071539729947461108 0.0017158284207075519 0 0.0069632105877361393 0.001258905462286782 0 0.0069148921684490374 0.001022164964655427 0 0.0071300486690321447 0.001447798997427942 0 0.0069148921684490374 0.001022164964655427 0 0.0070088936715915788 0.0012056248928282371 0 0.0071300486690321447 0.001447798997427942 0 0.0072057219630676118 0.0010771294709039771 0 0.0069632105877361393 0.001258905462286782 0 0.0069148921684490374 0.001022164964655427 0 0.0065910510506344841 0.00028193043059713564 0 0.0069148921684490374 0.001022164964655427 0 0.0070088936715915788 0.0012056248928282371 0 0.0065910510506344841 0.00028193043059713564 0 0.0070088936715915788 0.0012056248928282371 0 0.0066806255481884581 0.0015827332537916416 0 0.0070088936715915788 0.0012056248928282371 0 0.0072309399957056668 0.0016219396829148828 0 0.0070833402381725299 0.001687648478631605 0 0.0070088936715915788 0.0012056248928282371 0 0.0072309399957056668 0.0016219396829148828 0 0.0071300486690321447 0.001447798997427942 0 0.0072309399957056668 0.0016219396829148828 0 0.0071300486690321447 0.001447798997427942 0 0.007270872835185271 0.001779248910155866 0 0.0072309399957056668 0.0016219396829148828 0 0.007270872835185271 0.001779248910155866 0 0.0075114669546794107 0.002050241283109397 0 0.007680561195903688 0.0042330344784162217 0 0.0077877340164347469 0.0031550322917752332 0 0.0075311321016858293 0.0020443731440611735 0 0.007270872835185271 0.001779248910155866 0 0.0077665187181715787 0.0029998546472250207 0 0.007270872835185271 0.001779248910155866 0 0.0077665187181715787 0.0029998546472250207 0 0.0075114669546794107 0.002050241283109397 0 0.0075311321016858293 0.0020443731440611735 0 0.007270872835185271 0.001779248910155866 0 0.0071719072012550256 0.0018684261106227775 0 0.0075311321016858293 0.0020443731440611735 0 0.0069011290210436432 0.0019163302095108589 0 0.0071719072012550256 0.0018684261106227775 0 0.007270872835185271 0.001779248910155866 0 0.0071719072012550256 0.0018684261106227775 0 0.0071154852945236081 0.0019063045678668704 0 0.0071719072012550256 0.0018684261106227775 0 0.0071154852945236081 0.0019063045678668704 0 0.0068542996051540774 0.0020739293028825766 0 0.0069011290210436432 0.0019163302095108589 0 0.0071719072012550256 0.0018684261106227775 0 0.0068542996051540774 0.0020739293028825766 0 0.0071300486690321447 0.001447798997427942 0 0.007270872835185271 0.001779248910155866 0 0.0071731687074815739 0.0015738531901049156 0 0.007270872835185271 0.001779248910155866 0 0.0071154852945236081 0.0019063045678668704 0 0.0071731687074815739 0.0015738531901049156 0 0.0071031878136006889 0.0018794482440531884 0 0.0071539729947461108 0.0017158284207075519 0 0.0071154852945236081 0.0019063045678668704 0 0.00717582036713218 0.001853776554111296 0 0.0071511718072924538 0.0022117047105465948 0 0.00717582036713218 0.001853776554111296 0 0.0071511718072924538 0.0022117047105465948 0 0.0073036230529975486 0.002198433357804631 0 0.0071511718072924538 0.0022117047105465948 0 0.0072477674648350537 0.0024580474968534526 0 0.0070643818741977999 0.0025657050860755843 0 0.0071511718072924538 0.0022117047105465948 0 0.0072477674648350537 0.0024580474968534526 0 0.0073036230529975486 0.002198433357804631 0 0.0071154852945236081 0.0019063045678668704 0 0.0068542996051540774 0.0020739293028825766 0 0.0068452093311848951 0.0023775927475441104 0 0.0065426148238001266 0.0024224983933103148 0 0.0068542996051540774 0.0020739293028825766 0 0.0068452093311848951 0.0023775927475441104 0 0.0071154852945236081 0.0019063045678668704 0 0.0071511718072924538 0.0022117047105465948 0 0.0068452093311848951 0.0023775927475441104 0 0.0071511718072924538 0.0022117047105465948 0 0.0068452093311848951 0.0023775927475441104 0 0.0070643818741977999 0.0025657050860755843 0 0.0064390281043403743 0.0027689287889491837 0 0.0065426148238001266 0.0024224983933103148 0 0.0068452093311848951 0.0023775927475441104 0 0.0068452093311848951 0.0023775927475441104 0 0.0068847488402189348 0.0030193450106914673 0 0.0070643818741977999 0.0025657050860755843 0 0.0064390281043403743 0.0027689287889491837 0 0.0068452093311848951 0.0023775927475441104 0 0.0068847488402189348 0.0030193450106914673 0 0.0060520239931388048 0.0034018182701368569 0 0.0066005731005861091 0.0032028878945952717 0 0.0060356672971924649 0.0034160628005865984 0 0.0064390281043403743 0.0027689287889491837 0 0.0068847488402189348 0.0030193450106914673 0 0.0060356672971924649 0.0034160628005865984 0 0.0061140105494328781 0.0036766941284496297 0 0.006354885858981401 0.0033871356502077677 0 0.0072477674648350537 0.0024580474968534526 0 0.0072121446383460871 0.0027168458759411073 0 0.0074353433099861145 0.0026467539152227526 0 0.0068847488402189348 0.0030193450106914673 0 0.0072121446383460871 0.0027168458759411073 0 0.0070643818741977999 0.0025657050860755843 0 0.0072477674648350537 0.0024580474968534526 0 0.0072121446383460871 0.0027168458759411073 0 0.0070643818741977999 0.0025657050860755843 0 0.0065379340680247278 0.0036746408310041456 0 0.006354885858981401 0.0033871356502077677 0 0.0068515573850945252 0.0032000182568105479 0 0.0066005731005861091 0.0032028878945952717 0 0.0070297192827950689 0.0029655845213980951 0 0.0071979772274086478 0.0034980817233555587 0 0.0068515573850945252 0.0032000182568105479 0 0.007334538611020412 0.0029913398117337956 0 0.0070297192827950689 0.0029655845213980951 0 0.0074033563717491035 0.0028206211250418381 0 0.0074033563717491035 0.0028206211250418381 0 0.007873459339749837 0.0027251938736434634 0 0.0074353433099861145 0.0026467539152227526 0 0.007883894902309261 0.0027276979046567018 0 0.0075503497850514557 0.0023826637439631586 0 0.007334538611020412 0.0029913398117337956 0 0.0075664378126523964 0.0032534376899544613 0 0.007883894902309261 0.0027276979046567018 0 0.0071979772274086478 0.0034980817233555587 0 0.007334538611020412 0.0029913398117337956 0 0.0075664378126523964 0.0032534376899544613 0 0.0075664378126523964 0.0032534376899544613 0 0.0078929835369309764 0.0032342505587776753 0 0.007883894902309261 0.0027276979046567018 0 0.0077438255433477958 0.0035615578426992371 0 0.0075664378126523964 0.0032534376899544613 0 0.0078929835369309764 0.0032342505587776753 0 0.0056424241202292147 -0.00039271138369174088 0 0.0067155396962913236 -0.0015718801283632049 0 0.0080125802444053588 0.0035924645307141671 0 0.0078929835369309764 0.0032342505587776753 0 0.0082670546966668278 0.0029969714542999511 0 0.0078929835369309764 0.0032342505587776753 0 0.0082670546966668278 0.0029969714542999511 0 0.007883894902309261 0.0027276979046567018 0 0.0085581347340553723 0.0024710813558204148 0 0.0082670546966668278 0.0029969714542999511 0 0.007883894902309261 0.0027276979046567018 0 0.007883894902309261 0.0027276979046567018 0 0.0079519193373150596 0.0023381974086998125 0 0.0075503497850514557 0.0023826637439631586 0 0.0085581347340553723 0.0024710813558204148 0 0.007883894902309261 0.0027276979046567018 0 0.0079519193373150596 0.0023381974086998125 0 0.0085581347340553723 0.0024710813558204148 0 0.0082144475705077692 0.0020506408426225488 0 0.0079519193373150596 0.0023381974086998125 0 0.0076576095297137643 0.0020074946767710197 0 0.0082144475705077692 0.0020506408426225488 0 0.0079519193373150596 0.0023381974086998125 0 0.0076576095297137643 0.0020074946767710197 0 0.0079519193373150596 0.0023381974086998125 0 0.0075503497850514557 0.0023826637439631586 0 0.0076576095297137643 0.0020074946767710197 0 0.007351524192963527 0.0019001609783642693 0 0.0075503497850514557 0.0023826637439631586 0 0.007351524192963527 0.0019001609783642693 0 0.0073036230529975486 0.002198433357804631 0 0.0075503497850514557 0.0023826637439631586 0 0.0072477674648350537 0.0024580474968534526 0 0.0074353433099861145 0.0026467539152227526 0 0.0073036230529975486 0.002198433357804631 0 0.0074353433099861145 0.0026467539152227526 0 0.0073036230529975486 0.002198433357804631 0 0.0075503497850514557 0.0023826637439631586 0 -2.9127091817442539e-05 -0.034835865405240987 0 -4.7846089381551553e-05 -0.034906544589027998 0 -7.9835053014225507e-05 -0.034814155741191719 0 -2.9127091817442539e-05 -0.034835865405240987 0 -7.9835053014225507e-05 -0.034814155741191719 0 -4.3261808457084194e-05 -0.034776651661146608 0 -6.1811822531915939e-06 -0.034996813185904599 0 1.1596675980903404e-08 -0.035000031014453009 0 -3.9485547544580167e-06 -0.035001678386510873 0 -6.1811822531915939e-06 -0.034996813185904599 0 1.1596675980903404e-08 -0.035000031014453009 0 -8.6116998923952243e-08 -0.03499987122646097 0 -2.7973022767135556e-05 -0.034947552086815277 0 -2.2336712163044358e-05 -0.034949987984279736 0 -4.7846089381551553e-05 -0.034906544589027998 0 -7.9835053014225507e-05 -0.034814155741191719 0 -2.0487469148346296e-05 -0.03498196824542027 0 -6.1811822531915939e-06 -0.034996813185904599 0 -3.9485547544580167e-06 -0.035001678386510873 0 -2.0487469148346296e-05 -0.03498196824542027 0 -6.1811822531915939e-06 -0.034996813185904599 0 -2.0487469148346296e-05 -0.03498196824542027 0 -8.6116998923952243e-08 -0.03499987122646097 0 1.1596675980903404e-08 -0.035000031014453009 0 -3.9485547544580167e-06 -0.035001678386510873 0 -1.9808951666672854e-06 -0.034998630411236048 0 -3.9485547544580167e-06 -0.035001678386510873 0 -2.381829711709657e-06 -0.034997659715694934 0 -1.9808951666672854e-06 -0.034998630411236048 0 -3.9485547544580167e-06 -0.035001678386510873 0 -1.5735867714603233e-06 -0.034994854862472939 0 -2.381829711709657e-06 -0.034997659715694934 0 -2.7973022767135556e-05 -0.034947552086815277 0 -0.00022751703126540186 -0.034557602260667133 0 -7.9835053014225507e-05 -0.034814155741191719 0 -4.3261808457084194e-05 -0.034776651661146608 0 -5.4113648188271824e-05 -0.034697887024599847 0 -3.9485547544580167e-06 -0.035001678386510873 0 -1.5735867714603233e-06 -0.034994854862472939 0 -1.1234092984817101e-06 -0.034994447681811328 0 -2.9127091817442539e-05 -0.034835865405240987 0 -4.3261808457084194e-05 -0.034776651661146608 0 -1.3450838121327865e-05 -0.034775934966144471 0 -4.3261808457084194e-05 -0.034776651661146608 0 -2.9807981684741388e-05 -0.034739244282131709 0 -5.4113648188271824e-05 -0.034697887024599847 0 -2.9807981684741388e-05 -0.034739244282131709 0 3.3529720442994043e-06 -0.034717954686203249 0 -1.3450838121327865e-05 -0.034775934966144471 0 3.3529720442994043e-06 -0.034717954686203249 0 -1.3450838121327865e-05 -0.034775934966144471 0 3.3407393908020704e-05 -0.034772491216988485 0 -1.3450838121327865e-05 -0.034775934966144471 0 3.3407393908020704e-05 -0.034772491216988485 0 -1.1624723117088397e-06 -0.034795368478214087 0 -4.3261808457084194e-05 -0.034776651661146608 0 -2.9807981684741388e-05 -0.034739244282131709 0 -1.3450838121327865e-05 -0.034775934966144471 0 5.9048288123298977e-05 -0.034717271862425667 0 3.3407393908020704e-05 -0.034772491216988485 0 0.00011887808659800731 -0.034777859208761079 0 3.3529720442994043e-06 -0.034717954686203249 0 5.9048288123298977e-05 -0.034717271862425667 0 3.3407393908020704e-05 -0.034772491216988485 0 3.3407393908020704e-05 -0.034772491216988485 0 -5.2662570344857256e-06 -0.034794266608561837 0 0.00011887808659800731 -0.034777859208761079 0 1.4186021933889174e-06 -0.034776452931635067 0 0.0001726265166944539 -0.034544885509524892 0 -5.2662570344857256e-06 -0.034794266608561837 0 0.00017401306837829691 -0.034632158728947586 0 0.00018762433031934518 -0.03436718619303445 0 -2.9127091817442539e-05 -0.034835865405240987 0 -5.2662570344857256e-06 -0.034794266608561837 0 -5.7635910091338574e-05 -0.034918472486263306 0 -2.9127091817442539e-05 -0.034835865405240987 0 -1.3450838121327865e-05 -0.034775934966144471 0 -1.1624723117088397e-06 -0.034795368478214087 0 3.3407393908020704e-05 -0.034772491216988485 0 -1.1624723117088397e-06 -0.034795368478214087 0 -5.2662570344857256e-06 -0.034794266608561837 0 -2.9127091817442539e-05 -0.034835865405240987 0 -1.1624723117088397e-06 -0.034795368478214087 0 -5.2662570344857256e-06 -0.034794266608561837 0 -5.2662570344857256e-06 -0.034794266608561837 0 3.9420897907923312e-05 -0.03479891439230888 0 -5.7635910091338574e-05 -0.034918472486263306 0 -7.6446776888050547e-05 -0.034842183355421531 0 -7.0252512960725929e-05 -0.034908869103218929 0 -0.00021872718706804741 -0.034898723568810887 0 -0.00015558073528104473 -0.034824019697185071 0 -5.7635910091338574e-05 -0.034918472486263306 0 -5.2662570344857256e-06 -0.034794266608561837 0 3.9420897907923312e-05 -0.03479891439230888 0 0.00017401306837829691 -0.034632158728947586 0 -0.00021872718706804741 -0.034898723568810887 0 -0.00023647299866574385 -0.03480344519920249 0 -0.00033127056307998655 -0.034773128716483907 0 -0.00023647299866574385 -0.03480344519920249 0 -0.00015558073528104473 -0.034824019697185071 0 -0.00025900306645209269 -0.034695523461075441 0 -0.00021872718706804741 -0.034898723568810887 0 -0.00023647299866574385 -0.03480344519920249 0 -0.00015558073528104473 -0.034824019697185071 0 -0.00023647299866574385 -0.03480344519920249 0 -0.00025900306645209269 -0.034695523461075441 0 -0.00033127056307998655 -0.034773128716483907 0 -5.1492583605043904e-05 -0.03488332893124494 0 -5.7635910091338574e-05 -0.034918472486263306 0 -2.5662888680642746e-05 -0.034956122273935214 0 -0.00015558073528104473 -0.034824019697185071 0 -5.1492583605043904e-05 -0.03488332893124494 0 -5.7635910091338574e-05 -0.034918472486263306 0 -2.9127091817442539e-05 -0.034835865405240987 0 -4.7846089381551553e-05 -0.034906544589027998 0 -5.7635910091338574e-05 -0.034918472486263306 0 -5.7635910091338574e-05 -0.034918472486263306 0 -3.970430821876711e-05 -0.034940610156243633 0 -2.5662888680642746e-05 -0.034956122273935214 0 -4.7846089381551553e-05 -0.034906544589027998 0 -5.7635910091338574e-05 -0.034918472486263306 0 -3.970430821876711e-05 -0.034940610156243633 0 -2.0487469148346296e-05 -0.03498196824542027 0 -8.6116998923952243e-08 -0.03499987122646097 0 -2.5662888680642746e-05 -0.034956122273935214 0 -2.0487469148346296e-05 -0.03498196824542027 0 -3.970430821876711e-05 -0.034940610156243633 0 -2.5662888680642746e-05 -0.034956122273935214 0 -4.7846089381551553e-05 -0.034906544589027998 0 -2.0487469148346296e-05 -0.03498196824542027 0 -3.970430821876711e-05 -0.034940610156243633 0 -8.6116998923952243e-08 -0.03499987122646097 0 -2.5662888680642746e-05 -0.034956122273935214 0 7.8528160580256901e-08 -0.034999958575272223 0 -5.1492583605043904e-05 -0.03488332893124494 0 -2.5662888680642746e-05 -0.034956122273935214 0 7.8528160580256901e-08 -0.034999958575272223 0 7.8528160580256901e-08 -0.034999958575272223 0 6.0509219240659664e-05 -0.03469183433918404 0 1.1759449268454401e-07 -0.034999017318039921 0 -5.1492583605043904e-05 -0.03488332893124494 0 7.8528160580256901e-08 -0.034999958575272223 0 6.0509219240659664e-05 -0.03469183433918404 0 -5.1492583605043904e-05 -0.03488332893124494 0 6.0509219240659664e-05 -0.03469183433918404 0 -0.00013493686573358058 -0.034738178417784968 0 2.885703168911023e-05 -0.033679751309191638 0 6.5475272148505492e-05 -0.034194962908982732 0 -3.5823824704678815e-05 -0.034085422492406987 0 7.2939681676972696e-05 -0.034614399104976296 0 -6.7288260751694932e-05 -0.034442322642392081 0 6.5475272148505492e-05 -0.034194962908982732 0 6.0509219240659664e-05 -0.03469183433918404 0 -3.5823824704678815e-05 -0.034085422492406987 0 6.5475272148505492e-05 -0.034194962908982732 0 6.0509219240659664e-05 -0.03469183433918404 0 5.1264547948694904e-05 -0.034608351957465061 0 6.0509219240659664e-05 -0.03469183433918404 0 1.1759449268454401e-07 -0.034999017318039921 0 5.1264547948694904e-05 -0.034608351957465061 0 6.4402094447398034e-05 -0.033248535367594333 0 1.306358361051072e-07 -0.034999466476174385 0 -5.0556468187899876e-08 -0.031010373640412866 0 1.1759449268454401e-07 -0.034999017318039921 0 5.1264547948694904e-05 -0.034608351957465061 0 9.4809752619213457e-08 -0.034998998571011061 0 5.1264547948694904e-05 -0.034608351957465061 0 7.0651948393041697e-05 -0.033794023279868413 0 9.4809752619213457e-08 -0.034998998571011061 0 6.5475272148505492e-05 -0.034194962908982732 0 5.1264547948694904e-05 -0.034608351957465061 0 7.0651948393041697e-05 -0.033794023279868413 0 2.885703168911023e-05 -0.033679751309191638 0 6.5475272148505492e-05 -0.034194962908982732 0 7.0651948393041697e-05 -0.033794023279868413 0 7.0254061194364973e-05 -0.033472485588037233 0 1.1780022983785727e-07 -0.034999433139252696 0 6.4402094447398034e-05 -0.033248535367594333 0 1.306358361051072e-07 -0.034999466476174385 0 -3.6898516703419619e-08 -0.034998666955872837 0 6.4402094447398034e-05 -0.033248535367594333 0 -5.0556468187899876e-08 -0.031010373640412866 0 2.0428413536739447e-05 -0.031902703866760168 0 -5.0556468187899876e-08 -0.031010373640412866 0 2.0428413536739447e-05 -0.031902703866760168 0 -8.7906830642932172e-05 -0.030942953692436499 0 7.0254061194364973e-05 -0.033472485588037233 0 3.9364502636110094e-07 -0.032219861362528669 0 2.885703168911023e-05 -0.033679751309191638 0 7.0651948393041697e-05 -0.033794023279868413 0 2.0428413536739447e-05 -0.031902703866760168 0 2.885703168911023e-05 -0.033679751309191638 0 2.0428413536739447e-05 -0.031902703866760168 0 5.436123337614674e-05 -0.031756418240797536 0 2.0428413536739447e-05 -0.031902703866760168 0 5.436123337614674e-05 -0.031756418240797536 0 -8.7906830642932172e-05 -0.030942953692436499 0 2.885703168911023e-05 -0.033679751309191638 0 -0.0003648119838504946 -0.033946194267727069 0 -3.5823824704678815e-05 -0.034085422492406987 0 0.00010398260810665545 -0.033510907184091929 0 -0.00010510301711704071 -0.032921326464654767 0 -0.00015558073528104473 -0.034824019697185071 0 -5.1492583605043904e-05 -0.03488332893124494 0 -0.00013493686573358058 -0.034738178417784968 0 -6.7288260751694932e-05 -0.034442322642392081 0 -0.00030222105234549147 -0.034439999573930291 0 -0.00015558073528104473 -0.034824019697185071 0 -0.00013493686573358058 -0.034738178417784968 0 -0.00025900306645209269 -0.034695523461075441 0 -0.0003648119838504946 -0.033946194267727069 0 -3.5823824704678815e-05 -0.034085422492406987 0 -0.00033016048403646198 -0.03418706573340894 0 -0.0003648119838504946 -0.033946194267727069 0 -0.00033016048403646198 -0.03418706573340894 0 -0.0004658714019458538 -0.034129945963626632 0 -0.00033016048403646198 -0.03418706573340894 0 -0.0004658714019458538 -0.034129945963626632 0 -0.00054324091840852367 -0.034312470750465653 0 -0.00030222105234549147 -0.034439999573930291 0 -0.00052197841665548321 -0.034475048420943726 0 -0.00062174930644314083 -0.034074203345643365 0 -0.00077227453757303317 -0.034250703701526303 0 -0.00054324091840852367 -0.034312470750465653 0 -0.0004658714019458538 -0.034129945963626632 0 -0.00062174930644314083 -0.034074203345643365 0 -0.00054324091840852367 -0.034312470750465653 0 -0.00068624729110326006 -0.031585614866998957 0 -0.00039048010106296227 -0.031360153154799557 0 -0.00078272957065617836 -0.031149404628970562 0 -0.00010510301711704071 -0.032921326464654767 0 -0.00063154951673859269 -0.032783154077370903 0 5.436123337614674e-05 -0.031756418240797536 0 -0.00039048010106296227 -0.031360153154799557 0 -8.7906830642932172e-05 -0.030942953692436499 0 5.436123337614674e-05 -0.031756418240797536 0 -0.00068624729110326006 -0.031585614866998957 0 -0.00039048010106296227 -0.031360153154799557 0 -0.0003648119838504946 -0.033946194267727069 0 -0.0004658714019458538 -0.034129945963626632 0 -0.00062174930644314083 -0.034074203345643365 0 -5.0556468187899876e-08 -0.031010373640412866 0 -4.1489565017880365e-05 -0.02976029570394487 0 8.730017157411727e-07 -0.028062380723384517 0 -0.00039048010106296227 -0.031360153154799557 0 -8.7906830642932172e-05 -0.030942953692436499 0 -0.00078272957065617836 -0.031149404628970562 0 3.1460810288651116e-06 -0.030719269822153294 0 -0.00026579014625568623 -0.030203864879347921 0 -8.7906830642932172e-05 -0.030942953692436499 0 2.5298780363982673e-05 -0.029089894313098368 0 -4.1489565017880365e-05 -0.02976029570394487 0 2.5298780363982673e-05 -0.029089894313098368 0 -4.1489565017880365e-05 -0.02976029570394487 0 8.2951973321808959e-05 -0.028599167626949418 0 -4.1489565017880365e-05 -0.02976029570394487 0 8.730017157411727e-07 -0.028062380723384517 0 8.2951973321808959e-05 -0.028599167626949418 0 -5.0556468187899876e-08 -0.031010373640412866 0 -8.7906830642932172e-05 -0.030942953692436499 0 -4.1489565017880365e-05 -0.02976029570394487 0 0.00014988545155997506 -0.027553723541181387 0 8.730017157411727e-07 -0.028062380723384517 0 -2.187815789307318e-06 -0.025889680890746569 0 0.00014988545155997506 -0.027553723541181387 0 8.730017157411727e-07 -0.028062380723384517 0 8.2951973321808959e-05 -0.028599167626949418 0 -0.00078272957065617836 -0.031149404628970562 0 -0.0011568446928360771 -0.03119642670095649 0 -0.0010202294350952973 -0.031395920881345664 0 0.00014988545155997506 -0.027553723541181387 0 8.2951973321808959e-05 -0.028599167626949418 0 0.00016343557097645174 -0.028401987474180677 0 -0.00026579014625568623 -0.030203864879347921 0 -0.00049011506202432866 -0.029184883187349939 0 2.5298780363982673e-05 -0.029089894313098368 0 0.00016343557097645174 -0.028401987474180677 0 0.00021976979539429928 -0.028112607163091358 0 2.5298780363982673e-05 -0.029089894313098368 0 8.2951973321808959e-05 -0.028599167626949418 0 0.00016343557097645174 -0.028401987474180677 0 0.00019319226806039109 -0.028624430642744947 0 -0.00049011506202432866 -0.029184883187349939 0 -0.00049011506202432866 -0.029184883187349939 0 -0.00053180057864411637 -0.027003677688649461 0 0.00014988545155997506 -0.027553723541181387 0 0.00015703611140601426 -0.028307890497990328 0 -0.00097297401542794119 -0.028233672594120674 0 0.00014988545155997506 -0.027553723541181387 0 0.00016343557097645174 -0.028401987474180677 0 0.00015703611140601426 -0.028307890497990328 0 -0.00049011506202432866 -0.029184883187349939 0 -0.0013000319198251515 -0.030079504481183073 0 -0.0011568446928360771 -0.03119642670095649 0 -0.001237132208758958 -0.031417974210136916 0 -0.0013903469841786255 -0.031328688217872436 0 -0.0011568446928360771 -0.03119642670095649 0 -0.001237132208758958 -0.031417974210136916 0 -0.0010202294350952973 -0.031395920881345664 0 -0.001237132208758958 -0.031417974210136916 0 -0.0010202294350952973 -0.031395920881345664 0 -0.0012347281444001971 -0.031623873536280524 0 -0.001237132208758958 -0.031417974210136916 0 -0.0012347281444001971 -0.031623873536280524 0 -0.0014287248391123537 -0.031501316948469672 0 -0.001237132208758958 -0.031417974210136916 0 -0.0014287248391123537 -0.031501316948469672 0 -0.0013903469841786255 -0.031328688217872436 0 -0.00068624729110326006 -0.031585614866998957 0 -0.00078272957065617836 -0.031149404628970562 0 -0.0010202294350952973 -0.031395920881345664 0 -0.00068624729110326006 -0.031585614866998957 0 -0.0010202294350952973 -0.031395920881345664 0 -0.0012347281444001971 -0.031623873536280524 0 -0.00090729277273078602 -0.034325950498615705 0 -0.00077227453757303317 -0.034250703701526303 0 -0.0010116031340323104 -0.034152572482443667 0 -0.00063154951673859269 -0.032783154077370903 0 -0.001176572703022746 -0.033165596525523748 0 -0.00062174930644314083 -0.034074203345643365 0 -0.00077227453757303317 -0.034250703701526303 0 -0.0010116031340323104 -0.034152572482443667 0 -0.00090729277273078602 -0.034325950498615705 0 -0.0010116031340323104 -0.034152572482443667 0 -0.0010278833559989864 -0.034390607875680351 0 -0.0010116031340323104 -0.034152572482443667 0 -0.0010278833559989864 -0.034390607875680351 0 -0.001248663393992026 -0.034330423817681664 0 -0.0010278833559989864 -0.034390607875680351 0 -0.0011209692727816142 -0.034530573800360134 0 -0.001248663393992026 -0.034330423817681664 0 -0.00090729277273078602 -0.034325950498615705 0 -0.0010278833559989864 -0.034390607875680351 0 -0.00080696746816630663 -0.034532899473548838 0 -0.0010278833559989864 -0.034390607875680351 0 -0.00093206838531664988 -0.034641535762503742 0 -0.00080696746816630663 -0.034532899473548838 0 -0.0010278833559989864 -0.034390607875680351 0 -0.0011209692727816142 -0.034530573800360134 0 -0.00093206838531664988 -0.034641535762503742 0 -0.0011209692727816142 -0.034530573800360134 0 -0.0010822059651487347 -0.034731805316796503 0 -0.00093206838531664988 -0.034641535762503742 0 0.00021237024179223004 -0.03342619139700561 0 0.00025684934137493176 -0.033235854416777774 0 -4.0474320669126872e-07 -0.033282707517843763 0 -0.0010829200924444876 -0.034752510173137886 0 -0.00093206838531664988 -0.034641535762503742 0 -0.0008226870210938528 -0.03493983774789506 0 -0.00048560554040168608 -0.032926050049282903 0 -0.0013698796712546995 -0.03453797896118492 0 -0.00048560554040168608 -0.032926050049282903 0 0.0002064632120261845 -0.03429380808813802 0 -0.00093206838531664988 -0.034641535762503742 0 -0.0007864207796164271 -0.034711035927038177 0 -0.0008226870210938528 -0.03493983774789506 0 -0.00080696746816630663 -0.034532899473548838 0 -0.00051607085000937743 -0.034730317746322278 0 -0.0006432058885186071 -0.034790047418804031 0 -0.0007864207796164271 -0.034711035927038177 0 -0.0006432058885186071 -0.034790047418804031 0 -0.0008226870210938528 -0.03493983774789506 0 -0.0007864207796164271 -0.034711035927038177 0 -0.00080696746816630663 -0.034532899473548838 0 -0.0006432058885186071 -0.034790047418804031 0 -0.00077227453757303317 -0.034250703701526303 0 -0.00080696746816630663 -0.034532899473548838 0 -0.00054324091840852367 -0.034312470750465653 0 -0.00093206838531664988 -0.034641535762503742 0 -0.0007864207796164271 -0.034711035927038177 0 -0.00080696746816630663 -0.034532899473548838 0 -0.00090729277273078602 -0.034325950498615705 0 -0.00077227453757303317 -0.034250703701526303 0 -0.00080696746816630663 -0.034532899473548838 0 -0.00080696746816630663 -0.034532899473548838 0 -0.00046178379092531836 -0.034624278853644011 0 -0.00051607085000937743 -0.034730317746322278 0 -0.00080137142135793156 -0.034538533142010386 0 -0.00052197841665548321 -0.034475048420943726 0 -0.00025900306645209269 -0.034695523461075441 0 -0.00046178379092531836 -0.034624278853644011 0 -0.00033127056307998655 -0.034773128716483907 0 -0.00046178379092531836 -0.034624278853644011 0 -0.00051607085000937743 -0.034730317746322278 0 -0.00033127056307998655 -0.034773128716483907 0 -7.6446776888050547e-05 -0.034842183355421531 0 -9.8425364373693145e-05 -0.034844457658347816 0 -0.00051607085000937743 -0.034730317746322278 0 -0.00033127056307998655 -0.034773128716483907 0 -0.00044235503003935801 -0.034896532852788056 0 -0.00021872718706804741 -0.034898723568810887 0 -0.00033127056307998655 -0.034773128716483907 0 -0.00044235503003935801 -0.034896532852788056 0 3.9420897907923312e-05 -0.03479891439230888 0 0.0003558141708818128 -0.034661342833491093 0 0.00017401306837829691 -0.034632158728947586 0 -0.0006432058885186071 -0.034790047418804031 0 -0.00044235503003935801 -0.034896532852788056 0 -0.0008226870210938528 -0.03493983774789506 0 -0.00051607085000937743 -0.034730317746322278 0 -0.0006432058885186071 -0.034790047418804031 0 -0.00044235503003935801 -0.034896532852788056 0 0.0003558141708818128 -0.034661342833491093 0 0.00049872289593119517 -0.034344529383225054 0 0.00081643799738589039 -0.034572034750516997 0 -9.8425364373693145e-05 -0.034844457658347816 0 0.0002064632120261845 -0.03429380808813802 0 0.0003558141708818128 -0.034661342833491093 0 0.00017401306837829691 -0.034632158728947586 0 0.00018762433031934518 -0.03436718619303445 0 0.0003558141708818128 -0.034661342833491093 0 0.00049872289593119517 -0.034344529383225054 0 0.00018762433031934518 -0.03436718619303445 0 0.00011887808659800731 -0.034777859208761079 0 0.00029492184693909212 -0.034665065951625308 0 0.00011985859700958287 -0.034673283308685646 0 5.9048288123298977e-05 -0.034717271862425667 0 0.00011887808659800731 -0.034777859208761079 0 0.00011985859700958287 -0.034673283308685646 0 0.00049872289593119517 -0.034344529383225054 0 0.00018762433031934518 -0.03436718619303445 0 0.00052708332796844257 -0.033991382854662938 0 0.0001726265166944539 -0.034544885509524892 0 0.00040290396746585431 -0.034477593383667411 0 0.00049872289593119517 -0.034344529383225054 0 0.00072681532061422041 -0.034213697427794537 0 0.00052708332796844257 -0.033991382854662938 0 0.00072681532061422041 -0.034213697427794537 0 0.00079964120516515691 -0.0339595179201784 0 0.00052708332796844257 -0.033991382854662938 0 0.00072681532061422041 -0.034213697427794537 0 0.00092042664714419025 -0.034047106948708362 0 0.00079964120516515691 -0.0339595179201784 0 0.00092042664714419025 -0.034047106948708362 0 0.00089009507900705907 -0.034251580975124547 0 0.0010791000368942641 -0.034159977961958417 0 0.00072681532061422041 -0.034213697427794537 0 0.00092042664714419025 -0.034047106948708362 0 0.00089009507900705907 -0.034251580975124547 0 0.00089009507900705907 -0.034251580975124547 0 0.00099008853883770002 -0.03438358942162744 0 0.0007485601847372716 -0.034439537010413822 0 0.00068166067614235744 -0.033808197553161549 0 0.0002064632120261845 -0.03429380808813802 0 0.00089009507900705907 -0.034251580975124547 0 0.00099008853883770002 -0.03438358942162744 0 0.0010791000368942641 -0.034159977961958417 0 0.00049872289593119517 -0.034344529383225054 0 0.00072681532061422041 -0.034213697427794537 0 0.0007485601847372716 -0.034439537010413822 0 0.00072681532061422041 -0.034213697427794537 0 0.00089009507900705907 -0.034251580975124547 0 0.0007485601847372716 -0.034439537010413822 0 0.00072103279297021719 -0.034463719401708233 0 0.0002064632120261845 -0.03429380808813802 0 0.00056842807846987746 -0.032379492085477135 0 0.00033504335416546907 -0.029654882568673227 0 0.00011287994839721272 -0.030233316309102656 0 -2.0047984842337388e-05 -0.030216631068249247 0 0.00023044412799233413 -0.030060646183939669 0 -2.0047984842337388e-05 -0.030216631068249247 0 -4.8293973936253396e-05 -0.030218864796576036 0 0.00023044412799233413 -0.030060646183939669 0 0.000126371308271085 -0.030242475366773641 0 0.00011287994839721272 -0.030233316309102656 0 0.00023044412799233413 -0.030060646183939669 0 0.00011287994839721272 -0.030233316309102656 0 1.2851731887162789e-05 -0.030307686552999143 0 -2.0047984842337388e-05 -0.030216631068249247 0 1.2851731887162789e-05 -0.030307686552999143 0 -7.3858173828321606e-05 -0.030225411416970618 0 3.6175626315610225e-06 -0.030495314692632784 0 0.00011287994839721272 -0.030233316309102656 0 1.2851731887162789e-05 -0.030307686552999143 0 3.6175626315610225e-06 -0.030495314692632784 0 1.2851731887162789e-05 -0.030307686552999143 0 -2.0047984842337388e-05 -0.030216631068249247 0 -7.3858173828321606e-05 -0.030225411416970618 0 0.00051531526861895187 -0.03229969066778305 0 0.00056842807846987746 -0.032379492085477135 0 0.00021237024179223004 -0.03342619139700561 0 0.00025684934137493176 -0.033235854416777774 0 0.00051878056974409721 -0.033189856010662717 0 0.00099008853883770002 -0.03438358942162744 0 0.0012485205310170905 -0.03433962682702657 0 0.0010791000368942641 -0.034159977961958417 0 0.00068166067614235744 -0.033808197553161549 0 0.00056842807846987746 -0.032379492085477135 0 0.00092042664714419025 -0.034047106948708362 0 0.0010791000368942641 -0.034159977961958417 0 0.001126881517128373 -0.033913006472157552 0 0.0012485205310170905 -0.03433962682702657 0 0.0010791000368942641 -0.034159977961958417 0 0.0013676726688713575 -0.033982208587779533 0 0.0010791000368942641 -0.034159977961958417 0 0.0013676726688713575 -0.033982208587779533 0 0.001126881517128373 -0.033913006472157552 0 0.0012485205310170905 -0.03433962682702657 0 0.0013676726688713575 -0.033982208587779533 0 0.0016877480217697459 -0.034059059778617881 0 0.0013676726688713575 -0.033982208587779533 0 0.0016877480217697459 -0.034059059778617881 0 0.0015336855391033378 -0.033568939797410394 0 0.00033504335416546907 -0.029654882568673227 0 0.0010151222608283813 -0.024742395711169447 0 -0.00040142305743298522 -0.025181798333715571 0 0.00033831475961011481 -0.024969980901705997 0 0.00021998606869049939 -0.025280142294182229 0 -0.00040142305743298522 -0.025181798333715571 0 0.00033831475961011481 -0.024969980901705997 0 0.00031886494722333073 -0.024604436704401718 0 0.00033831475961011481 -0.024969980901705997 0 0.00021998606869049939 -0.025280142294182229 0 0.00058008229474771484 -0.025005242685752833 0 0.00033831475961011481 -0.024969980901705997 0 0.00058008229474771484 -0.025005242685752833 0 0.00042157769855594792 -0.024746659376757133 0 0.00021998606869049939 -0.025280142294182229 0 0.00055680624550601208 -0.025361423212604321 0 0.00058008229474771484 -0.025005242685752833 0 0.00021998606869049939 -0.025280142294182229 0 0.00034564924020162954 -0.025629132478923029 0 0.00055680624550601208 -0.025361423212604321 0 0.00021998606869049939 -0.025280142294182229 0 0.00034564924020162954 -0.025629132478923029 0 -8.4386079171693034e-05 -0.025640962350473903 0 0.00034564924020162954 -0.025629132478923029 0 -8.4386079171693034e-05 -0.025640962350473903 0 0.00010329069060863996 -0.025896549069324756 0 0.00034564924020162954 -0.025629132478923029 0 0.00042351299533396371 -0.025913458752833421 0 0.00010329069060863996 -0.025896549069324756 0 -0.00055092637108063115 -0.025780526948648904 0 -0.00040142305743298522 -0.025181798333715571 0 -8.4386079171693034e-05 -0.025640962350473903 0 -0.00040142305743298522 -0.025181798333715571 0 0.00021998606869049939 -0.025280142294182229 0 -8.4386079171693034e-05 -0.025640962350473903 0 -0.0001368988202462167 -0.027495743966883097 0 0.00033504335416546907 -0.029654882568673227 0 -0.00055092637108063115 -0.025780526948648904 0 -8.4386079171693034e-05 -0.025640962350473903 0 -0.00020597399512578324 -0.026081122973480877 0 -0.00055092637108063115 -0.025780526948648904 0 -0.00020597399512578324 -0.026081122973480877 0 -0.00044604766616322049 -0.026252323522955628 0 -8.4386079171693034e-05 -0.025640962350473903 0 -0.00020597399512578324 -0.026081122973480877 0 0.00010329069060863996 -0.025896549069324756 0 -0.00020597399512578324 -0.026081122973480877 0 -0.00044604766616322049 -0.026252323522955628 0 -0.00031093242285242179 -0.026506181781811817 0 0.00042351299533396371 -0.025913458752833421 0 0.00010329069060863996 -0.025896549069324756 0 0.00025829517920477192 -0.026185572224892296 0 -0.00020597399512578324 -0.026081122973480877 0 0.00010329069060863996 -0.025896549069324756 0 0.00025829517920477192 -0.026185572224892296 0 -0.00020597399512578324 -0.026081122973480877 0 0.00025829517920477192 -0.026185572224892296 0 4.9632249004502396e-05 -0.026461773529015426 0 0.00042351299533396371 -0.025913458752833421 0 0.00025829517920477192 -0.026185572224892296 0 0.00071191789790022396 -0.026108566196398831 0 2.1582902561362545e-06 -0.026763177852084555 0 -9.4237826107074162e-06 -0.026963580183341392 0 0.00071005591170068621 -0.026578753217599973 0 4.9632249004502396e-05 -0.026461773529015426 0 2.1582902561362545e-06 -0.026763177852084555 0 0.00071005591170068621 -0.026578753217599973 0 0.00025829517920477192 -0.026185572224892296 0 4.9632249004502396e-05 -0.026461773529015426 0 0.00071005591170068621 -0.026578753217599973 0 -2.2409842113375616e-05 -0.025131082811225322 0 0.00032705445015571627 -0.025396072442667016 0 -0.00044604766616322049 -0.026252323522955628 0 -0.00031093242285242179 -0.026506181781811817 0 -0.00053673236238338203 -0.02654007680726287 0 -0.00031093242285242179 -0.026506181781811817 0 -0.00050491323286753868 -0.026686827591447939 0 -0.00053673236238338203 -0.02654007680726287 0 4.9632249004502396e-05 -0.026461773529015426 0 -0.00031093242285242179 -0.026506181781811817 0 -0.00015947093205697383 -0.026629753576656472 0 -0.00020597399512578324 -0.026081122973480877 0 4.9632249004502396e-05 -0.026461773529015426 0 -0.00031093242285242179 -0.026506181781811817 0 2.1582902561362545e-06 -0.026763177852084555 0 -0.00015947093205697383 -0.026629753576656472 0 -0.00036741445742259746 -0.026753058293607732 0 4.9632249004502396e-05 -0.026461773529015426 0 2.1582902561362545e-06 -0.026763177852084555 0 -0.00015947093205697383 -0.026629753576656472 0 -0.00031093242285242179 -0.026506181781811817 0 -0.00015947093205697383 -0.026629753576656472 0 -0.00036741445742259746 -0.026753058293607732 0 -0.00031093242285242179 -0.026506181781811817 0 -0.00036741445742259746 -0.026753058293607732 0 -0.00050491323286753868 -0.026686827591447939 0 -0.00036741445742259746 -0.026753058293607732 0 -0.00060764215615877572 -0.026823299877912772 0 -0.00050491323286753868 -0.026686827591447939 0 6.2591324166563422e-05 -0.030975826374249789 0 0.00011836587013316764 -0.030762818003899718 0 -0.00023451978843556446 -0.030774439295912701 0 -0.00060764215615877572 -0.026823299877912772 0 -0.00072874795807787763 -0.026738759280340207 0 -0.00050491323286753868 -0.026686827591447939 0 -0.00022769111129155252 -0.03035004060536935 0 -0.00042025122441976626 -0.030214935526954846 0 -0.00016883736173456287 -0.029244150702994083 0 -0.0011227617238729688 -0.028468475460694569 0 -0.00079162503581142914 -0.029153122600930489 0 -0.00072874795807787763 -0.026738759280340207 0 -0.00050491323286753868 -0.026686827591447939 0 -0.00053673236238338203 -0.02654007680726287 0 -0.00066659327109731522 -0.029708351679432445 0 -0.00073166721504084426 -0.029663371715264768 0 -0.00081928014709629026 -0.029993818823674218 0 -0.0015275889578321915 -0.034377198493031634 0 -0.0013953678131296539 -0.034345641848923712 0 -0.0014874337638179488 -0.034219258436149466 0 -0.00079162503581142914 -0.029153122600930489 0 -0.00032616665843445759 -0.030865829671354331 0 -0.00032616665843445759 -0.030865829671354331 0 -0.00016576210187173058 -0.029256829504567049 0 -0.00044604766616322049 -0.026252323522955628 0 -0.00070775965734679578 -0.026391472383025177 0 -0.00053673236238338203 -0.02654007680726287 0 -0.00079162503581142914 -0.029153122600930489 0 -0.00016576210187173058 -0.029256829504567049 0 -0.00072874795807787763 -0.026738759280340207 0 -0.00070775965734679578 -0.026391472383025177 0 -0.00053673236238338203 -0.02654007680726287 0 0.00011287994839721272 -0.030233316309102656 0 0.00011836587013316764 -0.030762818003899718 0 3.6175626315610225e-06 -0.030495314692632784 0 0.000126371308271085 -0.030242475366773641 0 0.00011287994839721272 -0.030233316309102656 0 0.00012628714218720826 -0.03022536895715568 0 -0.0001368988202462167 -0.027495743966883097 0 -0.00016576210187173058 -0.029256829504567049 0 0.0001558840078274185 -0.030748725562595652 0 -0.00016576210187173058 -0.029256829504567049 0 0.00011836587013316764 -0.030762818003899718 0 3.6175626315610225e-06 -0.030495314692632784 0 -0.00023451978843556446 -0.030774439295912701 0 -0.00055092637108063115 -0.025780526948648904 0 -0.00044604766616322049 -0.026252323522955628 0 -0.00070775965734679578 -0.026391472383025177 0 -0.00052711619198394675 -0.030580950945157642 0 -7.3858173828321606e-05 -0.030225411416970618 0 3.6175626315610225e-06 -0.030495314692632784 0 -0.00052711619198394675 -0.030580950945157642 0 3.6175626315610225e-06 -0.030495314692632784 0 -0.00023451978843556446 -0.030774439295912701 0 -0.00048560554040168608 -0.032926050049282903 0 0.00056842807846987746 -0.032379492085477135 0 -0.00048560554040168608 -0.032926050049282903 0 -0.00071347943936043306 -0.032666801317203661 0 -0.0011209692727816142 -0.034530573800360134 0 -0.0010822059651487347 -0.034731805316796503 0 -0.0013064350307256506 -0.034557650264242873 0 -0.0011209692727816142 -0.034530573800360134 0 -0.0013064350307256506 -0.034557650264242873 0 -0.001248663393992026 -0.034330423817681664 0 -0.00032616665843445759 -0.030865829671354331 0 -0.00071347943936043306 -0.032666801317203661 0 -0.0013064350307256506 -0.034557650264242873 0 -0.0013953678131296539 -0.034345641848923712 0 -0.001248663393992026 -0.034330423817681664 0 -0.0015275889578321915 -0.034377198493031634 0 -0.0013064350307256506 -0.034557650264242873 0 -0.0013953678131296539 -0.034345641848923712 0 -0.001176572703022746 -0.033165596525523748 0 -0.0014931591222565269 -0.031065943847883297 0 -0.0010116031340323104 -0.034152572482443667 0 -0.001248663393992026 -0.034330423817681664 0 -0.0014874337638179488 -0.034219258436149466 0 -0.0012347281444001971 -0.031623873536280524 0 -0.0016641015885787639 -0.031683282988817098 0 -0.0014287248391123537 -0.031501316948469672 0 -0.0016641015885787639 -0.031683282988817098 0 -0.0014287248391123537 -0.031501316948469672 0 -0.0016019531485401749 -0.031438962456440275 0 -0.0013953678131296539 -0.034345641848923712 0 -0.001248663393992026 -0.034330423817681664 0 -0.0014874337638179488 -0.034219258436149466 0 -0.0010346268529542921 -0.029370040944605682 0 -0.0012864412386256658 -0.028406365830415524 0 -0.00072349205572806317 -0.028119673273501174 0 -0.00066416882537126355 -0.026924806526993555 0 -0.00068122764043202866 -0.027303244228889242 0 -9.4237826107074162e-06 -0.026963580183341392 0 -0.0014931591222565269 -0.031065943847883297 0 -0.0011506714188005539 -0.028844422581466359 0 -0.00036741445742259746 -0.026753058293607732 0 -0.00060764215615877572 -0.026823299877912772 0 -0.00073817385194968718 -0.026983362460864 0 -0.00079162503581142914 -0.029153122600930489 0 -0.00077722653547894439 -0.028797210124971832 0 -0.00060764215615877572 -0.026823299877912772 0 -0.00072827490445203117 -0.026745358404456028 0 -0.00073817385194968718 -0.026983362460864 0 -0.00066659327109731522 -0.029708351679432445 0 -0.00068110586167554352 -0.029960974730728906 0 -0.00081928014709629026 -0.029993818823674218 0 -0.00032616665843445759 -0.030865829671354331 0 -0.0014931591222565269 -0.031065943847883297 0 -0.00077722653547894439 -0.028797210124971832 0 -0.0014931591222565269 -0.031065943847883297 0 -0.00077722653547894439 -0.028797210124971832 0 -0.00046212098717034146 -0.026575450265861566 0 -0.0013326395413089612 -0.029436702240006826 0 -0.0010346268529542921 -0.029370040944605682 0 -0.0012864412386256658 -0.028406365830415524 0 -0.00080997670652948564 -0.027144772622443997 0 -0.00052840625705774557 -0.027002512259072214 0 -0.00078136772314544103 -0.02651493807698007 0 -0.00046212098717034146 -0.026575450265861566 0 -0.00035460736112283259 -0.024852401426388785 0 -0.00033239047238278898 -0.023786520819174123 0 -0.00033914516101920178 -0.023924393633336035 0 -0.00020793099645689442 -0.023904465952396696 0 -0.00046212098717034146 -0.026575450265861566 0 -0.0011506714188005539 -0.028844422581466359 0 -0.00052840625705774557 -0.027002512259072214 0 -0.00040229044069231936 -0.026499257748165854 0 -0.00078136772314544103 -0.02651493807698007 0 -0.0014287248391123537 -0.031501316948469672 0 -0.0016019531485401749 -0.031438962456440275 0 -0.0013903469841786255 -0.031328688217872436 0 -0.0011506714188005539 -0.028844422581466359 0 -0.00053180057864411637 -0.027003677688649461 0 -0.0011506714188005539 -0.028844422581466359 0 -0.0013000319198251515 -0.030079504481183073 0 -0.00091884376768371404 -0.028775978549972998 0 -0.00079402031718211672 -0.028713561107329345 0 -0.00088803406728038352 -0.028655962532832552 0 -0.00066934791223923688 -0.02865438955462439 0 -0.00079402031718211672 -0.028713561107329345 0 -0.00088803406728038352 -0.028655962532832552 0 5.5842257958478883e-05 -0.025388795737587077 0 -0.00013824216827298006 -0.025395203731556681 0 -6.2273808364772367e-08 -0.024787433071537725 0 -0.00053180057864411637 -0.027003677688649461 0 -0.00035460736112283259 -0.024852401426388785 0 -0.00035460736112283259 -0.024852401426388785 0 -8.7893361176330753e-05 -0.023911025239499051 0 -0.00022236843031882736 -0.023704181547297903 0 5.4317077606576657e-05 -0.024011948766287143 0 3.6473133056946735e-05 -0.023864595890159719 0 -0.00022236843031882736 -0.023704181547297903 0 -2.4747085238636423e-07 -0.024778308709630065 0 5.4317077606576657e-05 -0.024011948766287143 0 -0.00035460736112283259 -0.024852401426388785 0 5.6153584787463457e-08 -0.024781025058379699 0 -2.4747085238636423e-07 -0.024778308709630065 0 6.3903135680674596e-05 -0.023960419639392577 0 5.4317077606576657e-05 -0.024011948766287143 0 -0.00053180057864411637 -0.027003677688649461 0 -3.5162121875825202e-08 -0.025885878826505278 0 5.5842257958478883e-05 -0.025388795737587077 0 -6.2273808364772367e-08 -0.024787433071537725 0 4.9896523464480817e-08 -0.025880210960120317 0 0.00014988545155997506 -0.027553723541181387 0 -0.00097297401542794119 -0.028233672594120674 0 -2.187815789307318e-06 -0.025889680890746569 0 -3.3444861504788664e-05 -0.022821309201170856 0 -4.238489448448205e-07 -0.02331941525554999 0 9.719694637327708e-08 -0.021776655689875878 0 -0.00071481579101901162 -0.021391522760193685 0 -0.00047199184915884236 -0.021181038827622341 0 -0.00031815105208503851 -0.021252850928208358 0 -0.00011314272141231038 -0.023730732851248808 0 -4.9931739907178739e-05 -0.023893750577431431 0 -4.7672251535518841e-05 -0.023901609819348163 0 -3.3444861504788664e-05 -0.022821309201170856 0 6.7421672729966287e-05 -0.020622285531698335 0 9.719694637327708e-08 -0.021776655689875878 0 -0.00023859555971998784 -0.02262758523755462 0 -2.188801268834206e-05 -0.021097331672637654 0 -0.00023859555971998784 -0.02262758523755462 0 -0.00025360290486402877 -0.02249820243749551 0 -2.4747085238636423e-07 -0.024778308709630065 0 2.3867902465017547e-07 -0.023323598566746255 0 6.3903135680674596e-05 -0.023960419639392577 0 -0.00011314272141231038 -0.023730732851248808 0 -8.9558107174583267e-05 -0.023649711181070312 0 3.9971107128015923e-06 -0.023929639248645745 0 -0.00054064520492879136 -0.023773953271710432 0 2.3867902465017547e-07 -0.023323598566746255 0 -8.9558107174583267e-05 -0.023649711181070312 0 -8.9558107174583267e-05 -0.023649711181070312 0 6.3903135680674596e-05 -0.023960419639392577 0 3.9971107128015923e-06 -0.023929639248645745 0 -0.00023859555971998784 -0.02262758523755462 0 -5.4204517526097088e-07 -0.023319356197332792 0 -0.00023859555971998784 -0.02262758523755462 0 -0.00027466844533869229 -0.022784536804046872 0 2.3867902465017547e-07 -0.023323598566746255 0 -8.9558107174583267e-05 -0.023649711181070312 0 6.3903135680674596e-05 -0.023960419639392577 0 6.3903135680674596e-05 -0.023960419639392577 0 3.9971107128015923e-06 -0.023929639248645745 0 5.4317077606576657e-05 -0.024011948766287143 0 -0.00011314272141231038 -0.023730732851248808 0 3.9971107128015923e-06 -0.023929639248645745 0 -4.9931739907178739e-05 -0.023893750577431431 0 3.9971107128015923e-06 -0.023929639248645745 0 3.6473133056946735e-05 -0.023864595890159719 0 -4.9931739907178739e-05 -0.023893750577431431 0 3.9971107128015923e-06 -0.023929639248645745 0 5.4317077606576657e-05 -0.024011948766287143 0 3.6473133056946735e-05 -0.023864595890159719 0 -8.7893361176330753e-05 -0.023911025239499051 0 -7.1230656808675055e-05 -0.023882107800740533 0 3.6473133056946735e-05 -0.023864595890159719 0 -6.7074589669493682e-05 -0.023877237802081685 0 -4.9931739907178739e-05 -0.023893750577431431 0 -6.7074589669493682e-05 -0.023877237802081685 0 -4.9931739907178739e-05 -0.023893750577431431 0 -4.7672251535518841e-05 -0.023901609819348163 0 -6.7074589669493682e-05 -0.023877237802081685 0 -5.8337761241295784e-06 -0.023840218872806226 0 -4.7672251535518841e-05 -0.023901609819348163 0 -6.7074589669493682e-05 -0.023877237802081685 0 -4.2773056953990429e-06 -0.023740838331888264 0 -5.8337761241295784e-06 -0.023840218872806226 0 -6.7074589669493682e-05 -0.023877237802081685 0 -0.00014341610852988047 -0.023793904086044163 0 -4.2773056953990429e-06 -0.023740838331888264 0 -0.00033239047238278898 -0.023786520819174123 0 -0.00020793099645689442 -0.023904465952396696 0 -0.00014341610852988047 -0.023793904086044163 0 -0.00020793099645689442 -0.023904465952396696 0 -6.7074589669493682e-05 -0.023877237802081685 0 -0.00014341610852988047 -0.023793904086044163 0 -0.00033239047238278898 -0.023786520819174123 0 -0.00014341610852988047 -0.023793904086044163 0 -0.00013832572624474085 -0.023673364294675991 0 2.1582902561362545e-06 -0.026763177852084555 0 -0.00036741445742259746 -0.026753058293607732 0 -0.00073817385194968718 -0.026983362460864 0 7.4563443564403534e-05 -0.026410702462115992 0 -0.00077722653547894439 -0.028797210124971832 0 -0.00046212098717034146 -0.026575450265861566 0 -2.2409842113375616e-05 -0.025131082811225322 0 2.1582902561362545e-06 -0.026763177852084555 0 -0.00066416882537126355 -0.026924806526993555 0 -9.4237826107074162e-06 -0.026963580183341392 0 -0.00014341610852988047 -0.023793904086044163 0 -0.00013832572624474085 -0.023673364294675991 0 -4.2773056953990429e-06 -0.023740838331888264 0 -0.00013832572624474085 -0.023673364294675991 0 -4.2773056953990429e-06 -0.023740838331888264 0 2.3750151101126909e-05 -0.023560573050472232 0 0.000115197243315548 -0.023686656653166771 0 -4.2773056953990429e-06 -0.023740838331888264 0 2.3750151101126909e-05 -0.023560573050472232 0 0.000115197243315548 -0.023686656653166771 0 0.00021687714877466243 -0.023582660309933931 0 2.3750151101126909e-05 -0.023560573050472232 0 0.000115197243315548 -0.023686656653166771 0 0.00023842635115192579 -0.023713001244292473 0 0.00021687714877466243 -0.023582660309933931 0 -0.00012848668993354584 -0.022638696345819352 0 -0.0002756425265806879 -0.020129138295530754 0 0.000115197243315548 -0.023686656653166771 0 0.00010152713553461831 -0.023832884563890929 0 0.00023842635115192579 -0.023713001244292473 0 -4.2773056953990429e-06 -0.023740838331888264 0 -5.8337761241295784e-06 -0.023840218872806226 0 0.00010152713553461831 -0.023832884563890929 0 0.000115197243315548 -0.023686656653166771 0 -4.2773056953990429e-06 -0.023740838331888264 0 0.00010152713553461831 -0.023832884563890929 0 -0.00047199184915884236 -0.021181038827622341 0 -0.00022966058107366788 -0.020982229955493072 0 -0.00031815105208503851 -0.021252850928208358 0 -5.8337761241295784e-06 -0.023840218872806226 0 -4.7672251535518841e-05 -0.023901609819348163 0 0.00010152713553461831 -0.023832884563890929 0 -0.00025360290486402877 -0.02249820243749551 0 -0.00012848668993354584 -0.022638696345819352 0 -0.00022966058107366788 -0.020982229955493072 0 -0.00031815105208503851 -0.021252850928208358 0 7.2347089851932484e-05 -0.021124573165147702 0 2.5154854498149109e-05 -0.019842438802127271 0 4.9072246699395758e-07 -0.020232812118229988 0 6.7421672729966287e-05 -0.020622285531698335 0 2.5154854498149109e-05 -0.019842438802127271 0 6.7421672729966287e-05 -0.020622285531698335 0 -8.8680849031122613e-05 -0.019732536763800903 0 -2.188801268834206e-05 -0.021097331672637654 0 -0.00028419012390772807 -0.018956432674192177 0 4.9072246699395758e-07 -0.020232812118229988 0 6.7421672729966287e-05 -0.020622285531698335 0 9.719694637327708e-08 -0.021776655689875878 0 7.5915728554075073e-06 -0.01716917332317951 0 0.00011042634420800237 -0.017864551833004918 0 -1.8227880759201968e-07 -0.018687817795489704 0 0.00011042634420800237 -0.017864551833004918 0 -1.8227880759201968e-07 -0.018687817795489704 0 -0.00016885242122588297 -0.017761115575216622 0 8.8892978047374794e-05 -0.017811283438971044 0 1.9600010304025793e-05 -0.017627843614053573 0 0.00011042634420800237 -0.017864551833004918 0 2.5154854498149109e-05 -0.019842438802127271 0 -7.5913506547969699e-07 -0.018692345275541204 0 -8.8680849031122613e-05 -0.019732536763800903 0 -7.7456909953518823e-08 -0.018689834319770369 0 -0.00028419012390772807 -0.018956432674192177 0 2.5154854498149109e-05 -0.019842438802127271 0 4.9072246699395758e-07 -0.020232812118229988 0 -7.5913506547969699e-07 -0.018692345275541204 0 -0.00028419012390772807 -0.018956432674192177 0 -0.0002756425265806879 -0.020129138295530754 0 -0.00022966058107366788 -0.020982229955493072 0 7.2347089851932484e-05 -0.021124573165147702 0 1.0641881656958954e-05 -0.020789144252722658 0 8.8892978047374794e-05 -0.017811283438971044 0 0.00011042634420800237 -0.017864551833004918 0 -0.00016885242122588297 -0.017761115575216622 0 -0.0011904214955972899 -0.017344599033905585 0 -0.00054955173171231944 -0.0172096050916653 0 -0.00094202244305613826 -0.017731953925915145 0 -0.00054286236365950612 -0.017254106136320394 0 -0.00028419012390772807 -0.018956432674192177 0 -0.00094202244305613826 -0.017731953925915145 0 -0.0004235271271938577 -0.017923154180271041 0 -0.00094829168296947761 -0.018032412680582918 0 -0.0011904214955972899 -0.017344599033905585 0 -0.0012600010178191263 -0.017640473193302 0 -0.00094202244305613826 -0.017731953925915145 0 -0.001314272620600332 -0.018051116731442142 0 -0.00094202244305613826 -0.017731953925915145 0 -0.00094829168296947761 -0.018032412680582918 0 -0.00054955173171231944 -0.0172096050916653 0 -0.00094202244305613826 -0.017731953925915145 0 -0.0004235271271938577 -0.017923154180271041 0 -0.0002756425265806879 -0.020129138295530754 0 -0.00011788349759966431 -0.020934985707572597 0 -0.000478559989776424 -0.018042322845698119 0 -0.00039749133256403201 -0.01850252361513453 0 -0.00073212737497982579 -0.018475589562845743 0 -0.000478559989776424 -0.018042322845698119 0 -0.00073212737497982579 -0.018475589562845743 0 -0.0011164601631397939 -0.018423485627951163 0 -0.0004235271271938577 -0.017923154180271041 0 -0.00094829168296947761 -0.018032412680582918 0 -0.0011164601631397939 -0.018423485627951163 0 -0.0002756425265806879 -0.020129138295530754 0 -0.00099999743299145202 -0.017694063008131634 0 -0.001314272620600332 -0.018051116731442142 0 -0.00094829168296947761 -0.018032412680582918 0 -0.0011164601631397939 -0.018423485627951163 0 -0.00073212737497982579 -0.018475589562845743 0 -0.0011164601631397939 -0.018423485627951163 0 -0.0010316944416521134 -0.018665856080187875 0 -0.0010316944416521134 -0.018665856080187875 0 -0.00077341599300306569 -0.019209247509501797 0 -0.00065082246067024686 -0.018765654476269156 0 -0.00073212737497982579 -0.018475589562845743 0 -0.0010316944416521134 -0.018665856080187875 0 -0.00065082246067024686 -0.018765654476269156 0 -0.0016031202550124788 -0.012955332711376324 0 -0.0010903441259510415 -0.012490573469935352 0 -0.001215956722887918 -0.013538590849894892 0 -0.0011375872075005821 -0.015466769507151482 0 -1.7455165924540232e-05 -0.017454184518606725 0 -0.0010903441259510415 -0.012490573469935352 0 -0.001215956722887918 -0.013538590849894892 0 -0.0002379324022603538 -0.014255296469789116 0 -1.7455165924540232e-05 -0.017454184518606725 0 2.4400667765276892e-05 -0.014320193512551071 0 -0.001215956722887918 -0.013538590849894892 0 -0.0002379324022603538 -0.014255296469789116 0 -0.0010252105884434332 -0.014636853404480973 0 0.00085833338298950239 -0.020813529167047928 0 0.0011118970767165514 -0.020706917705734088 0 0.0010286643482077767 -0.020895742409269245 0 -1.7455165924540232e-05 -0.017454184518606725 0 0.000481703035945421 -0.022526947225932997 0 -0.00077341599300306569 -0.019209247509501797 0 -0.00065082246067024686 -0.018765654476269156 0 -0.00030472897700957777 -0.018993595159654968 0 0.0011118970767165514 -0.020706917705734088 0 0.001180785539466854 -0.021029950374092752 0 0.0010286643482077767 -0.020895742409269245 0 -0.00039749133256403201 -0.01850252361513453 0 -0.00065082246067024686 -0.018765654476269156 0 -0.00030472897700957777 -0.018993595159654968 0 -0.00011788349759966431 -0.020934985707572597 0 0.000481703035945421 -0.022526947225932997 0 -0.00039749133256403201 -0.01850252361513453 0 -0.00073212737497982579 -0.018475589562845743 0 -0.00065082246067024686 -0.018765654476269156 0 0.00021687714877466243 -0.023582660309933931 0 2.3750151101126909e-05 -0.023560573050472232 0 0.00019638961321875523 -0.023445003672790142 0 0.00032705445015571627 -0.025396072442667016 0 0.000481703035945421 -0.022526947225932997 0 0.00071005591170068621 -0.026578753217599973 0 0.00071191789790022396 -0.026108566196398831 0 0.0014358413806490617 -0.02617364878806603 0 0.00025829517920477192 -0.026185572224892296 0 0.00071005591170068621 -0.026578753217599973 0 0.00071191789790022396 -0.026108566196398831 0 0.00042351299533396371 -0.025913458752833421 0 0.00071191789790022396 -0.026108566196398831 0 0.00076385689813760198 -0.025636352880203519 0 0.00071191789790022396 -0.026108566196398831 0 0.0014358413806490617 -0.02617364878806603 0 0.00076385689813760198 -0.025636352880203519 0 0.000481703035945421 -0.022526947225932997 0 0.0012997099847549048 -0.023641751133824652 0 0.0014358413806490617 -0.02617364878806603 0 0.0013127838316271507 -0.025465982907256011 0 0.00076385689813760198 -0.025636352880203519 0 0.0013127838316271507 -0.025465982907256011 0 0.00076385689813760198 -0.025636352880203519 0 0.00087376175309309843 -0.025254469123522687 0 0.00034564924020162954 -0.025629132478923029 0 0.00042351299533396371 -0.025913458752833421 0 0.00076385689813760198 -0.025636352880203519 0 0.00076385689813760198 -0.025636352880203519 0 0.00055680624550601208 -0.025361423212604321 0 0.00087376175309309843 -0.025254469123522687 0 0.00034564924020162954 -0.025629132478923029 0 0.00076385689813760198 -0.025636352880203519 0 0.00055680624550601208 -0.025361423212604321 0 0.00087376175309309843 -0.025254469123522687 0 0.00058008229474771484 -0.025005242685752833 0 0.0011930465759862259 -0.024741909821261523 0 0.00055680624550601208 -0.025361423212604321 0 0.00087376175309309843 -0.025254469123522687 0 0.00058008229474771484 -0.025005242685752833 0 0.001180785539466854 -0.021029950374092752 0 0.0011010847853170284 -0.021158638076738082 0 0.00125069546509931 -0.021354084329674141 0 0.0012997099847549048 -0.023641751133824652 0 0.0018558276512785565 -0.022002012357567512 0 0.0013127838316271507 -0.025465982907256011 0 0.00087376175309309843 -0.025254469123522687 0 0.0011930465759862259 -0.024741909821261523 0 0.0011010847853170284 -0.021158638076738082 0 0.0011442762059768804 -0.021332082481603818 0 0.00125069546509931 -0.021354084329674141 0 0.0026295315806812896 -0.016476867389909985 0 0.0011919641920565232 -0.016527971201928827 0 0.0028005463474694305 -0.016853746258795942 0 0.0017727231483508938 -0.019001696417849091 0 0.0019083024931312172 -0.019294466878305577 0 0.0020709718076999672 -0.019327790958507746 0 0.0010674164783380903 -0.021249717752440601 0 0.0011010847853170284 -0.021158638076738082 0 0.0011442762059768804 -0.021332082481603818 0 0.0026295315806812896 -0.016476867389909985 0 0.0011919641920565232 -0.016527971201928827 0 0.0017819206755914948 -0.015535623886997058 0 0.0019091991860305212 -0.018894709404194278 0 0.0021146927188470106 -0.019673272776316399 0 0.0016062853718822922 -0.016213419016824351 0 0.0022295197698998354 -0.018615033223440124 0 0.0019091991860305212 -0.018894709404194278 0 0.0022295197698998354 -0.018615033223440124 0 0.0019091991860305212 -0.018894709404194278 0 0.0013477915746037089 -0.019625332857595872 0 0.0010674164783380903 -0.021249717752440601 0 0.0011010847853170284 -0.021158638076738082 0 0.00096172781665747591 -0.021034703230969839 0 0.0020998963356195794 -0.019033852709579614 0 0.00096554320919840146 -0.017797979944063291 0 0.0014189860579787252 -0.017569342074176906 0 0.0019091991860305212 -0.018894709404194278 0 0.001443789550678441 -0.016744787200267709 0 0.00058636693496205673 -0.01564916667724885 0 0.0011919641920565232 -0.016527971201928827 0 0.0017819206755914948 -0.015535623886997058 0 0.00058636693496205673 -0.01564916667724885 0 0.0017819206755914948 -0.015535623886997058 0 0.00093615121848804306 -0.014606938107299227 0 0.00073480372222251055 -0.016092901663413109 0 0.00096554320919840146 -0.017797979944063291 0 -0.00017288854036737395 -0.016548516835370813 0 0.001443789550678441 -0.016744787200267709 0 2.4400667765276892e-05 -0.014320193512551071 0 -1.7455165924540232e-05 -0.017454184518606725 0 0.0013477915746037089 -0.019625332857595872 0 0.00085833338298950239 -0.020813529167047928 0 0.0010286643482077767 -0.020895742409269245 0 0.00096172781665747591 -0.021034703230969839 0 0.00073480372222251055 -0.016092901663413109 0 0.00096554320919840146 -0.017797979944063291 0 0.0014189860579787252 -0.017569342074176906 0 0.001180785539466854 -0.021029950374092752 0 0.0010286643482077767 -0.020895742409269245 0 0.00096172781665747591 -0.021034703230969839 0 0.001180785539466854 -0.021029950374092752 0 0.0011010847853170284 -0.021158638076738082 0 0.00096172781665747591 -0.021034703230969839 0 0.0029241037195400061 -0.017348480977940395 0 0.0023246995045102786 -0.017789315124985314 0 0.0022204689816971448 -0.016744485824226059 0 0.0028783041674756852 -0.017877221946119133 0 0.0023246995045102786 -0.017789315124985314 0 0.0028469498893254675 -0.018369297789131815 0 0.0029241037195400061 -0.017348480977940395 0 0.0028783041674756852 -0.017877221946119133 0 0.003423560847136312 -0.018003964671645001 0 0.0029241037195400061 -0.017348480977940395 0 0.0028783041674756852 -0.017877221946119133 0 0.0023246995045102786 -0.017789315124985314 0 0.0023246995045102786 -0.017789315124985314 0 0.0022204689816971448 -0.016744485824226059 0 0.0010674739043328395 -0.018281593052149211 0 0.0023105492379052934 -0.016598774961661331 0 0.0011069341705092048 -0.018032385805754229 0 0.0017641850439005862 -0.016874927449791521 0 0.0022204689816971448 -0.016744485824226059 0 0.0017269908226216644 -0.017000939064732476 0 0.0017641850439005862 -0.016874927449791521 0 0.0018142344733315502 -0.016582584840714988 0 0.0022204689816971448 -0.016744485824226059 0 0.0018868266004004827 -0.016074906529490299 0 0.0018142344733315502 -0.016582584840714988 0 0.0022204689816971448 -0.016744485824226059 0 0.0015929068683132358 -0.016317744443013329 0 0.0018868266004004827 -0.016074906529490299 0 0.0018142344733315502 -0.016582584840714988 0 0.0029241037195400061 -0.017348480977940395 0 0.0022204689816971448 -0.016744485824226059 0 0.002871054045849801 -0.016137179274704327 0 0.0018868266004004827 -0.016074906529490299 0 0.0022204689816971448 -0.016744485824226059 0 0.002871054045849801 -0.016137179274704327 0 0.0022295197698998354 -0.018615033223440124 0 0.0021146927188470106 -0.019673272776316399 0 0.0023367190741360737 -0.021298646050984877 0 0.002052567058612855 -0.021250491607133274 0 0.001991638309601963 -0.020915452871180185 0 0.0024466284116528626 -0.021320031810956718 0 0.001991638309601963 -0.020915452871180185 0 0.0019743319618627138 -0.020279313970710582 0 0.0022295197698998354 -0.018615033223440124 0 0.0028248299149952172 -0.019320981164168916 0 0.0024466284116528626 -0.021320031810956718 0 0.0023367190741360737 -0.021298646050984877 0 0.001991638309601963 -0.020915452871180185 0 0.0021146927188470106 -0.019673272776316399 0 0.0018558276512785565 -0.022002012357567512 0 0.0018558276512785565 -0.022002012357567512 0 0.0018557079331015585 -0.021043971454449285 0 0.001991638309601963 -0.020915452871180185 0 0.0012741284806149489 -0.02080648636053788 0 0.0011182561662097894 -0.021123058929857746 0 0.0020546232563713957 -0.021278998568972314 0 0.001991638309601963 -0.020915452871180185 0 0.0011182561662097894 -0.021123058929857746 0 0.00058008229474771484 -0.025005242685752833 0 0.0011930465759862259 -0.024741909821261523 0 0.00047831988891252757 -0.0246286152114196 0 0.0018558276512785565 -0.022002012357567512 0 0.00069814033757489825 -0.023572329529168799 0 0.00058008229474771484 -0.025005242685752833 0 0.00042157769855594792 -0.024746659376757133 0 0.00047831988891252757 -0.0246286152114196 0 0.0015416976469360684 -0.022778408466691304 0 0.00069814033757489825 -0.023572329529168799 0 0.001991638309601963 -0.020915452871180185 0 0.0012741284806149489 -0.02080648636053788 0 0.0019743319618627138 -0.020279313970710582 0 0.0016294670172567929 -0.022103068792238067 0 0.003008021396719724 -0.021060461847980633 0 0.0025919328252714266 -0.020158186469948988 0 0.0019434788325849183 -0.023990280186955086 0 0.0018429454487033337 -0.022916051108285873 0 0.0024734866506247511 -0.022795379185648557 0 0.0015416976469360684 -0.022778408466691304 0 0.0028037308296754038 -0.020962870509338621 0 0.0015416976469360684 -0.022778408466691304 0 0.0028248299149952172 -0.019320981164168916 0 0.0029241037195400061 -0.017348480977940395 0 0.002871054045849801 -0.016137179274704327 0 0.0037368668864962182 -0.017735291774138552 0 0.0028248299149952172 -0.019320981164168916 0 0.0035584102969259644 -0.018494738272348411 0 0.0029241037195400061 -0.017348480977940395 0 0.0037368668864962182 -0.017735291774138552 0 0.003423560847136312 -0.018003964671645001 0 0.0024596026301322016 -0.022759850435529864 0 0.0023734334511379732 -0.022596261175305419 0 0.0027089660395011516 -0.02186168715467111 0 0.003423560847136312 -0.018003964671645001 0 0.0035221304242738722 -0.018422420571462823 0 0.0028469498893254675 -0.018369297789131815 0 0.0037603981918040855 -0.017756282726215107 0 0.003423560847136312 -0.018003964671645001 0 0.0035221304242738722 -0.018422420571462823 0 0.0028248299149952172 -0.019320981164168916 0 0.0028037308296754038 -0.020962870509338621 0 0.0037603981918040855 -0.017756282726215107 0 0.0035221304242738722 -0.018422420571462823 0 0.0041095685517443968 -0.018525592995363223 0 0.0035221304242738722 -0.018422420571462823 0 0.003232695035085113 -0.018944253008279573 0 0.0041095685517443968 -0.018525592995363223 0 0.0035221304242738722 -0.018422420571462823 0 0.003232695035085113 -0.018944253008279573 0 0.0028469498893254675 -0.018369297789131815 0 0.0018429454487033337 -0.022916051108285873 0 0.0024734866506247511 -0.022795379185648557 0 0.0023734334511379732 -0.022596261175305419 0 0.0028037308296754038 -0.020962870509338621 0 0.0029291631748723963 -0.021666227222026914 0 0.0018429454487033337 -0.022916051108285873 0 0.0020895954845553317 -0.0223192719530378 0 0.0016782867275345892 -0.022321060135790185 0 0.0018429454487033337 -0.022916051108285873 0 0.0023734334511379732 -0.022596261175305419 0 0.0020895954845553317 -0.0223192719530378 0 0.0020895954845553317 -0.0223192719530378 0 0.0021698451415451511 -0.021740389269609393 0 0.0016782867275345892 -0.022321060135790185 0 0.0023734334511379732 -0.022596261175305419 0 0.0020895954845553317 -0.0223192719530378 0 0.0023777319449265256 -0.022096013790127867 0 0.0020895954845553317 -0.0223192719530378 0 0.0023777319449265256 -0.022096013790127867 0 0.0021698451415451511 -0.021740389269609393 0 0.0023777319449265256 -0.022096013790127867 0 0.0027089660395011516 -0.02186168715467111 0 0.0021698451415451511 -0.021740389269609393 0 0.0028037308296754038 -0.020962870509338621 0 0.0031042098296069597 -0.020794101641408273 0 0.003232695035085113 -0.018944253008279573 0 0.0041095685517443968 -0.018525592995363223 0 0.0034298401570235048 -0.019868667250193286 0 0.0023734334511379732 -0.022596261175305419 0 0.0023777319449265256 -0.022096013790127867 0 0.0027089660395011516 -0.02186168715467111 0 0.003232695035085113 -0.018944253008279573 0 0.0034298401570235048 -0.019868667250193286 0 0.0027326893666833937 -0.019525387961328168 0 0.0034298401570235048 -0.019868667250193286 0 0.0027326893666833937 -0.019525387961328168 0 0.0022821987498227326 -0.020164359819848297 0 0.0027326893666833937 -0.019525387961328168 0 0.0019483533595630403 -0.019534894085715116 0 0.0022821987498227326 -0.020164359819848297 0 0.0027326893666833937 -0.019525387961328168 0 0.0023212291886996884 -0.018940678043489454 0 0.0019483533595630403 -0.019534894085715116 0 0.003232695035085113 -0.018944253008279573 0 0.0027326893666833937 -0.019525387961328168 0 0.0023212291886996884 -0.018940678043489454 0 0.003232695035085113 -0.018944253008279573 0 0.0023212291886996884 -0.018940678043489454 0 0.0028469498893254675 -0.018369297789131815 0 0.0023212291886996884 -0.018940678043489454 0 0.0028469498893254675 -0.018369297789131815 0 0.0019880069835833294 -0.018455027145590063 0 0.0023246995045102786 -0.017789315124985314 0 0.0028469498893254675 -0.018369297789131815 0 0.0019880069835833294 -0.018455027145590063 0 0.0028783041674756852 -0.017877221946119133 0 0.003423560847136312 -0.018003964671645001 0 0.0028469498893254675 -0.018369297789131815 0 0.0023246995045102786 -0.017789315124985314 0 0.0010674739043328395 -0.018281593052149211 0 0.0019880069835833294 -0.018455027145590063 0 0.0023212291886996884 -0.018940678043489454 0 0.0019880069835833294 -0.018455027145590063 0 0.0014439673936116001 -0.019147958455177812 0 0.0010674739043328395 -0.018281593052149211 0 0.0019880069835833294 -0.018455027145590063 0 0.0014439673936116001 -0.019147958455177812 0 0.0014439673936116001 -0.019147958455177812 0 0.0019483533595630403 -0.019534894085715116 0 0.0013698363872152234 -0.019955479767388658 0 0.0023212291886996884 -0.018940678043489454 0 0.0014439673936116001 -0.019147958455177812 0 0.0019483533595630403 -0.019534894085715116 0 0.0019483533595630403 -0.019534894085715116 0 0.0013698363872152234 -0.019955479767388658 0 0.0022821987498227326 -0.020164359819848297 0 0.00091278855256215802 -0.020667688310402985 0 0.0013698363872152234 -0.019955479767388658 0 0.0017802663498647324 -0.020746577515236488 0 0.0013698363872152234 -0.019955479767388658 0 0.0017802663498647324 -0.020746577515236488 0 0.0022821987498227326 -0.020164359819848297 0 0.00091278855256215802 -0.020667688310402985 0 0.0017802663498647324 -0.020746577515236488 0 0.0018258080585928352 -0.021447004159597268 0 0.0017802663498647324 -0.020746577515236488 0 0.0022821987498227326 -0.020164359819848297 0 0.002620164635958341 -0.021206674245492312 0 0.0034298401570235048 -0.019868667250193286 0 0.0022821987498227326 -0.020164359819848297 0 0.002620164635958341 -0.021206674245492312 0 0.002620164635958341 -0.021206674245492312 0 0.0018258080585928352 -0.021447004159597268 0 0.0023765227758409243 -0.021777266342930042 0 0.002620164635958341 -0.021206674245492312 0 0.0023765227758409243 -0.021777266342930042 0 0.002608423501543469 -0.021304025679720069 0 0.0017802663498647324 -0.020746577515236488 0 0.002620164635958341 -0.021206674245492312 0 0.0018258080585928352 -0.021447004159597268 0 0.0022177845249165482 -0.019674192263936418 0 0.0026436505697362872 -0.019795316810119225 0 0.0031313444922782051 -0.018741661962837976 0 0.0036168843478577148 -0.018575008393207523 0 0.0036264414498486308 -0.019141566524415825 0 0.0036168843478577148 -0.018575008393207523 0 0.0039092489027194267 -0.018944126612156643 0 0.0036264414498486308 -0.019141566524415825 0 0.0026436505697362872 -0.019795316810119225 0 0.002384902531207515 -0.021986628895696553 0 0.0022092168542273368 -0.02397493131912825 0 0.0018761680171196498 -0.023622183772274034 0 0.0027211534804293118 -0.023596540094890494 0 0.0022309030947189903 -0.024031206166903744 0 0.0018761680171196498 -0.023622183772274034 0 0.0014976441330353317 -0.023987501228526196 0 0.002384902531207515 -0.021986628895696553 0 0.0023947106286233569 -0.023699185777097162 0 0.002384902531207515 -0.021986628895696553 0 0.0038938629169359327 -0.019093940377455338 0 0.00170346742841965 -0.022755266672210915 0 0.0038938629169359327 -0.019093940377455338 0 0.0018761680171196498 -0.023622183772274034 0 0.0020716852541036957 -0.02314629436586781 0 0.0027211534804293118 -0.023596540094890494 0 0.0042461487904044111 -0.016592627767634337 0 0.0045334764924311226 -0.016726474837052783 0 0.00467794042682708 -0.016408808734514103 0 0.0047299301708050951 -0.016539564457784449 0 0.0045334764924311226 -0.016726474837052783 0 0.00467794042682708 -0.016408808734514103 0 0.0052726883236635493 -0.016441874307817329 0 0.0038938629169359327 -0.019093940377455338 0 -0.00070205665450657399 -0.030067775216317306 0 -0.00058047761466968367 -0.030016474232174253 0 -0.00072000019151211524 -0.030033362208490209 0 6.654663682447653e-05 -0.028163908703122752 0 0.00013216914701027728 -0.026833222580984646 0 6.654663682447653e-05 -0.028163908703122752 0 -0.00088523134174454455 -0.030741354946944969 0 0.00061308493022807584 -0.023703039627916707 0 0.0013428434755526546 -0.023419966942782526 0 0.0010095887866591819 -0.024046331374709455 0 0.00170346742841965 -0.022755266672210915 0 0.00013216914701027728 -0.026833222580984646 0 0.0018761680171196498 -0.023622183772274034 0 0.0020716852541036957 -0.02314629436586781 0 0.0013428434755526546 -0.023419966942782526 0 -0.00015783032052557329 -0.029762181356463153 0 -0.00058047761466968367 -0.030016474232174253 0 -0.00051096719086203492 -0.029792508802812236 0 -0.00058047761466968367 -0.030016474232174253 0 -0.00051096719086203492 -0.029792508802812236 0 -0.00072000019151211524 -0.030033362208490209 0 0.0018761680171196498 -0.023622183772274034 0 0.0013428434755526546 -0.023419966942782526 0 0.0014976441330353317 -0.023987501228526196 0 0.0022309030947189903 -0.024031206166903744 0 0.0014976441330353317 -0.023987501228526196 0 0.001374374763248384 -0.024660879813511401 0 0.0013428434755526546 -0.023419966942782526 0 0.0014976441330353317 -0.023987501228526196 0 0.0010095887866591819 -0.024046331374709455 0 0.002384902531207515 -0.021986628895696553 0 0.001907435752274362 -0.023101507835214745 0 0.0014976441330353317 -0.023987501228526196 0 0.0010095887866591819 -0.024046331374709455 0 0.001374374763248384 -0.024660879813511401 0 0.0010095887866591819 -0.024046331374709455 0 0.001374374763248384 -0.024660879813511401 0 0.00046172295218338105 -0.0243429180694484 0 0.00061308493022807584 -0.023703039627916707 0 0.0010095887866591819 -0.024046331374709455 0 0.00046172295218338105 -0.0243429180694484 0 6.654663682447653e-05 -0.028163908703122752 0 0.00056781280475975211 -0.025932936336688771 0 0.002608423501543469 -0.021304025679720069 0 0.0020325459525273762 -0.021465089982836125 0 0.0023351727204058851 -0.02146281346333102 0 0.001907435752274362 -0.023101507835214745 0 0.0013621155650399518 -0.023621765890813082 0 0.001374374763248384 -0.024660879813511401 0 0.00030761247004118422 -0.024986292311645134 0 0.00046172295218338105 -0.0243429180694484 0 0.001374374763248384 -0.024660879813511401 0 0.00054405598674404888 -0.02527338131667288 0 0.00030761247004118422 -0.024986292311645134 0 0.002608423501543469 -0.021304025679720069 0 0.0025108713496919386 -0.021454062113083122 0 0.0023351727204058851 -0.02146281346333102 0 0.002620164635958341 -0.021206674245492312 0 0.002608423501543469 -0.021304025679720069 0 0.0025108713496919386 -0.021454062113083122 0 0.0031042098296069597 -0.020794101641408273 0 0.0026658613288172667 -0.021245286953435968 0 0.0027089660395011516 -0.02186168715467111 0 0.0025108713496919386 -0.021454062113083122 0 0.0021698451415451511 -0.021740389269609393 0 0.0027089660395011516 -0.02186168715467111 0 0.002620164635958341 -0.021206674245492312 0 0.0025108713496919386 -0.021454062113083122 0 0.0020325459525273762 -0.021465089982836125 0 0.0023351727204058851 -0.02146281346333102 0 0.0021698451415451511 -0.021740389269609393 0 0.0025108713496919386 -0.021454062113083122 0 0.0023351727204058851 -0.02146281346333102 0 0.0021698451415451511 -0.021740389269609393 0 0.0013621155650399518 -0.023621765890813082 0 0.001645547537976863 -0.021655573334749597 0 0.0017963895524102556 -0.021300335750855711 0 0.0021698451415451511 -0.021740389269609393 0 0.0013881560212235051 -0.021587039013527549 0 0.0013621155650399518 -0.023621765890813082 0 0.0015066329631295576 -0.026284832671698719 0 0.001338805066029771 -0.030934615092047955 0 0.0012335781419023275 -0.030807722708192455 0 0.0013748921092128336 -0.030784052409193425 0 0.0012069428979832792 -0.025800971115318077 0 0.0014875458479316737 -0.025600764947089256 0 0.0013829486854988011 -0.02602743386532554 0 0.0015066329631295576 -0.026284832671698719 0 0.0012010423190381714 -0.027722456790222616 0 0.0013621155650399518 -0.023621765890813082 0 0.0012010423190381714 -0.027722456790222616 0 0.001338805066029771 -0.030934615092047955 0 0.0011682780611268575 -0.030935692132803998 0 0.0011188910677680463 -0.031103020920903481 0 0.0011682780611268575 -0.030935692132803998 0 0.0010279904422834986 -0.030982643977634606 0 0.0011188910677680463 -0.031103020920903481 0 0.001338805066029771 -0.030934615092047955 0 0.0011682780611268575 -0.030935692132803998 0 0.0012335781419023275 -0.030807722708192455 0 0.0011682780611268575 -0.030935692132803998 0 0.0011103261316801794 -0.03082448403048366 0 0.0010279904422834986 -0.030982643977634606 0 0.0011682780611268575 -0.030935692132803998 0 0.0011103261316801794 -0.03082448403048366 0 0.0012335781419023275 -0.030807722708192455 0 0.0011103261316801794 -0.03082448403048366 0 0.0012335781419023275 -0.030807722708192455 0 0.0011734619116760775 -0.030548942522358791 0 0.00046682474570871886 -0.028047400149470568 0 0.00038039847576473723 -0.028379830506341783 0 0.00083612695473598035 -0.028539295123009928 0 0.0012335781419023275 -0.030807722708192455 0 0.0013748921092128336 -0.030784052409193425 0 0.0011734619116760775 -0.030548942522358791 0 0.0012010423190381714 -0.027722456790222616 0 0.00014908429230213151 -0.030965378703012011 0 0.0012010423190381714 -0.027722456790222616 0 0.00056781280475975211 -0.025932936336688771 0 0.00029580310482214594 -0.02870860230689334 0 0.00038039847576473723 -0.028379830506341783 0 0.00083612695473598035 -0.028539295123009928 0 6.654663682447653e-05 -0.028163908703122752 0 0.00014908429230213151 -0.030965378703012011 0 -0.0010372258740701545 -0.030457407153743919 0 -0.00098731929556720673 -0.030285314137932961 0 -0.0011405599788728601 -0.030363300729003641 0 -0.00079017974044037385 -0.030363205981144718 0 -0.0010372258740701545 -0.030457407153743919 0 -0.00098731929556720673 -0.030285314137932961 0 -0.00079017974044037385 -0.030363205981144718 0 -0.00098731929556720673 -0.030285314137932961 0 -0.00072000019151211524 -0.030033362208490209 0 3.5589432009238903e-05 -0.033327502817375565 0 1.002639849008527e-05 -0.033343145386686548 0 3.3624738935760611e-05 -0.033354787993706177 0 0.00014908429230213151 -0.030965378703012011 0 -0.00063619554138418714 -0.031980165456940726 0 -5.8047243046274236e-05 -0.033256292331550606 0 1.002639849008527e-05 -0.033343145386686548 0 2.6407923425616292e-06 -0.033250769028213806 0 0.00014908429230213151 -0.030965378703012011 0 0.00049738027814301238 -0.03205603788446066 0 3.5589432009238903e-05 -0.033327502817375565 0 1.002639849008527e-05 -0.033343145386686548 0 2.6407923425616292e-06 -0.033250769028213806 0 3.5589432009238903e-05 -0.033327502817375565 0 2.6407923425616292e-06 -0.033250769028213806 0 0.0001078333385599887 -0.033178369820129623 0 0.00087819555932044447 -0.030650548266451878 0 0.00087659204358205955 -0.030992450788339638 0 0.00062787733737004379 -0.030942630131578067 0 0.00049738027814301238 -0.03205603788446066 0 0.00025506867518837771 -0.03199072637686786 0 0.00087819555932044447 -0.030650548266451878 0 0.00062787733737004379 -0.030942630131578067 0 0.00043143224558233435 -0.030776442212121218 0 0.00087819555932044447 -0.030650548266451878 0 0.00097619697128749783 -0.030868699738424498 0 0.00087659204358205955 -0.030992450788339638 0 0.0011103261316801794 -0.03082448403048366 0 0.0011734619116760775 -0.030548942522358791 0 0.00087819555932044447 -0.030650548266451878 0 0.0011103261316801794 -0.03082448403048366 0 0.00087819555932044447 -0.030650548266451878 0 0.00097619697128749783 -0.030868699738424498 0 0.0011103261316801794 -0.03082448403048366 0 0.00097619697128749783 -0.030868699738424498 0 0.0010279904422834986 -0.030982643977634606 0 0.00097619697128749783 -0.030868699738424498 0 0.0010279904422834986 -0.030982643977634606 0 0.00087659204358205955 -0.030992450788339638 0 0.0010279904422834986 -0.030982643977634606 0 0.00087659204358205955 -0.030992450788339638 0 0.0009143347384983774 -0.031093806176640006 0 0.0008843287222506873 -0.030971068112857429 0 0.00095892557320134057 -0.031402988213628226 0 0.00087659204358205955 -0.030992450788339638 0 0.00062091659651359742 -0.031231650455478276 0 0.00062787733737004379 -0.030942630131578067 0 0.00087659204358205955 -0.030992450788339638 0 0.00094886148765720147 -0.0313515051513941 0 0.00062091659651359742 -0.031231650455478276 0 0.00094886148765720147 -0.0313515051513941 0 0.00068963201475067044 -0.031558274818229461 0 0.00099619247116468487 -0.031676608372985533 0 0.00094886148765720147 -0.0313515051513941 0 0.00068963201475067044 -0.031558274818229461 0 0.00062091659651359742 -0.031231650455478276 0 0.00068963201475067044 -0.031558274818229461 0 0.00099619247116468487 -0.031676608372985533 0 0.00070220481555604772 -0.031899843311839766 0 0.00098656292424926639 -0.030207618666358807 0 0.00067855543819058664 -0.031769439861001302 0 0.00044233564958211452 -0.028194185373339776 0 0.0012790859132911327 -0.027568561693600547 0 0.0011603410164136641 -0.028757024583608751 0 0.0010279904422834986 -0.030982643977634606 0 0.0009143347384983774 -0.031093806176640006 0 0.0011188910677680463 -0.031103020920903481 0 0.0009143347384983774 -0.031093806176640006 0 0.00093516844862528926 -0.031227119497478317 0 0.0011188910677680463 -0.031103020920903481 0 0.00098656292424926639 -0.030207618666358807 0 0.0010683637588154865 -0.029603332391893101 0 0.00095892557320134057 -0.031402988213628226 0 0.00098656292424926639 -0.030207618666358807 0 0.0021175115365596581 -0.026946644872704838 0 0.0012790859132911327 -0.027568561693600547 0 0.0018015102174391044 -0.028225059406693037 0 0.0015066329631295576 -0.026284832671698719 0 0.0010683637588154865 -0.029603332391893101 0 0.0015066329631295576 -0.026284832671698719 0 0.0015073184792716097 -0.02468597104617349 0 0.0021698451415451511 -0.021740389269609393 0 0.0013881560212235051 -0.021587039013527549 0 0.0016782867275345892 -0.022321060135790185 0 0.0013881560212235051 -0.021587039013527549 0 0.0016782867275345892 -0.022321060135790185 0 0.0010284945268117273 -0.022822136051863628 0 0.0018429454487033337 -0.022916051108285873 0 0.0016782867275345892 -0.022321060135790185 0 0.0010284945268117273 -0.022822136051863628 0 0.0018429454487033337 -0.022916051108285873 0 0.0010284945268117273 -0.022822136051863628 0 0.0013793470015909463 -0.023638767422377284 0 0.0012790859132911327 -0.027568561693600547 0 0.0018015102174391044 -0.028225059406693037 0 0.0011603410164136641 -0.028757024583608751 0 0.0018015102174391044 -0.028225059406693037 0 0.0011603410164136641 -0.028757024583608751 0 0.0014806599298760809 -0.029513060423043011 0 0.0015073184792716097 -0.02468597104617349 0 0.001207280538644723 -0.02877639400159112 0 0.0010284945268117273 -0.022822136051863628 0 0.0013793470015909463 -0.023638767422377284 0 0.00066479825076990785 -0.024193382571214842 0 0.0019434788325849183 -0.023990280186955086 0 0.0018429454487033337 -0.022916051108285873 0 0.0013793470015909463 -0.023638767422377284 0 0.0010151222608283813 -0.024742395711169447 0 0.001207280538644723 -0.02877639400159112 0 0.0013793470015909463 -0.023638767422377284 0 0.0015197074132571799 -0.024328270654390409 0 0.00066479825076990785 -0.024193382571214842 0 0.0015416976469360684 -0.022778408466691304 0 0.0010151222608283813 -0.024742395711169447 0 0.0015980481507970692 -0.023319482636784628 0 0.0006635922419878698 -0.024028852085190035 0 0.0012017430021816632 -0.02412614321814386 0 0.0019434788325849183 -0.023990280186955086 0 0.0013793470015909463 -0.023638767422377284 0 0.0015197074132571799 -0.024328270654390409 0 0.00033831475961011481 -0.024969980901705997 0 0.00031886494722333073 -0.024604436704401718 0 0.00042157769855594792 -0.024746659376757133 0 0.0010151222608283813 -0.024742395711169447 0 0.00069814033757489825 -0.023572329529168799 0 0.00050293385360401365 -0.024060853536958703 0 0.00069814033757489825 -0.023572329529168799 0 0.00031886494722333073 -0.024604436704401718 0 0.00042157769855594792 -0.024746659376757133 0 0.00047895084326709278 -0.024630643277226666 0 0.0016877480217697459 -0.034059059778617881 0 0.0019212685769642484 -0.033349755787049538 0 0.0015336855391033378 -0.033568939797410394 0 0.00033504335416546907 -0.029654882568673227 0 0.001207280538644723 -0.02877639400159112 0 7.1685611655119134e-05 -0.028606618188533599 0 0.0017193929142949858 -0.027338813788168572 0 0.00044588178060613694 -0.02711912495551615 0 0.001207280538644723 -0.02877639400159112 0 0.0010734164076188013 -0.031907773788135627 0 0.0013676726688713575 -0.033982208587779533 0 0.0015336855391033378 -0.033568939797410394 0 0.0012266206464023567 -0.033225848351897985 0 0.0014284352643020872 -0.034538475451509697 0 0.0010734164076188013 -0.031907773788135627 0 0.0013676726688713575 -0.033982208587779533 0 0.0013099773418663121 -0.033746916863199847 0 0.001126881517128373 -0.033913006472157552 0 0.0019212685769642484 -0.033349755787049538 0 0.0015336855391033378 -0.033568939797410394 0 0.0012266206464023567 -0.033225848351897985 0 0.001126881517128373 -0.033913006472157552 0 0.0010980162296399855 -0.033720380744178963 0 0.0009537980939479698 -0.033860685617017439 0 0.0013099773418663121 -0.033746916863199847 0 0.001126881517128373 -0.033913006472157552 0 0.0010980162296399855 -0.033720380744178963 0 0.0013451952901557369 -0.032196141130080715 0 0.00076261032405303467 -0.032091995503193263 0 0.00070004239412245809 -0.031606001177423043 0 0.0012221625625081505 -0.031220617623014986 0 0.0013451952901557369 -0.032196141130080715 0 0.00070004239412245809 -0.031606001177423043 0 0.0010734164076188013 -0.031907773788135627 0 0.00099095536884829605 -0.032895893780302207 0 0.00098656292424926639 -0.030207618666358807 0 0.0010734164076188013 -0.031907773788135627 0 0.00044233564958211452 -0.028194185373339776 0 0.0011603410164136641 -0.028757024583608751 0 0.00059447548732905928 -0.029365393061845973 0 0.0011603410164136641 -0.028757024583608751 0 0.0014806599298760809 -0.029513060423043011 0 0.00059447548732905928 -0.029365393061845973 0 0.0002191685481064705 -0.033160995536167394 0 0.00052992495823145553 -0.033159634345321508 0 0.0001248621247293828 -0.032077779317801015 0 0.00034244921880992541 -0.032017058854946726 0 0.00041302426898453322 -0.032121319653774773 0 0.00013394880684138616 -0.032068044096144319 0 0.00034244921880992541 -0.032017058854946726 0 0.00019991656268195576 -0.031748490234584169 0 0.0002191685481064705 -0.033160995536167394 0 0.00039834678175435293 -0.032412883973708354 0 0.00070220481555604772 -0.031899843311839766 0 0.00034244921880992541 -0.032017058854946726 0 0.00045856255005436282 -0.031734149771132092 0 0.00070220481555604772 -0.031899843311839766 0 0.00034244921880992541 -0.032017058854946726 0 0.00041302426898453322 -0.032121319653774773 0 0.00067855543819058664 -0.031769439861001302 0 0.00052992495823145553 -0.033159634345321508 0 0.00099095536884829605 -0.032895893780302207 0 0.00052992495823145553 -0.033159634345321508 0 0.00076261032405303467 -0.032091995503193263 0 0.00070004239412245809 -0.031606001177423043 0 0.00018177292609921009 -0.031992163180590616 0 0.00086683700434126397 -0.033686706894269447 0 0.0009537980939479698 -0.033860685617017439 0 0.00079964120516515691 -0.0339595179201784 0 0.0010980162296399855 -0.033720380744178963 0 0.00086683700434126397 -0.033686706894269447 0 0.0009537980939479698 -0.033860685617017439 0 0.00092042664714419025 -0.034047106948708362 0 0.001126881517128373 -0.033913006472157552 0 0.0009537980939479698 -0.033860685617017439 0 0.00092042664714419025 -0.034047106948708362 0 0.0009537980939479698 -0.033860685617017439 0 0.00079964120516515691 -0.0339595179201784 0 0.00037847251477833636 -0.03449112538292793 0 0.00049835878064167485 -0.034504979279485697 0 0.00029492184693909212 -0.034665065951625308 0 0.00052992495823145553 -0.033159634345321508 0 0.00040290396746585431 -0.034477593383667411 0 0.00086683700434126397 -0.033686706894269447 0 0.00079964120516515691 -0.0339595179201784 0 0.00052708332796844257 -0.033991382854662938 0 0.00037847251477833636 -0.03449112538292793 0 0.00029492184693909212 -0.034665065951625308 0 0.0001820664310681182 -0.034567257099272095 0 0.00011985859700958287 -0.034673283308685646 0 0.0001820664310681182 -0.034567257099272095 0 3.9543156128771916e-05 -0.034644574349798 0 0.00029492184693909212 -0.034665065951625308 0 0.00011985859700958287 -0.034673283308685646 0 0.0001820664310681182 -0.034567257099272095 0 5.824775727170548e-05 -0.034319294880916534 0 -0.00014514335913314055 -0.034250164805265916 0 -0.00010134951716855167 -0.033735611171694817 0 -5.6882896815091998e-05 -0.03385371345281013 0 -0.0003157890643114898 -0.033924579929516585 0 0.0002191685481064705 -0.033160995536167394 0 -0.00036567872043303677 -0.03268500894834938 0 0.00020558781690316026 -0.033779041357617938 0 -0.00010134951716855167 -0.033735611171694817 0 -5.6882896815091998e-05 -0.03385371345281013 0 0.00013394880684138616 -0.032068044096144319 0 -0.00043797614843532037 -0.031973866990859842 0 -0.00014180101661438716 -0.031710331480301411 0 0.0002191685481064705 -0.033160995536167394 0 5.824775727170548e-05 -0.034319294880916534 0 -0.00043797614843532037 -0.031973866990859842 0 -0.0004816412811378774 -0.031512195078036792 0 -0.00080765056827480745 -0.031532947477888908 0 -0.00043797614843532037 -0.031973866990859842 0 -0.00014180101661438716 -0.031710331480301411 0 -0.0004816412811378774 -0.031512195078036792 0 -0.0004816412811378774 -0.031512195078036792 0 -0.0002330750511475147 -0.031423479109273025 0 -0.00060685516191087371 -0.031177772857420901 0 -0.00014180101661438716 -0.031710331480301411 0 -0.0004816412811378774 -0.031512195078036792 0 -0.0002330750511475147 -0.031423479109273025 0 -0.0002330750511475147 -0.031423479109273025 0 6.9618849460572233e-05 -0.031435269892431679 0 -9.2811920879593354e-05 -0.030971315041019694 0 -0.00014180101661438716 -0.031710331480301411 0 -0.0002330750511475147 -0.031423479109273025 0 6.9618849460572233e-05 -0.031435269892431679 0 6.9618849460572233e-05 -0.031435269892431679 0 0.00037271059901271991 -0.031461317837378981 0 0.00027950623300003691 -0.031123011904592712 0 6.9618849460572233e-05 -0.031435269892431679 0 0.00019991656268195576 -0.031748490234584169 0 0.00037271059901271991 -0.031461317837378981 0 0.00013394880684138616 -0.032068044096144319 0 -0.00014180101661438716 -0.031710331480301411 0 0.00019991656268195576 -0.031748490234584169 0 -0.00014180101661438716 -0.031710331480301411 0 6.9618849460572233e-05 -0.031435269892431679 0 0.00019991656268195576 -0.031748490234584169 0 0.00068963201475067044 -0.031558274818229461 0 0.00070220481555604772 -0.031899843311839766 0 0.00045856255005436282 -0.031734149771132092 0 0.00034244921880992541 -0.032017058854946726 0 0.00019991656268195576 -0.031748490234584169 0 0.00045856255005436282 -0.031734149771132092 0 0.00019991656268195576 -0.031748490234584169 0 0.00045856255005436282 -0.031734149771132092 0 0.00037271059901271991 -0.031461317837378981 0 0.00068963201475067044 -0.031558274818229461 0 0.00045856255005436282 -0.031734149771132092 0 0.00037271059901271991 -0.031461317837378981 0 0.00068963201475067044 -0.031558274818229461 0 0.00037271059901271991 -0.031461317837378981 0 0.00062091659651359742 -0.031231650455478276 0 0.00037271059901271991 -0.031461317837378981 0 0.00062091659651359742 -0.031231650455478276 0 0.00027950623300003691 -0.031123011904592712 0 0.00062787733737004379 -0.030942630131578067 0 0.00027950623300003691 -0.031123011904592712 0 0.00043143224558233435 -0.030776442212121218 0 0.00062091659651359742 -0.031231650455478276 0 0.00062787733737004379 -0.030942630131578067 0 0.00027950623300003691 -0.031123011904592712 0 6.9618849460572233e-05 -0.031435269892431679 0 0.00027950623300003691 -0.031123011904592712 0 -9.2811920879593354e-05 -0.030971315041019694 0 0.00027950623300003691 -0.031123011904592712 0 0.00043143224558233435 -0.030776442212121218 0 -9.2811920879593354e-05 -0.030971315041019694 0 0.00025302846479512663 -0.033223679108515508 0 0.0001078333385599887 -0.033178369820129623 0 0.00030442068807151048 -0.033098363700562836 0 0.00025506867518837771 -0.03199072637686786 0 0.00011951680483055913 -0.031859950354206613 0 3.5589432009238903e-05 -0.033327502817375565 0 0.0001078333385599887 -0.033178369820129623 0 0.00013255708347414106 -0.033314671687709733 0 0.00025302846479512663 -0.033223679108515508 0 0.0001078333385599887 -0.033178369820129623 0 0.00013255708347414106 -0.033314671687709733 0 0.00025302846479512663 -0.033223679108515508 0 0.00024399758679932609 -0.033347788606147039 0 0.00013255708347414106 -0.033314671687709733 0 0.00024399758679932609 -0.033347788606147039 0 0.00013255708347414106 -0.033314671687709733 0 0.00019794300326991454 -0.033436018604608715 0 0.00013255708347414106 -0.033314671687709733 0 0.00019794300326991454 -0.033436018604608715 0 2.0085278191254065e-05 -0.033413303407053632 0 0.00019794300326991454 -0.033436018604608715 0 2.0085278191254065e-05 -0.033413303407053632 0 0.00030777155245467503 -0.033556975421570046 0 0.00024399758679932609 -0.033347788606147039 0 0.00019794300326991454 -0.033436018604608715 0 0.00030027157946131477 -0.033522015718922209 0 0.00019794300326991454 -0.033436018604608715 0 0.00030027157946131477 -0.033522015718922209 0 0.00030777155245467503 -0.033556975421570046 0 3.5589432009238903e-05 -0.033327502817375565 0 0.00013255708347414106 -0.033314671687709733 0 2.0085278191254065e-05 -0.033413303407053632 0 3.5589432009238903e-05 -0.033327502817375565 0 2.0085278191254065e-05 -0.033413303407053632 0 3.3624738935760611e-05 -0.033354787993706177 0 0.00020426845863462224 -0.033588873007815802 0 7.5850615207104249e-06 -0.033994832452680097 0 -9.8912504941085761e-05 -0.033640469046884967 0 0.00030027157946131477 -0.033522015718922209 0 0.00020426845863462224 -0.033588873007815802 0 0.00029796270956309456 -0.033911862986571985 0 0.00024399758679932609 -0.033347788606147039 0 0.00030027157946131477 -0.033522015718922209 0 0.00035215914639920884 -0.033304247439249278 0 0.00030228414157288617 -0.033553075753862856 0 0.00031992599866754291 -0.033608310041349232 0 0.00030027157946131477 -0.033522015718922209 0 0.00020426845863462224 -0.033588873007815802 0 0.00030777155245467503 -0.033556975421570046 0 0.00031992599866754291 -0.033608310041349232 0 0.000286424839176478 -0.033795121553679634 0 0.00025302846479512663 -0.033223679108515508 0 0.00024399758679932609 -0.033347788606147039 0 0.00035215914639920884 -0.033304247439249278 0 0.00029796270956309456 -0.033911862986571985 0 7.5850615207104249e-06 -0.033994832452680097 0 0.00018836648119535166 -0.034307041123537128 0 0.00020426845863462224 -0.033588873007815802 0 0.00029796270956309456 -0.033911862986571985 0 7.5850615207104249e-06 -0.033994832452680097 0 7.5850615207104249e-06 -0.033994832452680097 0 0.00018836648119535166 -0.034307041123537128 0 -1.8664241017039828e-05 -0.034421494183151886 0 0.00025302846479512663 -0.033223679108515508 0 0.00035215914639920884 -0.033304247439249278 0 0.00041506048414274431 -0.033169131690424229 0 0.00025302846479512663 -0.033223679108515508 0 0.00041506048414274431 -0.033169131690424229 0 0.00030442068807151048 -0.033098363700562836 0 -0.0002330750511475147 -0.031423479109273025 0 -9.2811920879593354e-05 -0.030971315041019694 0 -0.00060685516191087371 -0.031177772857420901 0 0.000286424839176478 -0.033795121553679634 0 8.8181796493567812e-05 -0.033480551194865003 0 0.00041506048414274431 -0.033169131690424229 0 0.00030442068807151048 -0.033098363700562836 0 0.00048311641072304175 -0.033044931281006037 0 0.00011951680483055913 -0.031859950354206613 0 8.8181796493567812e-05 -0.033480551194865003 0 0.00018836648119535166 -0.034307041123537128 0 1.4596118932431117e-05 -0.034708021521959113 0 -1.8664241017039828e-05 -0.034421494183151886 0 8.8181796493567812e-05 -0.033480551194865003 0 -0.00014645794882204679 -0.03497900395845864 0 -0.00014183932724891402 -0.034578550110022789 0 -0.00032718491848935928 -0.034832119995788592 0 -0.00024762576955986366 -0.034334426747201115 0 1.4596118932431117e-05 -0.034708021521959113 0 -0.00032718491848935928 -0.034832119995788592 0 -0.00033598539980607146 -0.034873003124030424 0 1.4596118932431117e-05 -0.034708021521959113 0 -0.00014183932724891402 -0.034578550110022789 0 -0.00032718491848935928 -0.034832119995788592 0 1.4596118932431117e-05 -0.034708021521959113 0 -0.00014183932724891402 -0.034578550110022789 0 -1.8664241017039828e-05 -0.034421494183151886 0 -0.00032718491848935928 -0.034832119995788592 0 -0.00024762576955986366 -0.034334426747201115 0 -0.00064915008732888602 -0.03435956492426552 0 -0.00032718491848935928 -0.034832119995788592 0 -0.00021565388108474724 -0.035075442585715225 0 -0.00020868226516597866 -0.034944931040525637 0 -0.00031611712057222764 -0.034851540234492877 0 -0.0004778600356507807 -0.034668949421950923 0 -0.00032718491848935928 -0.034832119995788592 0 -0.00020868226516597866 -0.034944931040525637 0 -0.00033598539980607146 -0.034873003124030424 0 -0.00024762576955986366 -0.034334426747201115 0 -0.00060365078276862212 -0.034003000910751466 0 -0.00064915008732888602 -0.03435956492426552 0 7.5850615207104249e-06 -0.033994832452680097 0 -1.8664241017039828e-05 -0.034421494183151886 0 -0.00024762576955986366 -0.034334426747201115 0 -0.00014183932724891402 -0.034578550110022789 0 -1.8664241017039828e-05 -0.034421494183151886 0 -0.00024762576955986366 -0.034334426747201115 0 7.5850615207104249e-06 -0.033994832452680097 0 -0.00024762576955986366 -0.034334426747201115 0 -0.00030946767217010528 -0.033862886209178412 0 -0.00024762576955986366 -0.034334426747201115 0 -0.00060365078276862212 -0.034003000910751466 0 -0.00030946767217010528 -0.033862886209178412 0 -0.00060365078276862212 -0.034003000910751466 0 -0.0005247660781984067 -0.033718613345318969 0 -0.00030946767217010528 -0.033862886209178412 0 -0.0005247660781984067 -0.033718613345318969 0 -0.00030946767217010528 -0.033862886209178412 0 -0.00037289786132537313 -0.03359171492247881 0 7.5850615207104249e-06 -0.033994832452680097 0 -0.00030946767217010528 -0.033862886209178412 0 -9.8912504941085761e-05 -0.033640469046884967 0 -0.00030946767217010528 -0.033862886209178412 0 -9.8912504941085761e-05 -0.033640469046884967 0 -0.00037289786132537313 -0.03359171492247881 0 -1.8575556379123763e-05 -0.034984621046291582 0 -1.5107520804338545e-05 -0.034962390785813341 0 1.9963788827382814e-09 -0.034999944927664131 0 -0.00022148263271806564 -0.034767394947768163 0 2.9377233048792115e-07 -0.035000366828120195 0 -1.6816260361110019e-09 -0.034999998109201465 0 -1.2297285896205553e-06 -0.034999094880571582 0 -7.5504968643806222e-12 -0.035000000045141297 0 -0.00039675766196355669 -0.034300723123080482 0 -0.00022148263271806564 -0.034767394947768163 0 -0.00060365078276862212 -0.034003000910751466 0 -0.0005247660781984067 -0.033718613345318969 0 -0.00078741306024556347 -0.033668988640514312 0 -0.0005247660781984067 -0.033718613345318969 0 -0.00078741306024556347 -0.033668988640514312 0 -0.00059999782837485548 -0.033473100834320271 0 -0.00060365078276862212 -0.034003000910751466 0 -0.00088998464476577833 -0.033975216317075209 0 -0.00064915008732888602 -0.03435956492426552 0 -0.00022148263271806564 -0.034767394947768163 0 -0.0004778600356507807 -0.034668949421950923 0 -0.00060365078276862212 -0.034003000910751466 0 -0.00078741306024556347 -0.033668988640514312 0 -0.00088998464476577833 -0.033975216317075209 0 -1.6816260361110019e-09 -0.034999998109201465 0 -1.2297285896205553e-06 -0.034999094880571582 0 -6.6124675391510888e-07 -0.035000050272001225 0 -0.00022148263271806564 -0.034767394947768163 0 -1.9832677061688679e-05 -0.035082829785630515 0 -1.6816260361110019e-09 -0.034999998109201465 0 -6.6124675391510888e-07 -0.035000050272001225 0 2.7417618407066723e-11 -0.034999999755532862 0 -0.00012358091374328609 -0.03519761244760844 0 -6.7865512287066529e-05 -0.035037332599800908 0 -0.00021565388108474724 -0.035075442585715225 0 -6.7865512287066529e-05 -0.035037332599800908 0 -0.00021565388108474724 -0.035075442585715225 0 -0.00020868226516597866 -0.034944931040525637 0 -6.7865512287066529e-05 -0.035037332599800908 0 -0.00020868226516597866 -0.034944931040525637 0 -0.00013474144345857828 -0.03490836485564594 0 -1.9832677061688679e-05 -0.035082829785630515 0 2.7286702808451497e-09 -0.034996940709592118 0 -6.6124675391510888e-07 -0.035000050272001225 0 2.7417618407066723e-11 -0.034999999755532862 0 -4.0971156841740332e-11 -0.034997045537869489 0 -1.6117619560748571e-07 -0.034996933017081955 0 8.2439717460521048e-08 -0.03499995016529333 0 -0.00013474144345857828 -0.03490836485564594 0 -4.3742502025864472e-08 -0.034999971367036378 0 -4.3828714758589522e-05 -0.034908557193632971 0 -6.7865512287066529e-05 -0.035037332599800908 0 -1.6117619560748571e-07 -0.034996933017081955 0 -0.00013474144345857828 -0.03490836485564594 0 -1.5772012982652321e-07 -0.034999936225765735 0 0.00012912585636587839 -0.03508853860071115 0 -3.3597515965812472e-08 -0.034999890120323104 0 3.6151506206965498e-05 -0.034967903617027563 0 3.4631361971037875e-05 -0.034923120506088187 0 2.3758738107210846e-09 -0.035000001681281957 0 -2.1617318128090115e-06 -0.03499411228047087 0 -1.6616383135349264e-06 -0.03499550378869682 0 2.6726022799007973e-08 -0.035000063189718718 0 -3.3597515965812472e-08 -0.034999890120323104 0 3.6151506206965498e-05 -0.034967903617027563 0 3.6151506206965498e-05 -0.034967903617027563 0 3.4631361971037875e-05 -0.034923120506088187 0 8.4028124008992747e-05 -0.034926147939126295 0 -0.00020868226516597866 -0.034944931040525637 0 -0.00013474144345857828 -0.03490836485564594 0 -0.00033598539980607146 -0.034873003124030424 0 -4.3828714758589522e-05 -0.034908557193632971 0 -0.00014645794882204679 -0.03497900395845864 0 0.00011133664906653705 -0.034852528756780722 0 0.00016820648244738235 -0.034894862492775194 0 8.4028124008992747e-05 -0.034926147939126295 0 3.4631361971037875e-05 -0.034923120506088187 0 0.00011133664906653705 -0.034852528756780722 0 8.4028124008992747e-05 -0.034926147939126295 0 0.00022590336494595926 -0.034787076969226151 0 0.00011133664906653705 -0.034852528756780722 0 0.00016820648244738235 -0.034894862492775194 0 -0.0004816412811378774 -0.031512195078036792 0 -0.00060685516191087371 -0.031177772857420901 0 -0.00080765056827480745 -0.031532947477888908 0 8.8181796493567812e-05 -0.033480551194865003 0 -0.00029584502580829163 -0.033112741846645602 0 -0.00043797614843532037 -0.031973866990859842 0 -0.00080765056827480745 -0.031532947477888908 0 -0.0010059297774536254 -0.031889442074602252 0 -0.00029584502580829163 -0.033112741846645602 0 -0.00039011568566699049 -0.033742403864759206 0 3.6151506206965498e-05 -0.034967903617027563 0 8.4028124008992747e-05 -0.034926147939126295 0 0.0001163989958542053 -0.034971492471088203 0 0.00016820648244738235 -0.034894862492775194 0 8.4028124008992747e-05 -0.034926147939126295 0 0.0001163989958542053 -0.034971492471088203 0 0.00012912585636587839 -0.03508853860071115 0 -0.00039011568566699049 -0.033742403864759206 0 -2.1617318128090115e-06 -0.03499411228047087 0 -5.2393525261767395e-06 -0.034984299464497728 0 -3.2891911636056946e-06 -0.03498927432076044 0 -0.0004042714088389759 -0.033688412873686888 0 -0.00049043485693994391 -0.033841097277906386 0 -0.0003157890643114898 -0.033924579929516585 0 -0.00039011568566699049 -0.033742403864759206 0 -0.00028655799187934835 -0.034462512864952791 0 -0.00010134951716855167 -0.033735611171694817 0 -0.0004042714088389759 -0.033688412873686888 0 -0.0003157890643114898 -0.033924579929516585 0 -0.00036567872043303677 -0.03268500894834938 0 -0.00039011568566699049 -0.033742403864759206 0 3.3529720442994043e-06 -0.034717954686203249 0 5.9048288123298977e-05 -0.034717271862425667 0 3.9543156128771916e-05 -0.034644574349798 0 5.9048288123298977e-05 -0.034717271862425667 0 0.00011985859700958287 -0.034673283308685646 0 3.9543156128771916e-05 -0.034644574349798 0 -0.00014514335913314055 -0.034250164805265916 0 -0.00022751703126540186 -0.034557602260667133 0 -0.00049043485693994391 -0.033841097277906386 0 -0.0003157890643114898 -0.033924579929516585 0 -0.00057571890760507185 -0.033995284165655962 0 3.3529720442994043e-06 -0.034717954686203249 0 3.9543156128771916e-05 -0.034644574349798 0 -5.4113648188271824e-05 -0.034697887024599847 0 -0.00028655799187934835 -0.034462512864952791 0 -0.00022751703126540186 -0.034557602260667133 0 -2.9807981684741388e-05 -0.034739244282131709 0 3.3529720442994043e-06 -0.034717954686203249 0 -5.4113648188271824e-05 -0.034697887024599847 0 -0.00020608143202138489 -0.034571944782242861 0 -0.00022751703126540186 -0.034557602260667133 0 -3.2891911636056946e-06 -0.03498927432076044 0 -1.5929362055318981e-06 -0.034994290340810204 0 -2.1033019434052487e-06 -0.034993817618692608 0 -1.5735867714603233e-06 -0.034994854862472939 0 -1.5929362055318981e-06 -0.034994290340810204 0 -2.1033019434052487e-06 -0.034993817618692608 0 -1.5735867714603233e-06 -0.034994854862472939 0 -2.1033019434052487e-06 -0.034993817618692608 0 -1.9695944571274326e-06 -0.034996350270291472 0 -2.1033019434052487e-06 -0.034993817618692608 0 -1.9695944571274326e-06 -0.034996350270291472 0 -1.6616383135349264e-06 -0.03499550378869682 0 -1.5735867714603233e-06 -0.034994854862472939 0 -1.9695944571274326e-06 -0.034996350270291472 0 -2.381829711709657e-06 -0.034997659715694934 0 1.1596675980903404e-08 -0.035000031014453009 0 -1.9808951666672854e-06 -0.034998630411236048 0 -6.7556139207590467e-09 -0.03499998327415503 0 -1.9695944571274326e-06 -0.034996350270291472 0 -2.381829711709657e-06 -0.034997659715694934 0 -1.9808951666672854e-06 -0.034998630411236048 0 -1.9695944571274326e-06 -0.034996350270291472 0 -1.9808951666672854e-06 -0.034998630411236048 0 -6.7556139207590467e-09 -0.03499998327415503 0 2.3758738107210846e-09 -0.035000001681281957 0 -6.7556139207590467e-09 -0.03499998327415503 0 -1.6616383135349264e-06 -0.03499550378869682 0 -1.9695944571274326e-06 -0.034996350270291472 0 -6.7556139207590467e-09 -0.03499998327415503 0 -1.6616383135349264e-06 -0.03499550378869682 0 -3.2891911636056946e-06 -0.03498927432076044 0 -2.1033019434052487e-06 -0.034993817618692608 0 -1.6616383135349264e-06 -0.03499550378869682 0 -2.1617318128090115e-06 -0.03499411228047087 0 -3.2891911636056946e-06 -0.03498927432076044 0 -1.6616383135349264e-06 -0.03499550378869682 0 7.4219195926942925e-05 -0.034906366045333724 0 0.00010452166783178443 -0.034791227937822349 0 0.00011730535093988131 -0.034815124148289994 0 8.1477504748474838e-08 -0.034999791657524738 0 7.4219195926942925e-05 -0.034906366045333724 0 0.00011730535093988131 -0.034815124148289994 0 8.1477504748474838e-08 -0.034999791657524738 0 7.4219195926942925e-05 -0.034906366045333724 0 7.5186258742908357e-08 -0.034999896634504937 0 7.4219195926942925e-05 -0.034906366045333724 0 7.6131638063960398e-05 -0.034912285060507482 0 7.5186258742908357e-08 -0.034999896634504937 0 7.4219195926942925e-05 -0.034906366045333724 0 0.00010452166783178443 -0.034791227937822349 0 7.6131638063960398e-05 -0.034912285060507482 0 5.6497564068311229e-05 -0.034843354965419786 0 0.00010452166783178443 -0.034791227937822349 0 7.6131638063960398e-05 -0.034912285060507482 0 5.6497564068311229e-05 -0.034843354965419786 0 5.4054897504873936e-05 -0.034665955468046815 0 -4.4640880707550311e-05 -0.034765060830475474 0 5.6497564068311229e-05 -0.034843354965419786 0 5.4054897504873936e-05 -0.034665955468046815 0 0.00010452166783178443 -0.034791227937822349 0 5.4054897504873936e-05 -0.034665955468046815 0 0.00010452166783178443 -0.034791227937822349 0 0.00014750268450458719 -0.034585604408347438 0 0.00010452166783178443 -0.034791227937822349 0 0.00014750268450458719 -0.034585604408347438 0 0.00011730535093988131 -0.034815124148289994 0 0.00014750268450458719 -0.034585604408347438 0 0.00018080885384256037 -0.034654859133424476 0 0.00011730535093988131 -0.034815124148289994 0 5.4054897504873936e-05 -0.034665955468046815 0 0.00014750268450458719 -0.034585604408347438 0 -3.4330999894147858e-06 -0.034408683675541299 0 0.00014750268450458719 -0.034585604408347438 0 5.9113127725025361e-05 -0.034234912302825229 0 -3.4330999894147858e-06 -0.034408683675541299 0 0.00019252670913476357 -0.034416330082892153 0 0.00011738109884864943 -0.034091788167295155 0 5.9113127725025361e-05 -0.034234912302825229 0 0.00014750268450458719 -0.034585604408347438 0 0.00019252670913476357 -0.034416330082892153 0 5.9113127725025361e-05 -0.034234912302825229 0 0.00014750268450458719 -0.034585604408347438 0 0.00019252670913476357 -0.034416330082892153 0 0.00018080885384256037 -0.034654859133424476 0 0.00019252670913476357 -0.034416330082892153 0 0.00018080885384256037 -0.034654859133424476 0 0.00031324518504860819 -0.0344388698902241 0 0.00018080885384256037 -0.034654859133424476 0 0.00011730535093988131 -0.034815124148289994 0 1.2274821790903608e-07 -0.034999632424443337 0 0.00018080885384256037 -0.034654859133424476 0 1.2274821790903608e-07 -0.034999632424443337 0 9.5631981341448891e-05 -0.034802477986236299 0 8.1477504748474838e-08 -0.034999791657524738 0 0.00011730535093988131 -0.034815124148289994 0 1.2274821790903608e-07 -0.034999632424443337 0 1.2274821790903608e-07 -0.034999632424443337 0 9.5631981341448891e-05 -0.034802477986236299 0 -3.9511927870732813e-08 -0.034999758220645633 0 9.5631981341448891e-05 -0.034802477986236299 0 0.00025140658281218873 -0.034925833118922875 0 0.00031324518504860819 -0.0344388698902241 0 0.00018080885384256037 -0.034654859133424476 0 9.5631981341448891e-05 -0.034802477986236299 0 0.00031324518504860819 -0.0344388698902241 0 9.5631981341448891e-05 -0.034802477986236299 0 0.00011749524989854146 -0.034976273164234545 0 0.00025140658281218873 -0.034925833118922875 0 0.00011749524989854146 -0.034976273164234545 0 -3.9511927870732813e-08 -0.034999758220645633 0 0.00012344067270379406 -0.035056330494789303 0 9.5631981341448891e-05 -0.034802477986236299 0 0.00011749524989854146 -0.034976273164234545 0 -3.9511927870732813e-08 -0.034999758220645633 0 -5.7885079257038984e-08 -0.035000011548646071 0 8.5817271697023124e-05 -0.034826211760548002 0 -7.8764876231512472e-09 -0.035000032770504549 0 -1.1417752474789826e-05 -0.034999910925103253 0 -8.2440023174680704e-06 -0.034996637456099308 0 -8.558712854121567e-10 -0.034999999933618894 0 1.6862715715274094e-09 -0.034999997972353376 0 1.1880277011653104e-06 -0.0349984717833704 0 9.1754890189935493e-08 -0.035000222418361218 0 8.5817271697023124e-05 -0.034826211760548002 0 -6.3123374565267392e-05 -0.034089270059891666 0 0.00041165842514406841 -0.034363458945575992 0 0.00011749524989854146 -0.034976273164234545 0 0.00018195159041540823 -0.035074993523710039 0 0.00012344067270379406 -0.035056330494789303 0 0.00011749524989854146 -0.034976273164234545 0 0.00018195159041540823 -0.035074993523710039 0 0.00025140658281218873 -0.034925833118922875 0 -0.000278645536953735 -0.034441904257413024 0 4.162928710478945e-05 -0.034516527188995956 0 -0.00021512817042707233 -0.034227277027575248 0 -6.3123374565267392e-05 -0.034089270059891666 0 -0.00030500875963782308 -0.034139981661540142 0 -6.3123374565267392e-05 -0.034089270059891666 0 8.5817271697023124e-05 -0.034826211760548002 0 8.5817271697023124e-05 -0.034826211760548002 0 -0.00030500875963782308 -0.034139981661540142 0 -0.00039675766196355669 -0.034300723123080482 0 -0.00030500875963782308 -0.034139981661540142 0 -1.1417752474789826e-05 -0.034999910925103253 0 -1.7663351433783347e-05 -0.034994479030311824 0 -8.2440023174680704e-06 -0.034996637456099308 0 -0.00078741306024556347 -0.033668988640514312 0 -0.00068728102968826984 -0.033375931334248259 0 -0.00059999782837485548 -0.033473100834320271 0 -1.8575556379123763e-05 -0.034984621046291582 0 -1.7663351433783347e-05 -0.034994479030311824 0 -8.2440023174680704e-06 -0.034996637456099308 0 -0.00065414950304490817 -0.033285144677440058 0 -0.00068253143920857077 -0.033379551591282176 0 -0.00059999782837485548 -0.033473100834320271 0 -0.00030500875963782308 -0.034139981661540142 0 -0.0006804036046747404 -0.033578689700212577 0 -1.8575556379123763e-05 -0.034984621046291582 0 1.9963788827382814e-09 -0.034999944927664131 0 -8.2440023174680704e-06 -0.034996637456099308 0 -7.8764876231512472e-09 -0.035000032770504549 0 1.9963788827382814e-09 -0.034999944927664131 0 -8.2440023174680704e-06 -0.034996637456099308 0 -9.8912504941085761e-05 -0.033640469046884967 0 -0.00027340504042280356 -0.033365166049858216 0 -0.00037289786132537313 -0.03359171492247881 0 -9.8912504941085761e-05 -0.033640469046884967 0 -0.00027340504042280356 -0.033365166049858216 0 9.0418674654015976e-05 -0.033455602464266876 0 -3.9523593509038215e-05 -0.033267704617378477 0 1.2575419702506794e-06 -0.033364826636605761 0 -0.00059999782837485548 -0.033473100834320271 0 -0.00027340504042280356 -0.033365166049858216 0 -0.00037289786132537313 -0.03359171492247881 0 -0.00065414950304490817 -0.033285144677440058 0 -0.00059999782837485548 -0.033473100834320271 0 -0.00027340504042280356 -0.033365166049858216 0 -0.0005247660781984067 -0.033718613345318969 0 -0.00059999782837485548 -0.033473100834320271 0 -0.00037289786132537313 -0.03359171492247881 0 0.00065631672283535439 -0.033383078392623285 0 0.00037996751790698194 -0.0335357605171899 0 0.00055771532552365759 -0.03379594709292158 0 0.00065631672283535439 -0.033383078392623285 0 0.00020347474724522656 -0.033296591755125261 0 0.00037996751790698194 -0.0335357605171899 0 -6.3123374565267392e-05 -0.034089270059891666 0 -3.9523593509038215e-05 -0.033267704617378477 0 0.00020347474724522656 -0.033296591755125261 0 0.00011696644651272133 -0.033707374680194212 0 -7.3123959103295926e-05 -0.033457441481161865 0 0.00020347474724522656 -0.033296591755125261 0 0.00037996751790698194 -0.0335357605171899 0 0.00011696644651272133 -0.033707374680194212 0 0.00011696644651272133 -0.033707374680194212 0 0.00055771532552365759 -0.03379594709292158 0 0.00031324518504860819 -0.0344388698902241 0 0.00037996751790698194 -0.0335357605171899 0 0.00011696644651272133 -0.033707374680194212 0 0.00055771532552365759 -0.03379594709292158 0 0.00041165842514406841 -0.034363458945575992 0 0.0003319278042264344 -0.034437639835186808 0 0.00011696644651272133 -0.033707374680194212 0 0.00031324518504860819 -0.0344388698902241 0 0.00011738109884864943 -0.034091788167295155 0 0.00019252670913476357 -0.034416330082892153 0 0.00031324518504860819 -0.0344388698902241 0 0.00011738109884864943 -0.034091788167295155 0 0.00011696644651272133 -0.033707374680194212 0 0.00011738109884864943 -0.034091788167295155 0 -6.3495960557987915e-05 -0.033761676680631084 0 0.00011738109884864943 -0.034091788167295155 0 -6.3495960557987915e-05 -0.033761676680631084 0 5.9113127725025361e-05 -0.034234912302825229 0 -6.3495960557987915e-05 -0.033761676680631084 0 -0.0001875262994588677 -0.033399770327951758 0 -0.00020254242763957089 -0.033579744219006571 0 -6.3495960557987915e-05 -0.033761676680631084 0 -0.00020254242763957089 -0.033579744219006571 0 -0.00011106064064889838 -0.034031701888551348 0 -0.0001875262994588677 -0.033399770327951758 0 -7.3123959103295926e-05 -0.033457441481161865 0 -0.00017802989741511318 -0.033326256267358884 0 -0.0001875262994588677 -0.033399770327951758 0 -0.00017802989741511318 -0.033326256267358884 0 -0.00022991439228507937 -0.033220488918348993 0 0.00011696644651272133 -0.033707374680194212 0 -6.3495960557987915e-05 -0.033761676680631084 0 -7.3123959103295926e-05 -0.033457441481161865 0 -6.3495960557987915e-05 -0.033761676680631084 0 -0.0001875262994588677 -0.033399770327951758 0 -7.3123959103295926e-05 -0.033457441481161865 0 0.00020347474724522656 -0.033296591755125261 0 -7.3123959103295926e-05 -0.033457441481161865 0 -9.5987449320926549e-05 -0.033249038987830666 0 -7.3123959103295926e-05 -0.033457441481161865 0 -0.00017802989741511318 -0.033326256267358884 0 -9.5987449320926549e-05 -0.033249038987830666 0 -0.00017802989741511318 -0.033326256267358884 0 -9.5987449320926549e-05 -0.033249038987830666 0 -0.0002055789868768834 -0.033286331819780156 0 -0.00017802989741511318 -0.033326256267358884 0 -0.0002055789868768834 -0.033286331819780156 0 -0.00022991439228507937 -0.033220488918348993 0 5.3689577115944837e-05 -0.033420862099238176 0 1.2575419702506794e-06 -0.033364826636605761 0 0.00020426845863462224 -0.033588873007815802 0 0.00030777155245467503 -0.033556975421570046 0 9.0418674654015976e-05 -0.033455602464266876 0 -0.00020169690750801588 -0.033303814344718047 0 -9.5987449320926549e-05 -0.033249038987830666 0 -0.0002055789868768834 -0.033286331819780156 0 0.00020426845863462224 -0.033588873007815802 0 -9.8912504941085761e-05 -0.033640469046884967 0 9.0418674654015976e-05 -0.033455602464266876 0 -9.2473852195373294e-06 -0.033320414529958708 0 -0.00011592268687520203 -0.033303504587476274 0 -0.00013796928800715886 -0.033231133313402862 0 2.0085278191254065e-05 -0.033413303407053632 0 -9.2473852195373294e-06 -0.033320414529958708 0 3.3624738935760611e-05 -0.033354787993706177 0 2.0085278191254065e-05 -0.033413303407053632 0 -9.2473852195373294e-06 -0.033320414529958708 0 -0.00011592268687520203 -0.033303504587476274 0 2.0085278191254065e-05 -0.033413303407053632 0 -0.00020169690750801588 -0.033303814344718047 0 -0.00011592268687520203 -0.033303504587476274 0 3.22394083273854e-05 -0.033419802745705947 0 5.3689577115944837e-05 -0.033420862099238176 0 -0.00020169690750801588 -0.033303814344718047 0 -0.00011592268687520203 -0.033303504587476274 0 -0.0002055789868768834 -0.033286331819780156 0 -0.00011592268687520203 -0.033303504587476274 0 -0.0002055789868768834 -0.033286331819780156 0 -0.00013796928800715886 -0.033231133313402862 0 -0.00022991439228507937 -0.033220488918348993 0 -0.00013796928800715886 -0.033231133313402862 0 -0.00021039689989830356 -0.03280530883407784 0 -0.0002055789868768834 -0.033286331819780156 0 -0.00022991439228507937 -0.033220488918348993 0 -0.00013796928800715886 -0.033231133313402862 0 -9.2473852195373294e-06 -0.033320414529958708 0 -0.00013796928800715886 -0.033231133313402862 0 8.667327519730051e-05 -0.033249611511429293 0 -0.00013796928800715886 -0.033231133313402862 0 -0.00021039689989830356 -0.03280530883407784 0 8.667327519730051e-05 -0.033249611511429293 0 -0.00021570372844583943 -0.032700032799631094 0 -0.00048509480732837596 -0.031942207002829737 0 -0.0001875262994588677 -0.033399770327951758 0 -0.00022991439228507937 -0.033220488918348993 0 -0.00021039689989830356 -0.03280530883407784 0 -0.0001875262994588677 -0.033399770327951758 0 -0.00021039689989830356 -0.03280530883407784 0 -0.00020254242763957089 -0.033579744219006571 0 -0.00021039689989830356 -0.03280530883407784 0 -0.00020254242763957089 -0.033579744219006571 0 -0.00061500209876047584 -0.033610130880667111 0 -0.00021039689989830356 -0.03280530883407784 0 -0.00061500209876047584 -0.033610130880667111 0 -0.0013990398121867069 -0.033060123358558652 0 -0.00061500209876047584 -0.033610130880667111 0 -0.00075142282903249442 -0.034064402393026397 0 -0.00038152225957771796 -0.034056391716309579 0 -0.00061500209876047584 -0.033610130880667111 0 -0.00075142282903249442 -0.034064402393026397 0 -0.0012259826433330355 -0.033904720790166661 0 -0.00075142282903249442 -0.034064402393026397 0 -0.00038152225957771796 -0.034056391716309579 0 -0.00063531363413413906 -0.034388730452659264 0 -0.00075142282903249442 -0.034064402393026397 0 -0.00063531363413413906 -0.034388730452659264 0 -0.0010886678000787567 -0.03439465578255211 0 -0.00038152225957771796 -0.034056391716309579 0 -0.000340486926884523 -0.034361707148445941 0 -0.00018139134867649557 -0.034306666751312206 0 -0.00038152225957771796 -0.034056391716309579 0 -0.000340486926884523 -0.034361707148445941 0 -0.00063531363413413906 -0.034388730452659264 0 -0.00020254242763957089 -0.033579744219006571 0 -0.00061500209876047584 -0.033610130880667111 0 -0.00038152225957771796 -0.034056391716309579 0 -0.00020254242763957089 -0.033579744219006571 0 -0.00038152225957771796 -0.034056391716309579 0 -0.00011106064064889838 -0.034031701888551348 0 -6.3495960557987915e-05 -0.033761676680631084 0 -0.00011106064064889838 -0.034031701888551348 0 5.9113127725025361e-05 -0.034234912302825229 0 -0.00011106064064889838 -0.034031701888551348 0 5.9113127725025361e-05 -0.034234912302825229 0 -3.4330999894147858e-06 -0.034408683675541299 0 -3.4330999894147858e-06 -0.034408683675541299 0 -0.00018139134867649557 -0.034306666751312206 0 -8.6202556892478758e-05 -0.034570689938656751 0 -0.00038152225957771796 -0.034056391716309579 0 -0.00011106064064889838 -0.034031701888551348 0 -0.00018139134867649557 -0.034306666751312206 0 -0.00011106064064889838 -0.034031701888551348 0 -3.4330999894147858e-06 -0.034408683675541299 0 -0.00018139134867649557 -0.034306666751312206 0 -0.000340486926884523 -0.034361707148445941 0 -0.00018139134867649557 -0.034306666751312206 0 -0.00024916921273955751 -0.034539730788824025 0 -0.00018139134867649557 -0.034306666751312206 0 -0.00024916921273955751 -0.034539730788824025 0 -8.6202556892478758e-05 -0.034570689938656751 0 -0.00024916921273955751 -0.034539730788824025 0 -8.6202556892478758e-05 -0.034570689938656751 0 -0.00017558761622074438 -0.034695940081258009 0 5.4054897504873936e-05 -0.034665955468046815 0 -3.4330999894147858e-06 -0.034408683675541299 0 -8.6202556892478758e-05 -0.034570689938656751 0 5.4054897504873936e-05 -0.034665955468046815 0 -8.6202556892478758e-05 -0.034570689938656751 0 -4.4640880707550311e-05 -0.034765060830475474 0 -8.6202556892478758e-05 -0.034570689938656751 0 -4.4640880707550311e-05 -0.034765060830475474 0 -0.00017558761622074438 -0.034695940081258009 0 -0.00017558761622074438 -0.034695940081258009 0 -0.0003175587850032014 -0.034678609889186182 0 -0.00019679557327560997 -0.034885598377320311 0 -4.4640880707550311e-05 -0.034765060830475474 0 -0.00017558761622074438 -0.034695940081258009 0 -0.00019679557327560997 -0.034885598377320311 0 -0.00024916921273955751 -0.034539730788824025 0 -0.00017558761622074438 -0.034695940081258009 0 -0.0003175587850032014 -0.034678609889186182 0 0.0011714046832856098 -0.028313472135761755 0 0.0010608507965199014 -0.028604246671351165 0 0.0018490374810157886 -0.02894800285946458 0 -0.0003175587850032014 -0.034678609889186182 0 -0.00054005140186168992 -0.034711688506704107 0 -0.00019679557327560997 -0.034885598377320311 0 0.00032368238961167533 -0.031617863005949744 0 0.00081167879083564722 -0.032289545733773718 0 -0.0003175587850032014 -0.034678609889186182 0 -0.00054005140186168992 -0.034711688506704107 0 -0.00042685423722900424 -0.034535078454947805 0 0.0011714046832856098 -0.028313472135761755 0 0.00064017714949939021 -0.028271822216098991 0 0.0010608507965199014 -0.028604246671351165 0 -0.00054005140186168992 -0.034711688506704107 0 -0.00063531363413413906 -0.034388730452659264 0 -0.0010886678000787567 -0.03439465578255211 0 -0.00054005140186168992 -0.034711688506704107 0 -0.00063531363413413906 -0.034388730452659264 0 -0.00042685423722900424 -0.034535078454947805 0 0.00032368238961167533 -0.031617863005949744 0 -0.00018774895189372552 -0.030123783859896124 0 -0.000340486926884523 -0.034361707148445941 0 -0.00063531363413413906 -0.034388730452659264 0 -0.00042685423722900424 -0.034535078454947805 0 -0.000340486926884523 -0.034361707148445941 0 -0.00024916921273955751 -0.034539730788824025 0 -0.00042685423722900424 -0.034535078454947805 0 -0.00024916921273955751 -0.034539730788824025 0 -0.0003175587850032014 -0.034678609889186182 0 -0.00042685423722900424 -0.034535078454947805 0 0.00025817323547304037 -0.027879579283232234 0 0.00057615176921229022 -0.02782694159657937 0 0.00042467662762240102 -0.028251805034714417 0 0.00025817323547304037 -0.027879579283232234 0 0.00042467662762240102 -0.028251805034714417 0 5.802586755147301e-05 -0.027887096710357762 0 -0.00018774895189372552 -0.030123783859896124 0 0.00065271608376128232 -0.027417740589777775 0 0.0011714046832856098 -0.028313472135761755 0 0.00060720712290139296 -0.027861248779557542 0 0.00064017714949939021 -0.028271822216098991 0 0.00057615176921229022 -0.02782694159657937 0 0.00064017714949939021 -0.028271822216098991 0 0.00042467662762240102 -0.028251805034714417 0 0.00064017714949939021 -0.028271822216098991 0 0.00042467662762240102 -0.028251805034714417 0 0.0010608507965199014 -0.028604246671351165 0 0.0011472436461688247 -0.029955307344406108 0 0.0011287446979035454 -0.03008536025931087 0 0.0019159275002997799 -0.031616421412576409 0 0.0029576037297908307 -0.031239673816907915 0 0.0025726649468425086 -0.030844060296446839 0 0.0011472436461688247 -0.029955307344406108 0 0.0015017028192060046 -0.029549509196101685 0 0.0029576037297908307 -0.031239673816907915 0 0.0035539232489933924 -0.030573160420603932 0 0.0025726649468425086 -0.030844060296446839 0 0.0029576037297908307 -0.031239673816907915 0 0.0039510473938239483 -0.030737303265352806 0 0.0035539232489933924 -0.030573160420603932 0 0.0015017028192060046 -0.029549509196101685 0 0.0019208496831532368 -0.02915562071512752 0 5.802586755147301e-05 -0.027887096710357762 0 1.9224135506472204e-05 -0.027668308389036191 0 2.9543793080262516e-06 -0.027571635540016029 0 0.00025817323547304037 -0.027879579283232234 0 5.802586755147301e-05 -0.027887096710357762 0 1.9224135506472204e-05 -0.027668308389036191 0 0.00025817323547304037 -0.027879579283232234 0 1.9224135506472204e-05 -0.027668308389036191 0 0.000214999519587974 -0.027626711536080675 0 1.9224135506472204e-05 -0.027668308389036191 0 -1.0185377912281441e-05 -0.027606722273687212 0 -1.0059108880646332e-05 -0.027583737555621213 0 -0.00087696582742492724 -0.029989170681237326 0 -0.0011679201340000773 -0.030054656168699873 0 -0.0011559551986775993 -0.029784133651224485 0 -0.00040251520470765886 -0.028839250561426805 0 -0.00058720909879112285 -0.028488776699766363 0 1.9224135506472204e-05 -0.027668308389036191 0 -1.0185377912281441e-05 -0.027606722273687212 0 0.000214999519587974 -0.027626711536080675 0 -0.0011679201340000773 -0.030054656168699873 0 -0.0014527659253863949 -0.02987448894441774 0 -0.0014885216244712807 -0.03024549582247733 0 -0.0011679201340000773 -0.030054656168699873 0 -0.0011559551986775993 -0.029784133651224485 0 -0.0014527659253863949 -0.02987448894441774 0 -0.00018774895189372552 -0.030123783859896124 0 -0.00058720909879112285 -0.028488776699766363 0 0.00025817323547304037 -0.027879579283232234 0 0.00057615176921229022 -0.02782694159657937 0 0.000214999519587974 -0.027626711536080675 0 -0.0014538081475002512 -0.029560054774357879 0 -0.0011559551986775993 -0.029784133651224485 0 -0.0014527659253863949 -0.02987448894441774 0 -0.00018774895189372552 -0.030123783859896124 0 -0.0013919448753567487 -0.032238499776916313 0 -0.00075142282903249442 -0.034064402393026397 0 -0.0010886678000787567 -0.03439465578255211 0 -0.0012259826433330355 -0.033904720790166661 0 -0.0013919448753567487 -0.032238499776916313 0 -0.0014237374792847284 -0.03156009311054124 0 -0.00061500209876047584 -0.033610130880667111 0 -0.0012259826433330355 -0.033904720790166661 0 -0.0013990398121867069 -0.033060123358558652 0 -0.0011679201340000773 -0.030054656168699873 0 -0.0014885216244712807 -0.03024549582247733 0 -0.0010502083013693134 -0.030341814936203051 0 -0.0011765345655095712 -0.03060657779173365 0 -0.0014070004555807774 -0.031132431211214371 0 -0.0010502083013693134 -0.030341814936203051 0 -0.0014885216244712807 -0.03024549582247733 0 -0.0014070004555807774 -0.031132431211214371 0 -0.0010502083013693134 -0.030341814936203051 0 -0.00021039689989830356 -0.03280530883407784 0 -0.0013990398121867069 -0.033060123358558652 0 -0.0014070004555807774 -0.031132431211214371 0 -0.00021039689989830356 -0.03280530883407784 0 -0.0014070004555807774 -0.031132431211214371 0 -0.0010143954030638102 -0.030620706893954509 0 -0.0014237374792847284 -0.03156009311054124 0 -0.0014225178744968095 -0.031216602909067651 0 -0.0014070004555807774 -0.031132431211214371 0 -0.0010143954030638102 -0.030620706893954509 0 -0.0012085179464749634 -0.030522561421718549 0 -0.0011765345655095712 -0.03060657779173365 0 -0.0014070004555807774 -0.031132431211214371 0 -0.0012085179464749634 -0.030522561421718549 0 -0.0011405599788728601 -0.030363300729003641 0 -0.0010143954030638102 -0.030620706893954509 0 -0.0012085179464749634 -0.030522561421718549 0 -0.0011405599788728601 -0.030363300729003641 0 -0.0012085179464749634 -0.030522561421718549 0 -0.001072953408508255 -0.030337367645640382 0 -9.2473852195373294e-06 -0.033320414529958708 0 8.667327519730051e-05 -0.033249611511429293 0 3.3624738935760611e-05 -0.033354787993706177 0 1.002639849008527e-05 -0.033343145386686548 0 8.667327519730051e-05 -0.033249611511429293 0 3.3624738935760611e-05 -0.033354787993706177 0 -0.00063619554138418714 -0.031980165456940726 0 -0.00048509480732837596 -0.031942207002829737 0 -0.00098731929556720673 -0.030285314137932961 0 -0.00091041121710075347 -0.030150963982632381 0 -0.00072000019151211524 -0.030033362208490209 0 -0.00098731929556720673 -0.030285314137932961 0 -0.00091041121710075347 -0.030150963982632381 0 -0.001072953408508255 -0.030337367645640382 0 -0.00098731929556720673 -0.030285314137932961 0 -0.0011405599788728601 -0.030363300729003641 0 -0.001072953408508255 -0.030337367645640382 0 -0.00091041121710075347 -0.030150963982632381 0 -0.001072953408508255 -0.030337367645640382 0 -0.00099982711630813544 -0.030291015469702167 0 -0.0012085179464749634 -0.030522561421718549 0 -0.001072953408508255 -0.030337367645640382 0 -0.00099982711630813544 -0.030291015469702167 0 -0.0011765345655095712 -0.03060657779173365 0 -0.0012085179464749634 -0.030522561421718549 0 -0.00099982711630813544 -0.030291015469702167 0 -0.00091041121710075347 -0.030150963982632381 0 -0.00099982711630813544 -0.030291015469702167 0 -0.00075578386581476884 -0.029910711985037485 0 -0.00099982711630813544 -0.030291015469702167 0 -0.00088085400985903127 -0.030117024275983537 0 -0.00075578386581476884 -0.029910711985037485 0 -0.00088085400985903127 -0.030117024275983537 0 -0.0007618940056748633 -0.029937699128523003 0 -0.00075578386581476884 -0.029910711985037485 0 -0.00099982711630813544 -0.030291015469702167 0 -0.00088085400985903127 -0.030117024275983537 0 -0.0010502083013693134 -0.030341814936203051 0 -0.0011765345655095712 -0.03060657779173365 0 -0.00099982711630813544 -0.030291015469702167 0 -0.0010502083013693134 -0.030341814936203051 0 -0.00087696582742492724 -0.029989170681237326 0 -0.00088085400985903127 -0.030117024275983537 0 -0.0010502083013693134 -0.030341814936203051 0 -0.00087696582742492724 -0.029989170681237326 0 -0.0011679201340000773 -0.030054656168699873 0 -0.0010502083013693134 -0.030341814936203051 0 -0.00040251520470765886 -0.028839250561426805 0 -0.00041201939194535395 -0.028832944217003706 0 -0.00087696582742492724 -0.029989170681237326 0 -0.00088085400985903127 -0.030117024275983537 0 -0.0007618940056748633 -0.029937699128523003 0 -8.4945443888815401e-05 -0.027730683928482238 0 2.4341865301072619e-05 -0.027752582181379947 0 -1.0059108880646332e-05 -0.027583737555621213 0 -8.4945443888815401e-05 -0.027730683928482238 0 2.4341865301072619e-05 -0.027752582181379947 0 -0.00011112934094215351 -0.028076700713846617 0 -0.00041201939194535395 -0.028832944217003706 0 -0.00026467708793617402 -0.028845147990991589 0 -0.0007618940056748633 -0.029937699128523003 0 -0.00055317155265965077 -0.02954553202829216 0 -0.00075578386581476884 -0.029910711985037485 0 -0.00055317155265965077 -0.02954553202829216 0 -0.00075578386581476884 -0.029910711985037485 0 -0.0005569165673973978 -0.029724544708598498 0 -0.00055317155265965077 -0.02954553202829216 0 -0.0005569165673973978 -0.029724544708598498 0 -0.00030116454407654931 -0.029505457941846384 0 -0.0005569165673973978 -0.029724544708598498 0 -0.00051096719086203492 -0.029792508802812236 0 -0.00072000019151211524 -0.030033362208490209 0 -0.0005569165673973978 -0.029724544708598498 0 -0.00051096719086203492 -0.029792508802812236 0 -0.00030116454407654931 -0.029505457941846384 0 -0.00015783032052557329 -0.029762181356463153 0 -0.00051096719086203492 -0.029792508802812236 0 -0.00030116454407654931 -0.029505457941846384 0 -0.00075578386581476884 -0.029910711985037485 0 -0.0005569165673973978 -0.029724544708598498 0 -0.00072000019151211524 -0.030033362208490209 0 -0.00091041121710075347 -0.030150963982632381 0 -0.00075578386581476884 -0.029910711985037485 0 -0.00072000019151211524 -0.030033362208490209 0 -0.00015783032052557329 -0.029762181356463153 0 0.00066880633758574059 -0.029015422844048917 0 8.6442751657987693e-05 -0.028894456377506927 0 0.00170346742841965 -0.022755266672210915 0 0.0030484917693326271 -0.022595366399860192 0 -0.00015783032052557329 -0.029762181356463153 0 -0.00030116454407654931 -0.029505457941846384 0 8.6442751657987693e-05 -0.028894456377506927 0 -0.00026467708793617402 -0.028845147990991589 0 9.9556991463752047e-05 -0.028957186781368823 0 -0.00055317155265965077 -0.02954553202829216 0 -0.00030116454407654931 -0.029505457941846384 0 8.6442751657987693e-05 -0.028894456377506927 0 0.00066880633758574059 -0.029015422844048917 0 8.6442751657987693e-05 -0.028894456377506927 0 0.00072031955371725214 -0.028262925369082145 0 8.6442751657987693e-05 -0.028894456377506927 0 0.00026100203114432543 -0.027957308916906929 0 0.00072031955371725214 -0.028262925369082145 0 0.00026100203114432543 -0.027957308916906929 0 0.00072031955371725214 -0.028262925369082145 0 0.00073115831604292488 -0.027732606377146515 0 2.4341865301072619e-05 -0.027752582181379947 0 -0.00011112934094215351 -0.028076700713846617 0 0.00026100203114432543 -0.027957308916906929 0 -0.00011112934094215351 -0.028076700713846617 0 8.6442751657987693e-05 -0.028894456377506927 0 0.00026100203114432543 -0.027957308916906929 0 2.4341865301072619e-05 -0.027752582181379947 0 0.00026100203114432543 -0.027957308916906929 0 0.00035596944937941072 -0.027544366663930082 0 0.00026100203114432543 -0.027957308916906929 0 0.00035596944937941072 -0.027544366663930082 0 0.00073115831604292488 -0.027732606377146515 0 0.00035596944937941072 -0.027544366663930082 0 0.00073115831604292488 -0.027732606377146515 0 0.0009549983843956133 -0.027382788916379061 0 0.0025156435348327021 -0.028609147646153014 0 0.0025697460907217447 -0.02978648703144662 0 0.0044872670196324923 -0.030068055492426696 0 0.005821879713107333 -0.030439300222189478 0 0.0053692594415986243 -0.029191832460378292 0 0.00026101081315700115 -0.027330292933248478 0 0.00035596944937941072 -0.027544366663930082 0 0.00076737531687880894 -0.027198210008091476 0 0.00026101081315700115 -0.027330292933248478 0 0.00035596944937941072 -0.027544366663930082 0 -1.0059108880646332e-05 -0.027583737555621213 0 2.4341865301072619e-05 -0.027752582181379947 0 0.00035596944937941072 -0.027544366663930082 0 -1.0059108880646332e-05 -0.027583737555621213 0 -1.0185377912281441e-05 -0.027606722273687212 0 -8.4945443888815401e-05 -0.027730683928482238 0 -1.0059108880646332e-05 -0.027583737555621213 0 1.9224135506472204e-05 -0.027668308389036191 0 -1.0059108880646332e-05 -0.027583737555621213 0 2.9543793080262516e-06 -0.027571635540016029 0 0.00026101081315700115 -0.027330292933248478 0 -1.0059108880646332e-05 -0.027583737555621213 0 2.9543793080262516e-06 -0.027571635540016029 0 0.0044872670196324923 -0.030068055492426696 0 0.0039510473938239483 -0.030737303265352806 0 0.0043709210126042525 -0.030230746778103876 0 0.0025156435348327021 -0.028609147646153014 0 0.0019208496831532368 -0.02915562071512752 0 0.0039510473938239483 -0.030737303265352806 0 0.0035539232489933924 -0.030573160420603932 0 0.0043709210126042525 -0.030230746778103876 0 0.0035539232489933924 -0.030573160420603932 0 0.0043709210126042525 -0.030230746778103876 0 0.004059086851017169 -0.030034895118938594 0 0.0043709210126042525 -0.030230746778103876 0 0.0048708987408023494 -0.029860315957378595 0 0.0046852531786573557 -0.029958665801950481 0 0.0043709210126042525 -0.030230746778103876 0 0.0048708987408023494 -0.029860315957378595 0 0.0046212012568217706 -0.029840941459008768 0 0.0048708987408023494 -0.029860315957378595 0 0.0050740904698482166 -0.029751238955997569 0 0.0050984675864169235 -0.029772334464474685 0 0.0048708987408023494 -0.029860315957378595 0 0.0050618044303908909 -0.029701130007194196 0 0.0050984675864169235 -0.029772334464474685 0 0.0050618044303908909 -0.029701130007194196 0 0.0050984675864169235 -0.029772334464474685 0 0.0050743024866579346 -0.02970151345068989 0 0.0048708987408023494 -0.029860315957378595 0 0.0050618044303908909 -0.029701130007194196 0 0.0046852531786573557 -0.029958665801950481 0 0.0044872670196324923 -0.030068055492426696 0 0.0050618044303908909 -0.029701130007194196 0 0.0053692594415986243 -0.029191832460378292 0 0.0050618044303908909 -0.029701130007194196 0 0.0050743024866579346 -0.02970151345068989 0 0.0053692594415986243 -0.029191832460378292 0 0.0044872670196324923 -0.030068055492426696 0 0.0043709210126042525 -0.030230746778103876 0 0.0046852531786573557 -0.029958665801950481 0 0.0044872670196324923 -0.030068055492426696 0 0.0050618044303908909 -0.029701130007194196 0 0.0046852531786573557 -0.029958665801950481 0 0.0048129797940019902 -0.029572302193076307 0 0.0046212012568217706 -0.029840941459008768 0 0.0044990268098808244 -0.029581211775085853 0 0.0048129797940019902 -0.029572302193076307 0 0.0044990268098808244 -0.029581211775085853 0 0.004846411976825003 -0.02929487925665792 0 0.0048129797940019902 -0.029572302193076307 0 0.0051223367996769738 -0.029423620206293018 0 0.004846411976825003 -0.02929487925665792 0 0.0051223367996769738 -0.029423620206293018 0 0.0049509740938733964 -0.029700180165015418 0 0.0051746326501165485 -0.02960097170616012 0 0.0048129797940019902 -0.029572302193076307 0 0.0051223367996769738 -0.029423620206293018 0 0.0049509740938733964 -0.029700180165015418 0 0.0049509740938733964 -0.029700180165015418 0 0.0050740904698482166 -0.029751238955997569 0 0.0051746326501165485 -0.02960097170616012 0 0.0048708987408023494 -0.029860315957378595 0 0.0049509740938733964 -0.029700180165015418 0 0.0050740904698482166 -0.029751238955997569 0 0.0048708987408023494 -0.029860315957378595 0 0.0049509740938733964 -0.029700180165015418 0 0.0046212012568217706 -0.029840941459008768 0 0.0048129797940019902 -0.029572302193076307 0 0.0049509740938733964 -0.029700180165015418 0 0.0046212012568217706 -0.029840941459008768 0 0.0043709210126042525 -0.030230746778103876 0 0.0046212012568217706 -0.029840941459008768 0 0.004059086851017169 -0.030034895118938594 0 0.0046212012568217706 -0.029840941459008768 0 0.004059086851017169 -0.030034895118938594 0 0.0044990268098808244 -0.029581211775085853 0 0.0035539232489933924 -0.030573160420603932 0 0.004059086851017169 -0.030034895118938594 0 0.0034004553487440962 -0.030044449679544158 0 0.004059086851017169 -0.030034895118938594 0 0.0040341601890876693 -0.029500637642554957 0 0.0034004553487440962 -0.030044449679544158 0 0.004059086851017169 -0.030034895118938594 0 0.0044990268098808244 -0.029581211775085853 0 0.0040341601890876693 -0.029500637642554957 0 0.0044990268098808244 -0.029581211775085853 0 0.0040341601890876693 -0.029500637642554957 0 0.0045282083388503789 -0.029168659051589493 0 0.0040341601890876693 -0.029500637642554957 0 0.004140132855948931 -0.028794066182262438 0 0.0045282083388503789 -0.029168659051589493 0 0.0040341601890876693 -0.029500637642554957 0 0.004140132855948931 -0.028794066182262438 0 0.0034444182378806309 -0.029234610648194395 0 0.0040341601890876693 -0.029500637642554957 0 0.0034444182378806309 -0.029234610648194395 0 0.0034004553487440962 -0.030044449679544158 0 0.0035864104123520001 -0.029915078419472302 0 0.003004353372615334 -0.030195453386052968 0 0.0027859715755136618 -0.030778887079073943 0 0.00313574346739831 -0.030981819407691007 0 0.0025073318990248977 -0.031174198190301639 0 0.0035864104123520001 -0.029915078419472302 0 0.0045637597556086344 -0.02937694633030918 0 0.00313574346739831 -0.030981819407691007 0 0.0037733913868727739 -0.030716383565429408 0 0.003183909183387039 -0.030624354633131352 0 0.004140132855948931 -0.028794066182262438 0 0.0046378867786973149 -0.028796718977006284 0 0.0045282083388503789 -0.029168659051589493 0 0.0027859715755136618 -0.030778887079073943 0 0.00313574346739831 -0.030981819407691007 0 0.003183909183387039 -0.030624354633131352 0 0.004140132855948931 -0.028794066182262438 0 0.0048290697521100896 -0.028410837166465065 0 0.0046378867786973149 -0.028796718977006284 0 0.0048290697521100896 -0.028410837166465065 0 0.0050483646255742153 -0.02859100477685592 0 0.0048538596046481435 -0.028685059008895553 0 0.0048290697521100896 -0.028410837166465065 0 0.0048538596046481435 -0.028685059008895553 0 0.0046378867786973149 -0.028796718977006284 0 0.0051248044257219934 -0.028334079808520467 0 0.0050483646255742153 -0.02859100477685592 0 0.0051761861897008325 -0.028431419431821661 0 0.0051248044257219934 -0.028334079808520467 0 0.0050296166309471918 -0.028374417641954298 0 0.0050483646255742153 -0.02859100477685592 0 0.0048106253410639104 -0.029193561444879113 0 0.0045637597556086344 -0.02937694633030918 0 0.0045637597556086344 -0.02937694633030918 0 0.0046675758223823282 -0.028904537318086031 0 0.0048538596046481435 -0.028685059008895553 0 0.0046378867786973149 -0.028796718977006284 0 0.004898551613620945 -0.028925303876231399 0 0.0050483646255742153 -0.02859100477685592 0 0.0048538596046481435 -0.028685059008895553 0 0.004898551613620945 -0.028925303876231399 0 0.0046378867786973149 -0.028796718977006284 0 0.004898551613620945 -0.028925303876231399 0 0.0045282083388503789 -0.029168659051589493 0 0.004898551613620945 -0.028925303876231399 0 0.004846411976825003 -0.02929487925665792 0 0.0045282083388503789 -0.029168659051589493 0 0.0044990268098808244 -0.029581211775085853 0 0.004846411976825003 -0.02929487925665792 0 0.0045282083388503789 -0.029168659051589493 0 0.0051833573899213682 -0.029071344203648184 0 0.0051752827270668917 -0.028801664807814306 0 0.0055422655052492229 -0.028719543591332726 0 0.0051223367996769738 -0.029423620206293018 0 0.0051833573899213682 -0.029071344203648184 0 0.0053958775041371082 -0.029186861897013954 0 0.004898551613620945 -0.028925303876231399 0 0.004846411976825003 -0.02929487925665792 0 0.0051833573899213682 -0.029071344203648184 0 0.0051223367996769738 -0.029423620206293018 0 0.004846411976825003 -0.02929487925665792 0 0.0051833573899213682 -0.029071344203648184 0 0.004898551613620945 -0.028925303876231399 0 0.0051833573899213682 -0.029071344203648184 0 0.0051752827270668917 -0.028801664807814306 0 0.0051752827270668917 -0.028801664807814306 0 0.0052824359834448094 -0.02852378268461497 0 0.0055422655052492229 -0.028719543591332726 0 0.0052824359834448094 -0.02852378268461497 0 0.0053813150200996652 -0.0281025482558377 0 0.0055422655052492229 -0.028719543591332726 0 0.0050483646255742153 -0.02859100477685592 0 0.0051752827270668917 -0.028801664807814306 0 0.0052824359834448094 -0.02852378268461497 0 0.0050483646255742153 -0.02859100477685592 0 0.004898551613620945 -0.028925303876231399 0 0.0051752827270668917 -0.028801664807814306 0 0.0050483646255742153 -0.02859100477685592 0 0.0051761861897008325 -0.028431419431821661 0 0.0052824359834448094 -0.02852378268461497 0 0.0051761861897008325 -0.028431419431821661 0 0.0052824359834448094 -0.02852378268461497 0 0.0052505866306884839 -0.028290794324766968 0 0.0052824359834448094 -0.02852378268461497 0 0.0052505866306884839 -0.028290794324766968 0 0.0053813150200996652 -0.0281025482558377 0 0.0062190802602176973 -0.02562963195028526 0 0.0062079917120981707 -0.025631051163897266 0 0.00613611982306246 -0.025497963856509438 0 0.0051248044257219934 -0.028334079808520467 0 0.0051761861897008325 -0.028431419431821661 0 0.0052505866306884839 -0.028290794324766968 0 0.0052505866306884839 -0.028290794324766968 0 0.0053286369762772364 -0.028120177700901711 0 0.0052109681466933188 -0.028199157713503283 0 0.0054133586580239592 -0.026753837117512013 0 0.0057874236571356435 -0.026335034881162799 0 0.0053286369762772364 -0.028120177700901711 0 0.0054115807897155525 -0.028100630196821883 0 0.0054042995279923733 -0.027854993837085517 0 0.0052505866306884839 -0.028290794324766968 0 0.0053286369762772364 -0.028120177700901711 0 0.0053813150200996652 -0.0281025482558377 0 0.0057594673723442942 -0.025999981531287984 0 0.0055811631796642055 -0.026035194475273034 0 0.0064925613164394285 -0.027087595157876381 0 0.0057874236571356435 -0.026335034881162799 0 0.0061633235191686396 -0.02541783720223182 0 0.0051219039546783326 -0.028337938209998827 0 0.0051949689634560878 -0.028079031850653254 0 0.0050979475151054932 -0.0279759802745531 0 0.0045637597556086344 -0.02937694633030918 0 0.0042267525499615601 -0.029151690728064329 0 0.0051248044257219934 -0.028334079808520467 0 0.0051219039546783326 -0.028337938209998827 0 0.0052109681466933188 -0.028199157713503283 0 0.0051219039546783326 -0.028337938209998827 0 0.0052109681466933188 -0.028199157713503283 0 0.0051949689634560878 -0.028079031850653254 0 0.0051248044257219934 -0.028334079808520467 0 0.0052505866306884839 -0.028290794324766968 0 0.0052109681466933188 -0.028199157713503283 0 0.0053286369762772364 -0.028120177700901711 0 0.0052109681466933188 -0.028199157713503283 0 0.0052835495553194122 -0.028018612782813122 0 0.0052109681466933188 -0.028199157713503283 0 0.0052835495553194122 -0.028018612782813122 0 0.0051949689634560878 -0.028079031850653254 0 0.0052835495553194122 -0.028018612782813122 0 0.0051949689634560878 -0.028079031850653254 0 0.0052441376804492701 -0.02790584099027572 0 0.0051949689634560878 -0.028079031850653254 0 0.0052441376804492701 -0.02790584099027572 0 0.0050979475151054932 -0.0279759802745531 0 0.0052441376804492701 -0.02790584099027572 0 0.0054042995279923733 -0.027854993837085517 0 0.0052356563377437141 -0.02764315164983755 0 0.0052835495553194122 -0.028018612782813122 0 0.0052441376804492701 -0.02790584099027572 0 0.0054042995279923733 -0.027854993837085517 0 0.006007597644067296 -0.027475501345615907 0 0.0057768203205821288 -0.02721055735868284 0 0.0058334083148469966 -0.026905617861083607 0 0.0057900190780086564 -0.02689587542832542 0 0.0058659391568407528 -0.026852642848819944 0 0.0057900190780086564 -0.02689587542832542 0 0.0058148564559069452 -0.026842036088951426 0 0.0058659391568407528 -0.026852642848819944 0 0.0061633235191686396 -0.02541783720223182 0 0.006007597644067296 -0.027475501345615907 0 0.0057874236571356435 -0.026335034881162799 0 0.006007597644067296 -0.027475501345615907 0 0.0053286369762772364 -0.028120177700901711 0 0.0052835495553194122 -0.028018612782813122 0 0.0054042995279923733 -0.027854993837085517 0 0.006007597644067296 -0.027475501345615907 0 0.0053756236209461499 -0.027359997498048343 0 0.0057900190780086564 -0.02689587542832542 0 0.0058148564559069452 -0.026842036088951426 0 0.0057124829681106278 -0.026895416730542739 0 0.0054042995279923733 -0.027854993837085517 0 0.005408468145485225 -0.027147424658166851 0 0.0052356563377437141 -0.02764315164983755 0 0.0062740847912191432 -0.028160754834562724 0 0.0058661104618183768 -0.027547701249753767 0 0.005408468145485225 -0.027147424658166851 0 0.0057768203205821288 -0.02721055735868284 0 0.0055382454304439745 -0.026914979441413734 0 0.0058661104618183768 -0.027547701249753767 0 0.0055011386143777093 -0.026895868174766111 0 0.005408468145485225 -0.027147424658166851 0 0.0057124829681106278 -0.026895416730542739 0 0.0057060717679859587 -0.026801334612499037 0 0.0055011386143777093 -0.026895868174766111 0 0.0058148564559069452 -0.026842036088951426 0 0.0057124829681106278 -0.026895416730542739 0 0.0057060717679859587 -0.026801334612499037 0 0.0057060717679859587 -0.026801334612499037 0 0.0054302155535246796 -0.026660407585850369 0 0.0056361004928959955 -0.0264139651769086 0 0.0057060717679859587 -0.026801334612499037 0 0.0058407863945938842 -0.026715836800379093 0 0.0056361004928959955 -0.0264139651769086 0 0.0057060717679859587 -0.026801334612499037 0 0.0054302155535246796 -0.026660407585850369 0 0.0055011386143777093 -0.026895868174766111 0 0.0058148564559069452 -0.026842036088951426 0 0.0057060717679859587 -0.026801334612499037 0 0.0058407863945938842 -0.026715836800379093 0 0.0058148564559069452 -0.026842036088951426 0 0.0058407863945938842 -0.026715836800379093 0 0.0059069440328965005 -0.026775386217656759 0 0.0040609617832923607 -0.027890720092256231 0 0.0054177332332536396 -0.026260323359196109 0 0.0046596566835615614 -0.027324367423360637 0 0.0047098414478585976 -0.02654023420744955 0 0.0052363318068046347 -0.026474138249646666 0 0.0050635817538167774 -0.02696955480230943 0 0.0044246141368376145 -0.027077601722883111 0 0.0052363318068046347 -0.026474138249646666 0 0.0050635817538167774 -0.02696955480230943 0 0.0054302155535246796 -0.026660407585850369 0 0.0052363318068046347 -0.026474138249646666 0 0.0054302155535246796 -0.026660407585850369 0 0.0055011386143777093 -0.026895868174766111 0 0.0052726809265020401 -0.026992495942160275 0 0.0055011386143777093 -0.026895868174766111 0 0.0052726809265020401 -0.026992495942160275 0 0.005408468145485225 -0.027147424658166851 0 0.0050635817538167774 -0.02696955480230943 0 0.0054302155535246796 -0.026660407585850369 0 0.0052726809265020401 -0.026992495942160275 0 0.0050635817538167774 -0.02696955480230943 0 0.0051382573953091346 -0.027336339778099693 0 0.0048846754029486595 -0.027586470925740677 0 0.0051382573953091346 -0.027336339778099693 0 0.0048846754029486595 -0.027586470925740677 0 0.0052356563377437141 -0.02764315164983755 0 0.0050635817538167774 -0.02696955480230943 0 0.0052726809265020401 -0.026992495942160275 0 0.0051382573953091346 -0.027336339778099693 0 0.005408468145485225 -0.027147424658166851 0 0.0051382573953091346 -0.027336339778099693 0 0.0052356563377437141 -0.02764315164983755 0 0.0052726809265020401 -0.026992495942160275 0 0.005408468145485225 -0.027147424658166851 0 0.0051382573953091346 -0.027336339778099693 0 0.0050635817538167774 -0.02696955480230943 0 0.0048846754029486595 -0.027586470925740677 0 0.0044246141368376145 -0.027077601722883111 0 0.0038478207707053264 -0.028703713188006488 0 0.0040609617832923607 -0.027890720092256231 0 0.0029353536120681886 -0.029812832190075626 0 0.0024572888971726658 -0.030073493544362482 0 0.0025164106527460505 -0.029335596056131903 0 0.0029353536120681886 -0.029812832190075626 0 0.0028874720963041763 -0.030380868402727218 0 0.0024572888971726658 -0.030073493544362482 0 0.0048846754029486595 -0.027586470925740677 0 0.0052356563377437141 -0.02764315164983755 0 0.0050979475151054932 -0.0279759802745531 0 0.0038478207707053264 -0.028703713188006488 0 0.0042267525499615601 -0.029151690728064329 0 0.0029353536120681886 -0.029812832190075626 0 0.003344635638769718 -0.030270547419358883 0 0.0028874720963041763 -0.030380868402727218 0 0.0052441376804492701 -0.02790584099027572 0 0.0052356563377437141 -0.02764315164983755 0 0.0050979475151054932 -0.0279759802745531 0 0.0037733913868727739 -0.030716383565429408 0 0.003344635638769718 -0.030270547419358883 0 0.003183909183387039 -0.030624354633131352 0 0.003344635638769718 -0.030270547419358883 0 0.003183909183387039 -0.030624354633131352 0 0.0028874720963041763 -0.030380868402727218 0 0.0027859715755136618 -0.030778887079073943 0 0.0028874720963041763 -0.030380868402727218 0 0.0024161488659848319 -0.030682785901019392 0 0.0027859715755136618 -0.030778887079073943 0 0.003183909183387039 -0.030624354633131352 0 0.0028874720963041763 -0.030380868402727218 0 0.0024161488659848319 -0.030682785901019392 0 0.0021220213753427438 -0.030661125805359211 0 0.0021715191200673656 -0.030963687186677271 0 0.0024161488659848319 -0.030682785901019392 0 0.0019859338892021686 -0.03045402868614628 0 0.0024572888971726658 -0.030073493544362482 0 0.0028874720963041763 -0.030380868402727218 0 0.0024161488659848319 -0.030682785901019392 0 0.0024572888971726658 -0.030073493544362482 0 0.0024060526527925532 -0.030695471440755032 0 0.0019716930008765268 -0.030505040489104421 0 0.0021220213753427438 -0.030661125805359211 0 0.0019032163425872003 -0.03060231882757878 0 0.001916223792856302 -0.030980193370575223 0 0.0019716930008765268 -0.030505040489104421 0 0.0024995996658435009 -0.030411527880477279 0 0.0019859338892021686 -0.03045402868614628 0 0.0020333643773802822 -0.029789121496391433 0 0.0015594878978589495 -0.030240602551072214 0 0.0042132162310123096 -0.02931078584591202 0 0.0031833599809424915 -0.029148427702361177 0 0.0032973227610361409 -0.030132583797166618 0 0.0030503779326545985 -0.029648266172329449 0 0.0024995996658435009 -0.030411527880477279 0 0.0019859338892021686 -0.03045402868614628 0 0.0020333643773802822 -0.029789121496391433 0 0.0024572888971726658 -0.030073493544362482 0 0.0020333643773802822 -0.029789121496391433 0 0.0024572888971726658 -0.030073493544362482 0 0.0025164106527460505 -0.029335596056131903 0 0.0030503779326545985 -0.029648266172329449 0 0.0040609617832923607 -0.027890720092256231 0 0.0042132162310123096 -0.02931078584591202 0 0.0036927701949012117 -0.028229353429979377 0 0.0031833599809424915 -0.029148427702361177 0 0.0042132162310123096 -0.02931078584591202 0 0.0052837864375014235 -0.028275196233686177 0 0.0036927701949012117 -0.028229353429979377 0 0.0036927701949012117 -0.028229353429979377 0 0.0042754246124122215 -0.027124030208136925 0 0.0033318815821279427 -0.02712039268008733 0 0.0052837864375014235 -0.028275196233686177 0 0.0036927701949012117 -0.028229353429979377 0 0.0042754246124122215 -0.027124030208136925 0 0.0046596566835615614 -0.027324367423360637 0 0.0042754246124122215 -0.027124030208136925 0 0.0047098414478585976 -0.02654023420744955 0 0.0040609617832923607 -0.027890720092256231 0 0.0045160775944155171 -0.027272073490657699 0 0.0020811221865582328 -0.028786459956554152 0 0.0016252269876285412 -0.027997350878350778 0 0.0024860698190893892 -0.027312267198992279 0 0.002883955596705567 -0.028200685769937461 0 0.0020811221865582328 -0.028786459956554152 0 0.0024860698190893892 -0.027312267198992279 0 0.0036927701949012117 -0.028229353429979377 0 0.002883955596705567 -0.028200685769937461 0 0.0033318815821279427 -0.02712039268008733 0 0.002883955596705567 -0.028200685769937461 0 0.0033318815821279427 -0.02712039268008733 0 0.0024860698190893892 -0.027312267198992279 0 0.0036927701949012117 -0.028229353429979377 0 0.002883955596705567 -0.028200685769937461 0 0.0031833599809424915 -0.029148427702361177 0 0.002883955596705567 -0.028200685769937461 0 0.0031833599809424915 -0.029148427702361177 0 0.0025935772108707606 -0.02896137339971469 0 0.0025935772108707606 -0.02896137339971469 0 0.0020811221865582328 -0.028786459956554152 0 0.0023028576523909734 -0.029655674676454857 0 0.0031833599809424915 -0.029148427702361177 0 0.0025935772108707606 -0.02896137339971469 0 0.0023028576523909734 -0.029655674676454857 0 0.002883955596705567 -0.028200685769937461 0 0.0025935772108707606 -0.02896137339971469 0 0.0020811221865582328 -0.028786459956554152 0 0.0031833599809424915 -0.029148427702361177 0 0.0023028576523909734 -0.029655674676454857 0 0.0032973227610361409 -0.030132583797166618 0 0.0023712293465558503 -0.030028877170283817 0 0.0024995996658435009 -0.030411527880477279 0 0.0024995996658435009 -0.030411527880477279 0 0.0019256022932027949 -0.031131107335348275 0 0.0019032163425872003 -0.03060231882757878 0 0.0016766176517950598 -0.030922447984563697 0 0.001916223792856302 -0.030980193370575223 0 0.0022625914572278502 -0.030357521743310828 0 0.0022234560773468407 -0.031282006353947754 0 0.0016684952596593336 -0.030656630891916718 0 0.0022625914572278502 -0.030357521743310828 0 0.0028992652654317107 -0.030706255898479681 0 0.0022234560773468407 -0.031282006353947754 0 0.0016766176517950598 -0.030922447984563697 0 0.0017150248648245892 -0.031212235004580941 0 0.0015218747998480098 -0.031461236799307346 0 0.0019256022932027949 -0.031131107335348275 0 0.001596708109521613 -0.031398792729629754 0 0.0017150248648245892 -0.031212235004580941 0 0.0015996312028419668 -0.031295709070553866 0 0.0015218747998480098 -0.031461236799307346 0 0.0017150248648245892 -0.031212235004580941 0 0.0015996312028419668 -0.031295709070553866 0 0.0018177419203861866 -0.03099017749653539 0 0.0017150248648245892 -0.031212235004580941 0 0.0018407401414151051 -0.031143237209082533 0 0.0018177419203861866 -0.03099017749653539 0 0.0017150248648245892 -0.031212235004580941 0 0.0018407401414151051 -0.031143237209082533 0 0.001916223792856302 -0.030980193370575223 0 0.0018407401414151051 -0.031143237209082533 0 0.001916223792856302 -0.030980193370575223 0 0.0019978446805712525 -0.031231589477542569 0 0.0018407401414151051 -0.031143237209082533 0 0.0019978446805712525 -0.031231589477542569 0 0.0018177419203861866 -0.03099017749653539 0 0.0016766176517950598 -0.030922447984563697 0 0.0017150248648245892 -0.031212235004580941 0 0.001916223792856302 -0.030980193370575223 0 0.001916223792856302 -0.030980193370575223 0 0.0021715191200673656 -0.030963687186677271 0 0.0019978446805712525 -0.031231589477542569 0 0.0021220213753427438 -0.030661125805359211 0 0.001916223792856302 -0.030980193370575223 0 0.0021715191200673656 -0.030963687186677271 0 0.0024161488659848319 -0.030682785901019392 0 0.0021715191200673656 -0.030963687186677271 0 0.0025073318990248977 -0.031174198190301639 0 0.0027859715755136618 -0.030778887079073943 0 0.0024161488659848319 -0.030682785901019392 0 0.0025073318990248977 -0.031174198190301639 0 0.003004353372615334 -0.030195453386052968 0 0.0023583355024559965 -0.030566574817758659 0 0.0034444182378806309 -0.029234610648194395 0 0.0026489632136101767 -0.029894216826839709 0 0.0034004553487440962 -0.030044449679544158 0 0.0021715191200673656 -0.030963687186677271 0 0.0025073318990248977 -0.031174198190301639 0 0.0019978446805712525 -0.031231589477542569 0 0.0026489632136101767 -0.029894216826839709 0 0.0025726649468425086 -0.030844060296446839 0 0.0018177419203861866 -0.03099017749653539 0 0.0026489632136101767 -0.029894216826839709 0 0.0034004553487440962 -0.030044449679544158 0 0.0025726649468425086 -0.030844060296446839 0 0.0035539232489933924 -0.030573160420603932 0 0.0034004553487440962 -0.030044449679544158 0 0.0025726649468425086 -0.030844060296446839 0 0.0019159275002997799 -0.031616421412576409 0 0.0025726649468425086 -0.030844060296446839 0 0.0019937853473696522 -0.031192115668312859 0 0.0025726649468425086 -0.030844060296446839 0 0.0019937853473696522 -0.031192115668312859 0 0.0018177419203861866 -0.03099017749653539 0 0.0019159275002997799 -0.031616421412576409 0 0.001550112204893643 -0.031462854689379482 0 0.0010979689736978679 -0.032004835053172594 0 0.0019159275002997799 -0.031616421412576409 0 0.0019937853473696522 -0.031192115668312859 0 0.001550112204893643 -0.031462854689379482 0 0.0019937853473696522 -0.031192115668312859 0 0.001550112204893643 -0.031462854689379482 0 0.0018177419203861866 -0.03099017749653539 0 0.001550112204893643 -0.031462854689379482 0 0.0015996312028419668 -0.031295709070553866 0 0.0018177419203861866 -0.03099017749653539 0 0.0023583355024559965 -0.030566574817758659 0 0.0018949141653450813 -0.030907681371623523 0 0.00088219973503627259 -0.032245949767663026 0 0.00086749433603200291 -0.032326057952032285 0 0.00072151364525268214 -0.032607919672569034 0 0.001550112204893643 -0.031462854689379482 0 0.0015996312028419668 -0.031295709070553866 0 0.0014225529668039677 -0.03154603296753096 0 0.0015262270266942991 -0.031566957597120443 0 0.0011838862263288245 -0.031900737527874631 0 0.001550112204893643 -0.031462854689379482 0 0.00088219973503627259 -0.032245949767663026 0 0.0010979689736978679 -0.032004835053172594 0 0.00088219973503627259 -0.032245949767663026 0 0.0010979689736978679 -0.032004835053172594 0 0.00086749433603200291 -0.032326057952032285 0 0.0011287446979035454 -0.03008536025931087 0 0.00081167879083564722 -0.032289545733773718 0 0.0010979689736978679 -0.032004835053172594 0 0.00086749433603200291 -0.032326057952032285 0 0.0007316506498353635 -0.032556170683406528 0 0.00086749433603200291 -0.032326057952032285 0 0.0007316506498353635 -0.032556170683406528 0 0.00067192506583627109 -0.032673904625269604 0 0.00081167879083564722 -0.032289545733773718 0 0.00054669121750253603 -0.033260157925939796 0 0.0007316506498353635 -0.032556170683406528 0 0.00056892673463025635 -0.032871560475201719 0 0.00067192506583627109 -0.032673904625269604 0 -4.4640880707550311e-05 -0.034765060830475474 0 -0.00019679557327560997 -0.034885598377320311 0 -1.6914407065094192e-05 -0.034912233636866047 0 0.00081167879083564722 -0.032289545733773718 0 9.7563494133522227e-05 -0.034464446626663488 0 0.00074793464757586501 -0.033770147798439239 0 0.00030356957693526015 -0.033673169074762553 0 0.00048058015208225709 -0.033581907974040315 0 0.00056892673463025635 -0.032871560475201719 0 0.00052774322015687375 -0.032947930146440429 0 0.00019682601479598875 -0.033346990508793417 0 0.00030356957693526015 -0.033673169074762553 0 0.00048058015208225709 -0.033581907974040315 0 0.00019682601479598875 -0.033346990508793417 0 0.00054669121750253603 -0.033260157925939796 0 0.0002200668868786816 -0.033234941834689613 0 0.00086749433603200291 -0.032326057952032285 0 0.00067192506583627109 -0.032673904625269604 0 0.00072151364525268214 -0.032607919672569034 0 0.00056892673463025635 -0.032871560475201719 0 0.00052774322015687375 -0.032947930146440429 0 0.00067192506583627109 -0.032673904625269604 0 0.00052774322015687375 -0.032947930146440429 0 0.00067192506583627109 -0.032673904625269604 0 0.00072151364525268214 -0.032607919672569034 0 0.00052774322015687375 -0.032947930146440429 0 0.00072151364525268214 -0.032607919672569034 0 0.00065438268703900523 -0.032800798184847407 0 0.00052774322015687375 -0.032947930146440429 0 0.0001050086625866227 -0.033142926185779166 0 0.00019682601479598875 -0.033346990508793417 0 0.00052774322015687375 -0.032947930146440429 0 0.00065438268703900523 -0.032800798184847407 0 0.0001050086625866227 -0.033142926185779166 0 0.00072805341232204781 -0.032354372772095741 0 4.9156559725954274e-05 -0.032527212916131233 0 0.00065438268703900523 -0.032800798184847407 0 -5.8230691829918684e-06 -0.032629857130586734 0 0.0001050086625866227 -0.033142926185779166 0 0.00089583833913211121 -0.031918898373184804 0 -5.8230691829918684e-06 -0.032629857130586734 0 0.0005468362336053822 -0.031917395717553032 0 0.00089583833913211121 -0.031918898373184804 0 0.0012093237575377792 -0.031623660423562239 0 0.0005468362336053822 -0.031917395717553032 0 0.0014225529668039677 -0.03154603296753096 0 0.00089583833913211121 -0.031918898373184804 0 0.0012093237575377792 -0.031623660423562239 0 0.00088219973503627259 -0.032245949767663026 0 0.00072151364525268214 -0.032607919672569034 0 0.00065438268703900523 -0.032800798184847407 0 0.0011838862263288245 -0.031900737527874631 0 0.00072805341232204781 -0.032354372772095741 0 0.0015996312028419668 -0.031295709070553866 0 0.0014225529668039677 -0.03154603296753096 0 0.0015218747998480098 -0.031461236799307346 0 0.0014225529668039677 -0.03154603296753096 0 0.0012093237575377792 -0.031623660423562239 0 0.0015218747998480098 -0.031461236799307346 0 0.0022234560773468407 -0.031282006353947754 0 0.0015218747998480098 -0.031461236799307346 0 0.0015372664751911922 -0.031291871022877393 0 0.0012093237575377792 -0.031623660423562239 0 0.0015218747998480098 -0.031461236799307346 0 0.0015372664751911922 -0.031291871022877393 0 0.0022234560773468407 -0.031282006353947754 0 0.0015372664751911922 -0.031291871022877393 0 0.0016684952596593336 -0.030656630891916718 0 0.0015372664751911922 -0.031291871022877393 0 0.0010419492853328274 -0.031211310776554285 0 0.0016684952596593336 -0.030656630891916718 0 0.0012093237575377792 -0.031623660423562239 0 0.0015372664751911922 -0.031291871022877393 0 0.0010419492853328274 -0.031211310776554285 0 0.0010419492853328274 -0.031211310776554285 0 0.00095440102063715487 -0.030219668841149037 0 0.0016684952596593336 -0.030656630891916718 0 0.00095440102063715487 -0.030219668841149037 0 0.0016684952596593336 -0.030656630891916718 0 0.0015358734912458458 -0.029643744073791879 0 0.0023712293465558503 -0.030028877170283817 0 0.0015087645066460327 -0.029634096680155615 0 0.0022625914572278502 -0.030357521743310828 0 0.0016684952596593336 -0.030656630891916718 0 0.0015358734912458458 -0.029643744073791879 0 0.0020811221865582328 -0.028786459956554152 0 0.0023028576523909734 -0.029655674676454857 0 0.0015358734912458458 -0.029643744073791879 0 0.0020811221865582328 -0.028786459956554152 0 0.0015358734912458458 -0.029643744073791879 0 0.0011773342297213638 -0.02884031496861407 0 0.00095440102063715487 -0.030219668841149037 0 0.0011773342297213638 -0.02884031496861407 0 0.00050448451744891177 -0.02926854301605978 0 0.00095440102063715487 -0.030219668841149037 0 0.0015358734912458458 -0.029643744073791879 0 0.0011773342297213638 -0.02884031496861407 0 0.0011773342297213638 -0.02884031496861407 0 0.00070135374511001573 -0.028241429292736105 0 0.0016252269876285412 -0.027997350878350778 0 0.0011773342297213638 -0.02884031496861407 0 0.00050448451744891177 -0.02926854301605978 0 0.00070135374511001573 -0.028241429292736105 0 0.0020811221865582328 -0.028786459956554152 0 0.0011773342297213638 -0.02884031496861407 0 0.0016252269876285412 -0.027997350878350778 0 5.1712370529770422e-05 -0.031940415174738467 0 0.0010160542038708652 -0.031649800071244315 0 -0.00053837902554316314 -0.029036063498313374 0 0.00050448451744891177 -0.02926854301605978 0 0.00070135374511001573 -0.028241429292736105 0 0.00095440102063715487 -0.030219668841149037 0 0.00050448451744891177 -0.02926854301605978 0 0.00010360799480055572 -0.030050762536651537 0 -0.00053837902554316314 -0.029036063498313374 0 0.00010360799480055572 -0.030050762536651537 0 -0.00074929513986487898 -0.030555732900072369 0 -0.00053837902554316314 -0.029036063498313374 0 0.00050448451744891177 -0.02926854301605978 0 0.00010360799480055572 -0.030050762536651537 0 0.00010360799480055572 -0.030050762536651537 0 0.00038808513606814816 -0.031093169820453945 0 -0.00074929513986487898 -0.030555732900072369 0 0.00038808513606814816 -0.031093169820453945 0 -0.00019073352130807476 -0.03217076235244995 0 -0.00074929513986487898 -0.030555732900072369 0 0.00095440102063715487 -0.030219668841149037 0 0.00010360799480055572 -0.030050762536651537 0 0.00038808513606814816 -0.031093169820453945 0 0.0010419492853328274 -0.031211310776554285 0 0.00095440102063715487 -0.030219668841149037 0 0.00038808513606814816 -0.031093169820453945 0 0.0012093237575377792 -0.031623660423562239 0 0.0010419492853328274 -0.031211310776554285 0 0.0005468362336053822 -0.031917395717553032 0 0.0010419492853328274 -0.031211310776554285 0 0.00038808513606814816 -0.031093169820453945 0 0.0005468362336053822 -0.031917395717553032 0 0.00038808513606814816 -0.031093169820453945 0 0.0005468362336053822 -0.031917395717553032 0 -0.00019073352130807476 -0.03217076235244995 0 -5.8230691829918684e-06 -0.032629857130586734 0 0.0005468362336053822 -0.031917395717553032 0 -0.00019073352130807476 -0.03217076235244995 0 -5.8230691829918684e-06 -0.032629857130586734 0 -0.00019073352130807476 -0.03217076235244995 0 -0.0002162502905055065 -0.03320723611133769 0 -8.9816380368783056e-05 -0.032363839994659527 0 -0.0013553599785893556 -0.032470238719273563 0 -0.00019073352130807476 -0.03217076235244995 0 -0.0002162502905055065 -0.03320723611133769 0 -0.00019887379747738425 -0.033968838053066434 0 -0.00019887379747738425 -0.033968838053066434 0 -8.4159134002412321e-05 -0.03421851688208901 0 -0.00017584157822091458 -0.033649519105924529 0 -0.0002162502905055065 -0.03320723611133769 0 -0.00019887379747738425 -0.033968838053066434 0 -0.00017584157822091458 -0.033649519105924529 0 -0.0022386263722285818 -0.031298080297474551 0 -0.00074929513986487898 -0.030555732900072369 0 -0.0022185857291754248 -0.029863217730617536 0 -0.00019073352130807476 -0.03217076235244995 0 -0.0022386263722285818 -0.031298080297474551 0 -0.00074929513986487898 -0.030555732900072369 0 -0.00053837902554316314 -0.029036063498313374 0 -0.00074929513986487898 -0.030555732900072369 0 -0.0022185857291754248 -0.029863217730617536 0 5.1712370529770422e-05 -0.031940415174738467 0 -0.0011801939906651954 -0.032369541690030618 0 0.00016500696357265039 -0.035013116041830654 0 0.00016485502831113229 -0.034792541584749016 0 4.9749100995031241e-05 -0.03497376938292529 0 0.00056256924015489376 -0.034915521586563657 0 0.00016500696357265039 -0.035013116041830654 0 0.00016485502831113229 -0.034792541584749016 0 6.5359562688771892e-08 -0.035000052902380459 0 2.3632378205258019e-05 -0.034944340124599578 0 -2.0099402606339567e-07 -0.034999518617340325 0 2.3632378205258019e-05 -0.034944340124599578 0 4.9749100995031241e-05 -0.03497376938292529 0 1.1222008962905092e-05 -0.034993863679088189 0 6.5359562688771892e-08 -0.035000052902380459 0 2.3632378205258019e-05 -0.034944340124599578 0 1.1222008962905092e-05 -0.034993863679088189 0 0.00016485502831113229 -0.034792541584749016 0 4.9749100995031241e-05 -0.03497376938292529 0 7.6975945959483313e-05 -0.034831409831729242 0 2.3632378205258019e-05 -0.034944340124599578 0 4.9749100995031241e-05 -0.03497376938292529 0 7.6975945959483313e-05 -0.034831409831729242 0 0.00016500696357265039 -0.035013116041830654 0 4.9749100995031241e-05 -0.03497376938292529 0 9.089862169401953e-06 -0.035027957046088361 0 -0.0011801939906651954 -0.032369541690030618 0 -0.0010993242160313714 -0.033505002909234818 0 4.9749100995031241e-05 -0.03497376938292529 0 1.1222008962905092e-05 -0.034993863679088189 0 9.089862169401953e-06 -0.035027957046088361 0 6.5359562688771892e-08 -0.035000052902380459 0 1.1222008962905092e-05 -0.034993863679088189 0 -4.0044002169176155e-08 -0.0350000114901255 0 1.1222008962905092e-05 -0.034993863679088189 0 -4.0044002169176155e-08 -0.0350000114901255 0 9.089862169401953e-06 -0.035027957046088361 0 -5.7689666277820358e-09 -0.035000010932750777 0 -1.3792880577711693e-05 -0.034992125356899106 0 -2.2306956561799359e-09 -0.034999978972409217 0 -3.8619897439488369e-05 -0.034796098666680021 0 6.1175550885511126e-08 -0.034999169004728416 0 -2.6125722392315706e-05 -0.034648570718932424 0 6.7451621865024064e-07 -0.034999725675681999 0 -0.0010993242160313714 -0.033505002909234818 0 -0.0010993242160313714 -0.033505002909234818 0 -1.4062785935972814e-07 -0.034999178568158505 0 -0.0013553599785893556 -0.032470238719273563 0 -0.0010993242160313714 -0.033505002909234818 0 -0.0022386263722285818 -0.031298080297474551 0 -0.0022185857291754248 -0.029863217730617536 0 -0.0038945282550548253 -0.03071188636480322 0 -0.00019887379747738425 -0.033968838053066434 0 -3.8619897439488369e-05 -0.034796098666680021 0 -2.6125722392315706e-05 -0.034648570718932424 0 -0.00019887379747738425 -0.033968838053066434 0 -8.4159134002412321e-05 -0.03421851688208901 0 -2.6125722392315706e-05 -0.034648570718932424 0 6.1175550885511126e-08 -0.034999169004728416 0 -2.6125722392315706e-05 -0.034648570718932424 0 -5.9492624787368153e-08 -0.034999340695144578 0 -8.4159134002412321e-05 -0.03421851688208901 0 -2.6125722392315706e-05 -0.034648570718932424 0 -5.9492624787368153e-08 -0.034999340695144578 0 3.3840094687889705e-08 -0.034998468205045458 0 -0.00011140068929697766 -0.034170108874201667 0 -0.00011465267680054796 -0.03409740357429665 0 -5.9492624787368153e-08 -0.034999340695144578 0 3.3840094687889705e-08 -0.034998468205045458 0 -0.00011140068929697766 -0.034170108874201667 0 -0.00011140068929697766 -0.034170108874201667 0 -0.0001398694053593214 -0.03380969022169332 0 -0.00011465267680054796 -0.03409740357429665 0 -8.4159134002412321e-05 -0.03421851688208901 0 -5.9492624787368153e-08 -0.034999340695144578 0 -0.00011140068929697766 -0.034170108874201667 0 -8.4159134002412321e-05 -0.03421851688208901 0 -0.00011140068929697766 -0.034170108874201667 0 -0.00017584157822091458 -0.033649519105924529 0 -0.00011140068929697766 -0.034170108874201667 0 -0.00017584157822091458 -0.033649519105924529 0 -0.00014557322401015385 -0.033587626224084212 0 -0.0002162502905055065 -0.03320723611133769 0 -0.00017584157822091458 -0.033649519105924529 0 -0.00011977419759142333 -0.033168860556827752 0 -0.00017584157822091458 -0.033649519105924529 0 -0.00011977419759142333 -0.033168860556827752 0 -0.00014557322401015385 -0.033587626224084212 0 -0.00011977419759142333 -0.033168860556827752 0 0.0001050086625866227 -0.033142926185779166 0 -0.00014557322401015385 -0.033587626224084212 0 -5.8230691829918684e-06 -0.032629857130586734 0 -0.00011977419759142333 -0.033168860556827752 0 0.0001050086625866227 -0.033142926185779166 0 -5.8230691829918684e-06 -0.032629857130586734 0 -0.0002162502905055065 -0.03320723611133769 0 -0.00011977419759142333 -0.033168860556827752 0 0.0001050086625866227 -0.033142926185779166 0 -4.6127934047298437e-05 -0.033523701608660354 0 -0.00014557322401015385 -0.033587626224084212 0 0.0001050086625866227 -0.033142926185779166 0 -4.6127934047298437e-05 -0.033523701608660354 0 0.00019682601479598875 -0.033346990508793417 0 -0.00011140068929697766 -0.034170108874201667 0 -0.00014557322401015385 -0.033587626224084212 0 -0.0001398694053593214 -0.03380969022169332 0 -4.6127934047298437e-05 -0.033523701608660354 0 -0.00014557322401015385 -0.033587626224084212 0 -0.0001398694053593214 -0.03380969022169332 0 -3.6131074389157625e-05 -0.034305855408216651 0 -7.6657045143511428e-05 -0.034537341423063236 0 -0.0001398694053593214 -0.03380969022169332 0 -0.00012358888371409509 -0.033691529266490917 0 -0.00011465267680054796 -0.03409740357429665 0 -4.6127934047298437e-05 -0.033523701608660354 0 -0.0001398694053593214 -0.03380969022169332 0 -0.00012358888371409509 -0.033691529266490917 0 -4.6127934047298437e-05 -0.033523701608660354 0 -0.00012358888371409509 -0.033691529266490917 0 0.00019682601479598875 -0.033346990508793417 0 9.7563494133522227e-05 -0.034464446626663488 0 -3.6131074389157625e-05 -0.034305855408216651 0 0.00030356957693526015 -0.033673169074762553 0 -0.00012358888371409509 -0.033691529266490917 0 0.00019682601479598875 -0.033346990508793417 0 5.6497564068311229e-05 -0.034843354965419786 0 -1.6914407065094192e-05 -0.034912233636866047 0 6.1142494824314544e-05 -0.0349245946610399 0 5.6497564068311229e-05 -0.034843354965419786 0 -4.4640880707550311e-05 -0.034765060830475474 0 -1.6914407065094192e-05 -0.034912233636866047 0 5.6497564068311229e-05 -0.034843354965419786 0 6.1142494824314544e-05 -0.0349245946610399 0 7.6131638063960398e-05 -0.034912285060507482 0 7.6131638063960398e-05 -0.034912285060507482 0 7.5186258742908357e-08 -0.034999896634504937 0 5.1308498818557563e-05 -0.034946665677138777 0 -1.1253953180693292e-07 -0.034999750624505596 0 -7.6657045143511428e-05 -0.034537341423063236 0 2.2094300781797744e-09 -0.034999927865835369 0 7.5186258742908357e-08 -0.034999896634504937 0 5.1308498818557563e-05 -0.034946665677138777 0 6.1142494824314544e-05 -0.0349245946610399 0 7.6131638063960398e-05 -0.034912285060507482 0 5.1308498818557563e-05 -0.034946665677138777 0 0.0092653624799863329 -0.0003759832743199566 0 0.0083646808100263422 -0.0011158333124454854 0 0.0071075862910789499 0.00044148792647932301 0 0.0084732371858120895 -0.0080783027193921057 0 0.0066961625771883235 -0.010842197882943879 0 0.0092653624799863329 -0.0003759832743199566 0 0.0095180324487593431 -0.00095204031096785436 0 0.0097588461235778318 -0.00097104734258736619 0 0.0092653624799863329 -0.0003759832743199566 0 0.0095180324487593431 -0.00095204031096785436 0 0.0083646808100263422 -0.0011158333124454854 0 0.0095180324487593431 -0.00095204031096785436 0 0.0097181894183432909 -0.001312603553565524 0 0.0083646808100263422 -0.0011158333124454854 0 0.0095180324487593431 -0.00095204031096785436 0 0.0097181894183432909 -0.001312603553565524 0 0.0094699710348619265 -0.0010295648123062504 0 0.0083646808100263422 -0.0011158333124454854 0 0.0082717347836257643 -0.0025895448109185641 0 0.0071256810478932536 -0.0023459202779604433 0 0.0097181894183432909 -0.001312603553565524 0 0.0083646808100263422 -0.0011158333124454854 0 0.0082717347836257643 -0.0025895448109185641 0 0.0083646808100263422 -0.0011158333124454854 0 0.0060630130438469043 -0.0011497994337468082 0 0.0071256810478932536 -0.0023459202779604433 0 0.0060630130438469043 -0.0011497994337468082 0 0.0060153750700274828 -0.0027968208407249612 0 0.0071256810478932536 -0.0023459202779604433 0 0.0060630130438469043 -0.0011497994337468082 0 0.0052877028457100654 -0.0037111755604992201 0 0.0060153750700274828 -0.0027968208407249612 0 0.0052753667314082283 -0.0053351169091187178 0 0.0038469473816192582 -0.0060579742792761003 0 0.0052877028457100654 -0.0037111755604992201 0 0.005254570047638389 -0.0025076593932692745 0 0.0050483844826915893 -0.0040606379237661493 0 0.0052753667314082283 -0.0053351169091187178 0 0.0038469473816192582 -0.0060579742792761003 0 0.0062199678591450145 -0.0068440076107109489 0 0.0038469473816192582 -0.0060579742792761003 0 0.0028175690577014576 -0.0082648641756085887 0 0.0048165169336675017 -0.0088147252233510311 0 0.0038469473816192582 -0.0060579742792761003 0 0.0048165169336675017 -0.0088147252233510311 0 0.0062199678591450145 -0.0068440076107109489 0 0.0083646808100263422 -0.0011158333124454854 0 0.0060630130438469043 -0.0011497994337468082 0 0.0071075862910789499 0.00044148792647932301 0 0.005254570047638389 -0.0025076593932692745 0 0.0066961625771883235 -0.010842197882943879 0 0.0066961625771883235 -0.010842197882943879 0 0.0075285364345080187 -0.019314503148764331 0 0.0074639669985594051 -0.018739333559864239 0 0.0075212662058701191 -0.018891279203870716 0 0.0074519570122160783 -0.018833123708773842 0 0.0066961625771883235 -0.010842197882943879 0 0.0069226850449700854 -0.016645383582679918 0 0.0074639669985594051 -0.018739333559864239 0 0.0075942931462019605 -0.018775293755782425 0 0.0075212662058701191 -0.018891279203870716 0 0.0069226850449700854 -0.016645383582679918 0 0.0079124998560832095 -0.018103449015314375 0 0.0069226850449700854 -0.016645383582679918 0 0.0070842963771415033 -0.019017532485034436 0 0.0075761559722347495 -0.019010037346699593 0 0.0075617985040951456 -0.018996095145735886 0 0.0075212662058701191 -0.018891279203870716 0 0.0075761559722347495 -0.019010037346699593 0 0.0075617985040951456 -0.018996095145735886 0 0.0076222475009880952 -0.019079607918213393 0 0.0075617985040951456 -0.018996095145735886 0 0.0075212662058701191 -0.018891279203870716 0 0.0074960254305389291 -0.018911489132510683 0 0.0075617985040951456 -0.018996095145735886 0 0.0074960254305389291 -0.018911489132510683 0 0.007523428771268271 -0.018998261924382066 0 0.0074960254305389291 -0.018911489132510683 0 0.0074519570122160783 -0.018833123708773842 0 0.0074586504290159858 -0.018828223664049074 0 0.0075212662058701191 -0.018891279203870716 0 0.0074960254305389291 -0.018911489132510683 0 0.0074519570122160783 -0.018833123708773842 0 0.0079571997921944835 -0.017216546887060057 0 0.0075916912837033796 -0.016606881730830601 0 0.0071576273822034353 -0.017410807484665784 0 0.0083990418442960804 -0.016177242451625377 0 0.0079571997921944835 -0.017216546887060057 0 0.0075916912837033796 -0.016606881730830601 0 0.0072744834645262742 -0.015930272207798673 0 0.0083990418442960804 -0.016177242451625377 0 0.0075916912837033796 -0.016606881730830601 0 0.0072744834645262742 -0.015930272207798673 0 0.0075916912837033796 -0.016606881730830601 0 0.0066232082962053903 -0.016944642075424701 0 0.0075916912837033796 -0.016606881730830601 0 0.0071576273822034353 -0.017410807484665784 0 0.0066232082962053903 -0.016944642075424701 0 0.0066232082962053903 -0.016944642075424701 0 0.006109074403251603 -0.017379877678756317 0 0.0063598829689468462 -0.017946336789340975 0 0.0066232082962053903 -0.016944642075424701 0 0.006109074403251603 -0.017379877678756317 0 0.0060540737936871378 -0.016898199488673465 0 0.0071576273822034353 -0.017410807484665784 0 0.0066232082962053903 -0.016944642075424701 0 0.0063598829689468462 -0.017946336789340975 0 0.006109074403251603 -0.017379877678756317 0 0.0057991192248260312 -0.017331009191976623 0 0.0060540737936871378 -0.016898199488673465 0 0.0057991192248260312 -0.017331009191976623 0 0.0060540737936871378 -0.016898199488673465 0 0.0056533278711538128 -0.017021276357255245 0 0.0060540737936871378 -0.016898199488673465 0 0.0056533278711538128 -0.017021276357255245 0 0.0057982446540809666 -0.016274677089047326 0 0.0060540737936871378 -0.016898199488673465 0 0.0064304764234918111 -0.016321323233921228 0 0.0057982446540809666 -0.016274677089047326 0 0.0072744834645262742 -0.015930272207798673 0 0.0066232082962053903 -0.016944642075424701 0 0.0064304764234918111 -0.016321323233921228 0 0.0066232082962053903 -0.016944642075424701 0 0.0060540737936871378 -0.016898199488673465 0 0.0064304764234918111 -0.016321323233921228 0 0.0060556651579613046 -0.011382018326969617 0 0.0062942756465608728 -0.011541422433794734 0 0.0066337515541658454 -0.010369490361561396 0 0.0065994242231770164 -0.0046968618617560043 0 0.006133344764150065 -0.0060204476699875636 0 0.0074217368109235592 -0.0058546936654306457 0 0.005945350105591345 -0.012962884155448894 0 0.0055419214320402196 -0.014633464425999641 0 0.0065216376499884834 -0.0073965761636044427 0 0.006133344764150065 -0.0060204476699875636 0 0.0074217368109235592 -0.0058546936654306457 0 0.005945350105591345 -0.012962884155448894 0 0.0069556814987408065 -0.0082802248551686313 0 0.0054863824233736917 -0.012417332559291209 0 0.0060556651579613046 -0.011382018326969617 0 0.0062942756465608728 -0.011541422433794734 0 0.0053512081746225192 -0.017271170328083361 0 0.005564286922874976 -0.017287950934158355 0 0.0054491285649857233 -0.017553239524932367 0 0.0055419214320402196 -0.014633464425999641 0 0.0061764798699772781 -0.012917494663120267 0 0.0069556814987408065 -0.0082802248551686313 0 0.0065472878779611939 -0.0067872154923284906 0 0.0053512081746225192 -0.017271170328083361 0 0.005564286922874976 -0.017287950934158355 0 0.0055334522905190666 -0.016951248965930268 0 0.0057991192248260312 -0.017331009191976623 0 0.005564286922874976 -0.017287950934158355 0 0.0056743548612632408 -0.017594526601620246 0 0.0057991192248260312 -0.017331009191976623 0 0.005564286922874976 -0.017287950934158355 0 0.0056533278711538128 -0.017021276357255245 0 0.005564286922874976 -0.017287950934158355 0 0.0056533278711538128 -0.017021276357255245 0 0.0055334522905190666 -0.016951248965930268 0 0.0056533278711538128 -0.017021276357255245 0 0.005372073583795693 -0.016825561599470452 0 0.0057982446540809666 -0.016274677089047326 0 0.0066148461474522099 -0.015331183604578292 0 0.0061764798699772781 -0.012917494663120267 0 0.0057405187043454708 -0.0083192196747801025 0 0.0056057184846822362 -0.009348539166975171 0 0.0071096731427158595 -0.0077914249511127215 0 0.0061764798699772781 -0.012917494663120267 0 0.0059732820261972049 -0.012642167560786807 0 0.0065472878779611939 -0.0067872154923284906 0 0.0067403550087832666 -0.0048981633830738943 0 0.0057405187043454708 -0.0083192196747801025 0 0.0048712842726558198 -0.0088597888865965882 0 0.005783404080770947 -0.0072815417448223322 0 0.0057405187043454708 -0.0083192196747801025 0 0.0056057184846822362 -0.009348539166975171 0 0.0048712842726558198 -0.0088597888865965882 0 0.0061764798699772781 -0.012917494663120267 0 0.0065472878779611939 -0.0067872154923284906 0 0.0057413905848845651 -0.002374011810742236 0 0.0065472878779611939 -0.0067872154923284906 0 0.0065994242231770164 -0.0046968618617560043 0 0.0058734987458151679 -0.0026870104352115548 0 0.0083166746833649302 -0.0043248889747569824 0 0.0062942756465608728 -0.011541422433794734 0 0.0071091411832681032 -0.010689256436908668 0 0.0066337515541658454 -0.010369490361561396 0 0.0065994242231770164 -0.0046968618617560043 0 0.0074217368109235592 -0.0058546936654306457 0 0.0083166746833649302 -0.0043248889747569824 0 0.0072251847689901076 -0.0033221659893493184 0 0.0067305803813184281 -0.0019673896678202634 0 0.0078306695340553609 -0.0022735963589914465 0 0.0067305803813184281 -0.0019673896678202634 0 0.0078306695340553609 -0.0022735963589914465 0 0.0069478215034075516 -0.00082310043673101149 0 0.0056067447688375642 -0.0022151654735780798 0 0.0072251847689901076 -0.0033221659893493184 0 0.0067305803813184281 -0.0019673896678202634 0 0.005783404080770947 -0.0072815417448223322 0 0.0067026542846543866 -0.005694437756750324 0 0.0071096731427158595 -0.0077914249511127215 0 0.0057405187043454708 -0.0083192196747801025 0 0.005783404080770947 -0.0072815417448223322 0 0.0071096731427158595 -0.0077914249511127215 0 0.0067403550087832666 -0.0048981633830738943 0 0.0076151210218963379 -0.0020523729447026735 0 0.0076151210218963379 -0.0020523729447026735 0 0.0072544312066169844 -0.00043781067131029512 0 0.0081290251742017726 -0.0004285208522044421 0 0.0074066295973509097 -0.00016805770290909448 0 0.0078279164587449733 0.00040738789798671851 0 0.0078306695340553609 -0.0022735963589914465 0 0.0084300607335329875 -0.0012430251117783236 0 0.0069478215034075516 -0.00082310043673101149 0 0.0065407883927423504 6.4555478633123066e-05 0 0.0074066295973509097 -0.00016805770290909448 0 0.0071682739156549548 0.00057645727673413338 0 0.0059753499173682287 -0.00026520957977379644 0 0.0072544312066169844 -0.00043781067131029512 0 0.00569083119508061 -0.0011686082951306942 0 0.0067305803813184281 -0.0019673896678202634 0 0.0069478215034075516 -0.00082310043673101149 0 0.0084732371858120895 -0.0080783027193921057 0 0.0078322637898117446 -0.0061038848288415314 0 0.0072744834645262742 -0.015930272207798673 0 0.0064304764234918111 -0.016321323233921228 0 0.006260545313008202 -0.01568559673726384 0 0.0064304764234918111 -0.016321323233921228 0 0.006260545313008202 -0.01568559673726384 0 0.0057982446540809666 -0.016274677089047326 0 0.0078322637898117446 -0.0061038848288415314 0 0.0059732820261972049 -0.012642167560786807 0 0.0067026542846543866 -0.005694437756750324 0 0.0086257871356954074 -0.0062224221275562442 0 0.0071096731427158595 -0.0077914249511127215 0 0.0076648011487411363 -0.0013515055794875563 0 0.0088562639335420766 -0.0016572639858520352 0 0.0087306104067449361 -0.0008327279750121266 0 0.0076648011487411363 -0.0013515055794875563 0 0.0087306104067449361 -0.0008327279750121266 0 0.0084620326894967613 -1.8710622704564564e-05 0 0.0076151210218963379 -0.0020523729447026735 0 0.0078322637898117446 -0.0061038848288415314 0 0.0076151210218963379 -0.0020523729447026735 0 0.0086001716371597158 0.0003246791974233597 0 0.0095180324487593431 -0.00095204031096785436 0 0.0097588461235778318 -0.00097104734258736619 0 0.0094699710348619265 -0.0010295648123062504 0 0.0087306104067449361 -0.0008327279750121266 0 0.0094699710348619265 -0.0010295648123062504 0 0.0091313023395821098 -6.0509292057148891e-05 0 0.0078322637898117446 -0.0061038848288415314 0 0.01052636761463413 -0.00049865852784196048 0 0.0088562639335420766 -0.0016572639858520352 0 0.0087306104067449361 -0.0008327279750121266 0 0.0094699710348619265 -0.0010295648123062504 0 0.0087306104067449361 -0.0008327279750121266 0 0.0091313023395821098 -6.0509292057148891e-05 0 0.0084620326894967613 -1.8710622704564564e-05 0 0.0097181894183432909 -0.001312603553565524 0 0.0094699710348619265 -0.0010295648123062504 0 0.0091313023395821098 -6.0509292057148891e-05 0 0.0091313023395821098 -6.0509292057148891e-05 0 0.0084620326894967613 -1.8710622704564564e-05 0 0.0082376384254897045 0.00089940996582899479 0 0.0081290251742017726 -0.0004285208522044421 0 0.0084620326894967613 -1.8710622704564564e-05 0 0.0078279164587449733 0.00040738789798671851 0 0.0084620326894967613 -1.8710622704564564e-05 0 0.0082376384254897045 0.00089940996582899479 0 0.0078279164587449733 0.00040738789798671851 0 0.0091313023395821098 -6.0509292057148891e-05 0 0.0082376384254897045 0.00089940996582899479 0 0.0092094622803902456 0.0014112364723158739 0 0.0071682739156549548 0.00057645727673413338 0 0.0078279164587449733 0.00040738789798671851 0 0.0074976475889541047 0.0015879808757118924 0 0.0074066295973509097 -0.00016805770290909448 0 0.0071682739156549548 0.00057645727673413338 0 0.0078279164587449733 0.00040738789798671851 0 0.0082376384254897045 0.00089940996582899479 0 0.0078279164587449733 0.00040738789798671851 0 0.0074976475889541047 0.0015879808757118924 0 0.0082376384254897045 0.00089940996582899479 0 0.0074976475889541047 0.0015879808757118924 0 0.0078337613803721104 0.0021766630307659992 0 0.0064831888323482155 0.0011232258194532191 0 0.0071682739156549548 0.00057645727673413338 0 0.0074976475889541047 0.0015879808757118924 0 0.0067777604893244758 0.0023891054691705183 0 0.0074976475889541047 0.0015879808757118924 0 0.0077665187181715787 0.0029998546472250207 0 0.0074976475889541047 0.0015879808757118924 0 0.0078337613803721104 0.0021766630307659992 0 0.0077665187181715787 0.0029998546472250207 0 0.0078337613803721104 0.0021766630307659992 0 0.0077665187181715787 0.0029998546472250207 0 0.0075114669546794107 0.002050241283109397 0 0.0072309399957056668 0.0016219396829148828 0 0.007351628410288252 0.0020423710158765126 0 0.0075114669546794107 0.002050241283109397 0 0.0072309399957056668 0.0016219396829148828 0 0.007351628410288252 0.0020423710158765126 0 0.0070833402381725299 0.001687648478631605 0 0.0078337613803721104 0.0021766630307659992 0 0.007351628410288252 0.0020423710158765126 0 0.0075114669546794107 0.002050241283109397 0 0.0077816782280570622 0.001975792532564768 0 0.008478300610263001 0.0022942258078223607 0 0.0082376384254897045 0.00089940996582899479 0 0.0078337613803721104 0.0021766630307659992 0 0.0092094622803902456 0.0014112364723158739 0 0.0070088936715915788 0.0012056248928282371 0 0.0070833402381725299 0.001687648478631605 0 0.0066806255481884581 0.0015827332537916416 0 0.0049834794729105604 -0.0015563374575653991 0 0.0074336074667635541 -0.0025668671858713053 0 0.0070833402381725299 0.001687648478631605 0 0.0066806255481884581 0.0015827332537916416 0 0.0068881426563001903 0.002086350710175675 0 0.007351628410288252 0.0020423710158765126 0 0.0070833402381725299 0.001687648478631605 0 0.0068881426563001903 0.002086350710175675 0 0.0091313023395821098 -6.0509292057148891e-05 0 0.0092094622803902456 0.0014112364723158739 0 0.010684275857616568 0.00075561007775136945 0 0.008478300610263001 0.0022942258078223607 0 0.0074336074667635541 -0.0025668671858713053 0 0.0087039552357847712 -0.0050564096839857131 0 0.007659921303379412 -0.0038107774938269234 0 0.0082717347836257643 -0.0025895448109185641 0 0.0097181894183432909 -0.001312603553565524 0 0.0087039552357847712 -0.0050564096839857131 0 0.0082717347836257643 -0.0025895448109185641 0 0.01045029759974813 -0.0010809117693800678 0 0.0074336074667635541 -0.0025668671858713053 0 0.007659921303379412 -0.0038107774938269234 0 0.0082717347836257643 -0.0025895448109185641 0 0.0071256810478932536 -0.0023459202779604433 0 0.0097181894183432909 -0.001312603553565524 0 0.0091313023395821098 -6.0509292057148891e-05 0 0.010684275857616568 0.00075561007775136945 0 0.005270222938031025 -0.0035561318624411876 0 0.006184178055841219 -0.0043554341885821994 0 0.0042753886813800424 -0.0039729768245163766 0 0.005270222938031025 -0.0035561318624411876 0 0.0041926496065780557 -0.0035558964271232667 0 0.0042753886813800424 -0.0039729768245163766 0 0.0052753667314082283 -0.0053351169091187178 0 0.0052877028457100654 -0.0037111755604992201 0 0.0059633098245794247 -0.0041425118333994378 0 0.005270222938031025 -0.0035561318624411876 0 0.0052877028457100654 -0.0037111755604992201 0 0.0059633098245794247 -0.0041425118333994378 0 0.005387922763004897 -0.0037617500692266378 0 0.0044208756668105012 -0.003850151228668022 0 0.005270222938031025 -0.0035561318624411876 0 0.0052877028457100654 -0.0037111755604992201 0 0.0060153750700274828 -0.0027968208407249612 0 0.005270222938031025 -0.0035561318624411876 0 0.0060153750700274828 -0.0027968208407249612 0 0.0063640257029866773 -0.0033775752652864832 0 0.0060153750700274828 -0.0027968208407249612 0 0.0071256810478932536 -0.0023459202779604433 0 0.0063640257029866773 -0.0033775752652864832 0 0.007659921303379412 -0.0038107774938269234 0 0.0071256810478932536 -0.0023459202779604433 0 0.0063640257029866773 -0.0033775752652864832 0 0.007659921303379412 -0.0038107774938269234 0 0.0063640257029866773 -0.0033775752652864832 0 0.006184178055841219 -0.0043554341885821994 0 0.005270222938031025 -0.0035561318624411876 0 0.0063640257029866773 -0.0033775752652864832 0 0.006184178055841219 -0.0043554341885821994 0 0.0087039552357847712 -0.0050564096839857131 0 0.007659921303379412 -0.0038107774938269234 0 0.006184178055841219 -0.0043554341885821994 0 0.0060573090912209009 -0.0096081048671056695 0 0.0072124591184080256 -0.0082954256374797482 0 0.0059365872135768169 -0.0065782738606410445 0 0.0074336074667635541 -0.0025668671858713053 0 0.0059399751278356432 -0.0073868978620763009 0 0.0022658293984943695 -0.0084079442100156877 0 0.0060573090912209009 -0.0096081048671056695 0 0.0059365872135768169 -0.0065782738606410445 0 0.0059399751278356432 -0.0073868978620763009 0 0.0067372049723774469 -0.0070859763326739196 0 0.0060573090912209009 -0.0096081048671056695 0 0.0072124591184080256 -0.0082954256374797482 0 0.0083554962685233637 -0.0090823564665288899 0 0.0060573090912209009 -0.0096081048671056695 0 0.0083554962685233637 -0.0090823564665288899 0 0.0097030609969717112 -0.010901027825582544 0 0.0072124591184080256 -0.0082954256374797482 0 0.0083554962685233637 -0.0090823564665288899 0 0.0085203131608543158 -0.0075201100886406825 0 0.0083554962685233637 -0.0090823564665288899 0 0.0085203131608543158 -0.0075201100886406825 0 0.010262090797315734 -0.0089794653696987706 0 0.0085203131608543158 -0.0075201100886406825 0 0.0059365872135768169 -0.0065782738606410445 0 0.0085750567691089668 -0.0048789703832076972 0 0.0072124591184080256 -0.0082954256374797482 0 0.0085203131608543158 -0.0075201100886406825 0 0.0059365872135768169 -0.0065782738606410445 0 0.0085203131608543158 -0.0075201100886406825 0 0.0085750567691089668 -0.0048789703832076972 0 0.010273822232761593 -0.0066743200748355883 0 0.0039513115685748832 -0.0041889926257145348 0 0.0022658293984943695 -0.0084079442100156877 0 0.0059365872135768169 -0.0065782738606410445 0 0.0065910510506344841 0.00028193043059713564 0 0.0039513115685748832 -0.0041889926257145348 0 0.0069932425815800517 -0.0027951488717313875 0 0.0065453994925888251 0.00032580829708855929 0 0.0049834794729105604 -0.0015563374575653991 0 0.0039513115685748832 -0.0041889926257145348 0 0.0059365872135768169 -0.0065782738606410445 0 0.0069932425815800517 -0.0027951488717313875 0 0.0059365872135768169 -0.0065782738606410445 0 0.0069932425815800517 -0.0027951488717313875 0 0.0085750567691089668 -0.0048789703832076972 0 0.008859598145504315 -0.0012408215074035266 0 0.0069932425815800517 -0.0027951488717313875 0 0.0085750567691089668 -0.0048789703832076972 0 0.010350865303583211 -0.0044407890955015655 0 0.011483614978830829 -0.0062124078239708686 0 0.011918417435770696 -0.0032195896168283502 0 0.008859598145504315 -0.0012408215074035266 0 0.010350865303583211 -0.0044407890955015655 0 0.011918417435770696 -0.0032195896168283502 0 0.008859598145504315 -0.0012408215074035266 0 0.0085750567691089668 -0.0048789703832076972 0 0.010350865303583211 -0.0044407890955015655 0 0.0085750567691089668 -0.0048789703832076972 0 0.010350865303583211 -0.0044407890955015655 0 0.010273822232761593 -0.0066743200748355883 0 0.010350865303583211 -0.0044407890955015655 0 0.011483614978830829 -0.0062124078239708686 0 0.010273822232761593 -0.0066743200748355883 0 0.010273822232761593 -0.0066743200748355883 0 0.012132049094310876 -0.0080250049030943672 0 0.010262090797315734 -0.0089794653696987706 0 0.011483614978830829 -0.0062124078239708686 0 0.010273822232761593 -0.0066743200748355883 0 0.012132049094310876 -0.0080250049030943672 0 0.0085203131608543158 -0.0075201100886406825 0 0.010273822232761593 -0.0066743200748355883 0 0.010262090797315734 -0.0089794653696987706 0 0.011483614978830829 -0.0062124078239708686 0 0.013160737749385872 -0.0064700994456464711 0 0.011918417435770696 -0.0032195896168283502 0 0.014049364897145419 -0.0081393001840089855 0 0.013160737749385872 -0.0064700994456464711 0 0.015024526712481253 -0.0074690810817773694 0 0.014049364897145419 -0.0081393001840089855 0 0.012132049094310876 -0.0080250049030943672 0 0.013160737749385872 -0.0064700994456464711 0 0.011483614978830829 -0.0062124078239708686 0 0.012132049094310876 -0.0080250049030943672 0 0.013160737749385872 -0.0064700994456464711 0 0.013160737749385872 -0.0064700994456464711 0 0.011918417435770696 -0.0032195896168283502 0 0.014674034452105368 -0.0055145049994811905 0 0.015524150061636604 -0.0025128526109092077 0 0.011918417435770696 -0.0032195896168283502 0 0.014674034452105368 -0.0055145049994811905 0 0.015524150061636604 -0.0025128526109092077 0 0.014674034452105368 -0.0055145049994811905 0 0.016731814150828059 -0.0076342320351924994 0 0.016528351332007803 -0.007203667105542863 0 0.017024389806233057 -0.0074857188650262699 0 0.017159369140441978 -0.0072566158675839067 0 0.016631243728763713 -0.0050659361798826297 0 0.016539219139044624 -0.0073283920992838359 0 0.016528351332007803 -0.007203667105542863 0 0.017024389806233057 -0.0074857188650262699 0 0.016731814150828059 -0.0076342320351924994 0 0.016731814150828059 -0.0076342320351924994 0 0.01728497361020799 -0.0078675212312999711 0 0.016015572226324808 -0.0092486389617860727 0 0.017024389806233057 -0.0074857188650262699 0 0.016731814150828059 -0.0076342320351924994 0 0.01728497361020799 -0.0078675212312999711 0 0.013160737749385872 -0.0064700994456464711 0 0.014674034452105368 -0.0055145049994811905 0 0.015024526712481253 -0.0074690810817773694 0 0.014674034452105368 -0.0055145049994811905 0 0.016731814150828059 -0.0076342320351924994 0 0.015024526712481253 -0.0074690810817773694 0 0.016731814150828059 -0.0076342320351924994 0 0.015024526712481253 -0.0074690810817773694 0 0.016015572226324808 -0.0092486389617860727 0 0.014049364897145419 -0.0081393001840089855 0 0.015024526712481253 -0.0074690810817773694 0 0.016015572226324808 -0.0092486389617860727 0 0.014049364897145419 -0.0081393001840089855 0 0.016015572226324808 -0.0092486389617860727 0 0.013794632070576627 -0.0094657937007543401 0 0.016015572226324808 -0.0092486389617860727 0 0.014877717822211855 -0.01038467925825679 0 0.013794632070576627 -0.0094657937007543401 0 0.016015572226324808 -0.0092486389617860727 0 0.016158090659947791 -0.011186827599188208 0 0.017188918133845793 -0.010293538532254629 0 0.016015572226324808 -0.0092486389617860727 0 0.016158090659947791 -0.011186827599188208 0 0.014877717822211855 -0.01038467925825679 0 0.018342764845694585 -0.0096915318683652441 0 0.017188918133845793 -0.010293538532254629 0 0.018019241871779078 -0.011287071880595865 0 0.018342764845694585 -0.0096915318683652441 0 0.016015572226324808 -0.0092486389617860727 0 0.017188918133845793 -0.010293538532254629 0 0.018342764845694585 -0.0096915318683652441 0 0.018019241871779078 -0.011287071880595865 0 0.019383846796884222 -0.011116620557317911 0 0.019501937767415541 -0.0081098451936904552 0 0.015419590099000428 -0.0095057947850520179 0 0.016158090659947791 -0.011186827599188208 0 0.017188918133845793 -0.010293538532254629 0 0.018019241871779078 -0.011287071880595865 0 0.01911003474695324 -0.012627198517129587 0 0.019468994148985234 -0.014306646080808691 0 0.016816885404013261 -0.013563580140593735 0 0.018019241871779078 -0.011287071880595865 0 0.01911003474695324 -0.012627198517129587 0 0.016816885404013261 -0.013563580140593735 0 0.016158090659947791 -0.011186827599188208 0 0.018019241871779078 -0.011287071880595865 0 0.016816885404013261 -0.013563580140593735 0 0.016158090659947791 -0.011186827599188208 0 0.013307893094156828 -0.012579652708729868 0 0.016816885404013261 -0.013563580140593735 0 0.016158090659947791 -0.011186827599188208 0 0.014877717822211855 -0.01038467925825679 0 0.013307893094156828 -0.012579652708729868 0 0.0092783551108969742 -0.01098640926991837 0 0.012375601299594514 -0.016990797711249912 0 0.013268207434717077 -0.012124955076837347 0 0.011950362214547301 -0.010695806378880995 0 0.0097030609969717112 -0.010901027825582544 0 0.0032633486166739633 -0.0039053129227932053 0 0.0041926496065780557 -0.0035558964271232667 0 0.0035370493516416498 -0.0035170184484082127 0 0.014877717822211855 -0.01038467925825679 0 0.013268207434717077 -0.012124955076837347 0 0.013234923379747349 -0.010495787534306248 0 0.014816648909047969 -0.01016250662712855 0 0.0092783551108969742 -0.01098640926991837 0 0.013268207434717077 -0.012124955076837347 0 0.011950362214547301 -0.010695806378880995 0 0.013234923379747349 -0.010495787534306248 0 0.0092783551108969742 -0.01098640926991837 0 0.0066675640922657688 -0.012502629463918155 0 0.0032633486166739633 -0.0039053129227932053 0 0.0041926496065780557 -0.0035558964271232667 0 0.0042753886813800424 -0.0039729768245163766 0 0.0092783551108969742 -0.01098640926991837 0 0.0067372049723774469 -0.0070859763326739196 0 0.0044208756668105012 -0.003850151228668022 0 0.0066675640922657688 -0.012502629463918155 0 0.011950362214547301 -0.010695806378880995 0 0.0097030609969717112 -0.010901027825582544 0 0.011053567049029652 -0.010079490585531077 0 0.011053567049029652 -0.010079490585531077 0 0.010262090797315734 -0.0089794653696987706 0 0.01210184550061824 -0.0096128004473853435 0 0.0097030609969717112 -0.010901027825582544 0 0.011053567049029652 -0.010079490585531077 0 0.010262090797315734 -0.0089794653696987706 0 0.0083554962685233637 -0.0090823564665288899 0 0.0097030609969717112 -0.010901027825582544 0 0.010262090797315734 -0.0089794653696987706 0 0.012132049094310876 -0.0080250049030943672 0 0.010262090797315734 -0.0089794653696987706 0 0.01210184550061824 -0.0096128004473853435 0 0.012132049094310876 -0.0080250049030943672 0 0.013794632070576627 -0.0094657937007543401 0 0.01210184550061824 -0.0096128004473853435 0 0.014049364897145419 -0.0081393001840089855 0 0.012132049094310876 -0.0080250049030943672 0 0.013794632070576627 -0.0094657937007543401 0 0.013794632070576627 -0.0094657937007543401 0 0.013234923379747349 -0.010495787534306248 0 0.01210184550061824 -0.0096128004473853435 0 0.014877717822211855 -0.01038467925825679 0 0.013794632070576627 -0.0094657937007543401 0 0.013234923379747349 -0.010495787534306248 0 0.011950362214547301 -0.010695806378880995 0 0.013234923379747349 -0.010495787534306248 0 0.01210184550061824 -0.0096128004473853435 0 0.011950362214547301 -0.010695806378880995 0 0.011053567049029652 -0.010079490585531077 0 0.01210184550061824 -0.0096128004473853435 0 0.00066880633758574059 -0.029015422844048917 0 0.00072031955371725214 -0.028262925369082145 0 0.0012038075395861966 -0.028135774427227134 0 0.00072031955371725214 -0.028262925369082145 0 0.0012038075395861966 -0.028135774427227134 0 0.0011112702872350833 -0.027648463272974655 0 0.0030484917693326271 -0.022595366399860192 0 0.0013609460998477766 -0.023174128046237523 0 0.004847096582202521 -0.016448989315677107 0 0.00467794042682708 -0.016408808734514103 0 0.0048800260808244435 -0.016354228456380199 0 0.004847096582202521 -0.016448989315677107 0 0.0047299301708050951 -0.016539564457784449 0 0.00467794042682708 -0.016408808734514103 0 0.004847096582202521 -0.016448989315677107 0 0.0048800260808244435 -0.016354228456380199 0 0.004979549047080486 -0.016404914604936826 0 0.0012038075395861966 -0.028135774427227134 0 0.0014490909060911295 -0.02731563204547861 0 0.0011112702872350833 -0.027648463272974655 0 0.0013609460998477766 -0.023174128046237523 0 0.010209102977338772 -0.016268018763900528 0 0.0048800260808244435 -0.016354228456380199 0 0.004979549047080486 -0.016404914604936826 0 0.0050755792884792303 -0.016285121976118744 0 0.004979549047080486 -0.016404914604936826 0 0.0050782432773431091 -0.016393226839033902 0 0.0050755792884792303 -0.016285121976118744 0 0.017024389806233057 -0.0074857188650262699 0 0.017159369140441978 -0.0072566158675839067 0 0.017404150458425176 -0.0077504380728713731 0 0.011037774305061931 -0.010886262028823281 0 0.010209102977338772 -0.016268018763900528 0 0.017024389806233057 -0.0074857188650262699 0 0.01728497361020799 -0.0078675212312999711 0 0.017404150458425176 -0.0077504380728713731 0 0.019501937767415541 -0.0081098451936904552 0 0.010209102977338772 -0.016268018763900528 0 0.018342764845694585 -0.0096915318683652441 0 0.020208447455534573 -0.0097019453832640646 0 0.019383846796884222 -0.011116620557317911 0 0.020208447455534573 -0.0097019453832640646 0 0.019383846796884222 -0.011116620557317911 0 0.021003657991189594 -0.012354087088897261 0 0.018019241871779078 -0.011287071880595865 0 0.019383846796884222 -0.011116620557317911 0 0.01911003474695324 -0.012627198517129587 0 0.01911003474695324 -0.012627198517129587 0 0.021003657991189594 -0.012354087088897261 0 0.019468994148985234 -0.014306646080808691 0 0.019383846796884222 -0.011116620557317911 0 0.01911003474695324 -0.012627198517129587 0 0.021003657991189594 -0.012354087088897261 0 0.010209102977338772 -0.016268018763900528 0 0.011310317430874324 -0.019988686748596104 0 0.0014490909060911295 -0.02731563204547861 0 0.0012808291114191758 -0.027214067724316601 0 0.0011112702872350833 -0.027648463272974655 0 0.0012808291114191758 -0.027214067724316601 0 0.0011112702872350833 -0.027648463272974655 0 0.0009549983843956133 -0.027382788916379061 0 0.0011112702872350833 -0.027648463272974655 0 0.00073115831604292488 -0.027732606377146515 0 0.0009549983843956133 -0.027382788916379061 0 0.00072031955371725214 -0.028262925369082145 0 0.0011112702872350833 -0.027648463272974655 0 0.00073115831604292488 -0.027732606377146515 0 0.005821879713107333 -0.030439300222189478 0 0.010790349249671607 -0.028518614323734606 0 0.007592057458965934 -0.02754792714965482 0 0.005821879713107333 -0.030439300222189478 0 0.007592057458965934 -0.02754792714965482 0 0.0053692594415986243 -0.029191832460378292 0 0.00035596944937941072 -0.027544366663930082 0 0.00076737531687880894 -0.027198210008091476 0 0.0009549983843956133 -0.027382788916379061 0 0.00076737531687880894 -0.027198210008091476 0 0.0009549983843956133 -0.027382788916379061 0 0.0012093431096918054 -0.027185436015588225 0 0.0012808291114191758 -0.027214067724316601 0 0.0009549983843956133 -0.027382788916379061 0 0.0012093431096918054 -0.027185436015588225 0 0.005821879713107333 -0.030439300222189478 0 0.011896359167156709 -0.032245338131169865 0 0.010790349249671607 -0.028518614323734606 0 0.0025697460907217447 -0.02978648703144662 0 0.010889307200907134 -0.022513417032779131 0 0.010889307200907134 -0.022513417032779131 0 0.010421660905179276 -0.025679948421294337 0 0.0087689958253216703 -0.021108048388784422 0 0.009598818021317063 -0.020202893245665567 0 0.0098711721269386515 -0.021677728860983566 0 0.0087689958253216703 -0.021108048388784422 0 0.009598818021317063 -0.020202893245665567 0 0.0084703487587256682 -0.020401996490635066 0 0.011310317430874324 -0.019988686748596104 0 0.010889307200907134 -0.022513417032779131 0 0.010889307200907134 -0.022513417032779131 0 0.014526711225014867 -0.016627193342318845 0 0.009598818021317063 -0.020202893245665567 0 0.0081760029798418222 -0.019710564340764115 0 0.0084703487587256682 -0.020401996490635066 0 0.021003657991189594 -0.012354087088897261 0 0.021621853063827148 -0.015042097471010043 0 0.019468994148985234 -0.014306646080808691 0 0.0081760029798418222 -0.019710564340764115 0 0.0077930621662077272 -0.020198750118418318 0 0.0084703487587256682 -0.020401996490635066 0 0.0077930621662077272 -0.020198750118418318 0 0.0084703487587256682 -0.020401996490635066 0 0.0081880931639095947 -0.020766736013601465 0 0.0087689958253216703 -0.021108048388784422 0 0.0084703487587256682 -0.020401996490635066 0 0.0081880931639095947 -0.020766736013601465 0 0.0087689958253216703 -0.021108048388784422 0 0.0081880931639095947 -0.020766736013601465 0 0.0081281974275439015 -0.021605334514041355 0 0.0081880931639095947 -0.020766736013601465 0 0.00784759097333587 -0.020920487437696905 0 0.0081281974275439015 -0.021605334514041355 0 0.0077930621662077272 -0.020198750118418318 0 0.0081880931639095947 -0.020766736013601465 0 0.00784759097333587 -0.020920487437696905 0 0.00784759097333587 -0.020920487437696905 0 0.0081281974275439015 -0.021605334514041355 0 0.0076809830058373772 -0.021476535963839517 0 0.0087689958253216703 -0.021108048388784422 0 0.0081281974275439015 -0.021605334514041355 0 0.0087292967107126477 -0.022102604230603482 0 0.0081281974275439015 -0.021605334514041355 0 0.0081908265664029159 -0.022550219826373515 0 0.0087292967107126477 -0.022102604230603482 0 0.0081281974275439015 -0.021605334514041355 0 0.0081908265664029159 -0.022550219826373515 0 0.0077045271398192465 -0.022175811689934859 0 0.0081281974275439015 -0.021605334514041355 0 0.0076809830058373772 -0.021476535963839517 0 0.0077045271398192465 -0.022175811689934859 0 0.0081908265664029159 -0.022550219826373515 0 0.0088902060221997918 -0.022874630267605875 0 0.0083449277844923116 -0.02343290822008989 0 0.0081908265664029159 -0.022550219826373515 0 0.0077045271398192465 -0.022175811689934859 0 0.0073606969874091743 -0.022535792816376778 0 0.0081908265664029159 -0.022550219826373515 0 0.0073606969874091743 -0.022535792816376778 0 0.0083449277844923116 -0.02343290822008989 0 0.007375031343949949 -0.022554736262858543 0 0.0075804521651221188 -0.022720281373605065 0 0.0081908265664029159 -0.022550219826373515 0 0.0088902060221997918 -0.022874630267605875 0 0.0087292967107126477 -0.022102604230603482 0 0.0088902060221997918 -0.022874630267605875 0 0.0093519837447403661 -0.023297951282377199 0 0.0090151095118425773 -0.023295054929044285 0 0.0088902060221997918 -0.022874630267605875 0 0.0092842952697874577 -0.022861805486801598 0 0.0093519837447403661 -0.023297951282377199 0 0.0087689958253216703 -0.021108048388784422 0 0.0087292967107126477 -0.022102604230603482 0 0.0098711721269386515 -0.021677728860983566 0 0.0092842952697874577 -0.022861805486801598 0 0.0087292967107126477 -0.022102604230603482 0 0.0098711721269386515 -0.021677728860983566 0 0.0088902060221997918 -0.022874630267605875 0 0.0092842952697874577 -0.022861805486801598 0 0.0087292967107126477 -0.022102604230603482 0 0.0092842952697874577 -0.022861805486801598 0 0.0098711721269386515 -0.021677728860983566 0 0.0095407197646871153 -0.023836969916925861 0 0.010421660905179276 -0.025679948421294337 0 0.0096094615171541942 -0.023642189198756013 0 0.010790349249671607 -0.028518614323734606 0 0.0095407197646871153 -0.023836969916925861 0 0.007592057458965934 -0.02754792714965482 0 0.0092842952697874577 -0.022861805486801598 0 0.0093519837447403661 -0.023297951282377199 0 0.0095407197646871153 -0.023836969916925861 0 0.0093519837447403661 -0.023297951282377199 0 0.0095407197646871153 -0.023836969916925861 0 0.0084386368749401457 -0.022847830431869966 0 0.0095407197646871153 -0.023836969916925861 0 0.0066955738312322053 -0.024693738939545854 0 0.0084386368749401457 -0.022847830431869966 0 0.0052054001456071607 -0.029772005144921319 0 0.0050743024866579346 -0.02970151345068989 0 0.0052299984739026858 -0.029782234404445246 0 0.0059991798969830194 -0.027300488486140893 0 0.0065466401373641655 -0.026696056934836641 0 0.0057205699432217316 -0.027584050613993202 0 0.0065466401373641655 -0.026696056934836641 0 0.0050740904698482166 -0.029751238955997569 0 0.0050984675864169235 -0.029772334464474685 0 0.0051496445311757519 -0.029753014149563033 0 0.0052054001456071607 -0.029772005144921319 0 0.0050984675864169235 -0.029772334464474685 0 0.0050743024866579346 -0.02970151345068989 0 0.0052054001456071607 -0.029772005144921319 0 0.0050984675864169235 -0.029772334464474685 0 0.0051496445311757519 -0.029753014149563033 0 0.0059991798969830194 -0.027300488486140893 0 0.0054028138847635604 -0.028870091061289394 0 0.0066955738312322053 -0.024693738939545854 0 0.007592057458965934 -0.02754792714965482 0 0.0053692594415986243 -0.029191832460378292 0 0.0095407197646871153 -0.023836969916925861 0 0.0066955738312322053 -0.024693738939545854 0 0.007592057458965934 -0.02754792714965482 0 0.0076847501855320305 -0.019269544498697527 0 0.0076214310021681386 -0.019392168127789114 0 0.0076296164123286787 -0.019339357004023339 0 0.0076214310021681386 -0.019392168127789114 0 0.0076296164123286787 -0.019339357004023339 0 0.007555770253550839 -0.019529180773821698 0 0.0076847501855320305 -0.019269544498697527 0 0.0076296164123286787 -0.019339357004023339 0 0.0076699450416644714 -0.019172950896720931 0 0.0069226850449700854 -0.016645383582679918 0 0.0071713197027855648 -0.012547092703124891 0 0.0076518130675895767 -0.019091959440120689 0 0.0076699450416644714 -0.019172950896720931 0 0.0077346646210931912 -0.019155308067362941 0 0.0076847501855320305 -0.019269544498697527 0 0.0076699450416644714 -0.019172950896720931 0 0.0077346646210931912 -0.019155308067362941 0 0.0052753667314082283 -0.0053351169091187178 0 0.0062199678591450145 -0.0068440076107109489 0 0.0074076346218209695 -0.0050590103775879523 0 0.0052753667314082283 -0.0053351169091187178 0 0.0059633098245794247 -0.0041425118333994378 0 0.0074076346218209695 -0.0050590103775879523 0 0.0076847501855320305 -0.019269544498697527 0 0.0077346646210931912 -0.019155308067362941 0 0.0077562313508666818 -0.019232323986452825 0 0.0071713197027855648 -0.012547092703124891 0 0.0066675640922657688 -0.012502629463918155 0 0.0066675640922657688 -0.012502629463918155 0 0.0079048716265770046 -0.020379523334591525 0 0.0076847501855320305 -0.019269544498697527 0 0.0076214310021681386 -0.019392168127789114 0 0.0077562313508666818 -0.019232323986452825 0 0.0072691486201017647 -0.019095110506467013 0 0.0071872598961219463 -0.0191927158604898 0 0.0074095404620684972 -0.019605170252689819 0 0.0076214310021681386 -0.019392168127789114 0 0.0077562313508666818 -0.019232323986452825 0 0.0074606952568223688 -0.019575761909276183 0 0.0072691486201017647 -0.019095110506467013 0 0.0074095404620684972 -0.019605170252689819 0 0.0075379476580743447 -0.019403917345948207 0 0.0075545003828809748 -0.019896061060588378 0 0.0079048716265770046 -0.020379523334591525 0 0.0081760029798418222 -0.019710564340764115 0 0.0077930621662077272 -0.020198750118418318 0 0.0075379476580743447 -0.019403917345948207 0 0.0077930621662077272 -0.020198750118418318 0 0.0074095404620684972 -0.019605170252689819 0 0.0075379476580743447 -0.019403917345948207 0 0.014526711225014867 -0.016627193342318845 0 0.012375601299594514 -0.016990797711249912 0 0.0077930621662077272 -0.020198750118418318 0 0.0074606952568223688 -0.019575761909276183 0 0.0074537015021820131 -0.02016330110362418 0 0.0074606952568223688 -0.019575761909276183 0 0.0074537015021820131 -0.02016330110362418 0 0.0075069282129319233 -0.019744380434785616 0 0.0074537015021820131 -0.02016330110362418 0 0.0075069282129319233 -0.019744380434785616 0 0.0075077304752290191 -0.01963019179774558 0 0.00784759097333587 -0.020920487437696905 0 0.0074537015021820131 -0.02016330110362418 0 0.0076809830058373772 -0.021476535963839517 0 0.0077930621662077272 -0.020198750118418318 0 0.00784759097333587 -0.020920487437696905 0 0.0074537015021820131 -0.02016330110362418 0 0.0076214310021681386 -0.019392168127789114 0 0.0074606952568223688 -0.019575761909276183 0 0.007555770253550839 -0.019529180773821698 0 0.0074606952568223688 -0.019575761909276183 0 0.007555770253550839 -0.019529180773821698 0 0.0075069282129319233 -0.019744380434785616 0 0.0075069282129319233 -0.019744380434785616 0 0.0075616757312810257 -0.019510926435207639 0 0.0075077304752290191 -0.01963019179774558 0 0.007555770253550839 -0.019529180773821698 0 0.0075069282129319233 -0.019744380434785616 0 0.0075616757312810257 -0.019510926435207639 0 0.0076296164123286787 -0.019339357004023339 0 0.007555770253550839 -0.019529180773821698 0 0.0075616757312810257 -0.019510926435207639 0 0.0075616757312810257 -0.019510926435207639 0 0.0075479287035496445 -0.019387659021371066 0 0.0075992863451544556 -0.019289743121436446 0 0.0075616757312810257 -0.019510926435207639 0 0.0075077304752290191 -0.01963019179774558 0 0.0075479287035496445 -0.019387659021371066 0 0.0075077304752290191 -0.01963019179774558 0 0.0075479287035496445 -0.019387659021371066 0 0.007372876195264914 -0.019194618482990415 0 0.0075479287035496445 -0.019387659021371066 0 0.007372876195264914 -0.019194618482990415 0 0.0075481875012407872 -0.019208207759840883 0 0.0075479287035496445 -0.019387659021371066 0 0.0075481875012407872 -0.019208207759840883 0 0.0075992863451544556 -0.019289743121436446 0 0.0074309998286463024 -0.020185765914691314 0 0.0073039594744243172 -0.020749326944985092 0 0.0074537015021820131 -0.02016330110362418 0 0.0075077304752290191 -0.01963019179774558 0 0.007372876195264914 -0.019194618482990415 0 0.0074537015021820131 -0.02016330110362418 0 0.0076809830058373772 -0.021476535963839517 0 0.007133642892310171 -0.02240522444351439 0 0.0076809830058373772 -0.021476535963839517 0 0.007133642892310171 -0.02240522444351439 0 0.0077045271398192465 -0.022175811689934859 0 0.007133642892310171 -0.02240522444351439 0 0.0073606969874091743 -0.022535792816376778 0 0.00762064189516514 -0.022150861940742221 0 0.0073039594744243172 -0.020749326944985092 0 0.00758388277514397 -0.020598640672085611 0 0.007133642892310171 -0.02240522444351439 0 0.0077045271398192465 -0.022175811689934859 0 0.0073606969874091743 -0.022535792816376778 0 0.007372876195264914 -0.019194618482990415 0 0.0075642683271661812 -0.019075994623316807 0 0.00758523754166982 -0.019049564229244729 0 0.007372876195264914 -0.019194618482990415 0 0.0075481875012407872 -0.019208207759840883 0 0.0075642683271661812 -0.019075994623316807 0 0.0075642683271661812 -0.019075994623316807 0 0.0075774130102744435 -0.019105613109909724 0 0.0074833164665349516 -0.019043353719991205 0 0.0075774130102744435 -0.019105613109909724 0 0.0075390445342222263 -0.019055612155813088 0 0.0074833164665349516 -0.019043353719991205 0 0.0075774130102744435 -0.019105613109909724 0 0.007588281654895607 -0.019084578626699277 0 0.0075390445342222263 -0.019055612155813088 0 0.0075481875012407872 -0.019208207759840883 0 0.0075642683271661812 -0.019075994623316807 0 0.0075774130102744435 -0.019105613109909724 0 0.0075774130102744435 -0.019105613109909724 0 0.0076217170446672483 -0.019195970940800125 0 0.0075992863451544556 -0.019289743121436446 0 0.0075481875012407872 -0.019208207759840883 0 0.0075774130102744435 -0.019105613109909724 0 0.0075992863451544556 -0.019289743121436446 0 0.0075774130102744435 -0.019105613109909724 0 0.0076217170446672483 -0.019195970940800125 0 0.007588281654895607 -0.019084578626699277 0 0.0076296164123286787 -0.019339357004023339 0 0.0076699450416644714 -0.019172950896720931 0 0.0076217170446672483 -0.019195970940800125 0 0.0076296164123286787 -0.019339357004023339 0 0.0075616757312810257 -0.019510926435207639 0 0.0075992863451544556 -0.019289743121436446 0 0.0076296164123286787 -0.019339357004023339 0 0.0076217170446672483 -0.019195970940800125 0 0.0075992863451544556 -0.019289743121436446 0 0.0076518130675895767 -0.019091959440120689 0 0.0076699450416644714 -0.019172950896720931 0 0.0076222475009880952 -0.019079607918213393 0 0.0076699450416644714 -0.019172950896720931 0 0.0076217170446672483 -0.019195970940800125 0 0.0076256917842502641 -0.019135157666688503 0 0.0076699450416644714 -0.019172950896720931 0 0.0076222475009880952 -0.019079607918213393 0 0.0076256917842502641 -0.019135157666688503 0 0.0076222475009880952 -0.019079607918213393 0 0.0076256917842502641 -0.019135157666688503 0 0.007588281654895607 -0.019084578626699277 0 0.0076217170446672483 -0.019195970940800125 0 0.0076256917842502641 -0.019135157666688503 0 0.007588281654895607 -0.019084578626699277 0 0.0075617985040951456 -0.018996095145735886 0 0.0076222475009880952 -0.019079607918213393 0 0.007588281654895607 -0.019084578626699277 0 0.0075617985040951456 -0.018996095145735886 0 0.007588281654895607 -0.019084578626699277 0 0.007523428771268271 -0.018998261924382066 0 0.0075390445342222263 -0.019055612155813088 0 0.007523428771268271 -0.018998261924382066 0 0.0074833164665349516 -0.019043353719991205 0 0.007588281654895607 -0.019084578626699277 0 0.0075390445342222263 -0.019055612155813088 0 0.007523428771268271 -0.018998261924382066 0 0.007523428771268271 -0.018998261924382066 0 0.0074833164665349516 -0.019043353719991205 0 0.0074698399623812179 -0.018987896605407017 0 0.007333776749232356 -0.019120424384542988 0 0.0074833164665349516 -0.019043353719991205 0 0.0074698399623812179 -0.018987896605407017 0 0.007333776749232356 -0.019120424384542988 0 0.0074728826255119982 -0.018990766887559875 0 0.007516653092916741 -0.018957954899772218 0 0.007333776749232356 -0.019120424384542988 0 0.0074728826255119982 -0.018990766887559875 0 0.0074698399623812179 -0.018987896605407017 0 0.007333776749232356 -0.019120424384542988 0 0.0075365042828336492 -0.019097872443080765 0 0.0072554295547408408 -0.01956939258551936 0 0.0075365042828336492 -0.019097872443080765 0 0.007751089746500712 -0.019414156741586693 0 0.0072554295547408408 -0.01956939258551936 0 0.0075642683271661812 -0.019075994623316807 0 0.0075365042828336492 -0.019097872443080765 0 0.0074833164665349516 -0.019043353719991205 0 0.007333776749232356 -0.019120424384542988 0 0.0075365042828336492 -0.019097872443080765 0 0.0074833164665349516 -0.019043353719991205 0 0.0075642683271661812 -0.019075994623316807 0 0.0075365042828336492 -0.019097872443080765 0 0.00758523754166982 -0.019049564229244729 0 0.00762064189516514 -0.022150861940742221 0 0.0072678094057957825 -0.022175515600428058 0 0.0071056532630956208 -0.021725776741713235 0 0.0073606969874091743 -0.022535792816376778 0 0.00762064189516514 -0.022150861940742221 0 0.0072678094057957825 -0.022175515600428058 0 0.0073606969874091743 -0.022535792816376778 0 0.0072678094057957825 -0.022175515600428058 0 0.0068294739473476413 -0.022130935325138601 0 0.0071056532630956208 -0.021725776741713235 0 0.007441393379650699 -0.021373796101429022 0 0.0070886060082266875 -0.021027239365067268 0 0.00762064189516514 -0.022150861940742221 0 0.0071056532630956208 -0.021725776741713235 0 0.007441393379650699 -0.021373796101429022 0 0.00758388277514397 -0.020598640672085611 0 0.0077492840831330486 -0.020340919092583974 0 0.00762064189516514 -0.022150861940742221 0 0.007441393379650699 -0.021373796101429022 0 0.0078259845379202476 -0.021196235543919542 0 0.0075365042828336492 -0.019097872443080765 0 0.00758523754166982 -0.019049564229244729 0 0.007751089746500712 -0.019414156741586693 0 0.007751089746500712 -0.019414156741586693 0 0.0075637571150538492 -0.020526799514584589 0 0.0072699095865298366 -0.02011363154829162 0 0.0078259845379202476 -0.021196235543919542 0 0.0076092094330432224 -0.020902211950317658 0 0.0075637571150538492 -0.020526799514584589 0 0.0077492840831330486 -0.020340919092583974 0 0.0076016789320178888 -0.020537222666206077 0 0.007441393379650699 -0.021373796101429022 0 0.0078259845379202476 -0.021196235543919542 0 0.0076092094330432224 -0.020902211950317658 0 0.007441393379650699 -0.021373796101429022 0 0.0076092094330432224 -0.020902211950317658 0 0.0070886060082266875 -0.021027239365067268 0 0.0076092094330432224 -0.020902211950317658 0 0.0070886060082266875 -0.021027239365067268 0 0.0077350722430055896 -0.020550033395281449 0 0.0065759212498144115 -0.021170486982650453 0 0.0071336456043486797 -0.021055023858502969 0 0.0062473134532564636 -0.021726991773435785 0 0.0063612464662284327 -0.021559843685067845 0 0.0065852819644538364 -0.021496092360340245 0 0.0063612464662284327 -0.021559843685067845 0 0.0064794914960141121 -0.021437817785156101 0 0.0064348367581940381 -0.021358676803895256 0 0.0063612464662284327 -0.021559843685067845 0 0.0064794914960141121 -0.021437817785156101 0 0.0065852819644538364 -0.021496092360340245 0 0.0063612464662284327 -0.021559843685067845 0 0.0062373628848746612 -0.021376133783031544 0 0.0064348367581940381 -0.021358676803895256 0 0.0076092094330432224 -0.020902211950317658 0 0.0077350722430055896 -0.020550033395281449 0 0.0075637571150538492 -0.020526799514584589 0 0.0064794914960141121 -0.021437817785156101 0 0.0065852819644538364 -0.021496092360340245 0 0.0065393140867000665 -0.021339304005884432 0 0.0075637571150538492 -0.020526799514584589 0 0.0069941367561897417 -0.020604138132050545 0 0.0067948752241299894 -0.021079952530077169 0 0.0077350722430055896 -0.020550033395281449 0 0.0075637571150538492 -0.020526799514584589 0 0.0067948752241299894 -0.021079952530077169 0 0.0075637571150538492 -0.020526799514584589 0 0.0071968641712805174 -0.020382325497026711 0 0.0069941367561897417 -0.020604138132050545 0 0.0075637571150538492 -0.020526799514584589 0 0.0071968641712805174 -0.020382325497026711 0 0.0072699095865298366 -0.02011363154829162 0 0.0071968641712805174 -0.020382325497026711 0 0.0069685353215571122 -0.020283131006123795 0 0.0069941367561897417 -0.020604138132050545 0 0.0071968641712805174 -0.020382325497026711 0 0.0072699095865298366 -0.02011363154829162 0 0.0069685353215571122 -0.020283131006123795 0 0.0069685353215571122 -0.020283131006123795 0 0.0069941367561897417 -0.020604138132050545 0 0.0067209556449474234 -0.020543198373442591 0 0.0067209556449474234 -0.020543198373442591 0 0.006540590058691626 -0.0203045268753833 0 0.0065608541219158304 -0.020769413717053504 0 0.0069941367561897417 -0.020604138132050545 0 0.0067209556449474234 -0.020543198373442591 0 0.0065608541219158304 -0.020769413717053504 0 0.007276608398194784 -0.019251789293568224 0 0.0068679815931128509 -0.020065419834934282 0 0.0069979069903254197 -0.019866908582969758 0 0.0069294535040726546 -0.019700601818248873 0 0.0067588360093051112 -0.020157836532014053 0 0.0067322611134404374 -0.020157327134286297 0 0.0068679815931128509 -0.020065419834934282 0 0.006540590058691626 -0.0203045268753833 0 0.0065608541219158304 -0.020769413717053504 0 0.0062496152366454307 -0.020867926246185241 0 0.0069685353215571122 -0.020283131006123795 0 0.0067209556449474234 -0.020543198373442591 0 0.006540590058691626 -0.0203045268753833 0 0.0069979069903254197 -0.019866908582969758 0 0.0069294535040726546 -0.019700601818248873 0 0.0072554295547408408 -0.01956939258551936 0 0.007333776749232356 -0.019120424384542988 0 0.0069294535040726546 -0.019700601818248873 0 0.0072554295547408408 -0.01956939258551936 0 0.0072983182169527898 -0.019184552975615998 0 0.007276608398194784 -0.019251789293568224 0 0.0067322611134404374 -0.020157327134286297 0 0.0072134017794432681 -0.019598959210325995 0 0.0074728826255119982 -0.018990766887559875 0 0.007516653092916741 -0.018957954899772218 0 0.0074967790937789285 -0.018961457087832749 0 0.007751089746500712 -0.019414156741586693 0 0.0072699095865298366 -0.02011363154829162 0 0.0072554295547408408 -0.01956939258551936 0 0.0069685353215571122 -0.020283131006123795 0 0.006540590058691626 -0.0203045268753833 0 0.0072554295547408408 -0.01956939258551936 0 0.0072699095865298366 -0.02011363154829162 0 0.0069685353215571122 -0.020283131006123795 0 0.0072554295547408408 -0.01956939258551936 0 0.0053654419329318597 -0.02945602930504479 0 0.0057316571966246352 -0.029242837030406258 0 0.0053958775041371082 -0.029186861897013954 0 0.0051223367996769738 -0.029423620206293018 0 0.0053654419329318597 -0.02945602930504479 0 0.0053958775041371082 -0.029186861897013954 0 0.0051223367996769738 -0.029423620206293018 0 0.0053654419329318597 -0.02945602930504479 0 0.0051746326501165485 -0.02960097170616012 0 0.0053654419329318597 -0.02945602930504479 0 0.0051746326501165485 -0.02960097170616012 0 0.0052300241501710915 -0.029685962601162522 0 0.0050740904698482166 -0.029751238955997569 0 0.0052300241501710915 -0.029685962601162522 0 0.0051496445311757519 -0.029753014149563033 0 0.0052054001456071607 -0.029772005144921319 0 0.0052300241501710915 -0.029685962601162522 0 0.0051496445311757519 -0.029753014149563033 0 0.0050740904698482166 -0.029751238955997569 0 0.0051746326501165485 -0.02960097170616012 0 0.0052300241501710915 -0.029685962601162522 0 0.0052054001456071607 -0.029772005144921319 0 0.0052300241501710915 -0.029685962601162522 0 0.0052996380865356222 -0.029754420327145016 0 0.0052300241501710915 -0.029685962601162522 0 0.0052996380865356222 -0.029754420327145016 0 0.0055382837480953597 -0.029540143803104282 0 0.0065466401373641655 -0.026696056934836641 0 0.0058990504541585435 -0.027868348456644428 0 0.0053654419329318597 -0.02945602930504479 0 0.0052300241501710915 -0.029685962601162522 0 0.0055382837480953597 -0.029540143803104282 0 0.0062298554697452308 -0.026298383866239124 0 0.0065008154539315834 -0.025615710093019561 0 0.0069111586124651391 -0.025785129262777071 0 0.0065008154539315834 -0.025615710093019561 0 0.0069111586124651391 -0.025785129262777071 0 0.0068237904889615975 -0.025372533873884745 0 0.0093519837447403661 -0.023297951282377199 0 0.0084386368749401457 -0.022847830431869966 0 0.0092449401942174183 -0.023247210815914555 0 0.0065466401373641655 -0.026696056934836641 0 0.0082500426448296714 -0.024337880141378904 0 0.0093519837447403661 -0.023297951282377199 0 0.0092449401942174183 -0.023247210815914555 0 0.0090151095118425773 -0.023295054929044285 0 0.0063351288095849284 -0.026430670592401718 0 0.0068885193907255093 -0.025234478164076427 0 0.0067469221860869651 -0.024864919953713611 0 0.0076264942909617375 -0.025234320735391804 0 0.0069186967458751787 -0.024426574611337008 0 0.0068237904889615975 -0.025372533873884745 0 0.0067719051937118998 -0.024939840901534956 0 0.0071963058046958638 -0.025511035258842331 0 0.0069111586124651391 -0.025785129262777071 0 0.0068237904889615975 -0.025372533873884745 0 0.0071963058046958638 -0.025511035258842331 0 0.0053654419329318597 -0.02945602930504479 0 0.0055382837480953597 -0.029540143803104282 0 0.0057316571966246352 -0.029242837030406258 0 0.0058990504541585435 -0.027868348456644428 0 0.0063351288095849284 -0.026430670592401718 0 0.0065008154539315834 -0.025615710093019561 0 0.0068237904889615975 -0.025372533873884745 0 0.0067719051937118998 -0.024939840901534956 0 0.0067469221860869651 -0.024864919953713611 0 0.0076264942909617375 -0.025234320735391804 0 0.0071963058046958638 -0.025511035258842331 0 0.0072871821799817835 -0.023061628156067597 0 0.0066549319977640374 -0.023419812338520276 0 0.0082500426448296714 -0.024337880141378904 0 0.0072871821799817835 -0.023061628156067597 0 0.0069111586124651391 -0.025785129262777071 0 0.0076264942909617375 -0.025234320735391804 0 0.0071963058046958638 -0.025511035258842331 0 0.0088902060221997918 -0.022874630267605875 0 0.0090151095118425773 -0.023295054929044285 0 0.0083449277844923116 -0.02343290822008989 0 0.0092449401942174183 -0.023247210815914555 0 0.0088862825229173784 -0.023760617751514463 0 0.0090151095118425773 -0.023295054929044285 0 0.0088862825229173784 -0.023760617751514463 0 0.0090151095118425773 -0.023295054929044285 0 0.0083449277844923116 -0.02343290822008989 0 0.0072871821799817835 -0.023061628156067597 0 0.0075804521651221188 -0.022720281373605065 0 0.0072678094057957825 -0.022175515600428058 0 0.0071056532630956208 -0.021725776741713235 0 0.0068294739473476413 -0.022130935325138601 0 0.0071056532630956208 -0.021725776741713235 0 0.0063598801748477674 -0.021622527956664767 0 0.0068294739473476413 -0.022130935325138601 0 0.0065759212498144115 -0.021170486982650453 0 0.0072871821799817835 -0.023061628156067597 0 0.0071056532630956208 -0.021725776741713235 0 0.0070886060082266875 -0.021027239365067268 0 0.0063598801748477674 -0.021622527956664767 0 0.0062473134532564636 -0.021726991773435785 0 0.0063612464662284327 -0.021559843685067845 0 0.0062117420874192066 -0.02172840549709492 0 0.0062473134532564636 -0.021726991773435785 0 0.0063861191247488432 -0.021554351084214635 0 0.0063599916416933779 -0.021684703050113337 0 0.0062473134532564636 -0.021726991773435785 0 0.0062117420874192066 -0.02172840549709492 0 0.0063599916416933779 -0.021684703050113337 0 0.0061870660168552921 -0.021736861130375439 0 0.006143246274816651 -0.021731405457955068 0 0.0062117420874192066 -0.02172840549709492 0 0.0063136923885686539 -0.022029824789557746 0 0.0060057428302980973 -0.022174040886668668 0 0.0063612464662284327 -0.021559843685067845 0 0.0062117420874192066 -0.02172840549709492 0 0.0062373628848746612 -0.021376133783031544 0 0.0062117420874192066 -0.02172840549709492 0 0.0064095803706097883 -0.021792004625630499 0 0.0063136923885686539 -0.022029824789557746 0 0.0064095803706097883 -0.021792004625630499 0 0.0065424740290085442 -0.021919512290533509 0 0.0065668263101312354 -0.02168712154952742 0 0.0063136923885686539 -0.022029824789557746 0 0.0065424740290085442 -0.021919512290533509 0 0.0064276671598407289 -0.022359767119300704 0 0.0064095803706097883 -0.021792004625630499 0 0.0063136923885686539 -0.022029824789557746 0 0.0065424740290085442 -0.021919512290533509 0 0.0063861191247488432 -0.021554351084214635 0 0.0063599916416933779 -0.021684703050113337 0 0.0065668263101312354 -0.02168712154952742 0 0.0064095803706097883 -0.021792004625630499 0 0.0063599916416933779 -0.021684703050113337 0 0.0065668263101312354 -0.02168712154952742 0 0.0062117420874192066 -0.02172840549709492 0 0.0064095803706097883 -0.021792004625630499 0 0.0063599916416933779 -0.021684703050113337 0 0.0060570042641120442 -0.02537877592116496 0 0.0060393160177348599 -0.025418880041913203 0 0.00613611982306246 -0.025497963856509438 0 0.00658062036910866 -0.021930427344315908 0 0.0066549319977640374 -0.023419812338520276 0 0.0063351288095849284 -0.026430670592401718 0 0.0058304204534755438 -0.027337315990191031 0 0.0063351288095849284 -0.026430670592401718 0 0.0066549319977640374 -0.023419812338520276 0 0.0064848075973908126 -0.022358250455807162 0 0.0065074046493917024 -0.022324631979695801 0 0.0065586104186999483 -0.022373705027061586 0 0.0064848075973908126 -0.022358250455807162 0 0.0065586104186999483 -0.022373705027061586 0 0.0065001240871532832 -0.022393226751809849 0 0.0066549319977640374 -0.023419812338520276 0 0.0062720586348245675 -0.023797959207913878 0 0.0062079917120981707 -0.025631051163897266 0 0.00613611982306246 -0.025497963856509438 0 0.0061211568150203108 -0.025520487458417576 0 0.0060393160177348599 -0.025418880041913203 0 0.00613611982306246 -0.025497963856509438 0 0.0061211568150203108 -0.025520487458417576 0 0.0051833573899213682 -0.029071344203648184 0 0.0055422655052492229 -0.028719543591332726 0 0.0053958775041371082 -0.029186861897013954 0 0.0057316571966246352 -0.029242837030406258 0 0.0055422655052492229 -0.028719543591332726 0 0.0053958775041371082 -0.029186861897013954 0 0.0058659391568407528 -0.026852642848819944 0 0.0059244653149923016 -0.026818365214577072 0 0.005908749578914272 -0.026862318168507995 0 0.0058334083148469966 -0.026905617861083607 0 0.0058659391568407528 -0.026852642848819944 0 0.005908749578914272 -0.026862318168507995 0 0.0061633235191686396 -0.02541783720223182 0 0.0062645007952268419 -0.024602658674065265 0 0.0061633235191686396 -0.02541783720223182 0 0.0062720586348245675 -0.023797959207913878 0 0.006624701404959776 -0.022471062192792587 0 0.0065586104186999483 -0.022373705027061586 0 0.0065462655658651168 -0.022460934630661452 0 0.0057874236571356435 -0.026335034881162799 0 0.0058304204534755438 -0.027337315990191031 0 0.0065586104186999483 -0.022373705027061586 0 0.0065001240871532832 -0.022393226751809849 0 0.0065462655658651168 -0.022460934630661452 0 0.0065001240871532832 -0.022393226751809849 0 0.0065462655658651168 -0.022460934630661452 0 0.0064501584498761746 -0.022497735234873625 0 0.0062645007952268419 -0.024602658674065265 0 0.0061619928250992396 -0.024699409000777651 0 0.0059244653149923016 -0.026818365214577072 0 0.005908749578914272 -0.026862318168507995 0 0.0059632359496923229 -0.026811070650857076 0 0.0059632359496923229 -0.026811070650857076 0 0.0059984926415309926 -0.026770232555404467 0 0.0059581489698594062 -0.026786345658850519 0 0.0059244653149923016 -0.026818365214577072 0 0.0059632359496923229 -0.026811070650857076 0 0.0059581489698594062 -0.026786345658850519 0 0.0065001240871532832 -0.022393226751809849 0 0.0064501584498761746 -0.022497735234873625 0 0.0064276671598407289 -0.022359767119300704 0 0.00658062036910866 -0.021930427344315908 0 0.0064045499177145934 -0.02241753591869123 0 0.0064848075973908126 -0.022358250455807162 0 0.0065001240871532832 -0.022393226751809849 0 0.0064276671598407289 -0.022359767119300704 0 0.0063136923885686539 -0.022029824789557746 0 0.0064276671598407289 -0.022359767119300704 0 0.0062173596963721106 -0.022273551102515353 0 0.0064501584498761746 -0.022497735234873625 0 0.0064276671598407289 -0.022359767119300704 0 0.0062454466196241541 -0.022434816222513383 0 0.0060057428302980973 -0.022174040886668668 0 0.0060816943815901565 -0.022411173105020433 0 0.0058784063624322718 -0.022545894379261185 0 0.0062454466196241541 -0.022434816222513383 0 0.0062173596963721106 -0.022273551102515353 0 0.0060816943815901565 -0.022411173105020433 0 0.0064276671598407289 -0.022359767119300704 0 0.0062454466196241541 -0.022434816222513383 0 0.0062173596963721106 -0.022273551102515353 0 0.0063136923885686539 -0.022029824789557746 0 0.0062173596963721106 -0.022273551102515353 0 0.0060057428302980973 -0.022174040886668668 0 0.0062173596963721106 -0.022273551102515353 0 0.0060057428302980973 -0.022174040886668668 0 0.0060816943815901565 -0.022411173105020433 0 0.0064501584498761746 -0.022497735234873625 0 0.0062454466196241541 -0.022434816222513383 0 0.0060553976676673378 -0.022628450491682404 0 0.0061044718698800605 -0.024261774073315756 0 0.0058310320984779236 -0.025426670518980381 0 0.0061619928250992396 -0.024699409000777651 0 0.0061044718698800605 -0.024261774073315756 0 0.0060816943815901565 -0.022411173105020433 0 0.0060553976676673378 -0.022628450491682404 0 0.0058784063624322718 -0.022545894379261185 0 0.0062454466196241541 -0.022434816222513383 0 0.0060816943815901565 -0.022411173105020433 0 0.0060553976676673378 -0.022628450491682404 0 0.0060533074708638487 -0.023967454599676835 0 0.0058161210979226843 -0.023563123495542262 0 0.0056411436323767945 -0.023778848258975537 0 0.0060533074708638487 -0.023967454599676835 0 0.0060989156263196271 -0.023632309662445578 0 0.0058161210979226843 -0.023563123495542262 0 0.0060533074708638487 -0.023967454599676835 0 0.0060989156263196271 -0.023632309662445578 0 0.0061717351053127301 -0.023796406700313022 0 0.0058161210979226843 -0.023563123495542262 0 0.005928103878460992 -0.023248676007241717 0 0.00615780059818089 -0.023184004337124899 0 0.0060989156263196271 -0.023632309662445578 0 0.0058161210979226843 -0.023563123495542262 0 0.00615780059818089 -0.023184004337124899 0 0.0058161210979226843 -0.023563123495542262 0 0.005928103878460992 -0.023248676007241717 0 0.0056044893636799714 -0.023512893507418701 0 0.0058161210979226843 -0.023563123495542262 0 0.0056044893636799714 -0.023512893507418701 0 0.0056411436323767945 -0.023778848258975537 0 0.0059244653149923016 -0.026818365214577072 0 0.0059581489698594062 -0.026786345658850519 0 0.0059069440328965005 -0.026775386217656759 0 0.0056044893636799714 -0.023512893507418701 0 0.0056411436323767945 -0.023778848258975537 0 0.0053475979851878627 -0.023775332056978109 0 0.0058310320984779236 -0.025426670518980381 0 0.0056053893568697938 -0.025254566524672343 0 0.0056044893636799714 -0.023512893507418701 0 0.0053475979851878627 -0.023775332056978109 0 0.0053322967379574038 -0.023682765681163936 0 0.0054859013127439614 -0.025319104560284893 0 0.0056053893568697938 -0.025254566524672343 0 0.0051429509981926773 -0.023930392920315589 0 0.0053475979851878627 -0.023775332056978109 0 0.0053322967379574038 -0.023682765681163936 0 0.0058148564559069452 -0.026842036088951426 0 0.0058659391568407528 -0.026852642848819944 0 0.0059069440328965005 -0.026775386217656759 0 0.0058659391568407528 -0.026852642848819944 0 0.0059244653149923016 -0.026818365214577072 0 0.0059069440328965005 -0.026775386217656759 0 0.0065907947549021309 -0.021229227988871651 0 0.0066797950933169216 -0.021177330470396355 0 0.0067948752241299894 -0.021079952530077169 0 0.0066797950933169216 -0.021177330470396355 0 0.006592398105837248 -0.021288804822826232 0 0.0067015899985932072 -0.021231883151025258 0 0.0065907947549021309 -0.021229227988871651 0 0.0066797950933169216 -0.021177330470396355 0 0.006592398105837248 -0.021288804822826232 0 0.0065907947549021309 -0.021229227988871651 0 0.006592398105837248 -0.021288804822826232 0 0.0064378274817028878 -0.021373412146859134 0 0.0065907947549021309 -0.021229227988871651 0 0.0064422917818190506 -0.021321542203944485 0 0.0064009833087753142 -0.021209231903723202 0 0.0065907947549021309 -0.021229227988871651 0 0.0064422917818190506 -0.021321542203944485 0 0.0064378274817028878 -0.021373412146859134 0 0.0064422917818190506 -0.021321542203944485 0 0.0063499687819371948 -0.021315890721327693 0 0.0064009833087753142 -0.021209231903723202 0 0.0065907947549021309 -0.021229227988871651 0 0.0064009833087753142 -0.021209231903723202 0 0.0065327536487514533 -0.021066835819042968 0 0.0064009833087753142 -0.021209231903723202 0 0.0065327536487514533 -0.021066835819042968 0 0.0062496152366454307 -0.020867926246185241 0 0.0065907947549021309 -0.021229227988871651 0 0.0065327536487514533 -0.021066835819042968 0 0.0067948752241299894 -0.021079952530077169 0 0.0065327536487514533 -0.021066835819042968 0 0.0065608541219158304 -0.020769413717053504 0 0.0062496152366454307 -0.020867926246185241 0 0.0069941367561897417 -0.020604138132050545 0 0.0065608541219158304 -0.020769413717053504 0 0.0067948752241299894 -0.021079952530077169 0 0.0065327536487514533 -0.021066835819042968 0 0.0065608541219158304 -0.020769413717053504 0 0.0067948752241299894 -0.021079952530077169 0 0.0065852819644538364 -0.021496092360340245 0 0.0067948752241299894 -0.021079952530077169 0 0.0066870173306478597 -0.021195059277395185 0 0.0071336456043486797 -0.021055023858502969 0 0.0068328212853461167 -0.021083870454725873 0 0.0066797950933169216 -0.021177330470396355 0 0.0067948752241299894 -0.021079952530077169 0 0.0066870173306478597 -0.021195059277395185 0 0.0065852819644538364 -0.021496092360340245 0 0.0066870173306478597 -0.021195059277395185 0 0.0065393140867000665 -0.021339304005884432 0 0.0066870173306478597 -0.021195059277395185 0 0.0065393140867000665 -0.021339304005884432 0 0.006524739867540332 -0.021195731764341814 0 0.0064794914960141121 -0.021437817785156101 0 0.0065393140867000665 -0.021339304005884432 0 0.0064348367581940381 -0.021358676803895256 0 0.0065393140867000665 -0.021339304005884432 0 0.006524739867540332 -0.021195731764341814 0 0.0064348367581940381 -0.021358676803895256 0 0.0066931716064925094 -0.021202987047792492 0 0.0066175968377090244 -0.021204757332639639 0 0.0066797950933169216 -0.021177330470396355 0 0.0066870173306478597 -0.021195059277395185 0 0.0067522410920164422 -0.021159744932251791 0 0.006143246274816651 -0.021731405457955068 0 0.0062605239591933667 -0.022129908051426582 0 0.0062373628848746612 -0.021376133783031544 0 0.0063830597926887601 -0.021261134522444113 0 0.0063320021408597013 -0.021113697985757181 0 0.0062373628848746612 -0.021376133783031544 0 0.0064348367581940381 -0.021358676803895256 0 0.0063830597926887601 -0.021261134522444113 0 0.006524739867540332 -0.021195731764341814 0 0.0064348367581940381 -0.021358676803895256 0 0.0063830597926887601 -0.021261134522444113 0 0.006524739867540332 -0.021195731764341814 0 0.0063830597926887601 -0.021261134522444113 0 0.0063320021408597013 -0.021113697985757181 0 0.0061044718698800605 -0.024261774073315756 0 0.0062605239591933667 -0.022129908051426582 0 0.0067522410920164422 -0.021159744932251791 0 0.0068998734459014902 -0.021208186440368409 0 0.0067804087288911392 -0.021262504742589002 0 0.0066175968377090244 -0.021204757332639639 0 0.0062605239591933667 -0.022129908051426582 0 0.0068998734459014902 -0.021208186440368409 0 0.0068863907249567119 -0.021260209042252922 0 0.0067804087288911392 -0.021262504742589002 0 0.0061861775670480927 -0.023241171753681726 0 0.0063322490629190587 -0.023307368305871625 0 0.0063755758539118836 -0.023201352837051194 0 0.0060533074708638487 -0.023967454599676835 0 0.006303514985198099 -0.023940188594720725 0 0.0061717351053127301 -0.023796406700313022 0 0.0061044718698800605 -0.024261774073315756 0 0.0063851847627464159 -0.022785369674768949 0 0.0062605239591933667 -0.022129908051426582 0 0.0063851847627464159 -0.022785369674768949 0 0.0066797950933169216 -0.021177330470396355 0 0.0067522410920164422 -0.021159744932251791 0 0.0067015899985932072 -0.021231883151025258 0 0.0067522410920164422 -0.021159744932251791 0 0.0067804087288911392 -0.021262504742589002 0 0.0067015899985932072 -0.021231883151025258 0 0.006592398105837248 -0.021288804822826232 0 0.0067015899985932072 -0.021231883151025258 0 0.006683014102808439 -0.021327413236481484 0 0.0067804087288911392 -0.021262504742589002 0 0.0067015899985932072 -0.021231883151025258 0 0.006683014102808439 -0.021327413236481484 0 0.006683014102808439 -0.021327413236481484 0 0.0068891318317708169 -0.021468881561792465 0 0.0065134225139011365 -0.021431794231465989 0 0.0067804087288911392 -0.021262504742589002 0 0.006683014102808439 -0.021327413236481484 0 0.0068891318317708169 -0.021468881561792465 0 0.0063851847627464159 -0.022785369674768949 0 0.0066896860417442359 -0.022454623899105561 0 0.006303514985198099 -0.023940188594720725 0 0.0065016726248833916 -0.023507278072734065 0 0.0061717351053127301 -0.023796406700313022 0 0.0060989156263196271 -0.023632309662445578 0 0.0065016726248833916 -0.023507278072734065 0 0.0061717351053127301 -0.023796406700313022 0 0.0068863907249567119 -0.021260209042252922 0 0.0067804087288911392 -0.021262504742589002 0 0.0068891318317708169 -0.021468881561792465 0 0.0060989156263196271 -0.023632309662445578 0 0.0065016726248833916 -0.023507278072734065 0 0.00615780059818089 -0.023184004337124899 0 0.0065016726248833916 -0.023507278072734065 0 0.00615780059818089 -0.023184004337124899 0 0.0066263603215878583 -0.022356525143519559 0 0.0068891318317708169 -0.021468881561792465 0 0.0063617259154309996 -0.021797126449945702 0 0.0065134225139011365 -0.021431794231465989 0 0.0068891318317708169 -0.021468881561792465 0 0.0063617259154309996 -0.021797126449945702 0 0.0066263603215878583 -0.022356525143519559 0 0.0066896860417442359 -0.022454623899105561 0 0.0066325444321226612 -0.022408076112237968 0 0.0063617259154309996 -0.021797126449945702 0 0.0062860208103574277 -0.021485484193743246 0 0.0065134225139011365 -0.021431794231465989 0 0.0063617259154309996 -0.021797126449945702 0 0.0061562497003194898 -0.021452035138912043 0 0.0060292093529170044 -0.021633286258541093 0 0.0063617259154309996 -0.021797126449945702 0 0.0062860208103574277 -0.021485484193743246 0 0.0061562497003194898 -0.021452035138912043 0 0.0062860208103574277 -0.021485484193743246 0 0.0065134225139011365 -0.021431794231465989 0 0.0064378274817028878 -0.021373412146859134 0 0.006592398105837248 -0.021288804822826232 0 0.006683014102808439 -0.021327413236481484 0 0.0065134225139011365 -0.021431794231465989 0 0.006592398105837248 -0.021288804822826232 0 0.0065134225139011365 -0.021431794231465989 0 0.0064378274817028878 -0.021373412146859134 0 0.0064422917818190506 -0.021321542203944485 0 0.0063499687819371948 -0.021315890721327693 0 0.0063754526807516931 -0.021406408814778982 0 0.0064422917818190506 -0.021321542203944485 0 0.0064378274817028878 -0.021373412146859134 0 0.0063754526807516931 -0.021406408814778982 0 0.0062860208103574277 -0.021485484193743246 0 0.0064378274817028878 -0.021373412146859134 0 0.0063754526807516931 -0.021406408814778982 0 0.006299474159660914 -0.021465109025139362 0 0.0062068015028101933 -0.02138229269887857 0 0.0061562497003194898 -0.021452035138912043 0 0.0053509030793226168 -0.020565257208682436 0 0.0056468357679143096 -0.021296008690014891 0 0.0060996700278672751 -0.021337751849567165 0 0.005610035488118636 -0.021014543771678905 0 0.0060953946868139413 -0.021301593181125452 0 0.0061438992860740563 -0.021435483933381631 0 0.0060515883200471339 -0.021445307697317562 0 0.0061438992860740563 -0.021435483933381631 0 0.0061562497003194898 -0.021452035138912043 0 0.0060515883200471339 -0.021445307697317562 0 0.0062860208103574277 -0.021485484193743246 0 0.0061438992860740563 -0.021435483933381631 0 0.0061562497003194898 -0.021452035138912043 0 0.0062860208103574277 -0.021485484193743246 0 0.0060953946868139413 -0.021301593181125452 0 0.0061438992860740563 -0.021435483933381631 0 0.0053509030793226168 -0.020565257208682436 0 0.0052152897998023742 -0.021056524186068459 0 0.0056468357679143096 -0.021296008690014891 0 0.005610035488118636 -0.021014543771678905 0 0.0056816859878013153 -0.020588543235980042 0 0.0053509030793226168 -0.020565257208682436 0 0.0048353201234866867 -0.02070043988547467 0 0.0052152897998023742 -0.021056524186068459 0 0.0053509030793226168 -0.020565257208682436 0 0.0048353201234866867 -0.02070043988547467 0 0.0045639039872514492 -0.020172012530927454 0 0.0048353201234866867 -0.02070043988547467 0 0.0043093669584854336 -0.020612436219582676 0 0.0048310056631386744 -0.021054348750901324 0 0.0048353201234866867 -0.02070043988547467 0 0.0043093669584854336 -0.020612436219582676 0 0.0045639039872514492 -0.020172012530927454 0 0.0043093669584854336 -0.020612436219582676 0 0.0040997528738760886 -0.021074742441400944 0 0.0046767978176941172 -0.020926511498502484 0 0.0044446599673404856 -0.020822367518902315 0 0.0056816859878013153 -0.020588543235980042 0 0.0072535482715080637 -0.019899623021745527 0 0.0071825758722906669 -0.019814617952614223 0 0.0070787924045236771 -0.019850489764300403 0 0.0056816859878013153 -0.020588543235980042 0 0.0060781279783662257 -0.020672457082020496 0 0.0072535482715080637 -0.019899623021745527 0 0.0071825758722906669 -0.019814617952614223 0 0.0072901518585836477 -0.019777609915768997 0 0.0056816859878013153 -0.020588543235980042 0 0.0065025455531601706 -0.020663163947955355 0 0.0058531595332126443 -0.021371921433729381 0 0.0059756318645644629 -0.021306099623444208 0 0.0059406968136090582 -0.021170500605590156 0 0.0060515883200471339 -0.021445307697317562 0 0.0058531595332126443 -0.021371921433729381 0 0.0059756318645644629 -0.021306099623444208 0 0.0063499687819371948 -0.021315890721327693 0 0.0063754526807516931 -0.021406408814778982 0 0.0061636968706263269 -0.021315353650315276 0 0.0062068015028101933 -0.02138229269887857 0 0.0065025455531601706 -0.020663163947955355 0 0.0060953946868139413 -0.021301593181125452 0 0.0059756318645644629 -0.021306099623444208 0 0.0059406968136090582 -0.021170500605590156 0 0.0060953946868139413 -0.021301593181125452 0 0.0060515883200471339 -0.021445307697317562 0 0.0059756318645644629 -0.021306099623444208 0 0.0061634278659534157 -0.020601490368646887 0 0.0053569357090270846 -0.020692838017852936 0 0.0063132215659436998 -0.020395726562718288 0 0.0053569357090270846 -0.020692838017852936 0 0.0063132215659436998 -0.020395726562718288 0 0.004866899799069885 -0.02033727962026546 0 0.0064944047428751707 -0.020413802601785446 0 0.0050422960185609218 -0.02033279989456338 0 0.0061634278659534157 -0.020601490368646887 0 0.0056563666955460794 -0.020890028355882148 0 0.0056913774259480547 -0.021256609535721647 0 0.0061634278659534157 -0.020601490368646887 0 0.0053569357090270846 -0.020692838017852936 0 0.0056563666955460794 -0.020890028355882148 0 0.0053569357090270846 -0.020692838017852936 0 0.0056563666955460794 -0.020890028355882148 0 0.005284746224375146 -0.021077986072732393 0 0.0053569357090270846 -0.020692838017852936 0 0.0046767978176941172 -0.020926511498502484 0 0.005284746224375146 -0.021077986072732393 0 0.0053569357090270846 -0.020692838017852936 0 0.0045758273011709694 -0.020622470401831558 0 0.004866899799069885 -0.02033727962026546 0 0.0043093669584854336 -0.020612436219582676 0 0.0045758273011709694 -0.020622470401831558 0 0.0046767978176941172 -0.020926511498502484 0 0.0053569357090270846 -0.020692838017852936 0 0.0045758273011709694 -0.020622470401831558 0 0.0046767978176941172 -0.020926511498502484 0 0.0040997528738760886 -0.021074742441400944 0 0.0046767978176941172 -0.020926511498502484 0 0.0049841512056598425 -0.021400271048669657 0 0.0071825758722906669 -0.019814617952614223 0 0.0070787924045236771 -0.019850489764300403 0 0.0071094002704769222 -0.019744064136202919 0 0.0046767978176941172 -0.020926511498502484 0 0.0049841512056598425 -0.021400271048669657 0 0.005284746224375146 -0.021077986072732393 0 0.0061634278659534157 -0.020601490368646887 0 0.0056913774259480547 -0.021256609535721647 0 0.0062737724594907826 -0.021871467417039835 0 0.0060781279783662257 -0.020672457082020496 0 0.0064032965853424431 -0.020289192326477055 0 0.0070787924045236771 -0.019850489764300403 0 0.0070143481885682193 -0.019652761332037836 0 0.0068060413478900905 -0.019767114327036726 0 0.0049841512056598425 -0.021400271048669657 0 0.0056913774259480547 -0.021256609535721647 0 0.0062737724594907826 -0.021871467417039835 0 0.0062457180274302238 -0.020774289774218073 0 0.0064032965853424431 -0.020289192326477055 0 0.0049841512056598425 -0.021400271048669657 0 0.005284746224375146 -0.021077986072732393 0 0.0056913774259480547 -0.021256609535721647 0 0.0056563666955460794 -0.020890028355882148 0 0.005284746224375146 -0.021077986072732393 0 0.0056913774259480547 -0.021256609535721647 0 0.0069268062721086349 -0.019510000874954702 0 0.0067726258123391022 -0.019394927828860577 0 0.0068060413478900905 -0.019767114327036726 0 0.0070143481885682193 -0.019652761332037836 0 0.0069268062721086349 -0.019510000874954702 0 0.0068060413478900905 -0.019767114327036726 0 0.0070787924045236771 -0.019850489764300403 0 0.0070143481885682193 -0.019652761332037836 0 0.0071094002704769222 -0.019744064136202919 0 0.0070143481885682193 -0.019652761332037836 0 0.0071569504194980375 -0.019659722907729903 0 0.0071217988943744915 -0.019467499107997444 0 0.0070143481885682193 -0.019652761332037836 0 0.0071569504194980375 -0.019659722907729903 0 0.0071094002704769222 -0.019744064136202919 0 0.0071825758722906669 -0.019814617952614223 0 0.0071569504194980375 -0.019659722907729903 0 0.0071094002704769222 -0.019744064136202919 0 0.0072270280715088535 -0.019315077651703972 0 0.0073900383907385117 -0.019198414868307961 0 0.0072124992552706334 -0.019131354143745661 0 0.0070143481885682193 -0.019652761332037836 0 0.0071217988943744915 -0.019467499107997444 0 0.0069268062721086349 -0.019510000874954702 0 0.0071217988943744915 -0.019467499107997444 0 0.0069268062721086349 -0.019510000874954702 0 0.0069142556219587937 -0.019241375456809786 0 0.007170692904646273 -0.019363260855948316 0 0.0069273478689606469 -0.01924606240832628 0 0.0069268062721086349 -0.019510000874954702 0 0.0069142556219587937 -0.019241375456809786 0 0.0067726258123391022 -0.019394927828860577 0 0.0063499687819371948 -0.021315890721327693 0 0.0064009833087753142 -0.021209231903723202 0 0.0061636968706263269 -0.021315353650315276 0 0.0064009833087753142 -0.021209231903723202 0 0.0061636968706263269 -0.021315353650315276 0 0.0062496152366454307 -0.020867926246185241 0 0.0068178449083617521 -0.020202231699295723 0 0.0067823902932929838 -0.020173987261697401 0 0.0068683724968576325 -0.020068915987378526 0 0.0071825758722906669 -0.019814617952614223 0 0.0072901518585836477 -0.019777609915768997 0 0.0072480986856041062 -0.019745551288605757 0 0.007170692904646273 -0.019363260855948316 0 0.0072341211896996939 -0.019777185444287332 0 0.0071569504194980375 -0.019659722907729903 0 0.0071217988943744915 -0.019467499107997444 0 0.0073353902988863269 -0.019651922428274949 0 0.0065025455531601706 -0.020663163947955355 0 0.0072341211896996939 -0.019777185444287332 0 0.0072177548259369948 -0.01977784153048193 0 0.0072341211896996939 -0.019777185444287332 0 0.0071825758722906669 -0.019814617952614223 0 0.0071569504194980375 -0.019659722907729903 0 0.0073353902988863269 -0.019651922428274949 0 0.0072270280715088535 -0.019315077651703972 0 0.0074100070243555121 -0.019419714234405347 0 0.0073900383907385117 -0.019198414868307961 0 0.0072341211896996939 -0.019777185444287332 0 0.0068679815931128509 -0.020065419834934282 0 0.0074100070243555121 -0.019419714234405347 0 0.0073900383907385117 -0.019198414868307961 0 0.0075510175408873342 -0.019191882120343909 0 0.0065025455531601706 -0.020663163947955355 0 0.0068679815931128509 -0.020065419834934282 0 0.007516653092916741 -0.018957954899772218 0 0.0075510175408873342 -0.019191882120343909 0 0.0074857276081438193 -0.019038583190255753 0 0.0073900383907385117 -0.019198414868307961 0 0.0075510175408873342 -0.019191882120343909 0 0.0074857276081438193 -0.019038583190255753 0 0.007516653092916741 -0.018957954899772218 0 0.0074857276081438193 -0.019038583190255753 0 0.0074967790937789285 -0.018961457087832749 0 0.0074857276081438193 -0.019038583190255753 0 0.0074967790937789285 -0.018961457087832749 0 0.0074635457350665617 -0.018912237630087526 0 0.0074967790937789285 -0.018961457087832749 0 0.0074635457350665617 -0.018912237630087526 0 0.007475670845847552 -0.018909020379151192 0 0.0074857276081438193 -0.019038583190255753 0 0.0073868351914967764 -0.018997519180675156 0 0.0074635457350665617 -0.018912237630087526 0 0.0073868351914967764 -0.018997519180675156 0 0.0074635457350665617 -0.018912237630087526 0 0.0074327876312564262 -0.018757021071705102 0 0.0073900383907385117 -0.019198414868307961 0 0.0073868351914967764 -0.018997519180675156 0 0.0072124992552706334 -0.019131354143745661 0 0.0073900383907385117 -0.019198414868307961 0 0.0074857276081438193 -0.019038583190255753 0 0.0073868351914967764 -0.018997519180675156 0 0.0072270280715088535 -0.019315077651703972 0 0.0072124992552706334 -0.019131354143745661 0 0.0069142556219587937 -0.019241375456809786 0 0.0072124992552706334 -0.019131354143745661 0 0.0069142556219587937 -0.019241375456809786 0 0.0071688603858476585 -0.018894162378585707 0 0.0071688603858476585 -0.018894162378585707 0 0.006924004463524978 -0.01858317342402864 0 0.0066502729121240287 -0.018967460043116065 0 0.0069142556219587937 -0.019241375456809786 0 0.0071688603858476585 -0.018894162378585707 0 0.0066502729121240287 -0.018967460043116065 0 0.0073868351914967764 -0.018997519180675156 0 0.0072124992552706334 -0.019131354143745661 0 0.0071688603858476585 -0.018894162378585707 0 0.0073868351914967764 -0.018997519180675156 0 0.0071688603858476585 -0.018894162378585707 0 0.0074327876312564262 -0.018757021071705102 0 0.0071688603858476585 -0.018894162378585707 0 0.007362831156396527 -0.018402958586373582 0 0.0074327876312564262 -0.018757021071705102 0 0.0071688603858476585 -0.018894162378585707 0 0.006924004463524978 -0.01858317342402864 0 0.007362831156396527 -0.018402958586373582 0 0.006924004463524978 -0.01858317342402864 0 0.007362831156396527 -0.018402958586373582 0 0.0063598829689468462 -0.017946336789340975 0 0.0071576273822034353 -0.017410807484665784 0 0.007362831156396527 -0.018402958586373582 0 0.0063598829689468462 -0.017946336789340975 0 0.0079571997921944835 -0.017216546887060057 0 0.0071576273822034353 -0.017410807484665784 0 0.007362831156396527 -0.018402958586373582 0 0.007362831156396527 -0.018402958586373582 0 0.0074191424556653007 -0.018675362284305188 0 0.0074327876312564262 -0.018757021071705102 0 0.0074519570122160783 -0.018833123708773842 0 0.007362831156396527 -0.018402958586373582 0 0.0074191424556653007 -0.018675362284305188 0 0.0075285364345080187 -0.019314503148764331 0 0.00754018832056263 -0.017907710150059993 0 0.0074191424556653007 -0.018675362284305188 0 0.0074586504290159858 -0.018828223664049074 0 0.0074327876312564262 -0.018757021071705102 0 0.0074519570122160783 -0.018833123708773842 0 0.0074191424556653007 -0.018675362284305188 0 0.0074586504290159858 -0.018828223664049074 0 0.0074960254305389291 -0.018911489132510683 0 0.0074586504290159858 -0.018828223664049074 0 0.0074698399623812179 -0.018987896605407017 0 0.0074586504290159858 -0.018828223664049074 0 0.0074698399623812179 -0.018987896605407017 0 0.007475670845847552 -0.018909020379151192 0 0.0074960254305389291 -0.018911489132510683 0 0.007523428771268271 -0.018998261924382066 0 0.0074698399623812179 -0.018987896605407017 0 0.0074728826255119982 -0.018990766887559875 0 0.0074698399623812179 -0.018987896605407017 0 0.007475670845847552 -0.018909020379151192 0 0.0074728826255119982 -0.018990766887559875 0 0.0074967790937789285 -0.018961457087832749 0 0.007475670845847552 -0.018909020379151192 0 0.0074635457350665617 -0.018912237630087526 0 0.007475670845847552 -0.018909020379151192 0 0.0074327876312564262 -0.018757021071705102 0 0.0074586504290159858 -0.018828223664049074 0 0.007475670845847552 -0.018909020379151192 0 0.0074327876312564262 -0.018757021071705102 0 0.0055278211202175612 -0.017720535392461153 0 0.0055044722140932603 -0.017858951113219845 0 0.0059004441164280759 -0.017931987908369782 0 0.0055278211202175612 -0.017720535392461153 0 0.0056743548612632408 -0.017594526601620246 0 0.0059004441164280759 -0.017931987908369782 0 0.0055044722140932603 -0.017858951113219845 0 0.0059004441164280759 -0.017931987908369782 0 0.0058851212890889473 -0.018202529584147149 0 0.0055044722140932603 -0.017858951113219845 0 0.0052856510904415836 -0.017807455168869581 0 0.0053275208534023137 -0.017733674431596475 0 0.0052408592379818214 -0.017778980550936668 0 0.0052856510904415836 -0.017807455168869581 0 0.0053275208534023137 -0.017733674431596475 0 0.0055278211202175612 -0.017720535392461153 0 0.0055044722140932603 -0.017858951113219845 0 0.0053275208534023137 -0.017733674431596475 0 0.0053275208534023137 -0.017733674431596475 0 0.0053166903598170761 -0.017582305449993355 0 0.0054491285649857233 -0.017553239524932367 0 0.0055278211202175612 -0.017720535392461153 0 0.0053275208534023137 -0.017733674431596475 0 0.0054491285649857233 -0.017553239524932367 0 0.0053275208534023137 -0.017733674431596475 0 0.0052841351556158133 -0.017691157664286632 0 0.0053166903598170761 -0.017582305449993355 0 0.00526562177749641 -0.017761552568560351 0 0.0053275208534023137 -0.017733674431596475 0 0.0052841351556158133 -0.017691157664286632 0 0.0052474058852637166 -0.017599369998608599 0 0.0052841351556158133 -0.017691157664286632 0 0.0053166903598170761 -0.017582305449993355 0 0.0052462526760107776 -0.017561177570046608 0 0.0053512081746225192 -0.017271170328083361 0 0.0053166903598170761 -0.017582305449993355 0 0.0052474058852637166 -0.017599369998608599 0 0.0052462526760107776 -0.017561177570046608 0 0.0053166903598170761 -0.017582305449993355 0 0.0053512081746225192 -0.017271170328083361 0 0.0053166903598170761 -0.017582305449993355 0 0.0054491285649857233 -0.017553239524932367 0 0.005564286922874976 -0.017287950934158355 0 0.0054491285649857233 -0.017553239524932367 0 0.0056743548612632408 -0.017594526601620246 0 0.0055278211202175612 -0.017720535392461153 0 0.0054491285649857233 -0.017553239524932367 0 0.0056743548612632408 -0.017594526601620246 0 0.006109074403251603 -0.017379877678756317 0 0.0057991192248260312 -0.017331009191976623 0 0.005961251691534465 -0.017702780666827147 0 0.0056743548612632408 -0.017594526601620246 0 0.005961251691534465 -0.017702780666827147 0 0.0059004441164280759 -0.017931987908369782 0 0.005961251691534465 -0.017702780666827147 0 0.0063598829689468462 -0.017946336789340975 0 0.0059004441164280759 -0.017931987908369782 0 0.0057991192248260312 -0.017331009191976623 0 0.0056743548612632408 -0.017594526601620246 0 0.005961251691534465 -0.017702780666827147 0 0.006109074403251603 -0.017379877678756317 0 0.005961251691534465 -0.017702780666827147 0 0.0063598829689468462 -0.017946336789340975 0 0.0063738214494779314 -0.017956287569855445 0 0.0064939449831731616 -0.01859262996517554 0 0.006924004463524978 -0.01858317342402864 0 0.0063598829689468462 -0.017946336789340975 0 0.0066502729121240287 -0.018967460043116065 0 0.0063598829689468462 -0.017946336789340975 0 0.0059004441164280759 -0.017931987908369782 0 0.0063444128101777849 -0.018195453668337993 0 0.0059004441164280759 -0.017931987908369782 0 0.0058851212890889473 -0.018202529584147149 0 0.0063444128101777849 -0.018195453668337993 0 0.0058851212890889473 -0.018202529584147149 0 0.0063444128101777849 -0.018195453668337993 0 0.0061234536068295832 -0.018544092165739563 0 0.0063444128101777849 -0.018195453668337993 0 0.0061234536068295832 -0.018544092165739563 0 0.0065140533810754651 -0.018855164777487977 0 0.0069142556219587937 -0.019241375456809786 0 0.0066502729121240287 -0.018967460043116065 0 0.0067726258123391022 -0.019394927828860577 0 0.0064939449831731616 -0.01859262996517554 0 0.0066676342201254851 -0.019020128469471716 0 0.0058851212890889473 -0.018202529584147149 0 0.0061234536068295832 -0.018544092165739563 0 0.005832118060531178 -0.018496152703251681 0 0.0060056623405980811 -0.018716228963418118 0 0.0061234536068295832 -0.018544092165739563 0 0.0061995124380282559 -0.018865132024896307 0 0.0060056623405980811 -0.018716228963418118 0 0.005832118060531178 -0.018496152703251681 0 0.00569055141826098 -0.018854989033954158 0 0.0060056623405980811 -0.018716228963418118 0 0.0061234536068295832 -0.018544092165739563 0 0.005832118060531178 -0.018496152703251681 0 0.005832118060531178 -0.018496152703251681 0 0.0055808913179871984 -0.018388783404764433 0 0.00569055141826098 -0.018854989033954158 0 0.0055808913179871984 -0.018388783404764433 0 0.0053337223874698574 -0.01868512348628755 0 0.00569055141826098 -0.018854989033954158 0 0.0058851212890889473 -0.018202529584147149 0 0.005832118060531178 -0.018496152703251681 0 0.0055808913179871984 -0.018388783404764433 0 0.0058851212890889473 -0.018202529584147149 0 0.0055808913179871984 -0.018388783404764433 0 0.0053717359308999698 -0.017997058951837688 0 0.0055044722140932603 -0.017858951113219845 0 0.0058851212890889473 -0.018202529584147149 0 0.0053717359308999698 -0.017997058951837688 0 0.0050827586758804329 -0.01764589776820678 0 0.0052856510904415836 -0.017807455168869581 0 0.0053717359308999698 -0.017997058951837688 0 0.0055044722140932603 -0.017858951113219845 0 0.0052856510904415836 -0.017807455168869581 0 0.0053717359308999698 -0.017997058951837688 0 0.0055808913179871984 -0.018388783404764433 0 0.0053717359308999698 -0.017997058951837688 0 0.0053337223874698574 -0.01868512348628755 0 0.0050827586758804329 -0.01764589776820678 0 0.0049541394345070161 -0.018577493268410676 0 0.0053717359308999698 -0.017997058951837688 0 0.0049541394345070161 -0.018577493268410676 0 0.0053717359308999698 -0.017997058951837688 0 0.0053337223874698574 -0.01868512348628755 0 0.0049541394345070161 -0.018577493268410676 0 0.0053337223874698574 -0.01868512348628755 0 0.0049820519759101282 -0.019312115426729962 0 0.0053337223874698574 -0.01868512348628755 0 0.0053956054516923384 -0.019089070794815435 0 0.0049820519759101282 -0.019312115426729962 0 0.0048126326370277915 -0.017311439507983327 0 0.0044608311089417837 -0.016578592737156242 0 0.0053337223874698574 -0.01868512348628755 0 0.00569055141826098 -0.018854989033954158 0 0.0053956054516923384 -0.019089070794815435 0 0.00569055141826098 -0.018854989033954158 0 0.0055642380427515367 -0.019306078186242592 0 0.0057832341189681608 -0.019196331418074516 0 0.00569055141826098 -0.018854989033954158 0 0.0053956054516923384 -0.019089070794815435 0 0.0055642380427515367 -0.019306078186242592 0 0.0053956054516923384 -0.019089070794815435 0 0.0055642380427515367 -0.019306078186242592 0 0.0052743091802774696 -0.019401784899783846 0 0.0055642380427515367 -0.019306078186242592 0 0.0057286295901172761 -0.01954743939834493 0 0.0057832341189681608 -0.019196331418074516 0 0.0055642380427515367 -0.019306078186242592 0 0.0057286295901172761 -0.01954743939834493 0 0.0054629805175206471 -0.019622889999275635 0 0.0055642380427515367 -0.019306078186242592 0 0.0054629805175206471 -0.019622889999275635 0 0.0052743091802774696 -0.019401784899783846 0 0.0052743091802774696 -0.019401784899783846 0 0.0049820519759101282 -0.019312115426729962 0 0.0051024307070150418 -0.019983076972421528 0 0.0053956054516923384 -0.019089070794815435 0 0.0052743091802774696 -0.019401784899783846 0 0.0049820519759101282 -0.019312115426729962 0 0.0065140533810754651 -0.018855164777487977 0 0.0062058060684883698 -0.019217149341462302 0 0.0063748667533184387 -0.019442823354932321 0 0.0061234536068295832 -0.018544092165739563 0 0.0065140533810754651 -0.018855164777487977 0 0.0061995124380282559 -0.018865132024896307 0 0.0065140533810754651 -0.018855164777487977 0 0.0061995124380282559 -0.018865132024896307 0 0.0062058060684883698 -0.019217149341462302 0 0.0061995124380282559 -0.018865132024896307 0 0.0059921220028440816 -0.019037920235030998 0 0.0062058060684883698 -0.019217149341462302 0 0.0060056623405980811 -0.018716228963418118 0 0.0061995124380282559 -0.018865132024896307 0 0.0059921220028440816 -0.019037920235030998 0 0.0060056623405980811 -0.018716228963418118 0 0.00569055141826098 -0.018854989033954158 0 0.0059921220028440816 -0.019037920235030998 0 0.00569055141826098 -0.018854989033954158 0 0.0059921220028440816 -0.019037920235030998 0 0.0057832341189681608 -0.019196331418074516 0 0.0059921220028440816 -0.019037920235030998 0 0.0057832341189681608 -0.019196331418074516 0 0.005967269911524597 -0.019402000675602025 0 0.0057286295901172761 -0.01954743939834493 0 0.0057832341189681608 -0.019196331418074516 0 0.005967269911524597 -0.019402000675602025 0 0.0057286295901172761 -0.01954743939834493 0 0.005967269911524597 -0.019402000675602025 0 0.0059420776632840245 -0.019821709776892949 0 0.005967269911524597 -0.019402000675602025 0 0.0061612709202365562 -0.019611749822224762 0 0.0059420776632840245 -0.019821709776892949 0 0.005967269911524597 -0.019402000675602025 0 0.0062058060684883698 -0.019217149341462302 0 0.0061612709202365562 -0.019611749822224762 0 0.0059921220028440816 -0.019037920235030998 0 0.005967269911524597 -0.019402000675602025 0 0.0062058060684883698 -0.019217149341462302 0 0.0066676342201254851 -0.019020128469471716 0 0.0064032965853424431 -0.020289192326477055 0 0.0065140533810754651 -0.018855164777487977 0 0.0063748667533184387 -0.019442823354932321 0 0.006584420430390688 -0.019794908107168125 0 0.0062058060684883698 -0.019217149341462302 0 0.0061612709202365562 -0.019611749822224762 0 0.0063748667533184387 -0.019442823354932321 0 0.0061612709202365562 -0.019611749822224762 0 0.006419253011372238 -0.019753211311112396 0 0.0063748667533184387 -0.019442823354932321 0 0.0061612709202365562 -0.019611749822224762 0 0.006419253011372238 -0.019753211311112396 0 0.0061910616387020169 -0.019924025266579132 0 0.006419253011372238 -0.019753211311112396 0 0.0063748667533184387 -0.019442823354932321 0 0.006584420430390688 -0.019794908107168125 0 0.0061634278659534157 -0.020601490368646887 0 0.006329400380463486 -0.020070294318084218 0 0.0065617341942249456 -0.019821106598034363 0 0.0061634278659534157 -0.020601490368646887 0 0.006329400380463486 -0.020070294318084218 0 0.0062342518985656886 -0.020218020196236697 0 0.006419253011372238 -0.019753211311112396 0 0.006329400380463486 -0.020070294318084218 0 0.0061910616387020169 -0.019924025266579132 0 0.006419253011372238 -0.019753211311112396 0 0.006329400380463486 -0.020070294318084218 0 0.0065617341942249456 -0.019821106598034363 0 0.0063768254728262643 -0.020178249398439832 0 0.0064032965853424431 -0.020289192326477055 0 0.0061910616387020169 -0.019924025266579132 0 0.0062342518985656886 -0.020218020196236697 0 0.0060637637369252827 -0.020202200389907908 0 0.006329400380463486 -0.020070294318084218 0 0.0061910616387020169 -0.019924025266579132 0 0.0062342518985656886 -0.020218020196236697 0 0.0062342518985656886 -0.020218020196236697 0 0.0060637637369252827 -0.020202200389907908 0 0.0062275445788676029 -0.020349216668622445 0 0.0059420776632840245 -0.019821709776892949 0 0.0058337576079087331 -0.020268392259532281 0 0.0056401939079166463 -0.019881159611324476 0 0.0060637637369252827 -0.020202200389907908 0 0.0059420776632840245 -0.019821709776892949 0 0.0058337576079087331 -0.020268392259532281 0 0.0061910616387020169 -0.019924025266579132 0 0.0060637637369252827 -0.020202200389907908 0 0.0059420776632840245 -0.019821709776892949 0 0.0061612709202365562 -0.019611749822224762 0 0.0061910616387020169 -0.019924025266579132 0 0.0059420776632840245 -0.019821709776892949 0 0.0057286295901172761 -0.01954743939834493 0 0.0059420776632840245 -0.019821709776892949 0 0.0056401939079166463 -0.019881159611324476 0 0.0079723437723544927 -0.021232594118502486 0 0.0064944047428751707 -0.020413802601785446 0 0.0060637637369252827 -0.020202200389907908 0 0.0058337576079087331 -0.020268392259532281 0 0.0063132215659436998 -0.020395726562718288 0 0.0092178072711098062 -0.021016811984218769 0 0.0070274983651075042 -0.020585177868076596 0 0.0076516521886724484 -0.019343079508831681 0 0.0060637637369252827 -0.020202200389907908 0 0.0063132215659436998 -0.020395726562718288 0 0.0062275445788676029 -0.020349216668622445 0 0.0061634278659534157 -0.020601490368646887 0 0.0062342518985656886 -0.020218020196236697 0 0.0062275445788676029 -0.020349216668622445 0 0.0061634278659534157 -0.020601490368646887 0 0.0063132215659436998 -0.020395726562718288 0 0.0062275445788676029 -0.020349216668622445 0 0.0054629805175206471 -0.019622889999275635 0 0.0052743091802774696 -0.019401784899783846 0 0.0051024307070150418 -0.019983076972421528 0 0.0042795099449264434 -0.01412527220312597 0 0.0040100687161548354 -0.012075521431693751 0 0.0044342898161883488 -0.013020150863547218 0 0.0044608311089417837 -0.016578592737156242 0 0.0066278505632983292 -0.016488780217219782 0 0.0040112891282772295 -0.012724000013064955 0 0.0066278505632983292 -0.016488780217219782 0 0.0051241883824307537 -0.012451907855640499 0 0.0040100687161548354 -0.012075521431693751 0 0.0044342898161883488 -0.013020150863547218 0 0.0058337576079087331 -0.020268392259532281 0 0.0051024307070150418 -0.019983076972421528 0 0.0056401939079166463 -0.019881159611324476 0 0.0054629805175206471 -0.019622889999275635 0 0.0051024307070150418 -0.019983076972421528 0 0.0056401939079166463 -0.019881159611324476 0 0.0057286295901172761 -0.01954743939834493 0 0.0054629805175206471 -0.019622889999275635 0 0.0056401939079166463 -0.019881159611324476 0 0.0092178072711098062 -0.021016811984218769 0 0.011246765130310817 -0.021468870626204464 0 0.010871417444167981 -0.019321478284038622 0 0.0079723437723544927 -0.021232594118502486 0 0.0066278505632983292 -0.016488780217219782 0 0.0052207218754591724 -0.011409199673764015 0 0.0046001568461314533 -0.012258544063771691 0 0.0044841605785272921 -0.010926614123642467 0 0.0066278505632983292 -0.016488780217219782 0 0.0078671610553108264 -0.015230700669626066 0 0.0052207218754591724 -0.011409199673764015 0 0.0044841605785272921 -0.010926614123642467 0 0.005259498870602842 -0.010292682575519657 0 0.0092178072711098062 -0.021016811984218769 0 0.010871417444167981 -0.019321478284038622 0 0.009186372137914631 -0.018880141880417818 0 0.0078671610553108264 -0.015230700669626066 0 0.0074383229615731031 -0.013296947037372329 0 0.010871417444167981 -0.019321478284038622 0 0.009186372137914631 -0.018880141880417818 0 0.010521531946163294 -0.016869209208788424 0 0.0044841605785272921 -0.010926614123642467 0 0.0044164064604087522 -0.0097541475355508358 0 0.005259498870602842 -0.010292682575519657 0 0.0070274983651075042 -0.020585177868076596 0 0.0076516521886724484 -0.019343079508831681 0 0.0061658770390751816 -0.019512577490901455 0 0.0076516521886724484 -0.019343079508831681 0 0.0064132408198368266 -0.018241602731508533 0 0.0061658770390751816 -0.019512577490901455 0 0.0092178072711098062 -0.021016811984218769 0 0.0076516521886724484 -0.019343079508831681 0 0.009186372137914631 -0.018880141880417818 0 0.0076516521886724484 -0.019343079508831681 0 0.009186372137914631 -0.018880141880417818 0 0.0082547881244362884 -0.017391961792043893 0 0.009186372137914631 -0.018880141880417818 0 0.0082547881244362884 -0.017391961792043893 0 0.010521531946163294 -0.016869209208788424 0 0.0076516521886724484 -0.019343079508831681 0 0.0082547881244362884 -0.017391961792043893 0 0.0064132408198368266 -0.018241602731508533 0 0.0082547881244362884 -0.017391961792043893 0 0.0067358773681947988 -0.016531278588662834 0 0.0064132408198368266 -0.018241602731508533 0 0.0082547881244362884 -0.017391961792043893 0 0.0067358773681947988 -0.016531278588662834 0 0.0079305568270468373 -0.015904488515963787 0 0.0082547881244362884 -0.017391961792043893 0 0.0091515600677243032 -0.015805249279452132 0 0.010521531946163294 -0.016869209208788424 0 0.0082547881244362884 -0.017391961792043893 0 0.0079305568270468373 -0.015904488515963787 0 0.0091515600677243032 -0.015805249279452132 0 0.0091515600677243032 -0.015805249279452132 0 0.0085238915924856634 -0.014641316699328298 0 0.0099632128184829454 -0.014082670551211271 0 0.0079305568270468373 -0.015904488515963787 0 0.0091515600677243032 -0.015805249279452132 0 0.0085238915924856634 -0.014641316699328298 0 0.0067358773681947988 -0.016531278588662834 0 0.0079305568270468373 -0.015904488515963787 0 0.0070487663655420182 -0.014494172240562282 0 0.0079305568270468373 -0.015904488515963787 0 0.0085238915924856634 -0.014641316699328298 0 0.0070487663655420182 -0.014494172240562282 0 0.0044164064604087522 -0.0097541475355508358 0 0.005259498870602842 -0.010292682575519657 0 0.0052808670565122513 -0.0093633832022198271 0 0.0044164064604087522 -0.0097541475355508358 0 0.0048817464709586715 -0.0089858021465497318 0 0.0052808670565122513 -0.0093633832022198271 0 0.0074383229615731031 -0.013296947037372329 0 0.0071356201937710344 -0.011398687176391122 0 0.0091515600677243032 -0.015805249279452132 0 0.010521531946163294 -0.016869209208788424 0 0.0099632128184829454 -0.014082670551211271 0 0.0044164064604087522 -0.0097541475355508358 0 0.0048817464709586715 -0.0089858021465497318 0 0.0043485062073124565 -0.0087955023132097257 0 0.0048817464709586715 -0.0089858021465497318 0 0.0049252327220354018 -0.0084422888462143582 0 0.0043485062073124565 -0.0087955023132097257 0 0.0048817464709586715 -0.0089858021465497318 0 0.0049252327220354018 -0.0084422888462143582 0 0.005643148717074619 -0.0085800206459535656 0 0.0085547635260815012 -0.010211488086221531 0 0.0085881850274519174 -0.010542714220689538 0 0.0086172242054666937 -0.010688132932703339 0 0.0085547635260815012 -0.010211488086221531 0 0.0085881850274519174 -0.010542714220689538 0 0.008554450963095702 -0.010311005895187972 0 0.0085881850274519174 -0.010542714220689538 0 0.008554450963095702 -0.010311005895187972 0 0.0085759657007998223 -0.010521713035792244 0 0.0085547635260815012 -0.010211488086221531 0 0.0086172242054666937 -0.010688132932703339 0 0.0087463902375234815 -0.010577454770361193 0 0.0086172242054666937 -0.010688132932703339 0 0.0087320584253694471 -0.011143921933190354 0 0.0085764559048532515 -0.010766610758117606 0 0.0085881850274519174 -0.010542714220689538 0 0.0086172242054666937 -0.010688132932703339 0 0.0085764559048532515 -0.010766610758117606 0 0.0073450078197131912 -0.010750692701014782 0 0.008503746568460771 -0.011512924200601094 0 0.0086172242054666937 -0.010688132932703339 0 0.0087463902375234815 -0.010577454770361193 0 0.0087320584253694471 -0.011143921933190354 0 0.0073450078197131912 -0.010750692701014782 0 0.0071356201937710344 -0.011398687176391122 0 0.0049252327220354018 -0.0084422888462143582 0 0.0042750975914561621 -0.0083172737073596258 0 0.0043485062073124565 -0.0087955023132097257 0 0.0064592040324160868 -0.0091503673612152517 0 0.0073450078197131912 -0.010750692701014782 0 0.0085238915924856634 -0.014641316699328298 0 0.0099632128184829454 -0.014082670551211271 0 0.0082092249081242175 -0.013016243134613012 0 0.0093936466747555035 -0.012400673035848027 0 0.0099632128184829454 -0.014082670551211271 0 0.0082092249081242175 -0.013016243134613012 0 0.0070487663655420182 -0.014494172240562282 0 0.0082092249081242175 -0.013016243134613012 0 0.0067364513369241675 -0.012588427260685257 0 0.0085238915924856634 -0.014641316699328298 0 0.0070487663655420182 -0.014494172240562282 0 0.0082092249081242175 -0.013016243134613012 0 0.0082092249081242175 -0.013016243134613012 0 0.0078236479056444964 -0.011646121036414178 0 0.0067364513369241675 -0.012588427260685257 0 0.0078236479056444964 -0.011646121036414178 0 0.0069713984878542598 -0.011528470437550009 0 0.0067364513369241675 -0.012588427260685257 0 0.0082092249081242175 -0.013016243134613012 0 0.0078236479056444964 -0.011646121036414178 0 0.0087320584253694471 -0.011143921933190354 0 0.0093936466747555035 -0.012400673035848027 0 0.0082092249081242175 -0.013016243134613012 0 0.0087320584253694471 -0.011143921933190354 0 0.0078236479056444964 -0.011646121036414178 0 0.0087320584253694471 -0.011143921933190354 0 0.008266316142898706 -0.010848477982116468 0 0.0078236479056444964 -0.011646121036414178 0 0.008266316142898706 -0.010848477982116468 0 0.007658974030166593 -0.011067151747784066 0 0.008266316142898706 -0.010848477982116468 0 0.007658974030166593 -0.011067151747784066 0 0.0078085067961583769 -0.010599464666208236 0 0.0078236479056444964 -0.011646121036414178 0 0.0069713984878542598 -0.011528470437550009 0 0.007658974030166593 -0.011067151747784066 0 0.007658974030166593 -0.011067151747784066 0 0.0071664406929735774 -0.010893706615449937 0 0.0078085067961583769 -0.010599464666208236 0 0.0069713984878542598 -0.011528470437550009 0 0.007658974030166593 -0.011067151747784066 0 0.0071664406929735774 -0.010893706615449937 0 0.0071664406929735774 -0.010893706615449937 0 0.0073626973322140675 -0.010383279924215335 0 0.0066489582614042845 -0.010367836767754176 0 0.0071664406929735774 -0.010893706615449937 0 0.0073626973322140675 -0.010383279924215335 0 0.0078085067961583769 -0.010599464666208236 0 0.0073626973322140675 -0.010383279924215335 0 0.0078085067961583769 -0.010599464666208236 0 0.0078010851414383924 -0.010099014978387248 0 0.0078085067961583769 -0.010599464666208236 0 0.0083135519693464163 -0.010457487747275262 0 0.0078010851414383924 -0.010099014978387248 0 0.008266316142898706 -0.010848477982116468 0 0.0078085067961583769 -0.010599464666208236 0 0.0083135519693464163 -0.010457487747275262 0 0.0083135519693464163 -0.010457487747275262 0 0.0085131168881214647 -0.010319788963874766 0 0.0085526156303398024 -0.010512398814416872 0 0.0083135519693464163 -0.010457487747275262 0 0.0085131168881214647 -0.010319788963874766 0 0.0082909533084398815 -0.010110205541613897 0 0.0085131168881214647 -0.010319788963874766 0 0.0085903349290602001 -0.010309703432680685 0 0.0085740362079937127 -0.010384952616380472 0 0.0085131168881214647 -0.010319788963874766 0 0.0085903349290602001 -0.010309703432680685 0 0.008578140370251364 -0.010220195485622745 0 0.0085903349290602001 -0.010309703432680685 0 0.0085740362079937127 -0.010384952616380472 0 0.0085694163218714026 -0.010309445183324871 0 0.0085131168881214647 -0.010319788963874766 0 0.0085740362079937127 -0.010384952616380472 0 0.0085526156303398024 -0.010512398814416872 0 0.0085526156303398024 -0.010512398814416872 0 0.0085743690680884273 -0.010403727535770778 0 0.0085759657007998223 -0.010521713035792244 0 0.0085740362079937127 -0.010384952616380472 0 0.0085743690680884273 -0.010403727535770778 0 0.0085694163218714026 -0.010309445183324871 0 0.0085740362079937127 -0.010384952616380472 0 0.0085526156303398024 -0.010512398814416872 0 0.0085743690680884273 -0.010403727535770778 0 0.008554450963095702 -0.010311005895187972 0 0.0085743690680884273 -0.010403727535770778 0 0.0085759657007998223 -0.010521713035792244 0 0.0083135519693464163 -0.010457487747275262 0 0.0085526156303398024 -0.010512398814416872 0 0.0085764559048532515 -0.010766610758117606 0 0.008266316142898706 -0.010848477982116468 0 0.0083135519693464163 -0.010457487747275262 0 0.0085764559048532515 -0.010766610758117606 0 0.0085881850274519174 -0.010542714220689538 0 0.0085759657007998223 -0.010521713035792244 0 0.0085764559048532515 -0.010766610758117606 0 0.0087320584253694471 -0.011143921933190354 0 0.008266316142898706 -0.010848477982116468 0 0.0085764559048532515 -0.010766610758117606 0 0.0085526156303398024 -0.010512398814416872 0 0.0085759657007998223 -0.010521713035792244 0 0.0085764559048532515 -0.010766610758117606 0 0.0055440615660796331 -0.011298258828492384 0 0.0049871580889949019 -0.011219014594114996 0 0.005244185545230878 -0.011998452471852574 0 0.0055440615660796331 -0.011298258828492384 0 0.0060512389058028863 -0.011837936149409445 0 0.005244185545230878 -0.011998452471852574 0 0.0045991782730818304 -0.01180358778904819 0 0.005244185545230878 -0.011998452471852574 0 0.0047931356066832406 -0.012216751148272191 0 0.0045991782730818304 -0.01180358778904819 0 0.0049871580889949019 -0.011219014594114996 0 0.005244185545230878 -0.011998452471852574 0 0.0045991782730818304 -0.01180358778904819 0 0.0049871580889949019 -0.011219014594114996 0 0.0045099055840161738 -0.011256257552723746 0 0.0049871580889949019 -0.011219014594114996 0 0.0054126772101216565 -0.010551566268677185 0 0.0047387321724569331 -0.010464371953505835 0 0.0049871580889949019 -0.011219014594114996 0 0.0045099055840161738 -0.011256257552723746 0 0.0047387321724569331 -0.010464371953505835 0 0.0059867548567013621 -0.010899287883383086 0 0.0059909967857786897 -0.010298694689525312 0 0.0054126772101216565 -0.010551566268677185 0 0.0055440615660796331 -0.011298258828492384 0 0.0059867548567013621 -0.010899287883383086 0 0.0054126772101216565 -0.010551566268677185 0 0.0055440615660796331 -0.011298258828492384 0 0.0049871580889949019 -0.011219014594114996 0 0.0054126772101216565 -0.010551566268677185 0 0.0059867548567013621 -0.010899287883383086 0 0.0066489582614042845 -0.010367836767754176 0 0.0059909967857786897 -0.010298694689525312 0 0.0071664406929735774 -0.010893706615449937 0 0.0064425504715620681 -0.011180872069261752 0 0.0066489582614042845 -0.010367836767754176 0 0.0059867548567013621 -0.010899287883383086 0 0.0064425504715620681 -0.011180872069261752 0 0.0066489582614042845 -0.010367836767754176 0 0.0069713984878542598 -0.011528470437550009 0 0.0071664406929735774 -0.010893706615449937 0 0.0064425504715620681 -0.011180872069261752 0 0.0069713984878542598 -0.011528470437550009 0 0.0064425504715620681 -0.011180872069261752 0 0.0062744546319456699 -0.011855821911320103 0 0.0055440615660796331 -0.011298258828492384 0 0.0059867548567013621 -0.010899287883383086 0 0.0060512389058028863 -0.011837936149409445 0 0.0059640653190954698 -0.011158962523060268 0 0.005933085617408811 -0.011260636691091383 0 0.0059867548567013621 -0.010899287883383086 0 0.0064425504715620681 -0.011180872069261752 0 0.0057766883046849044 -0.011562254464954852 0 0.0064425504715620681 -0.011180872069261752 0 0.0057766883046849044 -0.011562254464954852 0 0.0062744546319456699 -0.011855821911320103 0 0.0057766883046849044 -0.011562254464954852 0 0.0062744546319456699 -0.011855821911320103 0 0.0056643797560382014 -0.012338604522262861 0 0.005933085617408811 -0.011260636691091383 0 0.006175015850402389 -0.014889870730612612 0 0.0062744546319456699 -0.011855821911320103 0 0.0067364513369241675 -0.012588427260685257 0 0.0056643797560382014 -0.012338604522262861 0 0.0069713984878542598 -0.011528470437550009 0 0.0062744546319456699 -0.011855821911320103 0 0.0067364513369241675 -0.012588427260685257 0 0.0070487663655420182 -0.014494172240562282 0 0.0067364513369241675 -0.012588427260685257 0 0.0053729096374599099 -0.01389175665944708 0 0.0067364513369241675 -0.012588427260685257 0 0.0053729096374599099 -0.01389175665944708 0 0.0037298019987183273 -0.012634432622903806 0 0.0060189441917463012 -0.011921907526467705 0 0.006175015850402389 -0.014889870730612612 0 0.0053729096374599099 -0.01389175665944708 0 0.0037298019987183273 -0.012634432622903806 0 0.0036041834839315831 -0.014322109084612478 0 0.006175015850402389 -0.014889870730612612 0 0.0055713065295246176 -0.018281238321957684 0 0.007626976730356734 -0.021200261260129055 0 0.0072660658076573468 -0.021527632812044846 0 0.007598446961932649 -0.021660240597699467 0 0.007626976730356734 -0.021200261260129055 0 0.0072660658076573468 -0.021527632812044846 0 0.0070468433017758384 -0.02123646519131164 0 0.00601005256276178 -0.012719706192645187 0 0.005244185545230878 -0.011998452471852574 0 0.0050085979924532316 -0.012711759423907109 0 0.0060512389058028863 -0.011837936149409445 0 0.00601005256276178 -0.012719706192645187 0 0.005244185545230878 -0.011998452471852574 0 0.006175015850402389 -0.014889870730612612 0 0.0061426777396395606 -0.016977080584710827 0 0.0047931356066832406 -0.012216751148272191 0 0.0050085979924532316 -0.012711759423907109 0 0.0043149344064718504 -0.01235265479505562 0 0.0045991782730818304 -0.01180358778904819 0 0.0047931356066832406 -0.012216751148272191 0 0.0043149344064718504 -0.01235265479505562 0 0.005244185545230878 -0.011998452471852574 0 0.0047931356066832406 -0.012216751148272191 0 0.0050085979924532316 -0.012711759423907109 0 0.0072660658076573468 -0.021527632812044846 0 0.0070468433017758384 -0.02123646519131164 0 0.0068518816563901061 -0.021599879755426717 0 0.0070468433017758384 -0.02123646519131164 0 0.0068518816563901061 -0.021599879755426717 0 0.0064480837776342307 -0.021237235215112265 0 0.0072660658076573468 -0.021527632812044846 0 0.0068518816563901061 -0.021599879755426717 0 0.0070912431207134224 -0.021882347638550945 0 0.0070912431207134224 -0.021882347638550945 0 0.0068125665994412396 -0.022354170526483939 0 0.006759548942017574 -0.021981454488506063 0 0.0068518816563901061 -0.021599879755426717 0 0.0070912431207134224 -0.021882347638550945 0 0.006759548942017574 -0.021981454488506063 0 0.0072660658076573468 -0.021527632812044846 0 0.0070912431207134224 -0.021882347638550945 0 0.007598446961932649 -0.021660240597699467 0 0.0070912431207134224 -0.021882347638550945 0 0.0075554265298219047 -0.022097506054848521 0 0.007598446961932649 -0.021660240597699467 0 0.0039547337707887872 -0.023094673315071142 0 0.005478288609113746 -0.022683060546199747 0 0.0040072532057259021 -0.022114730971943008 0 0.0048062907820062735 -0.019198530029595869 0 0.0038659732040820863 -0.020158266218291504 0 0.0048062907820062735 -0.019198530029595869 0 0.0062808975036676117 -0.02301764698944812 0 0.0070912431207134224 -0.021882347638550945 0 0.0075554265298219047 -0.022097506054848521 0 0.0068125665994412396 -0.022354170526483939 0 0.0067358773681947988 -0.016531278588662834 0 0.0070487663655420182 -0.014494172240562282 0 0.0056040061295156854 -0.01537334593112717 0 0.0070487663655420182 -0.014494172240562282 0 0.0053729096374599099 -0.01389175665944708 0 0.0056040061295156854 -0.01537334593112717 0 0.0034855794102309889 -0.016042455126210324 0 0.0056040061295156854 -0.01537334593112717 0 0.0036041834839315831 -0.014322109084612478 0 0.0048062907820062735 -0.019198530029595869 0 0.0055713065295246176 -0.018281238321957684 0 0.0048062907820062735 -0.019198530029595869 0 0.0052646481302547907 -0.015093659982208974 0 0.0053729096374599099 -0.01389175665944708 0 0.0056040061295156854 -0.01537334593112717 0 0.0036041834839315831 -0.014322109084612478 0 0.0037685219161758569 -0.016086093692462628 0 0.0052374079709732379 -0.017217048591876723 0 0.0037298668030856961 -0.018066946366815446 0 0.0037685219161758569 -0.016086093692462628 0 0.0056040061295156854 -0.01537334593112717 0 0.0052374079709732379 -0.017217048591876723 0 0.0067358773681947988 -0.016531278588662834 0 0.0052374079709732379 -0.017217048591876723 0 0.0064132408198368266 -0.018241602731508533 0 0.0067358773681947988 -0.016531278588662834 0 0.0056040061295156854 -0.01537334593112717 0 0.0052374079709732379 -0.017217048591876723 0 0.0052374079709732379 -0.017217048591876723 0 0.0064132408198368266 -0.018241602731508533 0 0.0050930874103745629 -0.019014559317748481 0 0.0064132408198368266 -0.018241602731508533 0 0.0050930874103745629 -0.019014559317748481 0 0.0061658770390751816 -0.019512577490901455 0 0.0052374079709732379 -0.017217048591876723 0 0.0050930874103745629 -0.019014559317748481 0 0.0037298668030856961 -0.018066946366815446 0 0.0050930874103745629 -0.019014559317748481 0 0.0037298668030856961 -0.018066946366815446 0 0.0040902289716358339 -0.020497450217927142 0 0.0050930874103745629 -0.019014559317748481 0 0.004866899799069885 -0.02033727962026546 0 0.0061658770390751816 -0.019512577490901455 0 0.0050930874103745629 -0.019014559317748481 0 0.004866899799069885 -0.02033727962026546 0 0.0040902289716358339 -0.020497450217927142 0 0.0045758273011709694 -0.020622470401831558 0 0.004866899799069885 -0.02033727962026546 0 0.0040902289716358339 -0.020497450217927142 0 0.0070274983651075042 -0.020585177868076596 0 0.004866899799069885 -0.02033727962026546 0 0.0061658770390751816 -0.019512577490901455 0 0.005478288609113746 -0.022683060546199747 0 0.0051141863919475471 -0.021815255847632022 0 0.0040072532057259021 -0.022114730971943008 0 0.0051141863919475471 -0.021815255847632022 0 0.0055595868166227235 -0.021604475626054484 0 0.0058019870875651016 -0.022120562067711642 0 0.005478288609113746 -0.022683060546199747 0 0.0051141863919475471 -0.021815255847632022 0 0.0058019870875651016 -0.022120562067711642 0 0.0051141863919475471 -0.021815255847632022 0 0.0040072532057259021 -0.022114730971943008 0 0.0045550718414251977 -0.021302188505245786 0 0.0038659732040820863 -0.020158266218291504 0 0.0040257860364462461 -0.020382369970168668 0 0.0040072532057259021 -0.022114730971943008 0 0.0045550718414251977 -0.021302188505245786 0 0.0040902289716358339 -0.020497450217927142 0 0.0045550718414251977 -0.021302188505245786 0 0.0040902289716358339 -0.020497450217927142 0 0.0048310056631386744 -0.021054348750901324 0 0.0043093669584854336 -0.020612436219582676 0 0.0045758273011709694 -0.020622470401831558 0 0.0040902289716358339 -0.020497450217927142 0 0.0043093669584854336 -0.020612436219582676 0 0.0040902289716358339 -0.020497450217927142 0 0.0048310056631386744 -0.021054348750901324 0 0.0048353201234866867 -0.02070043988547467 0 0.0048310056631386744 -0.021054348750901324 0 0.0052152897998023742 -0.021056524186068459 0 0.0051141863919475471 -0.021815255847632022 0 0.0048310056631386744 -0.021054348750901324 0 0.0055595868166227235 -0.021604475626054484 0 0.0051141863919475471 -0.021815255847632022 0 0.0045550718414251977 -0.021302188505245786 0 0.0048310056631386744 -0.021054348750901324 0 0.0052152897998023742 -0.021056524186068459 0 0.0056468357679143096 -0.021296008690014891 0 0.0055595868166227235 -0.021604475626054484 0 0.0048310056631386744 -0.021054348750901324 0 0.0052152897998023742 -0.021056524186068459 0 0.0055595868166227235 -0.021604475626054484 0 0.0056468357679143096 -0.021296008690014891 0 0.0060292093529170044 -0.021633286258541093 0 0.0055595868166227235 -0.021604475626054484 0 0.0055595868166227235 -0.021604475626054484 0 0.0058019870875651016 -0.022120562067711642 0 0.0061869356733195774 -0.022008499987327294 0 0.0060292093529170044 -0.021633286258541093 0 0.0055595868166227235 -0.021604475626054484 0 0.0061869356733195774 -0.022008499987327294 0 0.0061562497003194898 -0.021452035138912043 0 0.0056468357679143096 -0.021296008690014891 0 0.0060292093529170044 -0.021633286258541093 0 0.005478288609113746 -0.022683060546199747 0 0.0058019870875651016 -0.022120562067711642 0 0.0064272153492248322 -0.022442183433195609 0 0.0064272153492248322 -0.022442183433195609 0 0.0061869356733195774 -0.022008499987327294 0 0.0066263603215878583 -0.022356525143519559 0 0.0058019870875651016 -0.022120562067711642 0 0.0064272153492248322 -0.022442183433195609 0 0.0061869356733195774 -0.022008499987327294 0 0.0063617259154309996 -0.021797126449945702 0 0.0061869356733195774 -0.022008499987327294 0 0.0066263603215878583 -0.022356525143519559 0 0.0063617259154309996 -0.021797126449945702 0 0.0060292093529170044 -0.021633286258541093 0 0.0061869356733195774 -0.022008499987327294 0 0.0066263603215878583 -0.022356525143519559 0 0.0062273618254871672 -0.022772018765044734 0 0.0064415215975123586 -0.02251183651607511 0 0.00615780059818089 -0.023184004337124899 0 0.0066263603215878583 -0.022356525143519559 0 0.0062273618254871672 -0.022772018765044734 0 0.0062273618254871672 -0.022772018765044734 0 0.0062696004222944999 -0.022582785006935183 0 0.0060445077741243186 -0.022807338903698692 0 0.0062273618254871672 -0.022772018765044734 0 0.0064415215975123586 -0.02251183651607511 0 0.0062696004222944999 -0.022582785006935183 0 0.0064272153492248322 -0.022442183433195609 0 0.0066263603215878583 -0.022356525143519559 0 0.0064415215975123586 -0.02251183651607511 0 0.0064272153492248322 -0.022442183433195609 0 0.0063681618927556652 -0.022446930465024998 0 0.0064798851206531128 -0.022287771870813822 0 0.0064415215975123586 -0.02251183651607511 0 0.0063681618927556652 -0.022446930465024998 0 0.0062696004222944999 -0.022582785006935183 0 0.0064272153492248322 -0.022442183433195609 0 0.0064415215975123586 -0.02251183651607511 0 0.0063681618927556652 -0.022446930465024998 0 0.0062696004222944999 -0.022582785006935183 0 0.0061832098056077795 -0.02250151654314568 0 0.0060948934765886753 -0.0226351326326482 0 0.0063681618927556652 -0.022446930465024998 0 0.0062696004222944999 -0.022582785006935183 0 0.0061832098056077795 -0.02250151654314568 0 0.0061832098056077795 -0.02250151654314568 0 0.006247880813252807 -0.022358247009838485 0 0.0060558291972597983 -0.0223731266249085 0 0.0063681618927556652 -0.022446930465024998 0 0.0061832098056077795 -0.02250151654314568 0 0.006247880813252807 -0.022358247009838485 0 0.006247880813252807 -0.022358247009838485 0 0.0063729979694831665 -0.022214328364713733 0 0.006208343231159129 -0.022231553299510827 0 0.006247880813252807 -0.022358247009838485 0 0.0060558291972597983 -0.0223731266249085 0 0.006208343231159129 -0.022231553299510827 0 0.0063681618927556652 -0.022446930465024998 0 0.0063712972527713531 -0.022328347398305623 0 0.0064798851206531128 -0.022287771870813822 0 0.0063681618927556652 -0.022446930465024998 0 0.006247880813252807 -0.022358247009838485 0 0.0063712972527713531 -0.022328347398305623 0 0.006247880813252807 -0.022358247009838485 0 0.0063712972527713531 -0.022328347398305623 0 0.0063729979694831665 -0.022214328364713733 0 0.0063712972527713531 -0.022328347398305623 0 0.0064798851206531128 -0.022287771870813822 0 0.0063729979694831665 -0.022214328364713733 0 0.0064798851206531128 -0.022287771870813822 0 0.0066406437432046991 -0.022173965100098912 0 0.0065585440451798602 -0.022240991085096886 0 0.0064798851206531128 -0.022287771870813822 0 0.0066406437432046991 -0.022173965100098912 0 0.0065321649319008543 -0.022128022388084891 0 0.0064798851206531128 -0.022287771870813822 0 0.0065321649319008543 -0.022128022388084891 0 0.0063729979694831665 -0.022214328364713733 0 0.0065174913736071403 -0.022361372414406715 0 0.0065568403096335865 -0.022053499832040514 0 0.0064537809990896228 -0.021722267540568448 0 0.006759548942017574 -0.021981454488506063 0 0.0065585440451798602 -0.022240991085096886 0 0.0068518816563901061 -0.021599879755426717 0 0.0064537809990896228 -0.021722267540568448 0 0.006759548942017574 -0.021981454488506063 0 0.0062808975036676117 -0.02301764698944812 0 0.0063828978045682699 -0.022301897082506291 0 0.0068125665994412396 -0.022354170526483939 0 0.0064272153492248322 -0.022442183433195609 0 0.0065585440451798602 -0.022240991085096886 0 0.0068125665994412396 -0.022354170526483939 0 0.006759548942017574 -0.021981454488506063 0 0.0065585440451798602 -0.022240991085096886 0 0.0064272153492248322 -0.022442183433195609 0 0.0064798851206531128 -0.022287771870813822 0 0.0065585440451798602 -0.022240991085096886 0 0.0052836034970797398 -0.023440778289029872 0 0.0051965622262983326 -0.023778508967790182 0 0.0055365267828851187 -0.023320925560601315 0 0.0051429509981926773 -0.023930392920315589 0 0.0051965622262983326 -0.023778508967790182 0 0.0053322967379574038 -0.023682765681163936 0 0.0051965622262983326 -0.023778508967790182 0 0.0053322967379574038 -0.023682765681163936 0 0.0055365267828851187 -0.023320925560601315 0 0.0056044893636799714 -0.023512893507418701 0 0.0053322967379574038 -0.023682765681163936 0 0.0055365267828851187 -0.023320925560601315 0 0.0055365267828851187 -0.023320925560601315 0 0.0056916643215799961 -0.022957873028967572 0 0.0054878121862663902 -0.023127032513965601 0 0.0052836034970797398 -0.023440778289029872 0 0.0055365267828851187 -0.023320925560601315 0 0.0054878121862663902 -0.023127032513965601 0 0.0055365267828851187 -0.023320925560601315 0 0.0058137986557098261 -0.022996676669324225 0 0.0058275020963249151 -0.023141363813364842 0 0.0055365267828851187 -0.023320925560601315 0 0.0058137986557098261 -0.022996676669324225 0 0.0056916643215799961 -0.022957873028967572 0 0.0056044893636799714 -0.023512893507418701 0 0.0055365267828851187 -0.023320925560601315 0 0.0058275020963249151 -0.023141363813364842 0 0.005928103878460992 -0.023248676007241717 0 0.0056044893636799714 -0.023512893507418701 0 0.0058275020963249151 -0.023141363813364842 0 0.005928103878460992 -0.023248676007241717 0 0.00615780059818089 -0.023184004337124899 0 0.0062273618254871672 -0.022772018765044734 0 0.005928103878460992 -0.023248676007241717 0 0.0062273618254871672 -0.022772018765044734 0 0.0058275020963249151 -0.023141363813364842 0 0.0062273618254871672 -0.022772018765044734 0 0.0058275020963249151 -0.023141363813364842 0 0.0060445077741243186 -0.022807338903698692 0 0.0058137986557098261 -0.022996676669324225 0 0.0058275020963249151 -0.023141363813364842 0 0.0060445077741243186 -0.022807338903698692 0 0.0058137986557098261 -0.022996676669324225 0 0.0060445077741243186 -0.022807338903698692 0 0.0059369589933484148 -0.022766305185597614 0 0.0062696004222944999 -0.022582785006935183 0 0.0060445077741243186 -0.022807338903698692 0 0.0060948934765886753 -0.0226351326326482 0 0.0060445077741243186 -0.022807338903698692 0 0.0060948934765886753 -0.0226351326326482 0 0.0059369589933484148 -0.022766305185597614 0 0.0059369589933484148 -0.022766305185597614 0 0.0059914320910657952 -0.022588967400136026 0 0.0058270900082031223 -0.022719915957625004 0 0.0060948934765886753 -0.0226351326326482 0 0.0059369589933484148 -0.022766305185597614 0 0.0059914320910657952 -0.022588967400136026 0 0.0061832098056077795 -0.02250151654314568 0 0.0060948934765886753 -0.0226351326326482 0 0.0059914320910657952 -0.022588967400136026 0 0.0061832098056077795 -0.02250151654314568 0 0.0059914320910657952 -0.022588967400136026 0 0.0060558291972597983 -0.0223731266249085 0 0.0060558291972597983 -0.0223731266249085 0 0.0058779566651407681 -0.022536284026910988 0 0.0058757605538976082 -0.022401551067499165 0 0.0060558291972597983 -0.0223731266249085 0 0.0058757605538976082 -0.022401551067499165 0 0.0059402821763194875 -0.022292177801455548 0 0.0059914320910657952 -0.022588967400136026 0 0.0060558291972597983 -0.0223731266249085 0 0.0058779566651407681 -0.022536284026910988 0 0.0059914320910657952 -0.022588967400136026 0 0.0058779566651407681 -0.022536284026910988 0 0.0058270900082031223 -0.022719915957625004 0 0.0058779566651407681 -0.022536284026910988 0 0.0057769946038714725 -0.022489659901730921 0 0.0057362418595589791 -0.02264337712401486 0 0.0058779566651407681 -0.022536284026910988 0 0.0057362418595589791 -0.02264337712401486 0 0.0058270900082031223 -0.022719915957625004 0 0.0057769946038714725 -0.022489659901730921 0 0.0056899446753990992 -0.022430721119315263 0 0.0058244173141215562 -0.02235348440367714 0 0.0058779566651407681 -0.022536284026910988 0 0.0057769946038714725 -0.022489659901730921 0 0.0058757605538976082 -0.022401551067499165 0 0.0057769946038714725 -0.022489659901730921 0 0.0058757605538976082 -0.022401551067499165 0 0.0058244173141215562 -0.02235348440367714 0 0.0057769946038714725 -0.022489659901730921 0 0.0056899446753990992 -0.022430721119315263 0 0.0056536383928707775 -0.022574308104166923 0 0.0056899446753990992 -0.022430721119315263 0 0.0056536383928707775 -0.022574308104166923 0 0.0056028991060113097 -0.02252491402905352 0 0.0056536383928707775 -0.022574308104166923 0 0.0057362418595589791 -0.02264337712401486 0 0.0056181931706093665 -0.022725179891429186 0 0.0057769946038714725 -0.022489659901730921 0 0.0056536383928707775 -0.022574308104166923 0 0.0057362418595589791 -0.02264337712401486 0 0.0057362418595589791 -0.02264337712401486 0 0.0056923394419001114 -0.02281021547273784 0 0.0056181931706093665 -0.022725179891429186 0 0.0056923394419001114 -0.02281021547273784 0 0.0058270900082031223 -0.022719915957625004 0 0.0056916643215799961 -0.022957873028967572 0 0.0056923394419001114 -0.02281021547273784 0 0.0056916643215799961 -0.022957873028967572 0 0.0055598623482442577 -0.022904299339131049 0 0.0057362418595589791 -0.02264337712401486 0 0.0056923394419001114 -0.02281021547273784 0 0.0058270900082031223 -0.022719915957625004 0 0.0059369589933484148 -0.022766305185597614 0 0.0058270900082031223 -0.022719915957625004 0 0.0056916643215799961 -0.022957873028967572 0 0.0058137986557098261 -0.022996676669324225 0 0.0059369589933484148 -0.022766305185597614 0 0.0056916643215799961 -0.022957873028967572 0 0.0056916643215799961 -0.022957873028967572 0 0.0054878121862663902 -0.023127032513965601 0 0.0055598623482442577 -0.022904299339131049 0 0.0052836034970797398 -0.023440778289029872 0 0.0054878121862663902 -0.023127032513965601 0 0.0053887161985057682 -0.023008471388837302 0 0.0054878121862663902 -0.023127032513965601 0 0.0053887161985057682 -0.023008471388837302 0 0.0055598623482442577 -0.022904299339131049 0 0.0053887161985057682 -0.023008471388837302 0 0.0055598623482442577 -0.022904299339131049 0 0.0055005249272772842 -0.022781439266018642 0 0.0056923394419001114 -0.02281021547273784 0 0.0055598623482442577 -0.022904299339131049 0 0.0056181931706093665 -0.022725179891429186 0 0.0055598623482442577 -0.022904299339131049 0 0.0056181931706093665 -0.022725179891429186 0 0.0055005249272772842 -0.022781439266018642 0 0.0056181931706093665 -0.022725179891429186 0 0.0055477859654654476 -0.022615977761678296 0 0.0055005249272772842 -0.022781439266018642 0 0.0056536383928707775 -0.022574308104166923 0 0.0056181931706093665 -0.022725179891429186 0 0.0055477859654654476 -0.022615977761678296 0 0.0056899446753990992 -0.022430721119315263 0 0.0056028991060113097 -0.02252491402905352 0 0.0055097712085923692 -0.022484917484560465 0 0.0056536383928707775 -0.022574308104166923 0 0.0056028991060113097 -0.02252491402905352 0 0.0055477859654654476 -0.022615977761678296 0 0.0043378845503344032 -0.023130402909303037 0 0.0040491380846506284 -0.023379872734358632 0 0.0056028991060113097 -0.02252491402905352 0 0.0055477859654654476 -0.022615977761678296 0 0.0055097712085923692 -0.022484917484560465 0 0.0055477859654654476 -0.022615977761678296 0 0.0055123042886537545 -0.022543902695539558 0 0.0053835311672280946 -0.02265915024195268 0 0.0043958549083585822 -0.024661234158135523 0 0.0045071429642787909 -0.02459963460009696 0 0.0046065330917350279 -0.024764738483082773 0 0.0040491380846506284 -0.023379872734358632 0 0.0048958544104487798 -0.023495951567455983 0 0.0053887161985057682 -0.023008471388837302 0 0.0053835311672280946 -0.02265915024195268 0 0.0055005249272772842 -0.022781439266018642 0 0.0055477859654654476 -0.022615977761678296 0 0.0053835311672280946 -0.02265915024195268 0 0.0055005249272772842 -0.022781439266018642 0 0.0045071429642787909 -0.02459963460009696 0 0.0047613332110997145 -0.024631857402716069 0 0.0047404414953664941 -0.024407773305607592 0 0.0053887161985057682 -0.023008471388837302 0 0.0053835311672280946 -0.02265915024195268 0 0.0051373104317911757 -0.023216447802193872 0 0.0045071429642787909 -0.02459963460009696 0 0.0047613332110997145 -0.024631857402716069 0 0.0046065330917350279 -0.024764738483082773 0 0.0048958544104487798 -0.023495951567455983 0 0.0049763600068726153 -0.023827221941264697 0 0.0052836034970797398 -0.023440778289029872 0 0.0053887161985057682 -0.023008471388837302 0 0.0051373104317911757 -0.023216447802193872 0 0.0039896098848467339 -0.027017033773871664 0 0.0033891749362222547 -0.027332963375745489 0 0.0035221930257838267 -0.026857396635465453 0 0.0039896098848467339 -0.027017033773871664 0 0.0037564096209079193 -0.026410650320161495 0 0.0035221930257838267 -0.026857396635465453 0 0.0033295292548615584 -0.024535142079706102 0 0.0042798518430154997 -0.026256075010961361 0 0.0047613332110997145 -0.024631857402716069 0 0.0046065330917350279 -0.024764738483082773 0 0.0049068688571666137 -0.024831216744465583 0 0.0046065330917350279 -0.024764738483082773 0 0.0045166707660540721 -0.025008152902953686 0 0.0049068688571666137 -0.024831216744465583 0 0.0027889089245187585 -0.023671926979710621 0 0.0028949774017161291 -0.022884440065320394 0 0.0033974796707616594 -0.023080604472490392 0 0.0043958549083585822 -0.024661234158135523 0 0.0046065330917350279 -0.024764738483082773 0 0.0045166707660540721 -0.025008152902953686 0 0.0027889089245187585 -0.023671926979710621 0 0.0028949774017161291 -0.022884440065320394 0 0.0023737159705203999 -0.022585745090612102 0 0.0040491380846506284 -0.023379872734358632 0 0.0033295292548615584 -0.024535142079706102 0 0.0040491380846506284 -0.023379872734358632 0 0.0033853209180164223 -0.023136437179025283 0 0.0028949774017161291 -0.022884440065320394 0 0.0023737159705203999 -0.022585745090612102 0 0.0030482604678277489 -0.022253323009581855 0 0.0033295292548615584 -0.024535142079706102 0 0.0030092732532007319 -0.022479008660595174 0 0.0023322611140064054 -0.022598578088086824 0 0.0030482604678277489 -0.022253323009581855 0 0.0029019355038617115 -0.021785743265380093 0 0.0036085908681521175 -0.022179341963125002 0 0.0033974796707616594 -0.023080604472490392 0 0.0040603649752352488 -0.022519839349690207 0 0.0030482604678277489 -0.022253323009581855 0 0.0036085908681521175 -0.022179341963125002 0 0.0033974796707616594 -0.023080604472490392 0 0.0028949774017161291 -0.022884440065320394 0 0.0030482604678277489 -0.022253323009581855 0 0.0033974796707616594 -0.023080604472490392 0 0.0030482604678277489 -0.022253323009581855 0 0.0036085908681521175 -0.022179341963125002 0 0.0029019355038617115 -0.021785743265380093 0 0.0040491380846506284 -0.023379872734358632 0 0.0050588368129522131 -0.022404843518334321 0 0.0031070623052984743 -0.023444594459243698 0 0.0035725279575530692 -0.022989610995190399 0 0.0040531664160731772 -0.022858177024102498 0 0.0056899446753990992 -0.022430721119315263 0 0.0055097712085923692 -0.022484917484560465 0 0.0059140431070990093 -0.022113511988033189 0 0.0056899446753990992 -0.022430721119315263 0 0.0058244173141215562 -0.02235348440367714 0 0.0059140431070990093 -0.022113511988033189 0 0.0035725279575530692 -0.022989610995190399 0 0.0040531664160731772 -0.022858177024102498 0 0.0040603649752352488 -0.022519839349690207 0 0.0033853209180164223 -0.023136437179025283 0 0.0040357880156087125 -0.022552760543487003 0 0.0058244173141215562 -0.02235348440367714 0 0.0059140431070990093 -0.022113511988033189 0 0.0059402821763194875 -0.022292177801455548 0 0.0058757605538976082 -0.022401551067499165 0 0.0058244173141215562 -0.02235348440367714 0 0.0059402821763194875 -0.022292177801455548 0 0.0060558291972597983 -0.0223731266249085 0 0.0059402821763194875 -0.022292177801455548 0 0.0060995249742232223 -0.022143011390733158 0 0.0059140431070990093 -0.022113511988033189 0 0.0059402821763194875 -0.022292177801455548 0 0.0060995249742232223 -0.022143011390733158 0 0.0050588368129522131 -0.022404843518334321 0 0.0057293951788454809 -0.021956013311174364 0 0.0040531664160731772 -0.022858177024102498 0 0.0040603649752352488 -0.022519839349690207 0 0.0053038454357446623 -0.02211356385543398 0 0.0040603649752352488 -0.022519839349690207 0 0.0045317270493797938 -0.021874449216783321 0 0.0053038454357446623 -0.02211356385543398 0 0.0036085908681521175 -0.022179341963125002 0 0.0040603649752352488 -0.022519839349690207 0 0.0040284357486511232 -0.02186386108263081 0 0.0040603649752352488 -0.022519839349690207 0 0.0045317270493797938 -0.021874449216783321 0 0.0040284357486511232 -0.02186386108263081 0 0.0045317270493797938 -0.021874449216783321 0 0.0042662447976555854 -0.021316639092375866 0 0.0048838531648685854 -0.02105765188333094 0 0.0045317270493797938 -0.021874449216783321 0 0.0040284357486511232 -0.02186386108263081 0 0.0042662447976555854 -0.021316639092375866 0 0.0040284357486511232 -0.02186386108263081 0 0.0042662447976555854 -0.021316639092375866 0 0.0036564488103405924 -0.021446840234157768 0 0.0042662447976555854 -0.021316639092375866 0 0.0039998696974826217 -0.020706223110758221 0 0.0048838531648685854 -0.02105765188333094 0 0.0039998696974826217 -0.020706223110758221 0 0.0048838531648685854 -0.02105765188333094 0 0.0046742207875018994 -0.020081559919283856 0 0.0042662447976555854 -0.021316639092375866 0 0.0039998696974826217 -0.020706223110758221 0 0.0036564488103405924 -0.021446840234157768 0 0.0039998696974826217 -0.020706223110758221 0 0.0028972332681370867 -0.020896459729838588 0 0.0032259415629348502 -0.020038677757549517 0 0.0039998696974826217 -0.020706223110758221 0 0.0036564488103405924 -0.021446840234157768 0 0.0028972332681370867 -0.020896459729838588 0 0.0036564488103405924 -0.021446840234157768 0 0.0029019355038617115 -0.021785743265380093 0 0.0028972332681370867 -0.020896459729838588 0 0.0036085908681521175 -0.022179341963125002 0 0.0040284357486511232 -0.02186386108263081 0 0.0036564488103405924 -0.021446840234157768 0 0.0036085908681521175 -0.022179341963125002 0 0.0036564488103405924 -0.021446840234157768 0 0.0029019355038617115 -0.021785743265380093 0 0.0023322611140064054 -0.022598578088086824 0 0.0029019355038617115 -0.021785743265380093 0 0.0018558246477313142 -0.021345298619035249 0 0.0029019355038617115 -0.021785743265380093 0 0.0028972332681370867 -0.020896459729838588 0 0.0018558246477313142 -0.021345298619035249 0 0.0028972332681370867 -0.020896459729838588 0 0.0018558246477313142 -0.021345298619035249 0 0.0022643788502476774 -0.020362856960991042 0 0.0028972332681370867 -0.020896459729838588 0 0.0022643788502476774 -0.020362856960991042 0 0.0032259415629348502 -0.020038677757549517 0 0.0018558246477313142 -0.021345298619035249 0 0.0022643788502476774 -0.020362856960991042 0 0.001383077127136515 -0.020114031848046297 0 0.0028284622280661982 -0.023733228647073341 0 0.0019026080128746528 -0.024013578247695497 0 0.0033295292548615584 -0.024535142079706102 0 0.0028284622280661982 -0.023733228647073341 0 0.0066009265954035728 -0.021835544774121318 0 0.0066568637669580412 -0.021960721826828344 0 0.0065318649031384096 -0.021966006540317235 0 0.0066009265954035728 -0.021835544774121318 0 0.0067225810836176502 -0.02181922072373985 0 0.0066568637669580412 -0.021960721826828344 0 0.0066009265954035728 -0.021835544774121318 0 0.0065318649031384096 -0.021966006540317235 0 0.0064380958576167628 -0.021856833241748912 0 0.0066009265954035728 -0.021835544774121318 0 0.0065120395171870188 -0.021668562746853019 0 0.0064380958576167628 -0.021856833241748912 0 0.0066009265954035728 -0.021835544774121318 0 0.0065120395171870188 -0.021668562746853019 0 0.0066788053692750657 -0.02169016478922162 0 0.0066009265954035728 -0.021835544774121318 0 0.0067225810836176502 -0.02181922072373985 0 0.0066788053692750657 -0.02169016478922162 0 0.0067225810836176502 -0.02181922072373985 0 0.0066788053692750657 -0.02169016478922162 0 0.0068729594178015456 -0.021646742791554045 0 0.0053221313847130886 -0.019022403225279341 0 0.0052582793960440693 -0.01638838084295401 0 0.0061426777396395606 -0.016977080584710827 0 0.0053221313847130886 -0.019022403225279341 0 0.0050085979924532316 -0.012711759423907109 0 0.0043149344064718504 -0.01235265479505562 0 0.0040583963540021381 -0.012728612460953711 0 0.0067225810836176502 -0.02181922072373985 0 0.0067986550078642438 -0.021955053122444699 0 0.0068729594178015456 -0.021646742791554045 0 0.0043149344064718504 -0.01235265479505562 0 0.0040583963540021381 -0.012728612460953711 0 0.0040958577081567377 -0.012103914944474572 0 0.0035024462430837738 -0.012817989172835277 0 0.0052582793960440693 -0.01638838084295401 0 0.0045991782730818304 -0.01180358778904819 0 0.0043149344064718504 -0.01235265479505562 0 0.0040545787009741681 -0.012031864443117478 0 0.0063679341958288189 -0.019912117265769504 0 0.0053221313847130886 -0.019022403225279341 0 0.0067225810836176502 -0.02181922072373985 0 0.0066568637669580412 -0.021960721826828344 0 0.0067986550078642438 -0.021955053122444699 0 0.0068518816563901061 -0.021599879755426717 0 0.0064537809990896228 -0.021722267540568448 0 0.0064480837776342307 -0.021237235215112265 0 0.0066406437432046991 -0.022173965100098912 0 0.0066568637669580412 -0.021960721826828344 0 0.0067127445251837729 -0.021959783856894385 0 0.0065174913736071403 -0.022361372414406715 0 0.0053221313847130886 -0.019022403225279341 0 0.0066406437432046991 -0.022173965100098912 0 0.0066568637669580412 -0.021960721826828344 0 0.0065321649319008543 -0.022128022388084891 0 0.0066568637669580412 -0.021960721826828344 0 0.0065318649031384096 -0.021966006540317235 0 0.0065321649319008543 -0.022128022388084891 0 0.0065318649031384096 -0.021966006540317235 0 0.0065321649319008543 -0.022128022388084891 0 0.0063939437479214488 -0.022014447125666498 0 0.0065321649319008543 -0.022128022388084891 0 0.0063729979694831665 -0.022214328364713733 0 0.0063939437479214488 -0.022014447125666498 0 0.0063729979694831665 -0.022214328364713733 0 0.006208343231159129 -0.022231553299510827 0 0.0062490790305844797 -0.022072477356371564 0 0.0063729979694831665 -0.022214328364713733 0 0.0063939437479214488 -0.022014447125666498 0 0.0062490790305844797 -0.022072477356371564 0 0.0060558291972597983 -0.0223731266249085 0 0.006208343231159129 -0.022231553299510827 0 0.0060995249742232223 -0.022143011390733158 0 0.006208343231159129 -0.022231553299510827 0 0.0062490790305844797 -0.022072477356371564 0 0.0060995249742232223 -0.022143011390733158 0 0.0062490790305844797 -0.022072477356371564 0 0.0060995249742232223 -0.022143011390733158 0 0.0061690615386577313 -0.021803705536075857 0 0.0059140431070990093 -0.022113511988033189 0 0.0060995249742232223 -0.022143011390733158 0 0.0061690615386577313 -0.021803705536075857 0 0.0063939437479214488 -0.022014447125666498 0 0.0061690615386577313 -0.021803705536075857 0 0.0064380958576167628 -0.021856833241748912 0 0.0063939437479214488 -0.022014447125666498 0 0.0062490790305844797 -0.022072477356371564 0 0.0061690615386577313 -0.021803705536075857 0 0.0065120395171870188 -0.021668562746853019 0 0.0061690615386577313 -0.021803705536075857 0 0.0064380958576167628 -0.021856833241748912 0 0.0065318649031384096 -0.021966006540317235 0 0.0063939437479214488 -0.022014447125666498 0 0.0064380958576167628 -0.021856833241748912 0 0.0065120395171870188 -0.021668562746853019 0 0.0061690615386577313 -0.021803705536075857 0 0.0065270593494875743 -0.021299777920979798 0 0.0053038454357446623 -0.02211356385543398 0 0.0057786678222292807 -0.021206594276913241 0 0.0065270593494875743 -0.021299777920979798 0 0.0057293951788454809 -0.021956013311174364 0 0.0065149519249306084 -0.021334686045877793 0 0.0045317270493797938 -0.021874449216783321 0 0.0053038454357446623 -0.02211356385543398 0 0.0048838531648685854 -0.02105765188333094 0 0.0053038454357446623 -0.02211356385543398 0 0.0057786678222292807 -0.021206594276913241 0 0.0048838531648685854 -0.02105765188333094 0 0.0057786678222292807 -0.021206594276913241 0 0.0048838531648685854 -0.02105765188333094 0 0.005705139958715493 -0.020031391938299174 0 0.0048838531648685854 -0.02105765188333094 0 0.005705139958715493 -0.020031391938299174 0 0.0046742207875018994 -0.020081559919283856 0 0.0060208186600033547 -0.020497390228818524 0 0.0052277827536671212 -0.019276332279412466 0 0.0057786678222292807 -0.021206594276913241 0 0.0064817219897151789 -0.021086126182159656 0 0.005705139958715493 -0.020031391938299174 0 0.0049808131916356394 -0.018634685560321031 0 0.0048910300472869688 -0.018661436637550727 0 0.0049594130189098366 -0.0187398495280219 0 0.0057786678222292807 -0.021206594276913241 0 0.0064817219897151789 -0.021086126182159656 0 0.0065270593494875743 -0.021299777920979798 0 0.0064817219897151789 -0.021086126182159656 0 0.0065270593494875743 -0.021299777920979798 0 0.0066676493943431565 -0.02151760283107226 0 0.0064817219897151789 -0.021086126182159656 0 0.0066676493943431565 -0.02151760283107226 0 0.0068729594178015456 -0.021646742791554045 0 0.0060208186600033547 -0.020497390228818524 0 0.0052582793960440693 -0.01638838084295401 0 0.0049808131916356394 -0.018634685560321031 0 0.0048838303349698596 -0.018469020637140017 0 0.0048910300472869688 -0.018661436637550727 0 0.0066788053692750657 -0.02169016478922162 0 0.0066676493943431565 -0.02151760283107226 0 0.0068729594178015456 -0.021646742791554045 0 0.0065120395171870188 -0.021668562746853019 0 0.0066788053692750657 -0.02169016478922162 0 0.0066676493943431565 -0.02151760283107226 0 0.0065120395171870188 -0.021668562746853019 0 0.0065270593494875743 -0.021299777920979798 0 0.0066676493943431565 -0.02151760283107226 0 0.0040545787009741681 -0.012031864443117478 0 0.0045099055840161738 -0.011256257552723746 0 0.0041542349594073753 -0.010807011767499158 0 0.0045991782730818304 -0.01180358778904819 0 0.0040545787009741681 -0.012031864443117478 0 0.0045099055840161738 -0.011256257552723746 0 0.0052582793960440693 -0.01638838084295401 0 0.0043532067253833351 -0.014853832067505721 0 0.0045099055840161738 -0.011256257552723746 0 0.0041542349594073753 -0.010807011767499158 0 0.0047387321724569331 -0.010464371953505835 0 0.0041542349594073753 -0.010807011767499158 0 0.0042476742058395085 -0.0096708602702708698 0 0.0047387321724569331 -0.010464371953505835 0 0.0048910300472869688 -0.018661436637550727 0 0.0049177897096997318 -0.018726521365837915 0 0.0049594130189098366 -0.0187398495280219 0 0.0043532067253833351 -0.014853832067505721 0 0.0051324729485562777 -0.012530248199587868 0 0.0051324729485562777 -0.012530248199587868 0 0.0044608541902157687 -0.0097069756246880457 0 0.0051324729485562777 -0.012530248199587868 0 0.0043717470815325824 -0.014397985485626761 0 0.0049177897096997318 -0.018726521365837915 0 0.0049594130189098366 -0.0187398495280219 0 0.0050099086445145888 -0.018772607791320225 0 0.0049808131916356394 -0.018634685560321031 0 0.0049594130189098366 -0.0187398495280219 0 0.0049731835331741202 -0.01880252541117337 0 0.005705139958715493 -0.020031391938299174 0 0.0046742207875018994 -0.020081559919283856 0 0.0047706816183448759 -0.01892886866486309 0 0.0052277827536671212 -0.019276332279412466 0 0.0048529047854284401 -0.018990912186353702 0 0.0049731835331741202 -0.01880252541117337 0 0.0047706816183448759 -0.01892886866486309 0 0.0050099086445145888 -0.018772607791320225 0 0.0049594130189098366 -0.0187398495280219 0 0.0049731835331741202 -0.01880252541117337 0 0.0050099086445145888 -0.018772607791320225 0 0.0037217399052159776 -0.010212203369067885 0 0.0033778735587465299 -0.0095180774272777616 0 0.0039697761732086041 -0.0096156994619205002 0 0.0037217399052159776 -0.010212203369067885 0 0.0033778735587465299 -0.0095180774272777616 0 0.002681071469671243 -0.0099939644247611439 0 0.0043717470815325824 -0.014397985485626761 0 0.0031715730571850835 -0.016923270807061068 0 0.0047706816183448759 -0.01892886866486309 0 0.0050099086445145888 -0.018772607791320225 0 0.0044894510108399212 -0.018446594433679291 0 0.0036575150740533603 -0.012916039252414913 0 0.0031715730571850835 -0.016923270807061068 0 0.0037970758072561179 -0.016901663365692498 0 0.0025963930335682166 -0.017642965525761951 0 0.002411693571773091 -0.016469812695294645 0 0.0037970758072561179 -0.016901663365692498 0 0.002411693571773091 -0.016469812695294645 0 0.0039941958394400382 -0.01577271530088608 0 0.0036575150740533603 -0.012916039252414913 0 0.0045924989435292317 -0.01267333800827446 0 0.0033778735587465299 -0.0095180774272777616 0 0.0039697761732086041 -0.0096156994619205002 0 0.0041098633463755793 -0.0090780351006830191 0 0.0037970758072561179 -0.016901663365692498 0 0.0049684743544099628 -0.016170117624624513 0 0.0039941958394400382 -0.01577271530088608 0 0.0039697761732086041 -0.0096156994619205002 0 0.0047786891989870855 -0.0093317284333168347 0 0.0041098633463755793 -0.0090780351006830191 0 0.0048808508502958215 -0.0090816747703987236 0 0.0047786891989870855 -0.0093317284333168347 0 0.0049525450858797105 -0.0092350923805921484 0 0.0047786891989870855 -0.0093317284333168347 0 0.0050168084027270273 -0.0093404611613755514 0 0.0049525450858797105 -0.0092350923805921484 0 0.0048053701911182347 -0.010527617407537646 0 0.0047786891989870855 -0.0093317284333168347 0 0.004358773081475263 -0.0099415324317607846 0 0.0047351496208025996 -0.0096996633940356555 0 0.0047786891989870855 -0.0093317284333168347 0 0.0049165547510294644 -0.0095477995891225381 0 0.0051324729485562777 -0.012530248199587868 0 0.0046991748377055598 -0.0083303558479615666 0 0.0037217399052159776 -0.010212203369067885 0 0.0039697761732086041 -0.0096156994619205002 0 0.004358773081475263 -0.0099415324317607846 0 0.0048053701911182347 -0.010527617407537646 0 0.0037217399052159776 -0.010212203369067885 0 0.004358773081475263 -0.0099415324317607846 0 0.0039697761732086041 -0.0096156994619205002 0 0.0047786891989870855 -0.0093317284333168347 0 0.004358773081475263 -0.0099415324317607846 0 0.00085529385722758235 -0.023773781192321777 0 0.0013635328909574332 -0.024011069854620159 0 0.00062036330819860354 -0.024446733027453909 0 0.00085529385722758235 -0.023773781192321777 0 0.0013635328909574332 -0.024011069854620159 0 0.0015045301387389552 -0.023410645756893157 0 0.0018542646976539407 -0.021536797141848363 0 0.0019026080128746528 -0.024013578247695497 0 0.0022643788502476774 -0.020362856960991042 0 0.00240258585099096 -0.019488091055084898 0 0.001383077127136515 -0.020114031848046297 0 0.0022643788502476774 -0.020362856960991042 0 0.00240258585099096 -0.019488091055084898 0 0.0032259415629348502 -0.020038677757549517 0 0.0013635328909574332 -0.024011069854620159 0 0.0021506921340422053 -0.023539886240890356 0 0.0015045301387389552 -0.023410645756893157 0 0.00240258585099096 -0.019488091055084898 0 0.0034608977109237327 -0.018859200223988848 0 0.0032259415629348502 -0.020038677757549517 0 0.0018542646976539407 -0.021536797141848363 0 0.0027048175311836001 -0.021645868412189705 0 0.0034608977109237327 -0.018859200223988848 0 0.0032259415629348502 -0.020038677757549517 0 0.00406673651940516 -0.019626751393892035 0 0.0039998696974826217 -0.020706223110758221 0 0.0032259415629348502 -0.020038677757549517 0 0.00406673651940516 -0.019626751393892035 0 0.0046742207875018994 -0.020081559919283856 0 0.0047706816183448759 -0.01892886866486309 0 0.00406673651940516 -0.019626751393892035 0 0.0039998696974826217 -0.020706223110758221 0 0.0046742207875018994 -0.020081559919283856 0 0.00406673651940516 -0.019626751393892035 0 0.0047706816183448759 -0.01892886866486309 0 0.0042158468500529183 -0.018946344958935036 0 0.0044894510108399212 -0.018446594433679291 0 0.0047706816183448759 -0.01892886866486309 0 0.00406673651940516 -0.019626751393892035 0 0.0042158468500529183 -0.018946344958935036 0 0.0034608977109237327 -0.018859200223988848 0 0.00406673651940516 -0.019626751393892035 0 0.0042158468500529183 -0.018946344958935036 0 0.0034608977109237327 -0.018859200223988848 0 0.0042158468500529183 -0.018946344958935036 0 0.0044894510108399212 -0.018446594433679291 0 0.0027048175311836001 -0.021645868412189705 0 0.0031715730571850835 -0.016923270807061068 0 0.0025963930335682166 -0.017642965525761951 0 0.002411693571773091 -0.016469812695294645 0 0.0008086288087193694 -0.017195907680168539 0 0.0020808124242035534 -0.020153096822711825 0 0.00028997953283221969 -0.020952322518282985 0 0.00037027349863330062 -0.019357497254007087 0 0.0023267765015399329 -0.017717383150276808 0 0.00084098039715939149 -0.023171073995823705 0 0.0031715730571850835 -0.016923270807061068 0 0.00084098039715939149 -0.023171073995823705 0 0.0021506921340422053 -0.023539886240890356 0 0.0029613289998499034 -0.023022001483830629 0 0.0018265192680012585 -0.022769900033592447 0 0.0015045301387389552 -0.023410645756893157 0 0.0018265192680012585 -0.022769900033592447 0 0.0011135405171802128 -0.023118601202097553 0 0.0021506921340422053 -0.023539886240890356 0 0.0015045301387389552 -0.023410645756893157 0 0.0018265192680012585 -0.022769900033592447 0 0.00084098039715939149 -0.023171073995823705 0 8.8157201719422216e-05 -0.027619756167511427 0 -4.2707481347078911e-05 -0.031541278174786268 0 -0.00046823884349201094 -0.031500983175711775 0 -0.00053508640249118138 -0.031816084549638211 0 0.00084098039715939149 -0.023171073995823705 0 -0.00030283749150870724 -0.025883455639145191 0 0.00028997953283221969 -0.020952322518282985 0 -0.00085575377547988062 -0.020644729893866721 0 0.00037027349863330062 -0.019357497254007087 0 -0.00057241057432124397 -0.031636593271575794 0 -0.00046823884349201094 -0.031500983175711775 0 -0.00053508640249118138 -0.031816084549638211 0 -0.00057241057432124397 -0.031636593271575794 0 -0.00053138425555001418 -0.031572658266043656 0 -0.00065626341487282558 -0.031684949449020464 0 -0.00053138425555001418 -0.031572658266043656 0 -0.00065626341487282558 -0.031684949449020464 0 -0.0007527043095451215 -0.031697306021931583 0 -0.00030283749150870724 -0.025883455639145191 0 -0.0010953072710453433 -0.027321298436377563 0 -0.0016389292783984826 -0.028677857240731946 0 -0.00030283749150870724 -0.025883455639145191 0 -0.00065626341487282558 -0.031684949449020464 0 -0.0006621209546295695 -0.031742017339437288 0 -0.00076976780825109483 -0.031780858098617519 0 -0.00057241057432124397 -0.031636593271575794 0 -0.00065626341487282558 -0.031684949449020464 0 -0.0006621209546295695 -0.031742017339437288 0 0.00085529385722758235 -0.023773781192321777 0 0.0011135405171802128 -0.023118601202097553 0 0.00043308602390652504 -0.023443328584623141 0 0.00085529385722758235 -0.023773781192321777 0 0.0015045301387389552 -0.023410645756893157 0 0.0011135405171802128 -0.023118601202097553 0 -0.00068980920959189939 -0.031797367656972608 0 -0.0006621209546295695 -0.031742017339437288 0 -0.00076976780825109483 -0.031780858098617519 0 8.8157201719422216e-05 -0.027619756167511427 0 0.00052467215906616747 -0.02971937833982128 0 -0.00068980920959189939 -0.031797367656972608 0 -0.00053508640249118138 -0.031816084549638211 0 -0.000775807011460848 -0.031867351698135073 0 -0.00053508640249118138 -0.031816084549638211 0 -0.000775807011460848 -0.031867351698135073 0 -0.00081755915371186456 -0.031934550716612463 0 -0.00068980920959189939 -0.031797367656972608 0 -0.0006621209546295695 -0.031742017339437288 0 -0.00053508640249118138 -0.031816084549638211 0 -0.00057241057432124397 -0.031636593271575794 0 -0.0006621209546295695 -0.031742017339437288 0 -0.00053508640249118138 -0.031816084549638211 0 -0.00072544755498143445 -0.021552939329539902 0 -0.00075556072146653892 -0.022348976811525277 0 9.3329733252020219e-05 -0.022071741543183355 0 -0.00072544755498143445 -0.021552939329539902 0 9.3329733252020219e-05 -0.022071741543183355 0 -0.0001237861839094963 -0.021177289364052714 0 -0.00015171846415375304 -0.023395866572616421 0 -0.00075556072146653892 -0.022348976811525277 0 -0.0013966591797770086 -0.022957036730166854 0 -0.00015171846415375304 -0.023395866572616421 0 -0.00075556072146653892 -0.022348976811525277 0 9.3329733252020219e-05 -0.022071741543183355 0 -0.00015171846415375304 -0.023395866572616421 0 9.3329733252020219e-05 -0.022071741543183355 0 0.00065009576818110786 -0.022653383780524318 0 -0.00030283749150870724 -0.025883455639145191 0 0.00072952803041191855 -0.020378776636113798 0 0.00072952803041191855 -0.020378776636113798 0 0.0014531032907413057 -0.020262878173756441 0 9.3329733252020219e-05 -0.022071741543183355 0 0.0015835183513065391 -0.02190663966959995 0 0.00079398905124376167 -0.021299457521342564 0 9.3329733252020219e-05 -0.022071741543183355 0 0.00065009576818110786 -0.022653383780524318 0 0.0015835183513065391 -0.02190663966959995 0 0.0020808124242035534 -0.020153096822711825 0 0.00037027349863330062 -0.019357497254007087 0 0.0015778820138373181 -0.018113774467251237 0 0.0020808124242035534 -0.020153096822711825 0 0.0015778820138373181 -0.018113774467251237 0 0.0030479637556979095 -0.018481186441634389 0 0.0015778820138373181 -0.018113774467251237 0 0.0030479637556979095 -0.018481186441634389 0 0.0027671930750465755 -0.016906557223008427 0 0.0014531032907413057 -0.020262878173756441 0 0.0027739096680997285 -0.017987757398527853 0 0.0015835183513065391 -0.02190663966959995 0 0.0018176048392748376 -0.020501654442555698 0 0.002584522859798816 -0.021021335432704208 0 0.0024789687905515025 -0.021212135739473916 0 0.0027739096680997285 -0.017987757398527853 0 0.0018176048392748376 -0.020501654442555698 0 0.0036528146516997631 -0.020522999049269696 0 0.0034180174069738181 -0.019564121232769804 0 0.0018176048392748376 -0.020501654442555698 0 0.0037617443621699585 -0.02174477124728064 0 0.0036528146516997631 -0.020522999049269696 0 0.0018176048392748376 -0.020501654442555698 0 0.0034180174069738181 -0.019564121232769804 0 0.0025013736417304469 -0.019004308055842845 0 0.0018176048392748376 -0.020501654442555698 0 0.00052517500813072733 -0.020532958273061178 0 0.00056588862463806378 -0.019793821555715102 0 0.0018176048392748376 -0.020501654442555698 0 0.00052517500813072733 -0.020532958273061178 0 0.00079398905124376167 -0.021299457521342564 0 0.0015835183513065391 -0.02190663966959995 0 0.0018176048392748376 -0.020501654442555698 0 0.00079398905124376167 -0.021299457521342564 0 0.00052517500813072733 -0.020532958273061178 0 0.00079398905124376167 -0.021299457521342564 0 -0.0001237861839094963 -0.021177289364052714 0 9.3329733252020219e-05 -0.022071741543183355 0 0.00079398905124376167 -0.021299457521342564 0 -0.0001237861839094963 -0.021177289364052714 0 0.00052517500813072733 -0.020532958273061178 0 -0.0001237861839094963 -0.021177289364052714 0 -0.00045318406269177064 -0.020539564474973265 0 0.00052517500813072733 -0.020532958273061178 0 -0.00045318406269177064 -0.020539564474973265 0 -0.00032467903900984275 -0.019700949152094669 0 0.00052517500813072733 -0.020532958273061178 0 -0.00032467903900984275 -0.019700949152094669 0 0.00056588862463806378 -0.019793821555715102 0 -0.00045318406269177064 -0.020539564474973265 0 -0.0007438162229002471 -0.020946628367421141 0 -0.00097383727331461212 -0.020516383684249559 0 -0.00045318406269177064 -0.020539564474973265 0 -0.00097383727331461212 -0.020516383684249559 0 -0.00076305707206752332 -0.020223764622377672 0 -0.00045318406269177064 -0.020539564474973265 0 -0.00076305707206752332 -0.020223764622377672 0 -0.00032467903900984275 -0.019700949152094669 0 -0.0001237861839094963 -0.021177289364052714 0 -0.00045318406269177064 -0.020539564474973265 0 -0.0007438162229002471 -0.020946628367421141 0 -0.00072544755498143445 -0.021552939329539902 0 -0.0001237861839094963 -0.021177289364052714 0 -0.0007438162229002471 -0.020946628367421141 0 0.00557126113259508 -0.018605490483900013 0 0.00493034247086488 -0.018209061132813641 0 0.0041669748496743157 -0.018776066206496387 0 0.0051496087450817038 -0.01509337644169613 0 0.0047507801024515703 -0.016116700098498644 0 0.0044972408269605751 -0.01473821105029806 0 0.0053658577721645562 -0.014123184823773964 0 0.0043117567679466689 -0.01379835703656601 0 0.0046853885221959995 -0.013820467511647621 0 0.0045980675267367176 -0.013771190216580428 0 0.0047091058455580688 -0.013679836137619351 0 0.0047507801024515703 -0.016116700098498644 0 0.0043420549494048496 -0.012379292162404652 0 0.0037883988117674446 -0.010737495331124261 0 0.0039922520802987303 -0.011025513687405994 0 0.0038701109252749512 -0.011107073545528375 0 0.0043794318149614798 -0.011711162208116332 0 0.0043420549494048496 -0.012379292162404652 0 0.0046853885221959995 -0.013820467511647621 0 0.0047778782555394318 -0.013772646026009803 0 0.0047091058455580688 -0.013679836137619351 0 0.003523457614019209 -0.0093383927724718097 0 0.0031320798246615043 -0.010399521975028086 0 0.0035561931792725565 -0.010826368690011265 0 0.0037883988117674446 -0.010737495331124261 0 0.0038701109252749512 -0.011107073545528375 0 0.003523457614019209 -0.0093383927724718097 0 0.0043794318149614798 -0.011711162208116332 0 0.0045983950551362011 -0.012585695800081488 0 0.0046101121981939651 -0.012049224246226226 0 0.0043291470981532973 -0.012205011423015204 0 0.0040287210287671422 -0.009954396420054714 0 0.0040912957360111218 -0.0099345821157131361 0 0.0040526232220963734 -0.0098768772419185122 0 0.0043794318149614798 -0.011711162208116332 0 0.0043996711417041432 -0.0098612361711159606 0 0.0051496087450817038 -0.01509337644169613 0 0.0043794318149614798 -0.011711162208116332 0 0.0051191850253158293 -0.012385126912857654 0 0.0045983950551362011 -0.012585695800081488 0 0.0046101121981939651 -0.012049224246226226 0 0.0047786891989870855 -0.0093317284333168347 0 0.0047144010445389437 -0.0087891423837676581 0 0.0041098633463755793 -0.0090780351006830191 0 0.0051496087450817038 -0.01509337644169613 0 0.0047756467299328153 -0.011737891092116119 0 0.0048808508502958215 -0.0090816747703987236 0 0.0047786891989870855 -0.0093317284333168347 0 0.0047144010445389437 -0.0087891423837676581 0 0.0047756467299328153 -0.011737891092116119 0 0.0043996711417041432 -0.0098612361711159606 0 0.0047332473305660662 -0.008816136802441029 0 0.0048416470409693392 -0.0087478544328955417 0 0.0048092394933759363 -0.0088586841998944572 0 0.0047756467299328153 -0.011737891092116119 0 0.0043178983129745739 -0.010925053790859762 0 0.0048808508502958215 -0.0090816747703987236 0 0.0047144010445389437 -0.0087891423837676581 0 0.0048092394933759363 -0.0088586841998944572 0 0.00552993903474826 -0.015104298509037111 0 0.0049684743544099628 -0.016170117624624513 0 0.0039941958394400382 -0.01577271530088608 0 0.00552993903474826 -0.015104298509037111 0 0.006118137299709627 -0.015465888487428562 0 0.0049684743544099628 -0.016170117624624513 0 0.0047756467299328153 -0.011737891092116119 0 0.0045924989435292317 -0.01267333800827446 0 0.0051496087450817038 -0.01509337644169613 0 0.0038978483153110297 -0.017889928559869366 0 0.00557126113259508 -0.018605490483900013 0 0.0038222441948963541 -0.019379727279791786 0 0.0041669748496743157 -0.018776066206496387 0 0.0038222441948963541 -0.019379727279791786 0 0.0030479637556979095 -0.018481186441634389 0 0.0041669748496743157 -0.018776066206496387 0 0.0020808124242035534 -0.020153096822711825 0 0.0038222441948963541 -0.019379727279791786 0 0.0030479637556979095 -0.018481186441634389 0 0.0023267765015399329 -0.017717383150276808 0 0.0038978483153110297 -0.017889928559869366 0 0.0049063619293581223 -0.018246906763990361 0 0.0041669748496743157 -0.018776066206496387 0 0.0038452021115806504 -0.017582784060066806 0 0.0044972408269605751 -0.01473821105029806 0 0.003353830691571788 -0.014019342253890813 0 0.0043117567679466689 -0.01379835703656601 0 0.0030479637556979095 -0.018481186441634389 0 0.0041669748496743157 -0.018776066206496387 0 0.0038452021115806504 -0.017582784060066806 0 0.0047507801024515703 -0.016116700098498644 0 0.0033780757476351915 -0.015609867706881584 0 0.0047507801024515703 -0.016116700098498644 0 0.0038934572330781357 -0.018549639687007582 0 0.003353830691571788 -0.014019342253890813 0 0.0037688530652150581 -0.013134426311757756 0 0.0043117567679466689 -0.01379835703656601 0 0.003353830691571788 -0.014019342253890813 0 0.0032299245917840531 -0.013306986823928281 0 0.0037688530652150581 -0.013134426311757756 0 0.0032299245917840531 -0.013306986823928281 0 0.0037688530652150581 -0.013134426311757756 0 0.0032866610402321277 -0.01282076937136452 0 0.0037688530652150581 -0.013134426311757756 0 0.0044217261428500017 -0.012791167932023862 0 0.0043117567679466689 -0.01379835703656601 0 0.003353830691571788 -0.014019342253890813 0 0.0032299245917840531 -0.013306986823928281 0 0.002195661441367988 -0.013309867397275453 0 0.0033780757476351915 -0.015609867706881584 0 0.0027739096680997285 -0.017987757398527853 0 0.0030479637556979095 -0.018481186441634389 0 0.0038452021115806504 -0.017582784060066806 0 0.0027671930750465755 -0.016906557223008427 0 0.0032299245917840531 -0.013306986823928281 0 0.002195661441367988 -0.013309867397275453 0 0.0032866610402321277 -0.01282076937136452 0 0.0048330462183632751 -0.020635963803899655 0 0.0042597473598526949 -0.019838622723209201 0 0.0051050538910393404 -0.018897318451620362 0 0.0032864568754037305 -0.015521806101868114 0 0.0040985979926271843 -0.015769438954216019 0 0.0037617443621699585 -0.02174477124728064 0 0.0036528146516997631 -0.020522999049269696 0 0.0048330462183632751 -0.020635963803899655 0 0.002195661441367988 -0.013309867397275453 0 0.0029146929371755472 -0.012552191088771605 0 0.0032866610402321277 -0.01282076937136452 0 0.0027739096680997285 -0.017987757398527853 0 0.0032864568754037305 -0.015521806101868114 0 0.0036528146516997631 -0.020522999049269696 0 0.0042597473598526949 -0.019838622723209201 0 0.0034180174069738181 -0.019564121232769804 0 0.0036528146516997631 -0.020522999049269696 0 0.0048330462183632751 -0.020635963803899655 0 0.0042597473598526949 -0.019838622723209201 0 0.0038806919449940005 -0.011927572002832666 0 0.0033192100939591928 -0.011354471098339461 0 0.0038489510821982662 -0.012277867696008934 0 0.0044030591789355538 -0.012708424145221201 0 0.0033608185477298118 -0.011446284581023406 0 0.0029988992619812919 -0.012455415728145909 0 0.0033892362112486456 -0.012071498597462734 0 0.0032846142120170453 -0.011458383636295599 0 0.0037688530652150581 -0.013134426311757756 0 0.0038489510821982662 -0.012277867696008934 0 0.0044217261428500017 -0.012791167932023862 0 0.004137277927970303 -0.012379263145443818 0 0.0038806919449940005 -0.011927572002832666 0 0.0029146929371755472 -0.012552191088771605 0 0.0032866610402321277 -0.01282076937136452 0 0.0033892362112486456 -0.012071498597462734 0 0.0037688530652150581 -0.013134426311757756 0 0.0032866610402321277 -0.01282076937136452 0 0.0038489510821982662 -0.012277867696008934 0 0.0032866610402321277 -0.01282076937136452 0 0.0033892362112486456 -0.012071498597462734 0 0.0038489510821982662 -0.012277867696008934 0 0.0033892362112486456 -0.012071498597462734 0 0.0038489510821982662 -0.012277867696008934 0 0.0033608185477298118 -0.011446284581023406 0 0.0032864568754037305 -0.015521806101868114 0 0.0040826716852920284 -0.013027988064788575 0 0.0029707585302455688 -0.010689248676672477 0 0.0023492329191167902 -0.010097575320266186 0 0.0023438492937025972 -0.010998035379103819 0 0.0029707585302455688 -0.010689248676672477 0 0.0023438492937025972 -0.010998035379103819 0 0.0029484485224255722 -0.011495682601166112 0 0.0038806919449940005 -0.011927572002832666 0 0.0031320798246615043 -0.010399521975028086 0 0.0038806919449940005 -0.011927572002832666 0 0.0043420549494048496 -0.012379292162404652 0 0.0044217261428500017 -0.012791167932023862 0 0.0053658577721645562 -0.014123184823773964 0 0.0043117567679466689 -0.01379835703656601 0 0.0040937728029988574 -0.011719617119672655 0 0.0038050605644669531 -0.011316787043794324 0 0.0037090680954333043 -0.011381326238294194 0 0.0027142614404096089 -0.0081321025214318894 0 0.0026289250706155931 -0.0080635736967303966 0 0.002747985516810267 -0.0079588635961938183 0 0.0023492329191167902 -0.010097575320266186 0 0.0023438492937025972 -0.010998035379103819 0 0.0017418679988275506 -0.010488257930836867 0 0.0031320798246615043 -0.010399521975028086 0 0.0017891822925294178 -0.0063210227250205973 0 0.0043420549494048496 -0.012379292162404652 0 0.0031320798246615043 -0.010399521975028086 0 0.0024462419855176328 -0.0020542063669965424 0 0.0015182074607345908 -0.0021481657521187627 0 0.0015700889061582065 -0.0014497992249615879 0 0.0024401555198613799 -0.0065625372290648264 0 0.0017891822925294178 -0.0063210227250205973 0 0.0016858085063090414 -0.003633566852116511 0 0.001863623567161388 -0.0040444914380506599 0 0.0010977575318392512 -0.0040655963635337295 0 0.0015182074607345908 -0.0021481657521187627 0 0.00093746072291890604 -0.001916897870594631 0 0.00091375586889397796 -0.0024211728076349616 0 0.0015182074607345908 -0.0021481657521187627 0 0.00093746072291890604 -0.001916897870594631 0 0.0015700889061582065 -0.0014497992249615879 0 0.0015597868602700024 -0.0026504072993930785 0 0.0017891822925294178 -0.0063210227250205973 0 0.0016858085063090414 -0.003633566852116511 0 0.001863623567161388 -0.0040444914380506599 0 0.0022753106521769158 -0.0032037368810204532 0 0.001863623567161388 -0.0040444914380506599 0 0.0023193210797720016 -0.0043953321758288802 0 0.0022753106521769158 -0.0032037368810204532 0 0.0015597868602700024 -0.0026504072993930785 0 0.00069180714379718413 -0.0018030653260982161 0 0.001863623567161388 -0.0040444914380506599 0 0.0017949659833413228 -0.0046175673992304156 0 0.0010977575318392512 -0.0040655963635337295 0 0.001863623567161388 -0.0040444914380506599 0 0.0017949659833413228 -0.0046175673992304156 0 0.0023193210797720016 -0.0043953321758288802 0 0.0027855604562135087 -0.0063456450175265171 0 0.0040768023623338877 -0.006914950326172585 0 0.0027855604562135087 -0.0063456450175265171 0 0.0013763942541161964 -0.003336044427818213 0 0.0025162353095220628 -0.0053045777995489431 0 0.0026315996126779146 -0.0053927114618922949 0 0.0028609688881985492 -0.0051540157548916983 0 0.0027142614404096089 -0.0081321025214318894 0 0.0028704045398194465 -0.0080481533745361891 0 0.002747985516810267 -0.0079588635961938183 0 0.0027855604562135087 -0.0063456450175265171 0 0.0017891822925294178 -0.0063210227250205973 0 0.0034824041967388623 -0.0079411491631042174 0 0.0037357973687210007 -0.0078214256351645944 0 0.0035572912806729009 -0.0080035968732529144 0 0.0042508534216517662 -0.0085020967745764141 0 0.0040768023623338877 -0.006914950326172585 0 0.003523457614019209 -0.0093383927724718097 0 0.0027855604562135087 -0.0063456450175265171 0 0.0040287210287671422 -0.009954396420054714 0 0.0040526232220963734 -0.0098768772419185122 0 0.0039840894984241636 -0.0099109895169957937 0 0.0043996711417041432 -0.0098612361711159606 0 0.0042508534216517662 -0.0085020967745764141 0 0.003523457614019209 -0.0093383927724718097 0 0.0042508534216517662 -0.0085020967745764141 0 0.0037357973687210007 -0.0078214256351645944 0 0.0035572912806729009 -0.0080035968732529144 0 0.0037848172425228484 -0.0078574079762052159 0 0.0046574235137782838 -0.007620989444864168 0 0.0053256283023790088 -0.0072323595009610121 0 0.005282835528952705 -0.0076758012113894835 0 0.0026315996126779146 -0.0053927114618922949 0 0.0028798276030159563 -0.0055952723815339313 0 0.0028609688881985492 -0.0051540157548916983 0 0.0053256283023790088 -0.0072323595009610121 0 0.005282835528952705 -0.0076758012113894835 0 0.0056165488708023121 -0.0074712832178167946 0 0.0040768023623338877 -0.006914950326172585 0 0.0034618636511198177 -0.0057459395940947355 0 0.0054804366125762779 -0.0077329750344353613 0 0.005282835528952705 -0.0076758012113894835 0 0.0056165488708023121 -0.0074712832178167946 0 0.0046574235137782838 -0.007620989444864168 0 0.005282835528952705 -0.0076758012113894835 0 0.0052077474224216614 -0.0080809830067659454 0 0.005282835528952705 -0.0076758012113894835 0 0.0053929905881335075 -0.0079162346312868434 0 0.0052077474224216614 -0.0080809830067659454 0 0.0054804366125762779 -0.0077329750344353613 0 0.0053929905881335075 -0.0079162346312868434 0 0.005628196784757563 -0.0078672508704464798 0 0.0054804366125762779 -0.0077329750344353613 0 0.005282835528952705 -0.0076758012113894835 0 0.0053929905881335075 -0.0079162346312868434 0 0.0057864988758373802 -0.0077815405622231378 0 0.0051496297397438931 -0.0084036145699331721 0 0.0055770368760764263 -0.008309808280369672 0 0.0053929905881335075 -0.0079162346312868434 0 0.005628196784757563 -0.0078672508704464798 0 0.0051496297397438931 -0.0084036145699331721 0 0.0047595404404085174 -0.007221610687762745 0 0.0053561026801365293 -0.008387877828382349 0 0.0052077474224216614 -0.0080809830067659454 0 0.0049863512256352631 -0.0082327608639131133 0 0.0051496297397438931 -0.0084036145699331721 0 0.0053929905881335075 -0.0079162346312868434 0 0.0052077474224216614 -0.0080809830067659454 0 0.0051496297397438931 -0.0084036145699331721 0 0.0043996711417041432 -0.0098612361711159606 0 0.0048762428592441509 -0.0085384579267362825 0 0.0052077474224216614 -0.0080809830067659454 0 0.0049863512256352631 -0.0082327608639131133 0 0.0047959541620948044 -0.0080317944289725572 0 0.0049863512256352631 -0.0082327608639131133 0 0.0047959541620948044 -0.0080317944289725572 0 0.0047874484944787346 -0.0084326648864811397 0 0.0043690926045349071 -0.0078269529476248587 0 0.0047959541620948044 -0.0080317944289725572 0 0.0047874484944787346 -0.0084326648864811397 0 0.0048416470409693392 -0.0087478544328955417 0 0.0048092394933759363 -0.0088586841998944572 0 0.0050865977759000968 -0.0091255893503910841 0 0.0048808508502958215 -0.0090816747703987236 0 0.0048092394933759363 -0.0088586841998944572 0 0.0050865977759000968 -0.0091255893503910841 0 0.0043690926045349071 -0.0078269529476248587 0 0.004675869984685623 -0.0076479072901593876 0 0.0047959541620948044 -0.0080317944289725572 0 0.004675869984685623 -0.0076479072901593876 0 0.0052077474224216614 -0.0080809830067659454 0 0.0047959541620948044 -0.0080317944289725572 0 0.0042508534216517662 -0.0085020967745764141 0 0.0051424501375188381 -0.007919554395531438 0 0.0021705854139182409 -0.0041265890870219703 0 0.0019200116957001549 -0.0039137511177970048 0 0.0022826237988669558 -0.0039152281639295294 0 0.004725925833143324 -0.006367011087112494 0 0.0034736012778928843 -0.0052601640078777639 0 0.0067619043352392643 -0.0081566250811298535 0 0.0062448484711781112 -0.0082676521073688312 0 0.006022947117260701 -0.0075498004618403756 0 0.0062448484711781112 -0.0082676521073688312 0 0.0057912558822553854 -0.0079405548139425703 0 0.006022947117260701 -0.0075498004618403756 0 0.0057912558822553854 -0.0079405548139425703 0 0.0057864988758373802 -0.0077815405622231378 0 0.0055770368760764263 -0.008309808280369672 0 0.0057912558822553854 -0.0079405548139425703 0 0.0055770368760764263 -0.008309808280369672 0 0.0058695076855496322 -0.0083030334487147334 0 0.0062448484711781112 -0.0082676521073688312 0 0.0057912558822553854 -0.0079405548139425703 0 0.0058695076855496322 -0.0083030334487147334 0 0.0057912558822553854 -0.0079405548139425703 0 0.0057829557598446241 -0.007790418308228686 0 0.006022947117260701 -0.0075498004618403756 0 0.0049007510688520396 -0.0075074947214515825 0 0.0047595404404085174 -0.007221610687762745 0 0.0047595404404085174 -0.007221610687762745 0 0.0034736012778928843 -0.0052601640078777639 0 0.0039107631886430468 -0.0063642151381451432 0 0.0042441919485790777 -0.0060380074940623828 0 0.0038903160558922427 -0.00575528785377445 0 0.0047595404404085174 -0.007221610687762745 0 0.0034618636511198177 -0.0057459395940947355 0 0.0054804366125762779 -0.0077329750344353613 0 0.005628196784757563 -0.0078672508704464798 0 0.0056165488708023121 -0.0074712832178167946 0 0.0034736012778928843 -0.0052601640078777639 0 0.0034618636511198177 -0.0057459395940947355 0 0.0034618636511198177 -0.0057459395940947355 0 0.0013763942541161964 -0.003336044427818213 0 0.0017538534102182017 -0.0037976394178908367 0 0.0017032117779557799 -0.0037584406158086446 0 0.0017735595390111427 -0.0036773410915341121 0 0.0034736012778928843 -0.0052601640078777639 0 0.0019468285849204845 -0.0036146684996540908 0 0.0019200116957001549 -0.0039137511177970048 0 0.0021753231184220858 -0.003624231601109194 0 0.0022826237988669558 -0.0039152281639295294 0 0.0017538534102182017 -0.0037976394178908367 0 0.0018707176674517172 -0.0036300237045237193 0 0.0017735595390111427 -0.0036773410915341121 0 0.0018707176674517172 -0.0036300237045237193 0 0.0017735595390111427 -0.0036773410915341121 0 0.0018434995183490991 -0.0035613291621084215 0 0.0013763942541161964 -0.003336044427818213 0 0.00060103619654968191 -0.0021018674345780405 0 0.0016930067652553885 -0.0036450358365407508 0 0.0017735595390111427 -0.0036773410915341121 0 0.0018434995183490991 -0.0035613291621084215 0 0.0017032117779557799 -0.0037584406158086446 0 0.0016930067652553885 -0.0036450358365407508 0 0.0017735595390111427 -0.0036773410915341121 0 -0.00047425551866173328 -0.00095300751177527067 0 -0.00041310168643555263 -0.00080163264192741198 0 -0.00035503900576155185 -0.00086897448877030505 0 -0.00047425551866173328 -0.00095300751177527067 0 -0.00041310168643555263 -0.00080163264192741198 0 -0.00049107296947693683 -0.00078321407215461362 0 0.0013763942541161964 -0.003336044427818213 0 0.00069180714379718413 -0.0018030653260982161 0 -0.00035503900576155185 -0.00086897448877030505 0 -0.00032622536599153555 -0.00073072655621398124 0 -0.00037626902746216832 -0.00077532613181487337 0 -0.00041310168643555263 -0.00080163264192741198 0 -0.00035503900576155185 -0.00086897448877030505 0 -0.00037626902746216832 -0.00077532613181487337 0 0.00060103619654968191 -0.0021018674345780405 0 0.0010051757545057279 -0.0022098188731683116 0 0.0018707176674517172 -0.0036300237045237193 0 0.0018434995183490991 -0.0035613291621084215 0 0.0019693613299385515 -0.0034708056153148594 0 -0.00035503900576155185 -0.00086897448877030505 0 -0.00024515895156917473 -0.00079538165959065895 0 -0.00032622536599153555 -0.00073072655621398124 0 0.0019468285849204845 -0.0036146684996540908 0 0.0010051757545057279 -0.0022098188731683116 0 0.00238388490528412 -0.0033820397182169177 0 0.002493205485135503 -0.0035538832711129323 0 0.002500011590827537 -0.0033995253660628307 0 0.00238388490528412 -0.0033820397182169177 0 0.002500011590827537 -0.0033995253660628307 0 0.0025551140255503698 -0.0032955866461412413 0 0.00238388490528412 -0.0033820397182169177 0 0.002493205485135503 -0.0035538832711129323 0 0.0024065553295610801 -0.0037184969606016806 0 0.0017888736058522283 -0.0028789907065692589 0 0.0024271662666785578 -0.0036802739423793269 0 0.0021753231184220858 -0.003624231601109194 0 0.00238388490528412 -0.0033820397182169177 0 0.0024065553295610801 -0.0037184969606016806 0 0.00034319815964468372 -0.00093781956804725312 0 0.00066328488757262086 -0.0013247100447697402 0 0.0007952894888383638 -0.001001122964732869 0 0.00034319815964468372 -0.00093781956804725312 0 0.00033172448934527305 -0.0013475798291342318 0 0.00066328488757262086 -0.0013247100447697402 0 0.002493205485135503 -0.0035538832711129323 0 0.0025897997865036233 -0.0033475303171720326 0 0.002500011590827537 -0.0033995253660628307 0 -4.3141303975188505e-05 -0.0013727324258437999 0 0.00034319815964468372 -0.00093781956804725312 0 0.00033172448934527305 -0.0013475798291342318 0 0.0017888736058522283 -0.0028789907065692589 0 0.0014367650659655726 -0.0021626028904198342 0 0.0025897997865036233 -0.0033475303171720326 0 0.002500011590827537 -0.0033995253660628307 0 0.0025551140255503698 -0.0032955866461412413 0 -4.3141303975188505e-05 -0.0013727324258437999 0 0.00033172448934527305 -0.0013475798291342318 0 0.00036206765173904808 -0.001755170698023889 0 0.00033172448934527305 -0.0013475798291342318 0 0.00066328488757262086 -0.0013247100447697402 0 0.00036206765173904808 -0.001755170698023889 0 0.00036206765173904808 -0.001755170698023889 0 0.00069847196498267644 -0.0022710925816230637 0 0.00082029832459428842 -0.001777546378448072 0 0.00066328488757262086 -0.0013247100447697402 0 0.00036206765173904808 -0.001755170698023889 0 0.00082029832459428842 -0.001777546378448072 0 -4.3141303975188505e-05 -0.0013727324258437999 0 0.00036206765173904808 -0.001755170698023889 0 -0.00018759125439746327 -0.0020583591792939699 0 0.00036206765173904808 -0.001755170698023889 0 0.00028601330764994816 -0.0021771059534812847 0 -0.00018759125439746327 -0.0020583591792939699 0 0.00028601330764994816 -0.0021771059534812847 0 0.00069847196498267644 -0.0022710925816230637 0 0.00027006109609369359 -0.0026309539804358897 0 0.00028601330764994816 -0.0021771059534812847 0 -0.00018759125439746327 -0.0020583591792939699 0 0.00027006109609369359 -0.0026309539804358897 0 0.00036206765173904808 -0.001755170698023889 0 0.00028601330764994816 -0.0021771059534812847 0 0.00069847196498267644 -0.0022710925816230637 0 0.0021753231184220858 -0.003624231601109194 0 0.0022826237988669558 -0.0039152281639295294 0 0.0024065553295610801 -0.0037184969606016806 0 0.0022826237988669558 -0.0039152281639295294 0 0.0024065553295610801 -0.0037184969606016806 0 0.002510624142957356 -0.0039469630843430208 0 0.0025803772448525762 -0.0035210076339690657 0 0.0024065553295610801 -0.0037184969606016806 0 0.002510624142957356 -0.0039469630843430208 0 0.0017888736058522283 -0.0028789907065692589 0 0.00072352629660531274 -0.0025086044355212898 0 0.00072352629660531274 -0.0025086044355212898 0 0.0042448807252596582 -0.0058518451447609381 0 0.0021705854139182409 -0.0041265890870219703 0 0.0022826237988669558 -0.0039152281639295294 0 0.0024515810615258673 -0.0043608391441364016 0 0.0022826237988669558 -0.0039152281639295294 0 0.002510624142957356 -0.0039469630843430208 0 0.0024515810615258673 -0.0043608391441364016 0 0.0067619043352392643 -0.0081566250811298535 0 0.007457756416501456 -0.0087056470346336488 0 0.0065964109434475783 -0.0090015432096866611 0 0.004725925833143324 -0.006367011087112494 0 0.0042448807252596582 -0.0058518451447609381 0 -0.00018759125439746327 -0.0020583591792939699 0 -0.00032395712982311497 -0.0027904827409331889 0 0.00027006109609369359 -0.0026309539804358897 0 0.0074339924372761254 -0.0087084400069351916 0 0.0080514829584067745 -0.0092335985937093308 0 0.00731583300723322 -0.0094009900465865815 0 -0.00032395712982311497 -0.0027904827409331889 0 0.00027006109609369359 -0.0026309539804358897 0 0.00014370280197959986 -0.0031718845341437113 0 0.0042448807252596582 -0.0058518451447609381 0 0.0040147889802727476 -0.0061915118450431728 0 0.0042448807252596582 -0.0058518451447609381 0 0.0074991245029018714 -0.010157899905549489 0 0.007457756416501456 -0.0087056470346336488 0 0.00731583300723322 -0.0094009900465865815 0 0.0065964109434475783 -0.0090015432096866611 0 0.00069847196498267644 -0.0022710925816230637 0 0.00076274066105473746 -0.0027773087290341295 0 0.00027006109609369359 -0.0026309539804358897 0 0.00076274066105473746 -0.0027773087290341295 0 0.00027006109609369359 -0.0026309539804358897 0 0.00053450869428955765 -0.0030791597193977481 0 0.00027006109609369359 -0.0026309539804358897 0 0.00014370280197959986 -0.0031718845341437113 0 0.00053450869428955765 -0.0030791597193977481 0 0.00014370280197959986 -0.0031718845341437113 0 0.00053450869428955765 -0.0030791597193977481 0 0.00061188505732566391 -0.0035755173086498078 0 0.00076274066105473746 -0.0027773087290341295 0 0.00053450869428955765 -0.0030791597193977481 0 0.00089629927081819028 -0.0032588804438164623 0 0.00061188505732566391 -0.0035755173086498078 0 0.0011227435733376094 -0.0040070844993102582 0 0.00089629927081819028 -0.0032588804438164623 0 0.00053450869428955765 -0.0030791597193977481 0 0.00061188505732566391 -0.0035755173086498078 0 0.00089629927081819028 -0.0032588804438164623 0 0.0040147889802727476 -0.0061915118450431728 0 0.004380734907521131 -0.0064511033362338053 0 0.0080514829584067745 -0.0092335985937093308 0 0.0085083105200712168 -0.0097738602929177739 0 0.0080235227263452443 -0.00973018688622301 0 0.0085083105200712168 -0.0097738602929177739 0 0.0080235227263452443 -0.00973018688622301 0 0.0082909533084398815 -0.010110205541613897 0 0.0083135519693464163 -0.010457487747275262 0 0.0082909533084398815 -0.010110205541613897 0 0.0078010851414383924 -0.010099014978387248 0 0.0080235227263452443 -0.00973018688622301 0 0.0082909533084398815 -0.010110205541613897 0 0.0078010851414383924 -0.010099014978387248 0 0.004380734907521131 -0.0064511033362338053 0 0.0055378326670047799 -0.0085285118597009345 0 0.0085083105200712168 -0.0097738602929177739 0 0.0085201160604546251 -0.01011474437159508 0 0.0086922287750576845 -0.010191434929572328 0 0.0085201160604546251 -0.01011474437159508 0 0.008578140370251364 -0.010220195485622745 0 0.0086922287750576845 -0.010191434929572328 0 0.0085083105200712168 -0.0097738602929177739 0 0.0082909533084398815 -0.010110205541613897 0 0.0085201160604546251 -0.01011474437159508 0 0.0085131168881214647 -0.010319788963874766 0 0.0082909533084398815 -0.010110205541613897 0 0.0085201160604546251 -0.01011474437159508 0 0.0085131168881214647 -0.010319788963874766 0 0.0085201160604546251 -0.01011474437159508 0 0.008578140370251364 -0.010220195485622745 0 0.00731583300723322 -0.0094009900465865815 0 0.0078010851414383924 -0.010099014978387248 0 0.0071966608524431236 -0.0099657576426201381 0 0.00731583300723322 -0.0094009900465865815 0 0.0071966608524431236 -0.0099657576426201381 0 0.0068040697114754812 -0.0095868820242137279 0 0.0080514829584067745 -0.0092335985937093308 0 0.0080235227263452443 -0.00973018688622301 0 0.00731583300723322 -0.0094009900465865815 0 0.0080235227263452443 -0.00973018688622301 0 0.00731583300723322 -0.0094009900465865815 0 0.0078010851414383924 -0.010099014978387248 0 0.0073626973322140675 -0.010383279924215335 0 0.0078010851414383924 -0.010099014978387248 0 0.0071966608524431236 -0.0099657576426201381 0 0.0073626973322140675 -0.010383279924215335 0 0.0071966608524431236 -0.0099657576426201381 0 0.0066489582614042845 -0.010367836767754176 0 0.0071966608524431236 -0.0099657576426201381 0 0.0066489582614042845 -0.010367836767754176 0 0.0068040697114754812 -0.0095868820242137279 0 0.0066489582614042845 -0.010367836767754176 0 0.0068040697114754812 -0.0095868820242137279 0 0.0062598398745714011 -0.0098056176594421649 0 0.0068040697114754812 -0.0095868820242137279 0 0.0062598398745714011 -0.0098056176594421649 0 0.0065964109434475783 -0.0090015432096866611 0 0.0062598398745714011 -0.0098056176594421649 0 0.0056334403758801326 -0.0098940503816108642 0 0.0058131754378709915 -0.0093862844008404476 0 0.0062598398745714011 -0.0098056176594421649 0 0.0059909967857786897 -0.010298694689525312 0 0.0056334403758801326 -0.0098940503816108642 0 0.0066489582614042845 -0.010367836767754176 0 0.0062598398745714011 -0.0098056176594421649 0 0.0059909967857786897 -0.010298694689525312 0 0.0054126772101216565 -0.010551566268677185 0 0.0049553548834414974 -0.009855363502332716 0 0.0056334403758801326 -0.0098940503816108642 0 0.0059909967857786897 -0.010298694689525312 0 0.0054126772101216565 -0.010551566268677185 0 0.0056334403758801326 -0.0098940503816108642 0 0.0054126772101216565 -0.010551566268677185 0 0.0047387321724569331 -0.010464371953505835 0 0.0049553548834414974 -0.009855363502332716 0 0.0047351496208025996 -0.0096996633940356555 0 0.0049553548834414974 -0.009855363502332716 0 0.0049165547510294644 -0.0095477995891225381 0 0.0042476742058395085 -0.0096708602702708698 0 0.0047387321724569331 -0.010464371953505835 0 0.0049553548834414974 -0.009855363502332716 0 0.0049553548834414974 -0.009855363502332716 0 0.0052466890375549458 -0.0095583098017530781 0 0.0049165547510294644 -0.0095477995891225381 0 0.0049553548834414974 -0.009855363502332716 0 0.0056334403758801326 -0.0098940503816108642 0 0.0052466890375549458 -0.0095583098017530781 0 0.0056334403758801326 -0.0098940503816108642 0 0.0052466890375549458 -0.0095583098017530781 0 0.0058131754378709915 -0.0093862844008404476 0 0.0052466890375549458 -0.0095583098017530781 0 0.0053612767664465988 -0.0092187927232504178 0 0.0058131754378709915 -0.0093862844008404476 0 0.0053612767664465988 -0.0092187927232504178 0 0.005859334954039723 -0.0086922472368234274 0 0.0058131754378709915 -0.0093862844008404476 0 0.0047786891989870855 -0.0093317284333168347 0 0.0049165547510294644 -0.0095477995891225381 0 0.0050168084027270273 -0.0093404611613755514 0 0.0052466890375549458 -0.0095583098017530781 0 0.0053612767664465988 -0.0092187927232504178 0 0.0050168084027270273 -0.0093404611613755514 0 0.0052466890375549458 -0.0095583098017530781 0 0.0049165547510294644 -0.0095477995891225381 0 0.0050168084027270273 -0.0093404611613755514 0 0.0050168084027270273 -0.0093404611613755514 0 0.0049525450858797105 -0.0092350923805921484 0 0.0050865977759000968 -0.0091255893503910841 0 0.0053680383238841152 -0.0092862796093947982 0 0.0048762428592441509 -0.0085384579267362825 0 0.0053612767664465988 -0.0092187927232504178 0 0.0050168084027270273 -0.0093404611613755514 0 0.0050865977759000968 -0.0091255893503910841 0 0.0049863512256352631 -0.0082327608639131133 0 0.0047874484944787346 -0.0084326648864811397 0 0.0051496297397438931 -0.0084036145699331721 0 0.0048808508502958215 -0.0090816747703987236 0 0.0049525450858797105 -0.0092350923805921484 0 0.0050865977759000968 -0.0091255893503910841 0 0.0053612767664465988 -0.0092187927232504178 0 0.0047874484944787346 -0.0084326648864811397 0 0.0054238779838099247 -0.0086649542311822113 0 0.0053612767664465988 -0.0092187927232504178 0 0.0054238779838099247 -0.0086649542311822113 0 0.005859334954039723 -0.0086922472368234274 0 0.0047874484944787346 -0.0084326648864811397 0 0.0054238779838099247 -0.0086649542311822113 0 0.0051496297397438931 -0.0084036145699331721 0 0.0054238779838099247 -0.0086649542311822113 0 0.0055770368760764263 -0.008309808280369672 0 0.005859334954039723 -0.0086922472368234274 0 0.0054238779838099247 -0.0086649542311822113 0 0.0051496297397438931 -0.0084036145699331721 0 0.0055770368760764263 -0.008309808280369672 0 0.0062448484711781112 -0.0082676521073688312 0 0.0058695076855496322 -0.0083030334487147334 0 0.005859334954039723 -0.0086922472368234274 0 0.0055770368760764263 -0.008309808280369672 0 0.0058695076855496322 -0.0083030334487147334 0 0.005859334954039723 -0.0086922472368234274 0 0.0062448484711781112 -0.0082676521073688312 0 0.005859334954039723 -0.0086922472368234274 0 0.0065964109434475783 -0.0090015432096866611 0 0.0067619043352392643 -0.0081566250811298535 0 0.0062448484711781112 -0.0082676521073688312 0 0.0065964109434475783 -0.0090015432096866611 0 0.00731583300723322 -0.0094009900465865815 0 0.0068040697114754812 -0.0095868820242137279 0 0.0065964109434475783 -0.0090015432096866611 0 0.0062598398745714011 -0.0098056176594421649 0 0.0065964109434475783 -0.0090015432096866611 0 0.0058131754378709915 -0.0093862844008404476 0 0.005859334954039723 -0.0086922472368234274 0 0.0065964109434475783 -0.0090015432096866611 0 0.0058131754378709915 -0.0093862844008404476 0 0.00019407804066753396 -0.034734840172902001 0 0.00010402025846292947 -0.034800052827714575 0 0.00015563435003381669 -0.034922091599229439 0 0.00010402025846292947 -0.034800052827714575 0 4.7839024455190254e-05 -0.034725751403990479 0 0.00016631747424117655 -0.034707347938194515 0 0.00019407804066753396 -0.034734840172902001 0 0.00010402025846292947 -0.034800052827714575 0 0.00016631747424117655 -0.034707347938194515 0 0.00010402025846292947 -0.034800052827714575 0 -2.2559968697537836e-05 -0.034810473792006046 0 4.7839024455190254e-05 -0.034725751403990479 0 -6.7802027123687926e-06 -0.034894123955576381 0 4.3935613597097432e-06 -0.034878893668295836 0 -1.3522309193940213e-08 -0.034999948993470711 0 -2.3331129448478799e-10 -0.035000000010124523 0 6.0595040591490043e-10 -0.034999997634957342 0 -2.2559968697537836e-05 -0.034810473792006046 0 4.7839024455190254e-05 -0.034725751403990479 0 -3.579574095073307e-06 -0.034649164814665241 0 0.00010402025846292947 -0.034800052827714575 0 -2.2559968697537836e-05 -0.034810473792006046 0 7.0624212035203367e-05 -0.034926261040461218 0 4.3935613597097432e-06 -0.034878893668295836 0 0.00013155716479039232 -0.034654283732712995 0 -1.3522309193940213e-08 -0.034999948993470711 0 6.0595040591490043e-10 -0.034999997634957342 0 1.6949922223847414e-07 -0.034999630260748961 0 4.7839024455190254e-05 -0.034725751403990479 0 -3.579574095073307e-06 -0.034649164814665241 0 0.00016631747424117655 -0.034707347938194515 0 -5.1736065052897914e-08 -0.03499992906633724 0 4.3935613597097432e-06 -0.034878893668295836 0 -9.0157310004649867e-11 -0.034999999851404041 0 2.2857615831503283e-11 -0.034999999558045933 0 -2.7913694562043451e-08 -0.034999780107667584 0 5.2246366512711956e-08 -0.03499976967351922 0 4.3935613597097432e-06 -0.034878893668295836 0 1.8793992951080657e-05 -0.034615851042985209 0 9.4618370053563212e-05 -0.034589849950412525 0 0.00011581090613358068 -0.034649426178844298 0 9.4618370053563212e-05 -0.034589849950412525 0 0.00011581090613358068 -0.034649426178844298 0 0.00015668685283486592 -0.034567269801100711 0 0.00011581090613358068 -0.034649426178844298 0 0.0001807820514559828 -0.034626134658584044 0 0.00022485829333096903 -0.03468925964656451 0 0.00011581090613358068 -0.034649426178844298 0 0.0001807820514559828 -0.034626134658584044 0 0.00015668685283486592 -0.034567269801100711 0 0.0001807820514559828 -0.034626134658584044 0 0.00022657911112653538 -0.034603814316673323 0 0.00022485829333096903 -0.03468925964656451 0 0.0001807820514559828 -0.034626134658584044 0 0.00022657911112653538 -0.034603814316673323 0 0.00015668685283486592 -0.034567269801100711 0 0.00022657911112653538 -0.034603814316673323 0 0.00032225342815003354 -0.034606546603866722 0 0.0002451829247569798 -0.034524971456236661 0 0.00022657911112653538 -0.034603814316673323 0 0.00027305213628045169 -0.034649371978190284 0 0.00022485829333096903 -0.03468925964656451 0 0.00022657911112653538 -0.034603814316673323 0 0.00027305213628045169 -0.034649371978190284 0 0.00032225342815003354 -0.034606546603866722 0 0.00027305213628045169 -0.034649371978190284 0 0.00022485829333096903 -0.03468925964656451 0 0.00030206259085551233 -0.034712046903696232 0 0.00022485829333096903 -0.03468925964656451 0 0.00020896436123447182 -0.03472469884405896 0 0.00030206259085551233 -0.034712046903696232 0 0.00013155716479039232 -0.034654283732712995 0 0.00022597119764275093 -0.034697253546412649 0 0.00019407804066753396 -0.034734840172902001 0 0.00016631747424117655 -0.034707347938194515 0 0.00022485829333096903 -0.03468925964656451 0 0.00019407804066753396 -0.034734840172902001 0 0.00022485829333096903 -0.03468925964656451 0 0.00020896436123447182 -0.03472469884405896 0 0.0002221705136036216 -0.034744786016289268 0 0.00020896436123447182 -0.03472469884405896 0 0.00019509183847869069 -0.034732006600736498 0 0.00019407804066753396 -0.034734840172902001 0 0.00020896436123447182 -0.03472469884405896 0 0.00019509183847869069 -0.034732006600736498 0 0.0002221705136036216 -0.034744786016289268 0 0.00020896436123447182 -0.03472469884405896 0 0.00030206259085551233 -0.034712046903696232 0 -1.3022620711633949e-05 -0.032548238140719825 0 0.00054245340958800265 -0.032822527990503378 0 0.00064662645185393239 -0.032261237166398643 0 7.8262440268195128e-05 -0.033567621789564253 0 0.00050083234569445537 -0.033548779227005311 0 -1.3022620711633949e-05 -0.032548238140719825 0 -0.00018612331450674558 -0.033273173300301856 0 0.00054245340958800265 -0.032822527990503378 0 7.8262440268195128e-05 -0.033567621789564253 0 -1.9895051346738759e-05 -0.034424036905553165 0 -1.3022620711633949e-05 -0.032548238140719825 0 -0.00069842370440818596 -0.032836564602629993 0 -0.00018612331450674558 -0.033273173300301856 0 0.0002221705136036216 -0.034744786016289268 0 0.00018691704109249406 -0.034749629790642007 0 0.00019509183847869069 -0.034732006600736498 0 -1.9895051346738759e-05 -0.034424036905553165 0 0.00015078042511212876 -0.034885640332772472 0 0.00019988284054668783 -0.03472775239745024 0 0.00015078042511212876 -0.034885640332772472 0 8.7851600728285932e-05 -0.035012942137733261 0 0.00015563435003381669 -0.034922091599229439 0 7.0624212035203367e-05 -0.034926261040461218 0 0.00010402025846292947 -0.034800052827714575 0 0.00015563435003381669 -0.034922091599229439 0 7.0624212035203367e-05 -0.034926261040461218 0 -1.3522309193940213e-08 -0.034999948993470711 0 -2.3331129448478799e-10 -0.035000000010124523 0 -2.0044532105665976e-11 -0.034999999686472556 0 8.7851600728285932e-05 -0.035012942137733261 0 -9.185275528582254e-08 -0.034999674968651237 0 7.0624212035203367e-05 -0.034926261040461218 0 -6.7802027123687926e-06 -0.034894123955576381 0 -9.0285096100656699e-09 -0.034999973353222025 0 -2.2559968697537836e-05 -0.034810473792006046 0 -9.185275528582254e-08 -0.034999674968651237 0 7.0624212035203367e-05 -0.034926261040461218 0 -1.9895051346738759e-05 -0.034424036905553165 0 -9.5078842867112151e-08 -0.03500022604158029 0 8.7851600728285932e-05 -0.035012942137733261 0 -9.185275528582254e-08 -0.034999674968651237 0 8.4695146742091897e-08 -0.035000237876823929 0 -2.2433010150699517e-09 -0.034999981069107365 0 9.2131238653654488e-07 -0.034995626881920677 0 -8.2457537228659068e-10 -0.034999997067302065 0 3.7498181910753725e-06 -0.034986719742765987 0 -2.2433010150699517e-09 -0.034999981069107365 0 9.2131238653654488e-07 -0.034995626881920677 0 -0.00069842370440818596 -0.032836564602629993 0 -0.00087034426288512665 -0.033358725128660664 0 -0.00018612331450674558 -0.033273173300301856 0 -1.9895051346738759e-05 -0.034424036905553165 0 -0.0004299244000596004 -0.034104078834369535 0 -0.00087034426288512665 -0.033358725128660664 0 -0.00057470977511528615 -0.033724965074933937 0 -0.00018612331450674558 -0.033273173300301856 0 -0.00087034426288512665 -0.033358725128660664 0 -0.00057470977511528615 -0.033724965074933937 0 -0.0010402966567752922 -0.033889603563394974 0 -0.00057470977511528615 -0.033724965074933937 0 -0.0010402966567752922 -0.033889603563394974 0 -0.00041221211394731807 -0.034169977562714261 0 9.2131238653654488e-07 -0.034995626881920677 0 -1.1786485127652822e-06 -0.034996635101977057 0 -8.2457537228659068e-10 -0.034999997067302065 0 -0.0004299244000596004 -0.034104078834369535 0 -0.00029092148898705465 -0.034529928165032683 0 -0.00029092148898705465 -0.034529928165032683 0 1.566797096100651e-07 -0.034999844428388355 0 -1.1851232473178187e-06 -0.034998440683833974 0 -1.4091574288090548e-09 -0.034999997312557603 0 -4.9149881562545453e-10 -0.03499999824887582 0 -1.1851232473178187e-06 -0.034998440683833974 0 -1.5977323963055788e-07 -0.034999700744888555 0 -4.9149881562545453e-10 -0.03499999824887582 0 -0.00029092148898705465 -0.034529928165032683 0 -2.3637302566575135e-05 -0.034906071376060541 0 6.2505242681084194e-06 -0.034644751696424392 0 -1.6186431732923297e-05 -0.034768156998563352 0 0.00013120500803644688 -0.034637525189991407 0 -1.6186431732923297e-05 -0.034768156998563352 0 0.00013120500803644688 -0.034637525189991407 0 7.6975945959483313e-05 -0.034831409831729242 0 -0.00029092148898705465 -0.034529928165032683 0 -0.00018025711959345107 -0.034361855814404096 0 0.00016485502831113229 -0.034792541584749016 0 0.00013120500803644688 -0.034637525189991407 0 7.6975945959483313e-05 -0.034831409831729242 0 -1.6186431732923297e-05 -0.034768156998563352 0 7.6975945959483313e-05 -0.034831409831729242 0 -2.0099402606339567e-07 -0.034999518617340325 0 -1.5977323963055788e-07 -0.034999700744888555 0 -4.9149881562545453e-10 -0.03499999824887582 0 7.8935693346842831e-11 -0.035000000261604179 0 2.3632378205258019e-05 -0.034944340124599578 0 7.6975945959483313e-05 -0.034831409831729242 0 -2.0099402606339567e-07 -0.034999518617340325 0 -2.3637302566575135e-05 -0.034906071376060541 0 -4.9578954931248844e-09 -0.034999919822558914 0 0.00056256924015489376 -0.034915521586563657 0 0.00029030360185254984 -0.03448836667444069 0 0.00072201274367076013 -0.03452355107980741 0 0.00056256924015489376 -0.034915521586563657 0 0.00016485502831113229 -0.034792541584749016 0 0.00029030360185254984 -0.03448836667444069 0 0.00016485502831113229 -0.034792541584749016 0 0.00013120500803644688 -0.034637525189991407 0 0.00029030360185254984 -0.03448836667444069 0 -0.00018025711959345107 -0.034361855814404096 0 0.0002899882662414812 -0.034514159537586263 0 -0.00041221211394731807 -0.034169977562714261 0 0.00029030360185254984 -0.03448836667444069 0 6.7368411154173271e-05 -0.033805734416809979 0 0.00029030360185254984 -0.03448836667444069 0 6.7368411154173271e-05 -0.033805734416809979 0 0.00085396967910348709 -0.033940962883836009 0 6.7368411154173271e-05 -0.033805734416809979 0 -0.00018612331450674558 -0.033273173300301856 0 0.0004738385185851751 -0.033394388470952427 0 6.7368411154173271e-05 -0.033805734416809979 0 0.0004738385185851751 -0.033394388470952427 0 0.00085396967910348709 -0.033940962883836009 0 -0.00057470977511528615 -0.033724965074933937 0 6.7368411154173271e-05 -0.033805734416809979 0 -0.00018612331450674558 -0.033273173300301856 0 -0.00057470977511528615 -0.033724965074933937 0 -0.00041221211394731807 -0.034169977562714261 0 6.7368411154173271e-05 -0.033805734416809979 0 -0.00018612331450674558 -0.033273173300301856 0 0.0004738385185851751 -0.033394388470952427 0 0.00054245340958800265 -0.032822527990503378 0 0.0004738385185851751 -0.033394388470952427 0 0.00098628182270994106 -0.033138958292253828 0 0.00054245340958800265 -0.032822527990503378 0 0.00098628182270994106 -0.033138958292253828 0 0.0014011151558645744 -0.033471094949891332 0 0.0015007627720307688 -0.032766167233880712 0 0.00098628182270994106 -0.033138958292253828 0 0.00085396967910348709 -0.033940962883836009 0 0.0014011151558645744 -0.033471094949891332 0 0.00085396967910348709 -0.033940962883836009 0 0.0015291123590462465 -0.034018936540593257 0 0.0014011151558645744 -0.033471094949891332 0 0.0004738385185851751 -0.033394388470952427 0 0.00098628182270994106 -0.033138958292253828 0 0.00085396967910348709 -0.033940962883836009 0 0.00029030360185254984 -0.03448836667444069 0 0.00085396967910348709 -0.033940962883836009 0 0.00072201274367076013 -0.03452355107980741 0 0.00085396967910348709 -0.033940962883836009 0 0.0012916590559559394 -0.034649262514668086 0 0.0015291123590462465 -0.034018936540593257 0 0.00085396967910348709 -0.033940962883836009 0 0.0012916590559559394 -0.034649262514668086 0 0.00072201274367076013 -0.03452355107980741 0 0.00056256924015489376 -0.034915521586563657 0 0.0012916590559559394 -0.034649262514668086 0 0.00072201274367076013 -0.03452355107980741 0 0.0015387236604722328 -0.026881980079428276 0 0.0016252269876285412 -0.027997350878350778 0 0.0024860698190893892 -0.027312267198992279 0 0.0015655692687474904 -0.029491691946044358 0 0.0016463450639331873 -0.02723643526610791 0 0.00070135374511001573 -0.028241429292736105 0 0.0016486086079949521 -0.027531476675461509 0 0.0016252269876285412 -0.027997350878350778 0 0.0012916590559559394 -0.034649262514668086 0 0.0020750310396043499 -0.034265647464617341 0 0.0015291123590462465 -0.034018936540593257 0 0.0010160542038708652 -0.031649800071244315 0 0.0015655692687474904 -0.029491691946044358 0 0.0020750310396043499 -0.034265647464617341 0 0.0015291123590462465 -0.034018936540593257 0 0.0021174506038463313 -0.033645567117129377 0 0.0015655692687474904 -0.029491691946044358 0 0.0019542294382583962 -0.031048374870893274 0 0.0021174506038463313 -0.033645567117129377 0 0.0014011151558645744 -0.033471094949891332 0 0.0021569736793459987 -0.032983527581591725 0 0.0015291123590462465 -0.034018936540593257 0 0.0021174506038463313 -0.033645567117129377 0 0.0014011151558645744 -0.033471094949891332 0 0.001305921285349637 -0.034024180597305768 0 0.0021019842536361272 -0.031187658415734155 0 0.0014011151558645744 -0.033471094949891332 0 0.0020630749004699371 -0.033019295614908635 0 0.0015007627720307688 -0.032766167233880712 0 0.0019542294382583962 -0.031048374870893274 0 0.0021019842536361272 -0.031187658415734155 0 0.0020630749004699371 -0.033019295614908635 0 0.0018242452577891585 -0.03265754727447271 0 0.0020609417332991221 -0.032457328302925227 0 0.0021019842536361272 -0.031187658415734155 0 0.0019916206091079589 -0.03211740451187807 0 0.0020630749004699371 -0.033019295614908635 0 0.0018242452577891585 -0.03265754727447271 0 0.0015007627720307688 -0.032766167233880712 0 0.0018242452577891585 -0.03265754727447271 0 0.0020609417332991221 -0.032457328302925227 0 0.0016695816331752092 -0.032383749899854729 0 0.0019916206091079589 -0.03211740451187807 0 0.0019623697778306751 -0.031801356437523652 0 0.0020609417332991221 -0.032457328302925227 0 0.0017886033588020772 -0.032139701931390381 0 0.0019374107120309055 -0.031845140479354425 0 0.0020609417332991221 -0.032457328302925227 0 0.0017886033588020772 -0.032139701931390381 0 0.0016695816331752092 -0.032383749899854729 0 0.0015280903781734378 -0.032256702904818427 0 0.001420479925512885 -0.032085435828109833 0 0.0016154389997718257 -0.032148108466832047 0 0.0015280903781734378 -0.032256702904818427 0 0.001420479925512885 -0.032085435828109833 0 0.001408159099884338 -0.032412223747563265 0 0.0015280903781734378 -0.032256702904818427 0 0.0016154389997718257 -0.032148108466832047 0 0.0016695816331752092 -0.032383749899854729 0 0.0017886033588020772 -0.032139701931390381 0 0.0016154389997718257 -0.032148108466832047 0 0.0016695816331752092 -0.032383749899854729 0 0.0017886033588020772 -0.032139701931390381 0 0.0016154389997718257 -0.032148108466832047 0 0.0017044926000003237 -0.031973679650021847 0 0.0015280903781734378 -0.032256702904818427 0 0.0016695816331752092 -0.032383749899854729 0 0.001408159099884338 -0.032412223747563265 0 0.0016695816331752092 -0.032383749899854729 0 0.001408159099884338 -0.032412223747563265 0 0.0015007627720307688 -0.032766167233880712 0 0.001408159099884338 -0.032412223747563265 0 0.0015007627720307688 -0.032766167233880712 0 0.0011232414903657539 -0.032478709528268944 0 0.0018242452577891585 -0.03265754727447271 0 0.0016695816331752092 -0.032383749899854729 0 0.0015007627720307688 -0.032766167233880712 0 0.00098628182270994106 -0.033138958292253828 0 0.0015007627720307688 -0.032766167233880712 0 0.0011232414903657539 -0.032478709528268944 0 0.00098628182270994106 -0.033138958292253828 0 0.00054245340958800265 -0.032822527990503378 0 0.0011232414903657539 -0.032478709528268944 0 0.00054245340958800265 -0.032822527990503378 0 0.00064662645185393239 -0.032261237166398643 0 0.0011232414903657539 -0.032478709528268944 0 0.00064662645185393239 -0.032261237166398643 0 0.0011232414903657539 -0.032478709528268944 0 0.0012938135561985928 -0.031969329827660965 0 0.001420479925512885 -0.032085435828109833 0 0.0011232414903657539 -0.032478709528268944 0 0.0012938135561985928 -0.031969329827660965 0 0.00050083234569445537 -0.033548779227005311 0 0.00063535310361495111 -0.032819236652474534 0 0.001420479925512885 -0.032085435828109833 0 0.001408159099884338 -0.032412223747563265 0 0.0011232414903657539 -0.032478709528268944 0 0.00063535310361495111 -0.032819236652474534 0 0.00019218533288110128 -0.033253356546870026 0 0.00030206259085551233 -0.034712046903696232 0 0.0003910368968748309 -0.034658612967565554 0 0.00032225342815003354 -0.034606546603866722 0 0.00027305213628045169 -0.034649371978190284 0 0.00030206259085551233 -0.034712046903696232 0 0.00032225342815003354 -0.034606546603866722 0 -2.6119708500639412e-05 -0.031806691063975781 0 0.00015906198519836671 -0.031973781668679334 0 -4.7624514148907772e-05 -0.031991304038038848 0 0.00015906198519836671 -0.031973781668679334 0 -4.7624514148907772e-05 -0.031991304038038848 0 6.5304506605650439e-05 -0.032117465169085917 0 -4.7624514148907772e-05 -0.031991304038038848 0 -0.00026778578395156738 -0.031900638525198338 0 -0.00014667113217932799 -0.032160823912670215 0 0.0019216524008331076 -0.031830721884400448 0 0.0019374107120309055 -0.031845140479354425 0 0.0017044926000003237 -0.031973679650021847 0 0.0017886033588020772 -0.032139701931390381 0 0.0019374107120309055 -0.031845140479354425 0 0.0017044926000003237 -0.031973679650021847 0 0.0013300791068749814 -0.031967988081549541 0 0.0019216524008331076 -0.031830721884400448 0 0.0017044926000003237 -0.031973679650021847 0 -2.6119708500639412e-05 -0.031806691063975781 0 -4.7624514148907772e-05 -0.031991304038038848 0 -0.00026778578395156738 -0.031900638525198338 0 0.001420479925512885 -0.032085435828109833 0 0.0013300791068749814 -0.031967988081549541 0 0.0017044926000003237 -0.031973679650021847 0 0.00063535310361495111 -0.032819236652474534 0 0.00088339367492588016 -0.031759725324371338 0 0.001420479925512885 -0.032085435828109833 0 0.0016154389997718257 -0.032148108466832047 0 0.0017044926000003237 -0.031973679650021847 0 0.00087388366058859933 -0.032574007208501427 0 0.00063535310361495111 -0.032819236652474534 0 -0.00026778578395156738 -0.031900638525198338 0 -0.00049856982388075445 -0.031993800864873925 0 -0.00039024426473966187 -0.032192362691375896 0 0.0017181085856748603 -0.031834669447297105 0 0.0012927977823740623 -0.031586065428894076 0 0.0015965067671073309 -0.031594290260200074 0 0.0017181085856748603 -0.031834669447297105 0 0.0015761215577318728 -0.032063995448467032 0 0.0012927977823740623 -0.031586065428894076 0 0.00030529705880559532 -0.031803877000775999 0 0.0016239312966456324 -0.031627818527781175 0 0.0019216524008331076 -0.031830721884400448 0 0.0019374107120309055 -0.031845140479354425 0 0.0017181085856748603 -0.031834669447297105 0 0.0019374107120309055 -0.031845140479354425 0 0.0017181085856748603 -0.031834669447297105 0 0.0017853173750897581 -0.03160456308633585 0 0.0017181085856748603 -0.031834669447297105 0 0.0015965067671073309 -0.031594290260200074 0 0.0017853173750897581 -0.03160456308633585 0 0.0019216524008331076 -0.031830721884400448 0 0.0017181085856748603 -0.031834669447297105 0 0.0015761215577318728 -0.032063995448467032 0 0.00088339367492588016 -0.031759725324371338 0 0.00030529705880559532 -0.031803877000775999 0 0.00030529705880559532 -0.031803877000775999 0 4.2586197201739674e-05 -0.031593371146692126 0 0.0010944192659291111 -0.031359466291733529 0 0.0013271020222157116 -0.031451185732368707 0 0.0012873851677406751 -0.031263217878690262 0 0.0013271020222157116 -0.031451185732368707 0 0.0014522037299155369 -0.031316083227669683 0 0.0012873851677406751 -0.031263217878690262 0 0.0013271020222157116 -0.031451185732368707 0 0.0014459923766199311 -0.031476290145070043 0 0.0014522037299155369 -0.031316083227669683 0 0.0013271020222157116 -0.031451185732368707 0 0.0012789985126123601 -0.031545314093208217 0 0.0014459923766199311 -0.031476290145070043 0 0.0013271020222157116 -0.031451185732368707 0 0.0012927977823740623 -0.031586065428894076 0 0.0012789985126123601 -0.031545314093208217 0 0.0010944192659291111 -0.031359466291733529 0 0.0013271020222157116 -0.031451185732368707 0 0.0012927977823740623 -0.031586065428894076 0 0.0012927977823740623 -0.031586065428894076 0 0.0012789985126123601 -0.031545314093208217 0 0.001561015144361853 -0.031319586473700325 0 0.001642505225786843 -0.029710116875561628 0 0.0017534369844645961 -0.029369024976268115 0 0.0019796419715876557 -0.027877008527946515 0 0.0019872929137674713 -0.027865850141008917 0 0.001952220916202241 -0.027933626166935163 0 0.001642505225786843 -0.029710116875561628 0 0.0016197480707089811 -0.029904759660496587 0 0.0019872929137674713 -0.027865850141008917 0 0.0019613185988325479 -0.027887266925044049 0 0.0020165795665214445 -0.027834141804008495 0 0.0019872929137674713 -0.027865850141008917 0 0.0020165795665214445 -0.027834141804008495 0 0.0019517461497610379 -0.027870991316556737 0 0.0019796419715876557 -0.027877008527946515 0 0.0018977168208036477 -0.027884253683838841 0 0.0019613185988325479 -0.027887266925044049 0 0.0019796419715876557 -0.027877008527946515 0 0.0019872929137674713 -0.027865850141008917 0 0.0019613185988325479 -0.027887266925044049 0 0.0012927977823740623 -0.031586065428894076 0 0.001561015144361853 -0.031319586473700325 0 0.0015965067671073309 -0.031594290260200074 0 0.0019632551297405292 -0.031425750100453252 0 0.001561015144361853 -0.031319586473700325 0 0.0017853173750897581 -0.03160456308633585 0 0.001561015144361853 -0.031319586473700325 0 0.0015965067671073309 -0.031594290260200074 0 0.0017853173750897581 -0.03160456308633585 0 0.0019632551297405292 -0.031425750100453252 0 0.0019374107120309055 -0.031845140479354425 0 0.0017853173750897581 -0.03160456308633585 0 0.0021019842536361272 -0.031187658415734155 0 0.0017534369844645961 -0.029369024976268115 0 0.0019835907508851057 -0.031068772712690797 0 0.0019632551297405292 -0.031425750100453252 0 0.001561015144361853 -0.031319586473700325 0 0.0017733888237354534 -0.028059912559427396 0 0.0017828623018591007 -0.027965184034489911 0 0.0018827239687057217 -0.027977979914563005 0 0.0017828623018591007 -0.027965184034489911 0 0.0018977168208036477 -0.027884253683838841 0 0.0018827239687057217 -0.027977979914563005 0 0.0018977168208036477 -0.027884253683838841 0 0.0018827239687057217 -0.027977979914563005 0 0.0019613185988325479 -0.027887266925044049 0 0.0024785813707804542 -0.026717248290860807 0 0.0029896146998797889 -0.026605377647118244 0 0.0018827239687057217 -0.027977979914563005 0 0.001886287481904251 -0.028081539488913013 0 0.0019692694239776855 -0.027996091019290285 0 0.0017733888237354534 -0.028059912559427396 0 0.0018827239687057217 -0.027977979914563005 0 0.001886287481904251 -0.028081539488913013 0 0.0015655692687474904 -0.029491691946044358 0 0.0024785813707804542 -0.026717248290860807 0 0.001763598029097383 -0.028172951698163615 0 0.0017733888237354534 -0.028059912559427396 0 0.001886287481904251 -0.028081539488913013 0 0.0028626305587502862 -0.02592360712794211 0 0.0033318815821279427 -0.02712039268008733 0 0.0037377937819527826 -0.026144813991356455 0 0.0028626305587502862 -0.02592360712794211 0 0.0033318815821279427 -0.02712039268008733 0 0.0024860698190893892 -0.027312267198992279 0 0.0015387236604722328 -0.026881980079428276 0 0.0028626305587502862 -0.02592360712794211 0 0.0024860698190893892 -0.027312267198992279 0 0.0042754246124122215 -0.027124030208136925 0 0.0047098414478585976 -0.02654023420744955 0 0.0044727780351750636 -0.025864119471022188 0 0.0047098414478585976 -0.02654023420744955 0 0.0044727780351750636 -0.025864119471022188 0 0.0050587822012078476 -0.025531309448890954 0 0.0042754246124122215 -0.027124030208136925 0 0.0033318815821279427 -0.02712039268008733 0 0.0037377937819527826 -0.026144813991356455 0 0.0042754246124122215 -0.027124030208136925 0 0.0037377937819527826 -0.026144813991356455 0 0.0044727780351750636 -0.025864119471022188 0 0.0037377937819527826 -0.026144813991356455 0 0.0044727780351750636 -0.025864119471022188 0 0.0040560837852280738 -0.025113189702742036 0 0.0028626305587502862 -0.02592360712794211 0 0.0037377937819527826 -0.026144813991356455 0 0.0040560837852280738 -0.025113189702742036 0 0.0044727780351750636 -0.025864119471022188 0 0.0040560837852280738 -0.025113189702742036 0 0.004993515838257751 -0.0250744807891383 0 0.0029896146998797889 -0.026605377647118244 0 0.0035708273961547895 -0.026286333134553252 0 0.0040560837852280738 -0.025113189702742036 0 0.0049492166681328505 -0.02463702997742729 0 0.004993515838257751 -0.0250744807891383 0 0.0018827239687057217 -0.027977979914563005 0 0.0019692694239776855 -0.027996091019290285 0 0.0019613185988325479 -0.027887266925044049 0 0.0019692694239776855 -0.027996091019290285 0 0.0019613185988325479 -0.027887266925044049 0 0.0020165795665214445 -0.027834141804008495 0 0.0019692694239776855 -0.027996091019290285 0 0.0020165795665214445 -0.027834141804008495 0 0.0021699751484018262 -0.027935307836105837 0 0.0020165795665214445 -0.027834141804008495 0 0.0021699751484018262 -0.027935307836105837 0 0.0023559322417395913 -0.027585688101908541 0 0.0035708273961547895 -0.026286333134553252 0 0.0039451812760633821 -0.026131048527398257 0 0.0049492166681328505 -0.02463702997742729 0 0.0051851806226667092 -0.024634908206625606 0 0.0052080458182811014 -0.02463910305051082 0 0.0021699751484018262 -0.027935307836105837 0 0.0027761323321534117 -0.027660887331329678 0 0.0023559322417395913 -0.027585688101908541 0 0.0052080458182811014 -0.02463910305051082 0 0.004993515838257751 -0.0250744807891383 0 0.0052038477166345956 -0.024664088195288519 0 0.0049492166681328505 -0.02463702997742729 0 0.0052080458182811014 -0.02463910305051082 0 0.004993515838257751 -0.0250744807891383 0 0.0044727780351750636 -0.025864119471022188 0 0.004993515838257751 -0.0250744807891383 0 0.0050587822012078476 -0.025531309448890954 0 0.004993515838257751 -0.0250744807891383 0 0.0050587822012078476 -0.025531309448890954 0 0.0052038477166345956 -0.024664088195288519 0 0.0050587822012078476 -0.025531309448890954 0 0.0052038477166345956 -0.024664088195288519 0 0.0051983471290743839 -0.024395273693168087 0 0.0050587822012078476 -0.025531309448890954 0 0.0056361004928959955 -0.0264139651769086 0 0.0052363318068046347 -0.026474138249646666 0 0.0050195183732801357 -0.025449702797231671 0 0.00534704710578391 -0.025394766421264044 0 0.0054302155535246796 -0.026660407585850369 0 0.0056361004928959955 -0.0264139651769086 0 0.0052363318068046347 -0.026474138249646666 0 0.0047098414478585976 -0.02654023420744955 0 0.0050587822012078476 -0.025531309448890954 0 0.0052363318068046347 -0.026474138249646666 0 0.0051429509981926773 -0.023930392920315589 0 0.0051965622262983326 -0.023778508967790182 0 0.0051169638592976196 -0.024111703855052374 0 0.0054859013127439614 -0.025319104560284893 0 0.00534704710578391 -0.025394766421264044 0 0.0051429509981926773 -0.023930392920315589 0 0.0051983471290743839 -0.024395273693168087 0 0.0051169638592976196 -0.024111703855052374 0 0.0052038477166345956 -0.024664088195288519 0 0.0051983471290743839 -0.024395273693168087 0 0.0051169638592976196 -0.024111703855052374 0 0.0052038477166345956 -0.024664088195288519 0 0.0051169638592976196 -0.024111703855052374 0 0.0050418981728854225 -0.024140436666563212 0 0.0052836034970797398 -0.023440778289029872 0 0.0051965622262983326 -0.023778508967790182 0 0.0050418981728854225 -0.024140436666563212 0 0.0051965622262983326 -0.023778508967790182 0 0.0051169638592976196 -0.024111703855052374 0 0.0050418981728854225 -0.024140436666563212 0 0.0052836034970797398 -0.023440778289029872 0 0.0051373104317911757 -0.023216447802193872 0 0.0050418981728854225 -0.024140436666563212 0 0.0047404414953664941 -0.024407773305607592 0 0.0050418981728854225 -0.024140436666563212 0 0.0050325526526183847 -0.024556007466913023 0 0.0049763600068726153 -0.023827221941264697 0 0.0050310635062470951 -0.024034551327630462 0 0.0052080458182811014 -0.02463910305051082 0 0.0050418981728854225 -0.024140436666563212 0 0.0050325526526183847 -0.024556007466913023 0 0.0052080458182811014 -0.02463910305051082 0 0.0052038477166345956 -0.024664088195288519 0 0.0050418981728854225 -0.024140436666563212 0 0.0051851806226667092 -0.024634908206625606 0 0.0050325526526183847 -0.024556007466913023 0 0.0049068688571666137 -0.024831216744465583 0 0.0051851806226667092 -0.024634908206625606 0 0.0052080458182811014 -0.02463910305051082 0 0.0050325526526183847 -0.024556007466913023 0 0.0047613332110997145 -0.024631857402716069 0 0.0047404414953664941 -0.024407773305607592 0 0.0050325526526183847 -0.024556007466913023 0 0.0047613332110997145 -0.024631857402716069 0 0.0050325526526183847 -0.024556007466913023 0 0.0049068688571666137 -0.024831216744465583 0 0.0033891749362222547 -0.027332963375745489 0 0.0035221930257838267 -0.026857396635465453 0 0.0031462833577295636 -0.026894118757616523 0 0.0031462833577295636 -0.026894118757616523 0 0.0027077888441679587 -0.027178617048726393 0 0.0028282515112926536 -0.026695602957461786 0 0.0033891749362222547 -0.027332963375745489 0 0.0031462833577295636 -0.026894118757616523 0 0.0027077888441679587 -0.027178617048726393 0 0.0027761323321534117 -0.027660887331329678 0 0.0033891749362222547 -0.027332963375745489 0 0.0027077888441679587 -0.027178617048726393 0 0.0039451812760633821 -0.026131048527398257 0 0.0042798518430154997 -0.026256075010961361 0 0.0027761323321534117 -0.027660887331329678 0 0.0023559322417395913 -0.027585688101908541 0 0.0027077888441679587 -0.027178617048726393 0 0.0020165795665214445 -0.027834141804008495 0 0.0021884077943469227 -0.027286538856233403 0 0.0023559322417395913 -0.027585688101908541 0 0.0020213494155082025 -0.027782822991911461 0 0.0020519765011241722 -0.027628335047422518 0 0.0021884077943469227 -0.027286538856233403 0 0.0023559322417395913 -0.027585688101908541 0 0.0027077888441679587 -0.027178617048726393 0 0.0020519765011241722 -0.027628335047422518 0 0.002294383670443499 -0.027128041875621376 0 0.0019517461497610379 -0.027870991316556737 0 0.0019134212736025013 -0.027918949811691202 0 0.001952220916202241 -0.027933626166935163 0 0.0019872929137674713 -0.027865850141008917 0 0.0019517461497610379 -0.027870991316556737 0 0.001952220916202241 -0.027933626166935163 0 0.0021884077943469227 -0.027286538856233403 0 0.0027077888441679587 -0.027178617048726393 0 0.0024443587996774035 -0.026780434084448489 0 0.0027077888441679587 -0.027178617048726393 0 0.0024443587996774035 -0.026780434084448489 0 0.0028282515112926536 -0.026695602957461786 0 0.0024443587996774035 -0.026780434084448489 0 0.0027084531201413049 -0.026300306981932829 0 0.0028282515112926536 -0.026695602957461786 0 0.0016197480707089811 -0.029904759660496587 0 0.0018721867102307198 -0.028330868269452025 0 0.002294383670443499 -0.027128041875621376 0 0.0018721867102307198 -0.028330868269452025 0 0.0019134212736025013 -0.027918949811691202 0 0.001952220916202241 -0.027933626166935163 0 0.0018745349266050941 -0.027996718050898494 0 0.0014459923766199311 -0.031476290145070043 0 0.0014522037299155369 -0.031316083227669683 0 0.0016370262649545559 -0.031346010415615709 0 0.0014522037299155369 -0.031316083227669683 0 0.0016370262649545559 -0.031346010415615709 0 0.0015910318037533225 -0.031198087675167928 0 0.0018721867102307198 -0.028330868269452025 0 0.0025501411549603906 -0.026740742310115896 0 0.0015861981395574759 -0.027590223119964168 0 0.0018176240179999855 -0.027446075283883192 0 0.0017586352657087351 -0.027295317155165817 0 0.0018721867102307198 -0.028330868269452025 0 0.0016409039282482599 -0.029644898387512598 0 0.0027084531201413049 -0.026300306981932829 0 0.003112888633522624 -0.026045249418632933 0 0.0032670717596603679 -0.026433311441824758 0 0.0037564096209079193 -0.026410650320161495 0 0.0032670717596603679 -0.026433311441824758 0 0.0035151506896110769 -0.025790304819502917 0 0.003112888633522624 -0.026045249418632933 0 0.0032670717596603679 -0.026433311441824758 0 0.0035151506896110769 -0.025790304819502917 0 0.0037564096209079193 -0.026410650320161495 0 0.0035221930257838267 -0.026857396635465453 0 0.0032670717596603679 -0.026433311441824758 0 0.0035221930257838267 -0.026857396635465453 0 0.0031462833577295636 -0.026894118757616523 0 0.0032670717596603679 -0.026433311441824758 0 0.0031462833577295636 -0.026894118757616523 0 0.0032670717596603679 -0.026433311441824758 0 0.0028282515112926536 -0.026695602957461786 0 0.0027084531201413049 -0.026300306981932829 0 0.0032670717596603679 -0.026433311441824758 0 0.0028282515112926536 -0.026695602957461786 0 0.001646488120522972 -0.031007789248724757 0 0.0018399445329498605 -0.030898212757076025 0 0.0018523685114450916 -0.030928658268655967 0 0.00024993035749423218 -0.031722849278031394 0 0.00052467215906616747 -0.02971937833982128 0 0.0015175718655856638 -0.027677836562538152 0 0.0016409039282482599 -0.029644898387512598 0 0.001646488120522972 -0.031007789248724757 0 0.0018523685114450916 -0.030928658268655967 0 0.0017390334908950491 -0.031162375643545574 0 0.001646488120522972 -0.031007789248724757 0 0.0018399445329498605 -0.030898212757076025 0 0.0018838371460027337 -0.030854334463069434 0 0.0015175718655856638 -0.027677836562538152 0 0.0019026080128746528 -0.024013578247695497 0 0.00085529385722758235 -0.023773781192321777 0 0.00030910050258538968 -0.023662634218851238 0 0.00062036330819860354 -0.024446733027453909 0 0.0018399445329498605 -0.030898212757076025 0 0.0018505909201674384 -0.030922866846085421 0 0.0018838371460027337 -0.030854334463069434 0 0.0017606993833774974 -0.028516093841930684 0 0.0015175718655856638 -0.027677836562538152 0 0.0015175718655856638 -0.027677836562538152 0 0.00052467215906616747 -0.02971937833982128 0 0.00085529385722758235 -0.023773781192321777 0 0.00030910050258538968 -0.023662634218851238 0 0.00043308602390652504 -0.023443328584623141 0 0.0019205333729815093 -0.027020571959278591 0 0.0020357405676105448 -0.027300542212404449 0 0.0017586352657087351 -0.027295317155165817 0 0.0018176240179999855 -0.027446075283883192 0 0.0020357405676105448 -0.027300542212404449 0 0.0017586352657087351 -0.027295317155165817 0 0.0025501411549603906 -0.026740742310115896 0 0.0019026080128746528 -0.024013578247695497 0 0.001646488120522972 -0.031007789248724757 0 0.0017390334908950491 -0.031162375643545574 0 0.0015910318037533225 -0.031198087675167928 0 0.001646488120522972 -0.031007789248724757 0 0.0015910318037533225 -0.031198087675167928 0 0.0014528477979238389 -0.031147408088260269 0 0.0016370262649545559 -0.031346010415615709 0 0.0017390334908950491 -0.031162375643545574 0 0.0015910318037533225 -0.031198087675167928 0 0.0014522037299155369 -0.031316083227669683 0 0.0015910318037533225 -0.031198087675167928 0 0.0014528477979238389 -0.031147408088260269 0 -0.001115044046348692 -0.031999464921293207 0 -0.001121502386473397 -0.03196270599782406 0 -0.00112714699907873 -0.032002650521030324 0 -0.001038103125814496 -0.032001027274526424 0 -0.001115044046348692 -0.031999464921293207 0 -0.001121502386473397 -0.03196270599782406 0 0.00024993035749423218 -0.031722849278031394 0 0.00020308522153837175 -0.031539271922655682 0 -0.001038103125814496 -0.032001027274526424 0 -0.001121502386473397 -0.03196270599782406 0 -0.0010691195239566826 -0.031893693327022639 0 -0.001121502386473397 -0.03196270599782406 0 -0.0011226701323104884 -0.031964608845094465 0 -0.0011288939366500611 -0.032042907126777119 0 -0.001121502386473397 -0.03196270599782406 0 -0.0011226701323104884 -0.031964608845094465 0 -0.0011068929465854146 -0.031897337830804132 0 -0.001121502386473397 -0.03196270599782406 0 -0.0010691195239566826 -0.031893693327022639 0 -0.0011068929465854146 -0.031897337830804132 0 -0.0010691195239566826 -0.031893693327022639 0 -0.0011068929465854146 -0.031897337830804132 0 -0.0010681867027406736 -0.031780255396374094 0 -0.0009878173320066728 -0.031799254199165634 0 -0.00090070844640139313 -0.031688202187613285 0 -0.0010681867027406736 -0.031780255396374094 0 -0.0010691195239566826 -0.031893693327022639 0 -0.0009878173320066728 -0.031799254199165634 0 -0.0010681867027406736 -0.031780255396374094 0 -0.0009878173320066728 -0.031799254199165634 0 -0.00088455330057954893 -0.031780966482365128 0 -0.00090070844640139313 -0.031688202187613285 0 -0.0009878173320066728 -0.031799254199165634 0 -0.00097592901376908879 -0.031868218198820658 0 -0.00088455330057954893 -0.031780966482365128 0 -0.0010691195239566826 -0.031893693327022639 0 -0.0009878173320066728 -0.031799254199165634 0 -0.00097592901376908879 -0.031868218198820658 0 -0.001038103125814496 -0.032001027274526424 0 -0.00097592901376908879 -0.031868218198820658 0 -0.00087145118936559469 -0.03185469734113125 0 -0.001038103125814496 -0.032001027274526424 0 -0.00081494736559102588 -0.031922169255458252 0 -0.00087145118936559469 -0.03185469734113125 0 -0.001038103125814496 -0.032001027274526424 0 -0.0010691195239566826 -0.031893693327022639 0 -0.00097592901376908879 -0.031868218198820658 0 -0.00097592901376908879 -0.031868218198820658 0 -0.00087145118936559469 -0.03185469734113125 0 -0.00088455330057954893 -0.031780966482365128 0 -0.000775807011460848 -0.031867351698135073 0 -0.00081494736559102588 -0.031922169255458252 0 -0.00087145118936559469 -0.03185469734113125 0 -0.00037253736214882556 -0.031211580882052292 0 0.00052467215906616747 -0.02971937833982128 0 -0.00087145118936559469 -0.03185469734113125 0 -0.00076976780825109483 -0.031780858098617519 0 -0.00088455330057954893 -0.031780966482365128 0 -0.000775807011460848 -0.031867351698135073 0 -0.00087145118936559469 -0.03185469734113125 0 -0.00076976780825109483 -0.031780858098617519 0 -0.00068980920959189939 -0.031797367656972608 0 -0.000775807011460848 -0.031867351698135073 0 -0.00076976780825109483 -0.031780858098617519 0 -0.00076976780825109483 -0.031780858098617519 0 -0.0007527043095451215 -0.031697306021931583 0 -0.00088455330057954893 -0.031780966482365128 0 -0.00065626341487282558 -0.031684949449020464 0 -0.00076976780825109483 -0.031780858098617519 0 -0.0007527043095451215 -0.031697306021931583 0 -0.00053138425555001418 -0.031572658266043656 0 -0.0007527043095451215 -0.031697306021931583 0 -0.00090070844640139313 -0.031688202187613285 0 -0.0007527043095451215 -0.031697306021931583 0 -0.00088455330057954893 -0.031780966482365128 0 -0.00090070844640139313 -0.031688202187613285 0 -0.00075556072146653892 -0.022348976811525277 0 -0.0013966591797770086 -0.022957036730166854 0 -0.0014923463252444391 -0.021777464336477672 0 -0.0010953072710453433 -0.027321298436377563 0 -0.0020612803149530068 -0.028793165063574537 0 -0.0013966591797770086 -0.022957036730166854 0 -0.0022116090350271919 -0.022044815530691618 0 -0.0025099519957021916 -0.02253241064957753 0 -0.00090070844640139313 -0.031688202187613285 0 -0.0010681867027406736 -0.031780255396374094 0 -0.0011938917000488447 -0.031759301998938887 0 -0.0014923463252444391 -0.021777464336477672 0 -0.0023097103422544812 -0.021556911470104325 0 -0.0022116090350271919 -0.022044815530691618 0 -0.0013966591797770086 -0.022957036730166854 0 -0.0014923463252444391 -0.021777464336477672 0 -0.0022116090350271919 -0.022044815530691618 0 -0.00072544755498143445 -0.021552939329539902 0 -0.00075556072146653892 -0.022348976811525277 0 -0.0014923463252444391 -0.021777464336477672 0 -0.00072544755498143445 -0.021552939329539902 0 -0.0014923463252444391 -0.021777464336477672 0 -0.0011757957359633741 -0.021111944416944389 0 -0.0007438162229002471 -0.020946628367421141 0 -0.0011757957359633741 -0.021111944416944389 0 -0.00097383727331461212 -0.020516383684249559 0 -0.00072544755498143445 -0.021552939329539902 0 -0.0007438162229002471 -0.020946628367421141 0 -0.0011757957359633741 -0.021111944416944389 0 -0.0011816967063596972 -0.021080418139371299 0 -0.0015193621865424406 -0.020965544080175542 0 -0.0011757957359633741 -0.021111944416944389 0 -0.0012695506133919736 -0.020747416778409387 0 -0.0011997622765848722 -0.02059505313458973 0 -0.0014923463252444391 -0.021777464336477672 0 -0.0011757957359633741 -0.021111944416944389 0 -0.0018376301696508303 -0.021127092440318906 0 -0.0014923463252444391 -0.021777464336477672 0 -0.0018376301696508303 -0.021127092440318906 0 -0.0023097103422544812 -0.021556911470104325 0 -0.0012695506133919736 -0.020747416778409387 0 -0.0011997622765848722 -0.02059505313458973 0 -0.0012044478118842933 -0.020552140317492033 0 -0.0011997622765848722 -0.02059505313458973 0 -0.0012044478118842933 -0.020552140317492033 0 -0.0011622060716107504 -0.020423286955159874 0 -0.0011997622765848722 -0.02059505313458973 0 -0.00097383727331461212 -0.020516383684249559 0 -0.0010720109726857958 -0.020312801604365213 0 -0.0011757957359633741 -0.021111944416944389 0 -0.0011997622765848722 -0.02059505313458973 0 -0.00097383727331461212 -0.020516383684249559 0 -0.00097383727331461212 -0.020516383684249559 0 -0.0010720109726857958 -0.020312801604365213 0 -0.00076305707206752332 -0.020223764622377672 0 -0.0011840542743417381 -0.022080995448529723 0 -0.0012897428145072175 -0.022053222241840632 0 -0.0012218773733056482 -0.022237875746363024 0 -0.001537881525178084 -0.023172105571166255 0 -0.00047430024763408087 -0.022014379596728993 0 0.00079567614989623338 -0.025163980619050702 0 0.00066410183041635564 -0.024971582333913427 0 0.00087818466665961256 -0.024900036385125043 0 -0.0012044478118842933 -0.020552140317492033 0 -0.0012577181905466931 -0.020627151786730274 0 -0.0011507330781325696 -0.020517558933886387 0 -0.0012695506133919736 -0.020747416778409387 0 -0.0012044478118842933 -0.020552140317492033 0 -0.0012577181905466931 -0.020627151786730274 0 -0.0019839417090755469 -0.021297242150211403 0 -0.00047430024763408087 -0.022014379596728993 0 -0.001537881525178084 -0.023172105571166255 0 -0.0019839417090755469 -0.021297242150211403 0 -0.0015193621865424406 -0.020965544080175542 0 -0.0019839417090755469 -0.021297242150211403 0 -0.0019839417090755469 -0.021297242150211403 0 -0.0022734601325110834 -0.021384111195366286 0 -0.0018376301696508303 -0.021127092440318906 0 -0.0024874793279942337 -0.02101395220279564 0 -0.0023097103422544812 -0.021556911470104325 0 -0.0025320623538927548 -0.021472969913733826 0 -0.0024097676479304937 -0.021233680081061527 0 -0.0023097103422544812 -0.021556911470104325 0 -0.0027768831824789382 -0.021123678323094683 0 -0.0025320623538927548 -0.021472969913733826 0 -0.0024097676479304937 -0.021233680081061527 0 -0.0025320623538927548 -0.021472969913733826 0 -0.0023097103422544812 -0.021556911470104325 0 -0.0025359658090462348 -0.02178814526474836 0 -0.0025320623538927548 -0.021472969913733826 0 -0.0027069946849348795 -0.021666005123326369 0 -0.0025359658090462348 -0.02178814526474836 0 -0.0034814322432878526 -0.024153055844213959 0 -0.0029099437149684463 -0.022127956093215155 0 -0.0023941363124908997 -0.023377383547337979 0 -0.001537881525178084 -0.023172105571166255 0 -0.0033056030000799788 -0.021998357131150885 0 -0.0027768831824789382 -0.021123678323094683 0 -0.0027069946849348795 -0.021666005123326369 0 -0.0029099437149684463 -0.022127956093215155 0 -0.0027768831824789382 -0.021123678323094683 0 -0.0025320623538927548 -0.021472969913733826 0 -0.0027069946849348795 -0.021666005123326369 0 -0.0026708857629209335 -0.02207254949003078 0 -0.0029033957599239953 -0.021975070104276257 0 -0.0025099519957021916 -0.02253241064957753 0 -0.0029099437149684463 -0.022127956093215155 0 -0.0029033957599239953 -0.021975070104276257 0 -0.0022244466756884428 -0.022791547378103721 0 -0.0027178460435397789 -0.021933429989019704 0 -0.0026708857629209335 -0.02207254949003078 0 -0.0029099437149684463 -0.022127956093215155 0 -0.0027069946849348795 -0.021666005123326369 0 -0.0027178460435397789 -0.021933429989019704 0 -0.0025359658090462348 -0.02178814526474836 0 -0.0027069946849348795 -0.021666005123326369 0 -0.0027178460435397789 -0.021933429989019704 0 -0.0029099437149684463 -0.022127956093215155 0 -0.0027178460435397789 -0.021933429989019704 0 -0.0026708857629209335 -0.02207254949003078 0 -0.0025359658090462348 -0.02178814526474836 0 -0.0026708857629209335 -0.02207254949003078 0 -0.0029099437149684463 -0.022127956093215155 0 -0.0029033957599239953 -0.021975070104276257 0 -0.0023097103422544812 -0.021556911470104325 0 -0.0025359658090462348 -0.02178814526474836 0 -0.0022116090350271919 -0.022044815530691618 0 -0.0026708857629209335 -0.02207254949003078 0 -0.0025359658090462348 -0.02178814526474836 0 -0.0022116090350271919 -0.022044815530691618 0 -0.0026708857629209335 -0.02207254949003078 0 -0.0022116090350271919 -0.022044815530691618 0 -0.0025099519957021916 -0.02253241064957753 0 -0.0011068929465854146 -0.031897337830804132 0 -0.0010681867027406736 -0.031780255396374094 0 -0.0011180430329605071 -0.031902614175684449 0 -0.00039869380607841998 -0.031880657668224212 0 -0.0020612803149530068 -0.028793165063574537 0 -0.0020612803149530068 -0.028793165063574537 0 -0.0016252607929913229 -0.031076978602614668 0 -0.0032430078936303971 -0.025674264801146478 0 -0.0020612803149530068 -0.028793165063574537 0 -0.0024746730951504823 -0.029750069296886505 0 -0.0030270829452608951 -0.029386578831477408 0 -0.0022488683303131581 -0.029639838582138891 0 -0.0011226701323104884 -0.031964608845094465 0 -0.0011180430329605071 -0.031902614175684449 0 -0.00112358665770938 -0.032061053521536952 0 -0.0011226701323104884 -0.031964608845094465 0 -0.0011068929465854146 -0.031897337830804132 0 -0.0011180430329605071 -0.031902614175684449 0 -0.00112358665770938 -0.032061053521536952 0 -0.0011035269798270338 -0.032176348176785247 0 -0.0011288939366500611 -0.032042907126777119 0 -0.0011226701323104884 -0.031964608845094465 0 -0.00112358665770938 -0.032061053521536952 0 -0.0011288939366500611 -0.032042907126777119 0 -0.00112358665770938 -0.032061053521536952 0 -0.0010844994894704649 -0.032173559061211811 0 -0.0011035269798270338 -0.032176348176785247 0 -0.0013868770864943548 -0.029925262415652607 0 -0.0022598966752912053 -0.02990834765618279 0 -0.0014094871563995711 -0.030479985553607761 0 -0.0016252607929913229 -0.031076978602614668 0 -0.0012269031479316031 -0.030896450438562061 0 -0.0023615949633239014 -0.027968953572639964 0 -0.0013592793638795501 -0.028945217127293602 0 -0.0022488683303131581 -0.029639838582138891 0 -0.0013868770864943548 -0.029925262415652607 0 -0.0022598966752912053 -0.02990834765618279 0 -0.0029033957599239953 -0.021975070104276257 0 -0.0022244466756884428 -0.022791547378103721 0 -0.0010531308042509326 -0.023265286233003665 0 -0.0034162621992091997 -0.026554113890921317 0 -0.0029648661491492568 -0.026842942383956105 0 -0.0018236610081103083 -0.027912758736365971 0 -0.0032430078936303971 -0.025674264801146478 0 -0.0014592276394565524 -0.025136789239278017 0 -0.0032430078936303971 -0.025674264801146478 0 -0.0023615949633239014 -0.027968953572639964 0 -0.0024746730951504823 -0.029750069296886505 0 -0.0022488683303131581 -0.029639838582138891 0 -0.0022598966752912053 -0.02990834765618279 0 -0.0029099437149684463 -0.022127956093215155 0 -0.0022244466756884428 -0.022791547378103721 0 -0.0023941363124908997 -0.023377383547337979 0 -0.0023941363124908997 -0.023377383547337979 0 -0.0015745488625848324 -0.023662633262105739 0 -0.0016008219385611547 -0.0246344581237763 0 -0.0022244466756884428 -0.022791547378103721 0 -0.0023941363124908997 -0.023377383547337979 0 -0.0018462665473377641 -0.023237212147227862 0 -0.0015745488625848324 -0.023662633262105739 0 -0.0018462665473377641 -0.023237212147227862 0 -0.0010531308042509326 -0.023265286233003665 0 -0.0023941363124908997 -0.023377383547337979 0 -0.0015745488625848324 -0.023662633262105739 0 -0.0018462665473377641 -0.023237212147227862 0 -0.0022244466756884428 -0.022791547378103721 0 -0.0018462665473377641 -0.023237212147227862 0 -0.0010531308042509326 -0.023265286233003665 0 -0.0029648661491492568 -0.026842942383956105 0 -0.0013264291071948724 -0.027892595237165856 0 -0.0018236610081103083 -0.027912758736365971 0 -0.0013264291071948724 -0.027892595237165856 0 -0.0018236610081103083 -0.027912758736365971 0 -0.00021900137455200619 -0.02927882645691118 0 -0.0010531308042509326 -0.023265286233003665 0 -0.0011472932019696883 -0.0239809182820215 0 -0.00049115168714964751 -0.024386926466324142 0 -0.0015745488625848324 -0.023662633262105739 0 -0.0010531308042509326 -0.023265286233003665 0 -0.0011472932019696883 -0.0239809182820215 0 -0.0011472932019696883 -0.0239809182820215 0 -0.00049115168714964751 -0.024386926466324142 0 -0.0016008219385611547 -0.0246344581237763 0 -0.00049115168714964751 -0.024386926466324142 0 -0.0016008219385611547 -0.0246344581237763 0 0.00039140781968179241 -0.025178482176655487 0 -0.0015745488625848324 -0.023662633262105739 0 -0.0011472932019696883 -0.0239809182820215 0 -0.0016008219385611547 -0.0246344581237763 0 0.00038551648481191612 -0.02510907014579589 0 -5.9579945754672541e-05 -0.025041977974024521 0 0.00022655797706423329 -0.024847217310193084 0 -0.0010531308042509326 -0.023265286233003665 0 -0.00049115168714964751 -0.024386926466324142 0 0.00087665793722958385 -0.024888731558562055 0 -0.00060878255751325701 -0.024783167341233474 0 0.00027842635596268014 -0.027434614730513458 0 -0.0034814322432878526 -0.024153055844213959 0 -0.0023941363124908997 -0.023377383547337979 0 -0.0016008219385611547 -0.0246344581237763 0 -0.001537881525178084 -0.023172105571166255 0 -0.00060878255751325701 -0.024783167341233474 0 0.00079567614989623338 -0.025163980619050702 0 0.00066410183041635564 -0.024971582333913427 0 0.00038551648481191612 -0.02510907014579589 0 0.00066410183041635564 -0.024971582333913427 0 0.00038551648481191612 -0.02510907014579589 0 0.00049557962089993553 -0.024924123204743777 0 -0.0007391198943278635 -0.034002712860738658 0 -0.00033546017656270634 -0.034310194988629868 0 -0.0007078529077072153 -0.034229982311556391 0 -0.00016999421578737931 -0.030648451478370212 0 -0.00027208351083535866 -0.030706907376157618 0 -0.00017187809859742803 -0.030803649366649453 0 -0.0007391198943278635 -0.034002712860738658 0 -0.00074925609994582626 -0.034217892931167691 0 -0.0007078529077072153 -0.034229982311556391 0 -0.00074914962454722606 -0.032084237122337753 0 6.0257809605523046e-05 -0.032036830374009416 0 -0.00074914962454722606 -0.032084237122337753 0 -7.7757440112086323e-06 -0.028427663609138228 0 -7.7757440112086323e-06 -0.028427663609138228 0 6.0257809605523046e-05 -0.032036830374009416 0 -0.00049115168714964751 -0.024386926466324142 0 0.00087665793722958385 -0.024888731558562055 0 0.00039140781968179241 -0.025178482176655487 0 -0.0013264291071948724 -0.027892595237165856 0 0.00031707231839029081 -0.028957677001231766 0 -0.00021900137455200619 -0.02927882645691118 0 0.00027842635596268014 -0.027434614730513458 0 6.0257809605523046e-05 -0.032036830374009416 0 -0.0014592276394565524 -0.025136789239278017 0 -7.7757440112086323e-06 -0.028427663609138228 0 5.6362257039869586e-05 -0.029279933163156684 0 -0.00029705740870208621 -0.029491776278107812 0 0.00049977125883262404 -0.029700729082243665 0 -7.7757440112086323e-06 -0.028427663609138228 0 0.00027842635596268014 -0.027434614730513458 0 -0.0014094871563995711 -0.030479985553607761 0 -0.00054226290761606451 -0.031045891804002867 0 -0.00051168170023392786 -0.030207693153620863 0 -0.0013592793638795501 -0.028945217127293602 0 -0.00074914962454722606 -0.032084237122337753 0 -0.0011161386474375951 -0.032347776362879999 0 -0.00077077401150857199 -0.033569252573532653 0 -0.00074914962454722606 -0.032084237122337753 0 -0.0011161386474375951 -0.032347776362879999 0 -0.00099353190754963264 -0.033704652712689187 0 -0.0011069822850196872 -0.03350099817481568 0 -0.00080727764832108292 -0.033585097063631858 0 -0.00074914962454722606 -0.032084237122337753 0 -0.0011169962755643355 -0.034285502853795571 0 -0.0011217449362786833 -0.033900215496505175 0 -0.00099353190754963264 -0.033704652712689187 0 -0.00072856101430890136 -0.033723868045745335 0 -0.0011217449362786833 -0.033900215496505175 0 -0.00099353190754963264 -0.033704652712689187 0 -0.0011069822850196872 -0.03350099817481568 0 -0.0012901984165221102 -0.033426892843280945 0 -0.00088787141142188434 -0.033195324555545552 0 -0.00080727764832108292 -0.033585097063631858 0 -0.0012901984165221102 -0.033426892843280945 0 -0.0010917904681003246 -0.032365154871791028 0 -0.00088787141142188434 -0.033195324555545552 0 -0.0013868770864943548 -0.029925262415652607 0 -0.0014094871563995711 -0.030479985553607761 0 -0.00051168170023392786 -0.030207693153620863 0 -0.0010844994894704649 -0.032173559061211811 0 -0.0011444090613463556 -0.03218429801736046 0 -0.0010917904681003246 -0.032365154871791028 0 -0.0012269031479316031 -0.030896450438562061 0 -0.0011161386474375951 -0.032347776362879999 0 -0.0010844994894704649 -0.032173559061211811 0 -0.0010917904681003246 -0.032365154871791028 0 -0.0011035269798270338 -0.032176348176785247 0 -0.0011161386474375951 -0.032347776362879999 0 -0.0011397846867010788 -0.032590162895226399 0 -0.0010917904681003246 -0.032365154871791028 0 -0.001051659455697267 -0.032097528922450512 0 -0.00074553559478876183 -0.032075266638928394 0 -0.001051659455697267 -0.032097528922450512 0 -0.00095019958658915007 -0.031944025279451935 0 -0.00074553559478876183 -0.032075266638928394 0 -0.001051659455697267 -0.032097528922450512 0 -0.0011059007545370177 -0.032062591824950491 0 -0.0010757628894143977 -0.031989433944833688 0 -0.0010917904681003246 -0.032365154871791028 0 -0.001051659455697267 -0.032097528922450512 0 -0.0011035269798270338 -0.032176348176785247 0 -0.001051659455697267 -0.032097528922450512 0 -0.0011035269798270338 -0.032176348176785247 0 -0.0011059007545370177 -0.032062591824950491 0 -0.0011035269798270338 -0.032176348176785247 0 -0.0011288939366500611 -0.032042907126777119 0 -0.0011059007545370177 -0.032062591824950491 0 -0.001121502386473397 -0.03196270599782406 0 -0.0011288939366500611 -0.032042907126777119 0 -0.00112714699907873 -0.032002650521030324 0 -0.0011288939366500611 -0.032042907126777119 0 -0.0011059007545370177 -0.032062591824950491 0 -0.00112714699907873 -0.032002650521030324 0 -0.0011059007545370177 -0.032062591824950491 0 -0.00112714699907873 -0.032002650521030324 0 -0.0010757628894143977 -0.031989433944833688 0 -0.00112714699907873 -0.032002650521030324 0 -0.0011023314111845552 -0.031947533862821544 0 -0.0010757628894143977 -0.031989433944833688 0 -0.001115044046348692 -0.031999464921293207 0 -0.00112714699907873 -0.032002650521030324 0 -0.0011023314111845552 -0.031947533862821544 0 0.00020308522153837175 -0.031539271922655682 0 4.2586197201739674e-05 -0.031593371146692126 0 0.0014522037299155369 -0.031316083227669683 0 0.0014528477979238389 -0.031147408088260269 0 0.0012873851677406751 -0.031263217878690262 0 -0.0010164143459726745 -0.031881282776295136 0 -0.0011023314111845552 -0.031947533862821544 0 -0.0010757628894143977 -0.031989433944833688 0 -0.0010164143459726745 -0.031881282776295136 0 -0.00095019958658915007 -0.031944025279451935 0 -0.0010757628894143977 -0.031989433944833688 0 0.00030529705880559532 -0.031803877000775999 0 -0.0008246776572013051 -0.03204719586413507 0 -0.001051659455697267 -0.032097528922450512 0 -0.00095019958658915007 -0.031944025279451935 0 -0.0010757628894143977 -0.031989433944833688 0 -0.00026778578395156738 -0.031900638525198338 0 -0.00039024426473966187 -0.032192362691375896 0 -0.00014667113217932799 -0.032160823912670215 0 -0.00014667113217932799 -0.032160823912670215 0 -7.9361386329946943e-05 -0.032329870618694523 0 -0.00029865607634605525 -0.032397614576002202 0 -0.00014667113217932799 -0.032160823912670215 0 2.5322967012609991e-05 -0.032223252169800806 0 -7.9361386329946943e-05 -0.032329870618694523 0 -0.00039024426473966187 -0.032192362691375896 0 -0.00014667113217932799 -0.032160823912670215 0 -0.00029865607634605525 -0.032397614576002202 0 -0.0008246776572013051 -0.03204719586413507 0 -0.00049106429839472173 -0.032269575576103909 0 -4.7624514148907772e-05 -0.031991304038038848 0 -0.00014667113217932799 -0.032160823912670215 0 6.5304506605650439e-05 -0.032117465169085917 0 -0.00014667113217932799 -0.032160823912670215 0 6.5304506605650439e-05 -0.032117465169085917 0 2.5322967012609991e-05 -0.032223252169800806 0 0.00019218533288110128 -0.033253356546870026 0 0.00011699202095872929 -0.033931755739835881 0 6.5304506605650439e-05 -0.032117465169085917 0 0.00018823624457461863 -0.032296617700042995 0 0.00039335615652051777 -0.032200226146490506 0 0.00015906198519836671 -0.031973781668679334 0 6.5304506605650439e-05 -0.032117465169085917 0 0.00039335615652051777 -0.032200226146490506 0 0.00010783430676993641 -0.032164095183968691 0 0.00010839683563256531 -0.032170115220161367 0 0.00018558602392193833 -0.032203316350445002 0 0.00011365539091802955 -0.03233390946865608 0 0.00024025188481780133 -0.032372144950643542 0 0.00018558602392193833 -0.032203316350445002 0 0.00024025188481780133 -0.032372144950643542 0 0.00032295549731684991 -0.032332493487140256 0 0.00018558602392193833 -0.032203316350445002 0 2.5322967012609991e-05 -0.032223252169800806 0 0.00011365539091802955 -0.03233390946865608 0 0.00010839683563256531 -0.032170115220161367 0 0.00024410332618845509 -0.033337824465329138 0 2.5322967012609991e-05 -0.032223252169800806 0 0.00011365539091802955 -0.03233390946865608 0 -7.9361386329946943e-05 -0.032329870618694523 0 6.5304506605650439e-05 -0.032117465169085917 0 0.00018558602392193833 -0.032203316350445002 0 2.5322967012609991e-05 -0.032223252169800806 0 0.00011365539091802955 -0.03233390946865608 0 5.7051904853845626e-05 -0.032451576948198321 0 -7.9361386329946943e-05 -0.032329870618694523 0 5.7051904853845626e-05 -0.032451576948198321 0 -0.00014967553067453686 -0.032472609074477021 0 -7.9361386329946943e-05 -0.032329870618694523 0 0.00024025188481780133 -0.032372144950643542 0 0.00029275966026852884 -0.032489594015171284 0 0.00032295549731684991 -0.032332493487140256 0 0.00011365539091802955 -0.03233390946865608 0 0.00024025188481780133 -0.032372144950643542 0 0.00025146857357134626 -0.03246300720090748 0 0.00011365539091802955 -0.03233390946865608 0 5.7051904853845626e-05 -0.032451576948198321 0 0.00025146857357134626 -0.03246300720090748 0 0.00024025188481780133 -0.032372144950643542 0 0.00025146857357134626 -0.03246300720090748 0 0.00029275966026852884 -0.032489594015171284 0 0.00042445372172541287 -0.032769095559433359 0 0.00039001382554751103 -0.032684296134269784 0 0.00035270075313523826 -0.032492482421696015 0 0.00023941410803489317 -0.032621051118821631 0 0.0003675245484801106 -0.032826969607419411 0 0.00052074466412055126 -0.032374371996420175 0 0.0003675245484801106 -0.032826969607419411 0 0.00060622900503390061 -0.032713263715198448 0 0.00025146857357134626 -0.03246300720090748 0 0.00035270075313523826 -0.032492482421696015 0 0.00023941410803489317 -0.032621051118821631 0 0.00027835463259586206 -0.032633104511563302 0 0.00042445372172541287 -0.032769095559433359 0 5.7051904853845626e-05 -0.032451576948198321 0 0.00025146857357134626 -0.03246300720090748 0 0.00023941410803489317 -0.032621051118821631 0 5.7051904853845626e-05 -0.032451576948198321 0 -1.9205873168146972e-05 -0.032602526008005062 0 -0.00014967553067453686 -0.032472609074477021 0 5.7051904853845626e-05 -0.032451576948198321 0 0.00023941410803489317 -0.032621051118821631 0 -1.9205873168146972e-05 -0.032602526008005062 0 0.00023941410803489317 -0.032621051118821631 0 -1.9205873168146972e-05 -0.032602526008005062 0 5.131745212817579e-05 -0.032847961020051206 0 -0.00049106429839472173 -0.032269575576103909 0 -0.00031253051274052299 -0.032625320288269602 0 -1.9205873168146972e-05 -0.032602526008005062 0 -0.00014967553067453686 -0.032472609074477021 0 -0.00030081230210564467 -0.032651455314227883 0 -0.00014967553067453686 -0.032472609074477021 0 -0.00029865607634605525 -0.032397614576002202 0 -0.00030081230210564467 -0.032651455314227883 0 -0.0010917904681003246 -0.032365154871791028 0 -0.00074553559478876183 -0.032075266638928394 0 -0.00030081230210564467 -0.032651455314227883 0 -0.00014967553067453686 -0.032472609074477021 0 -7.9361386329946943e-05 -0.032329870618694523 0 -0.00029865607634605525 -0.032397614576002202 0 -0.0010917904681003246 -0.032365154871791028 0 -0.00060744973265000797 -0.032997837464047206 0 -0.00030081230210564467 -0.032651455314227883 0 -0.0010917904681003246 -0.032365154871791028 0 -0.00060744973265000797 -0.032997837464047206 0 -0.00088787141142188434 -0.033195324555545552 0 -0.00060744973265000797 -0.032997837464047206 0 -0.00030081230210564467 -0.032651455314227883 0 -0.00023138668742920618 -0.033238655977231295 0 -0.00030081230210564467 -0.032651455314227883 0 -0.00023138668742920618 -0.033238655977231295 0 5.131745212817579e-05 -0.032847961020051206 0 -0.00060744973265000797 -0.032997837464047206 0 -0.00023138668742920618 -0.033238655977231295 0 -0.00057383287307510985 -0.033471502872593401 0 -0.00023138668742920618 -0.033238655977231295 0 -0.00057383287307510985 -0.033471502872593401 0 -0.00030408955854228665 -0.03369382163844712 0 -0.00060744973265000797 -0.032997837464047206 0 -0.00088787141142188434 -0.033195324555545552 0 -0.00057383287307510985 -0.033471502872593401 0 -0.00088787141142188434 -0.033195324555545552 0 -0.00057383287307510985 -0.033471502872593401 0 -0.00080727764832108292 -0.033585097063631858 0 -0.00099353190754963264 -0.033704652712689187 0 -0.00080727764832108292 -0.033585097063631858 0 -0.00072856101430890136 -0.033723868045745335 0 -0.0013852140231107822 -0.034125635620003494 0 -0.00072856101430890136 -0.033723868045745335 0 -0.00079764263070766924 -0.033997845508307888 0 -0.00072856101430890136 -0.033723868045745335 0 -0.00053171782729202408 -0.033840428259579704 0 -0.00079764263070766924 -0.033997845508307888 0 -0.00057383287307510985 -0.033471502872593401 0 -0.00072856101430890136 -0.033723868045745335 0 -0.00053171782729202408 -0.033840428259579704 0 -0.00057383287307510985 -0.033471502872593401 0 -0.00080727764832108292 -0.033585097063631858 0 -0.00072856101430890136 -0.033723868045745335 0 -0.00057383287307510985 -0.033471502872593401 0 -0.00030408955854228665 -0.03369382163844712 0 -0.00053171782729202408 -0.033840428259579704 0 -0.00030408955854228665 -0.03369382163844712 0 -0.00053171782729202408 -0.033840428259579704 0 -0.00026680873421034291 -0.034161755254466797 0 -0.00055974237231504209 -0.034117978444676858 0 -0.00043127562189803817 -0.034368905264617618 0 -0.00064828521905747091 -0.034580350805253554 0 -0.00053171782729202408 -0.033840428259579704 0 -0.00055974237231504209 -0.034117978444676858 0 -0.00026680873421034291 -0.034161755254466797 0 -0.00055974237231504209 -0.034117978444676858 0 -0.00026680873421034291 -0.034161755254466797 0 -0.00043127562189803817 -0.034368905264617618 0 -0.00026680873421034291 -0.034161755254466797 0 -0.00043127562189803817 -0.034368905264617618 0 -0.00022527732471574392 -0.034545457530194661 0 -0.0013852140231107822 -0.034125635620003494 0 -0.0008307502338914018 -0.034193676049245725 0 -0.00064828521905747091 -0.034580350805253554 0 -0.00055974237231504209 -0.034117978444676858 0 -0.0008307502338914018 -0.034193676049245725 0 -0.00064828521905747091 -0.034580350805253554 0 -0.0013852140231107822 -0.034125635620003494 0 -0.0008307502338914018 -0.034193676049245725 0 -0.00079764263070766924 -0.033997845508307888 0 -0.00074914962454722606 -0.032084237122337753 0 -0.00047480023003531268 -0.034735833938656722 0 -0.00055974237231504209 -0.034117978444676858 0 -0.0008307502338914018 -0.034193676049245725 0 -0.00079764263070766924 -0.033997845508307888 0 -0.00053171782729202408 -0.033840428259579704 0 -0.00055974237231504209 -0.034117978444676858 0 -0.00079764263070766924 -0.033997845508307888 0 2.7840722062037489e-05 -0.033783972142034616 0 0.00053469372243108494 -0.033792249965829267 0 0.00016302807148598525 -0.034647614455005728 0 0.00015415980373670828 -0.034889641216624079 0 7.3770362667722588e-05 -0.034871654283647392 0 0.00016302807148598525 -0.034647614455005728 0 0.00032512002149558475 -0.034349694026452965 0 0.00018718664932260325 -0.034629040392341881 0 -0.00026680873421034291 -0.034161755254466797 0 0.00016302807148598525 -0.034647614455005728 0 -0.00022527732471574392 -0.034545457530194661 0 -0.00026680873421034291 -0.034161755254466797 0 2.7840722062037489e-05 -0.033783972142034616 0 0.00016302807148598525 -0.034647614455005728 0 -0.00023138668742920618 -0.033238655977231295 0 -0.00030408955854228665 -0.03369382163844712 0 2.7840722062037489e-05 -0.033783972142034616 0 -0.00030408955854228665 -0.03369382163844712 0 -0.00026680873421034291 -0.034161755254466797 0 2.7840722062037489e-05 -0.033783972142034616 0 2.7840722062037489e-05 -0.033783972142034616 0 0.00053469372243108494 -0.033792249965829267 0 0.00021163535919833679 -0.033277948486952279 0 0.00053469372243108494 -0.033792249965829267 0 0.00021163535919833679 -0.033277948486952279 0 0.00068437334143282413 -0.033126758227825695 0 0.00032512002149558475 -0.034349694026452965 0 0.00042928582789774077 -0.034037015629832183 0 -0.00023138668742920618 -0.033238655977231295 0 2.7840722062037489e-05 -0.033783972142034616 0 0.00021163535919833679 -0.033277948486952279 0 -0.00023138668742920618 -0.033238655977231295 0 0.00021163535919833679 -0.033277948486952279 0 5.131745212817579e-05 -0.032847961020051206 0 -1.9205873168146972e-05 -0.032602526008005062 0 -0.00030081230210564467 -0.032651455314227883 0 5.131745212817579e-05 -0.032847961020051206 0 0.0003675245484801106 -0.032826969607419411 0 0.00068437334143282413 -0.033126758227825695 0 0.00060622900503390061 -0.032713263715198448 0 0.00021163535919833679 -0.033277948486952279 0 5.131745212817579e-05 -0.032847961020051206 0 0.0003675245484801106 -0.032826969607419411 0 0.00021163535919833679 -0.033277948486952279 0 0.0003675245484801106 -0.032826969607419411 0 0.00068437334143282413 -0.033126758227825695 0 0.00023941410803489317 -0.032621051118821631 0 5.131745212817579e-05 -0.032847961020051206 0 0.0003675245484801106 -0.032826969607419411 0 7.7137461077469435e-05 -0.034998099373902886 0 0.00011407119861460682 -0.034975747841780751 0 8.7618092527643859e-05 -0.03501681335697833 0 0.00068437334143282413 -0.033126758227825695 0 0.00060622900503390061 -0.032713263715198448 0 0.0008579558206807576 -0.032539679518129333 0 0.00042928582789774077 -0.034037015629832183 0 0.00025347750616624027 -0.03382375167411987 0 7.7137461077469435e-05 -0.034998099373902886 0 7.4255908362199003e-05 -0.034983105102389916 0 0.00011407119861460682 -0.034975747841780751 0 5.0119309454648117e-05 -0.035001028044967117 0 4.8819712267723183e-05 -0.035007333580164411 0 4.5067044709619505e-05 -0.03499418919987092 0 4.8819712267723183e-05 -0.035007333580164411 0 5.9949524009717655e-05 -0.034996787176755112 0 7.7137461077469435e-05 -0.034998099373902886 0 5.0119309454648117e-05 -0.035001028044967117 0 5.9949524009717655e-05 -0.034996787176755112 0 4.5067044709619505e-05 -0.03499418919987092 0 5.0119309454648117e-05 -0.035001028044967117 0 4.8819712267723183e-05 -0.035007333580164411 0 5.9949524009717655e-05 -0.034996787176755112 0 5.9949524009717655e-05 -0.034996787176755112 0 7.7137461077469435e-05 -0.034998099373902886 0 7.4255908362199003e-05 -0.034983105102389916 0 5.9949524009717655e-05 -0.034996787176755112 0 7.4255908362199003e-05 -0.034983105102389916 0 4.4397060488553377e-05 -0.034980022535325908 0 5.9949524009717655e-05 -0.034996787176755112 0 4.5067044709619505e-05 -0.03499418919987092 0 4.4397060488553377e-05 -0.034980022535325908 0 7.4255908362199003e-05 -0.034983105102389916 0 4.4397060488553377e-05 -0.034980022535325908 0 7.8588926582004036e-05 -0.034946401225605134 0 4.4397060488553377e-05 -0.034980022535325908 0 7.8588926582004036e-05 -0.034946401225605134 0 4.207413133024667e-05 -0.03494953856320529 0 0.00015415980373670828 -0.034889641216624079 0 0.00011407119861460682 -0.034975747841780751 0 7.8588926582004036e-05 -0.034946401225605134 0 7.4255908362199003e-05 -0.034983105102389916 0 0.00011407119861460682 -0.034975747841780751 0 7.8588926582004036e-05 -0.034946401225605134 0 0.00015415980373670828 -0.034889641216624079 0 7.8588926582004036e-05 -0.034946401225605134 0 7.3770362667722588e-05 -0.034871654283647392 0 4.207413133024667e-05 -0.03494953856320529 0 7.3770362667722588e-05 -0.034871654283647392 0 2.6969270950281734e-05 -0.034945534251858826 0 7.8588926582004036e-05 -0.034946401225605134 0 4.207413133024667e-05 -0.03494953856320529 0 7.3770362667722588e-05 -0.034871654283647392 0 7.3770362667722588e-05 -0.034871654283647392 0 2.6969270950281734e-05 -0.034945534251858826 0 5.8843709248772836e-05 -0.034887113626208673 0 2.6969270950281734e-05 -0.034945534251858826 0 6.7958452068261678e-09 -0.034999940741554277 0 1.8284411366510295e-08 -0.034999925585729036 0 4.207413133024667e-05 -0.03494953856320529 0 2.6969270950281734e-05 -0.034945534251858826 0 1.65845278068222e-05 -0.034979686558519671 0 2.6969270950281734e-05 -0.034945534251858826 0 6.7958452068261678e-09 -0.034999940741554277 0 1.65845278068222e-05 -0.034979686558519671 0 8.8963091382456601e-09 -0.034999999062885236 0 1.65845278068222e-05 -0.034979686558519671 0 1.85754516603318e-05 -0.034999407654855257 0 6.7958452068261678e-09 -0.034999940741554277 0 8.8963091382456601e-09 -0.034999999062885236 0 1.65845278068222e-05 -0.034979686558519671 0 4.4397060488553377e-05 -0.034980022535325908 0 4.207413133024667e-05 -0.03494953856320529 0 1.65845278068222e-05 -0.034979686558519671 0 4.4397060488553377e-05 -0.034980022535325908 0 1.65845278068222e-05 -0.034979686558519671 0 1.85754516603318e-05 -0.034999407654855257 0 0.00013630600851517171 -0.034860852535049273 0 1.1245191314707689e-06 -0.034999210105127548 0 4.8819712267723183e-05 -0.035007333580164411 0 4.5067044709619505e-05 -0.03499418919987092 0 1.85754516603318e-05 -0.034999407654855257 0 -7.4965413538134766e-06 -0.035003663307942232 0 6.8829951174982571e-07 -0.035000398125792635 0 3.9159409378568897e-07 -0.034995968246934482 0 4.5067044709619505e-05 -0.03499418919987092 0 4.4397060488553377e-05 -0.034980022535325908 0 1.85754516603318e-05 -0.034999407654855257 0 -2.1777674006936799e-09 -0.035000006106295126 0 6.8829951174982571e-07 -0.035000398125792635 0 5.6923025424181099e-09 -0.03499998824015544 0 7.9203588857398721e-09 -0.035000001033398322 0 1.1245191314707689e-06 -0.034999210105127548 0 6.8829951174982571e-07 -0.035000398125792635 0 5.6923025424181099e-09 -0.03499998824015544 0 3.9159409378568897e-07 -0.034995968246934482 0 5.6923025424181099e-09 -0.03499998824015544 0 1.0050860836637983e-06 -0.034988997429378554 0 3.9159409378568897e-07 -0.034995968246934482 0 5.6923025424181099e-09 -0.03499998824015544 0 1.0540619543693e-07 -0.034991931281095602 0 1.0050860836637983e-06 -0.034988997429378554 0 5.6923025424181099e-09 -0.03499998824015544 0 1.0540619543693e-07 -0.034991931281095602 0 -2.1152164776623742e-10 -0.034999975914144228 0 -7.9294816052781139e-07 -0.034971059997388282 0 -6.5830683203184073e-07 -0.034982395656338532 0 -8.797263069855664e-07 -0.034978720270716843 0 -7.9294816052781139e-07 -0.034971059997388282 0 -8.797263069855664e-07 -0.034978720270716843 0 -3.0825365149938676e-06 -0.034970641094690884 0 1.0540619543693e-07 -0.034991931281095602 0 -6.5830683203184073e-07 -0.034982395656338532 0 1.0050860836637983e-06 -0.034988997429378554 0 -6.5830683203184073e-07 -0.034982395656338532 0 1.0050860836637983e-06 -0.034988997429378554 0 -8.797263069855664e-07 -0.034978720270716843 0 1.0050860836637983e-06 -0.034988997429378554 0 -8.797263069855664e-07 -0.034978720270716843 0 -3.2466145840464618e-06 -0.034987562624414659 0 -8.797263069855664e-07 -0.034978720270716843 0 -3.2466145840464618e-06 -0.034987562624414659 0 -3.0825365149938676e-06 -0.034970641094690884 0 1.0050860836637983e-06 -0.034988997429378554 0 -3.2466145840464618e-06 -0.034987562624414659 0 3.9159409378568897e-07 -0.034995968246934482 0 -7.4965413538134766e-06 -0.035003663307942232 0 -3.2466145840464618e-06 -0.034987562624414659 0 3.9159409378568897e-07 -0.034995968246934482 0 0.00031468128856265921 -0.034516523771590993 0 9.901686255347785e-05 -0.03425939895418053 0 2.5541989426407679e-05 -0.034373080816234892 0 0.00013630600851517171 -0.034860852535049273 0 0.00025347750616624027 -0.03382375167411987 0 4.8819712267723183e-05 -0.035007333580164411 0 7.7137461077469435e-05 -0.034998099373902886 0 8.7618092527643859e-05 -0.03501681335697833 0 -7.4965413538134766e-06 -0.035003663307942232 0 -3.2466145840464618e-06 -0.034987562624414659 0 -4.0862391201695444e-05 -0.034988908296564467 0 0.00013630600851517171 -0.034860852535049273 0 0.00013764326431329527 -0.034421687729450347 0 0.00013764326431329527 -0.034421687729450347 0 0.00013525475264308516 -0.034283426418465185 0 0.00020405366381977269 -0.033539166984589017 0 0.00030870930900076763 -0.033593199562501522 0 0.00033326880532098542 -0.033527801097949103 0 0.00052074466412055126 -0.032374371996420175 0 0.00060622900503390061 -0.032713263715198448 0 0.0008579558206807576 -0.032539679518129333 0 9.901686255347785e-05 -0.03425939895418053 0 2.5541989426407679e-05 -0.034373080816234892 0 7.7743449317736857e-05 -0.034234417927188926 0 0.00025347750616624027 -0.03382375167411987 0 0.00013525475264308516 -0.034283426418465185 0 0.00042445372172541287 -0.032769095559433359 0 0.00025347750616624027 -0.03382375167411987 0 0.00020405366381977269 -0.033539166984589017 0 0.00033326880532098542 -0.033527801097949103 0 0.00024073641339036851 -0.033416464930534337 0 0.00042445372172541287 -0.032769095559433359 0 0.00024410332618845509 -0.033337824465329138 0 -5.1562239368354394e-05 -0.034983964159674821 0 -0.00012326728262923611 -0.034909535015056246 0 -1.9765827750079544e-05 -0.034976614276573226 0 0.00013525475264308516 -0.034283426418465185 0 0.00024410332618845509 -0.033337824465329138 0 -3.2466145840464618e-06 -0.034987562624414659 0 -4.0862391201695444e-05 -0.034988908296564467 0 -1.9765827750079544e-05 -0.034976614276573226 0 -0.00012326728262923611 -0.034909535015056246 0 -1.9765827750079544e-05 -0.034976614276573226 0 -6.8479585608290267e-06 -0.034947558089025534 0 -3.2466145840464618e-06 -0.034987562624414659 0 -3.0825365149938676e-06 -0.034970641094690884 0 -1.9765827750079544e-05 -0.034976614276573226 0 -3.0825365149938676e-06 -0.034970641094690884 0 -1.9765827750079544e-05 -0.034976614276573226 0 -6.8479585608290267e-06 -0.034947558089025534 0 -4.0862391201695444e-05 -0.034988908296564467 0 -5.1562239368354394e-05 -0.034983964159674821 0 -1.9765827750079544e-05 -0.034976614276573226 0 4.0726223006661236e-05 -0.034951228661471025 0 0.000104792815563918 -0.034896989745337975 0 -7.9294816052781139e-07 -0.034971059997388282 0 -3.0825365149938676e-06 -0.034970641094690884 0 -6.8479585608290267e-06 -0.034947558089025534 0 -7.9294816052781139e-07 -0.034971059997388282 0 -6.8479585608290267e-06 -0.034947558089025534 0 -2.1384058704585214e-06 -0.034964981095845463 0 8.2684663920177038e-05 -0.034902768709773511 0 0.000104792815563918 -0.034896989745337975 0 -6.8479585608290267e-06 -0.034947558089025534 0 1.9660616737143118e-05 -0.034913977764497034 0 -9.0512320620547137e-05 -0.034777404642567795 0 0.000104792815563918 -0.034896989745337975 0 0.00011699202095872929 -0.033931755739835881 0 -0.00012326728262923611 -0.034909535015056246 0 -6.8479585608290267e-06 -0.034947558089025534 0 -9.0512320620547137e-05 -0.034777404642567795 0 0.00018823624457461863 -0.032296617700042995 0 0.00032014570979018819 -0.032465569064334794 0 0.00039335615652051777 -0.032200226146490506 0 0.00024410332618845509 -0.033337824465329138 0 0.00011699202095872929 -0.033931755739835881 0 0.00017812050101364578 -0.034766544464941658 0 0.00011699202095872929 -0.033931755739835881 0 0.00022657911112653538 -0.034603814316673323 0 0.00024638536292003642 -0.0345265415447603 0 0.00015668685283486592 -0.034567269801100711 0 0.00015504668777788322 -0.03444239929941699 0 0.00024638536292003642 -0.0345265415447603 0 0.00015668685283486592 -0.034567269801100711 0 0.00015504668777788322 -0.03444239929941699 0 0.00015668685283486592 -0.034567269801100711 0 8.7952637503375678e-05 -0.034527047685305151 0 9.4618370053563212e-05 -0.034589849950412525 0 0.00015668685283486592 -0.034567269801100711 0 8.7952637503375678e-05 -0.034527047685305151 0 1.8793992951080657e-05 -0.034615851042985209 0 9.4618370053563212e-05 -0.034589849950412525 0 8.7952637503375678e-05 -0.034527047685305151 0 4.9949959236861477e-06 -0.034976015531421663 0 -2.7032608077117112e-06 -0.034989013571089807 0 -1.8098253378288096e-06 -0.034991708120611566 0 3.1489020178281301e-10 -0.035000011417102718 0 5.4670626736812821e-07 -0.035000072423687259 0 7.3519335569658719e-07 -0.034996555357493131 0 3.1489020178281301e-10 -0.035000011417102718 0 7.3519335569658719e-07 -0.034996555357493131 0 -2.1152164776623742e-10 -0.034999975914144228 0 4.3935613597097432e-06 -0.034878893668295836 0 5.4766951811824917e-05 -0.034715242052480659 0 4.9949959236861477e-06 -0.034976015531421663 0 -1.8098253378288096e-06 -0.034991708120611566 0 7.3519335569658719e-07 -0.034996555357493131 0 4.3935613597097432e-06 -0.034878893668295836 0 -8.6331669186102312e-07 -0.035044043735691331 0 1.0540619543693e-07 -0.034991931281095602 0 7.3519335569658719e-07 -0.034996555357493131 0 -2.1152164776623742e-10 -0.034999975914144228 0 1.0540619543693e-07 -0.034991931281095602 0 -1.8098253378288096e-06 -0.034991708120611566 0 7.3519335569658719e-07 -0.034996555357493131 0 1.0540619543693e-07 -0.034991931281095602 0 -1.8098253378288096e-06 -0.034991708120611566 0 -1.2724212687186108e-06 -0.034984749937190411 0 1.0540619543693e-07 -0.034991931281095602 0 -6.5830683203184073e-07 -0.034982395656338532 0 -1.2724212687186108e-06 -0.034984749937190411 0 2.6641221141467247e-06 -0.034977496079745131 0 -2.7032608077117112e-06 -0.034989013571089807 0 -1.2724212687186108e-06 -0.034984749937190411 0 0.000104792815563918 -0.034896989745337975 0 5.4766951811824917e-05 -0.034715242052480659 0 -7.9294816052781139e-07 -0.034971059997388282 0 -6.5830683203184073e-07 -0.034982395656338532 0 -1.2724212687186108e-06 -0.034984749937190411 0 -7.9294816052781139e-07 -0.034971059997388282 0 2.6641221141467247e-06 -0.034977496079745131 0 -1.2724212687186108e-06 -0.034984749937190411 0 -2.7032608077117112e-06 -0.034989013571089807 0 -1.8098253378288096e-06 -0.034991708120611566 0 -1.2724212687186108e-06 -0.034984749937190411 0 -3.8151400397022125e-06 -0.0345645582028513 0 1.5854661877724904e-07 -0.034999843445364512 0 5.7338672299924986e-08 -0.034998839432774251 0 -3.8151400397022125e-06 -0.0345645582028513 0 1.5854661877724904e-07 -0.034999843445364512 0 -5.692809407674281e-05 -0.034667669699892822 0 -3.8151400397022125e-06 -0.0345645582028513 0 -5.692809407674281e-05 -0.034667669699892822 0 4.6163690519491392e-07 -0.034332728626146211 0 -3.8151400397022125e-06 -0.0345645582028513 0 4.6163690519491392e-07 -0.034332728626146211 0 2.3768515832468114e-07 -0.034159355833034082 0 4.6163690519491392e-07 -0.034332728626146211 0 3.744648012187562e-05 -0.03407833423790857 0 2.3768515832468114e-07 -0.034159355833034082 0 3.744648012187562e-05 -0.03407833423790857 0 2.3768515832468114e-07 -0.034159355833034082 0 4.1982480964031892e-06 -0.033871475355983213 0 2.3768515832468114e-07 -0.034159355833034082 0 -3.5240356167063698e-05 -0.033802525187142322 0 3.1313933433079091e-05 -0.034305555906527757 0 5.2463843467259445e-05 -0.034939386038323167 0 3.3567543516651383e-05 -0.03496082768952858 0 3.547020272229772e-05 -0.034960575179948064 0 -3.8151400397022125e-06 -0.0345645582028513 0 2.3768515832468114e-07 -0.034159355833034082 0 3.1313933433079091e-05 -0.034305555906527757 0 2.3768515832468114e-07 -0.034159355833034082 0 -3.5240356167063698e-05 -0.033802525187142322 0 -5.7175929984492417e-05 -0.033813034647396191 0 -1.0566755876692806e-05 -0.034375490370681099 0 3.7546512848433193e-06 -0.034629590074037715 0 3.3567543516651383e-05 -0.03496082768952858 0 2.8136694160674938e-08 -0.034999955247621929 0 3.547020272229772e-05 -0.034960575179948064 0 -3.8151400397022125e-06 -0.0345645582028513 0 3.1313933433079091e-05 -0.034305555906527757 0 5.7338672299924986e-08 -0.034998839432774251 0 3.7546512848433193e-06 -0.034629590074037715 0 -6.669266077570078e-08 -0.034999839958155941 0 3.3567543516651383e-05 -0.03496082768952858 0 1.3525332717520178e-10 -0.03499996187849469 0 2.8136694160674938e-08 -0.034999955247621929 0 3.547020272229772e-05 -0.034960575179948064 0 2.9309730711535587e-08 -0.034999929646458212 0 5.7876195393336879e-05 -0.034912654210524266 0 2.8136694160674938e-08 -0.034999955247621929 0 3.547020272229772e-05 -0.034960575179948064 0 2.9309730711535587e-08 -0.034999929646458212 0 2.9309730711535587e-08 -0.034999929646458212 0 3.1462711774627503e-05 -0.03494461159103749 0 5.7876195393336879e-05 -0.034912654210524266 0 2.9309730711535587e-08 -0.034999929646458212 0 3.1462711774627503e-05 -0.03494461159103749 0 1.8284411366510295e-08 -0.034999925585729036 0 3.1462711774627503e-05 -0.03494461159103749 0 5.8843709248772836e-05 -0.034887113626208673 0 5.7876195393336879e-05 -0.034912654210524266 0 2.6969270950281734e-05 -0.034945534251858826 0 3.1462711774627503e-05 -0.03494461159103749 0 5.8843709248772836e-05 -0.034887113626208673 0 2.6969270950281734e-05 -0.034945534251858826 0 3.1462711774627503e-05 -0.03494461159103749 0 1.8284411366510295e-08 -0.034999925585729036 0 7.3770362667722588e-05 -0.034871654283647392 0 0.00011757168086226531 -0.034797521213509423 0 0.00016302807148598525 -0.034647614455005728 0 7.3770362667722588e-05 -0.034871654283647392 0 0.00011757168086226531 -0.034797521213509423 0 5.8843709248772836e-05 -0.034887113626208673 0 0.00011757168086226531 -0.034797521213509423 0 5.8843709248772836e-05 -0.034887113626208673 0 5.7876195393336879e-05 -0.034912654210524266 0 0.00011757168086226531 -0.034797521213509423 0 5.7876195393336879e-05 -0.034912654210524266 0 6.628164729413787e-05 -0.034846879209839643 0 5.2463843467259445e-05 -0.034939386038323167 0 3.547020272229772e-05 -0.034960575179948064 0 5.7876195393336879e-05 -0.034912654210524266 0 5.2463843467259445e-05 -0.034939386038323167 0 5.7876195393336879e-05 -0.034912654210524266 0 6.628164729413787e-05 -0.034846879209839643 0 -1.0566755876692806e-05 -0.034375490370681099 0 -9.4428095840839454e-05 -0.034210226606809183 0 5.2463843467259445e-05 -0.034939386038323167 0 -3.0624380916183866e-05 -0.034921490180283794 0 6.628164729413787e-05 -0.034846879209839643 0 -3.0624380916183866e-05 -0.034921490180283794 0 -4.2520500122912592e-05 -0.034799306012026791 0 -0.00029617482372281182 -0.034848417126063722 0 -3.0624380916183866e-05 -0.034921490180283794 0 -4.2520500122912592e-05 -0.034799306012026791 0 6.628164729413787e-05 -0.034846879209839643 0 0.00011757168086226531 -0.034797521213509423 0 6.628164729413787e-05 -0.034846879209839643 0 -2.6890053348869039e-05 -0.034840267232935457 0 7.1628625447550047e-05 -0.034848271401335625 0 -8.2618355140378369e-05 -0.034664279245891313 0 -4.2520500122912592e-05 -0.034799306012026791 0 6.628164729413787e-05 -0.034846879209839643 0 -6.6817050426492159e-05 -0.034593534286658061 0 -4.2520500122912592e-05 -0.034799306012026791 0 -6.6817050426492159e-05 -0.034593534286658061 0 -0.00019709517315901035 -0.034701172639009424 0 -2.6890053348869039e-05 -0.034840267232935457 0 0.00016302807148598525 -0.034647614455005728 0 -0.00022527732471574392 -0.034545457530194661 0 0.00011757168086226531 -0.034797521213509423 0 -2.6890053348869039e-05 -0.034840267232935457 0 0.00016302807148598525 -0.034647614455005728 0 -0.00033546017656270634 -0.034310194988629868 0 -0.00035261645965733437 -0.034543128441449626 0 -0.0007078529077072153 -0.034229982311556391 0 -0.00047194945413240241 -0.035208189213824161 0 6.0257809605523046e-05 -0.032036830374009416 0 -6.6817050426492159e-05 -0.034593534286658061 0 -0.00033546017656270634 -0.034310194988629868 0 -0.00035261645965733437 -0.034543128441449626 0 -2.6890053348869039e-05 -0.034840267232935457 0 -0.00064828521905747091 -0.034580350805253554 0 -0.00022527732471574392 -0.034545457530194661 0 -8.2618355140378369e-05 -0.034664279245891313 0 -0.00047480023003531268 -0.034735833938656722 0 -0.00043127562189803817 -0.034368905264617618 0 -0.00064828521905747091 -0.034580350805253554 0 -0.00022527732471574392 -0.034545457530194661 0 -6.6817050426492159e-05 -0.034593534286658061 0 -0.00019709517315901035 -0.034701172639009424 0 -0.00035261645965733437 -0.034543128441449626 0 -0.00035261645965733437 -0.034543128441449626 0 -0.00029617482372281182 -0.034848417126063722 0 -0.00049530949481653799 -0.034614393682135938 0 -0.0003036930366143273 -0.034342014301856662 0 0.00048042894298279805 -0.033325213265703604 0 -0.00029617482372281182 -0.034848417126063722 0 -0.00063811100370053458 -0.03470336426391598 0 -0.00049530949481653799 -0.034614393682135938 0 -0.00019709517315901035 -0.034701172639009424 0 -0.00035261645965733437 -0.034543128441449626 0 -0.00029617482372281182 -0.034848417126063722 0 -4.2520500122912592e-05 -0.034799306012026791 0 -0.00019709517315901035 -0.034701172639009424 0 -0.00029617482372281182 -0.034848417126063722 0 -9.4428095840839454e-05 -0.034210226606809183 0 -0.0003036930366143273 -0.034342014301856662 0 -0.00018492549200809169 -0.033519556111557547 0 -0.00010771862422580452 -0.033576599874071633 0 -0.00013032273949705297 -0.033413603211942387 0 -0.00010771862422580452 -0.033576599874071633 0 8.354685314779437e-05 -0.033445956340117211 0 0.0002248020514808257 -0.033615424775792997 0 -0.00010771862422580452 -0.033576599874071633 0 -0.00013032273949705297 -0.033413603211942387 0 8.354685314779437e-05 -0.033445956340117211 0 -0.00013032273949705297 -0.033413603211942387 0 8.354685314779437e-05 -0.033445956340117211 0 -5.4764359697490102e-06 -0.033223716919334005 0 -5.4764359697490102e-06 -0.033223716919334005 0 -0.00018649217869776374 -0.033345995651684703 0 -2.2483860372437064e-05 -0.032939905380357383 0 -0.00018649217869776374 -0.033345995651684703 0 -0.00027488455020927954 -0.032959383060094806 0 -2.2483860372437064e-05 -0.032939905380357383 0 -0.00018649217869776374 -0.033345995651684703 0 -8.4955009779920731e-05 -0.033441879037596767 0 -0.00027488455020927954 -0.032959383060094806 0 -0.00013032273949705297 -0.033413603211942387 0 -5.4764359697490102e-06 -0.033223716919334005 0 -0.00018649217869776374 -0.033345995651684703 0 -0.00018492549200809169 -0.033519556111557547 0 -0.00013032273949705297 -0.033413603211942387 0 -0.00018649217869776374 -0.033345995651684703 0 -0.00018492549200809169 -0.033519556111557547 0 -0.00018649217869776374 -0.033345995651684703 0 -0.00012934718333284343 -0.033614075318746654 0 -3.5240356167063698e-05 -0.033802525187142322 0 -0.00012934718333284343 -0.033614075318746654 0 -5.7175929984492417e-05 -0.033813034647396191 0 -3.5240356167063698e-05 -0.033802525187142322 0 -0.00018492549200809169 -0.033519556111557547 0 -0.00012934718333284343 -0.033614075318746654 0 -0.00012934718333284343 -0.033614075318746654 0 -5.7175929984492417e-05 -0.033813034647396191 0 -8.4955009779920731e-05 -0.033441879037596767 0 -0.00018649217869776374 -0.033345995651684703 0 -0.00012934718333284343 -0.033614075318746654 0 -8.4955009779920731e-05 -0.033441879037596767 0 -8.4955009779920731e-05 -0.033441879037596767 0 4.1982480964031892e-06 -0.033871475355983213 0 -9.7347214351436874e-06 -0.033745771003853647 0 2.3768515832468114e-07 -0.034159355833034082 0 -5.7175929984492417e-05 -0.033813034647396191 0 4.1982480964031892e-06 -0.033871475355983213 0 -5.7175929984492417e-05 -0.033813034647396191 0 -8.4955009779920731e-05 -0.033441879037596767 0 4.1982480964031892e-06 -0.033871475355983213 0 4.1982480964031892e-06 -0.033871475355983213 0 -9.7347214351436874e-06 -0.033745771003853647 0 4.4658489038598345e-05 -0.033889894227645469 0 3.744648012187562e-05 -0.03407833423790857 0 4.1982480964031892e-06 -0.033871475355983213 0 4.4658489038598345e-05 -0.033889894227645469 0 -9.7347214351436874e-06 -0.033745771003853647 0 -6.0965721529959298e-05 -0.033765649427658861 0 4.4658489038598345e-05 -0.033889894227645469 0 -8.4955009779920731e-05 -0.033441879037596767 0 -9.7347214351436874e-06 -0.033745771003853647 0 -6.0965721529959298e-05 -0.033765649427658861 0 -8.4955009779920731e-05 -0.033441879037596767 0 -0.00020736135869509425 -0.033679806076242963 0 -6.0965721529959298e-05 -0.033765649427658861 0 -0.00046460868521527084 -0.031661178471355279 0 -0.00027488455020927954 -0.032959383060094806 0 0.00014054258536591395 -0.031922760863080754 0 -0.00032234426892465128 -0.032580503999384391 0 -0.00028800302248349575 -0.032967151166441493 0 -0.00046460868521527084 -0.031661178471355279 0 0.00014054258536591395 -0.031922760863080754 0 9.5440559093371613e-06 -0.031439115371898287 0 -8.4955009779920731e-05 -0.033441879037596767 0 -0.00020736135869509425 -0.033679806076242963 0 -0.00027488455020927954 -0.032959383060094806 0 0.00054040640818549019 -0.031780631051101821 0 0.00027502556582867707 -0.032286067789613813 0 0.00063548159997567637 -0.032118590581003567 0 0.00054040640818549019 -0.031780631051101821 0 0.00027502556582867707 -0.032286067789613813 0 0.00038331506168461262 -0.031872471056301185 0 0.00054040640818549019 -0.031780631051101821 0 0.00083750991949542951 -0.031425948534430481 0 0.00063548159997567637 -0.032118590581003567 0 -0.00027488455020927954 -0.032959383060094806 0 0.00027502556582867707 -0.032286067789613813 0 -2.2483860372437064e-05 -0.032939905380357383 0 -0.00027488455020927954 -0.032959383060094806 0 0.00027502556582867707 -0.032286067789613813 0 0.00014054258536591395 -0.031922760863080754 0 0.00027502556582867707 -0.032286067789613813 0 0.00038331506168461262 -0.031872471056301185 0 0.00014054258536591395 -0.031922760863080754 0 0.00014054258536591395 -0.031922760863080754 0 0.00048371861384984298 -0.031681464667157204 0 9.5440559093371613e-06 -0.031439115371898287 0 0.00038331506168461262 -0.031872471056301185 0 0.00014054258536591395 -0.031922760863080754 0 0.00048371861384984298 -0.031681464667157204 0 -0.0016538632797384407 -0.024725994269619404 0 0.00033267687891110227 -0.024722359809392042 0 0.00083750991949542951 -0.031425948534430481 0 0.00054040640818549019 -0.031780631051101821 0 0.00048371861384984298 -0.031681464667157204 0 0.00083750991949542951 -0.031425948534430481 0 -0.00042362794820434917 -0.028472510806773058 0 0.00082584159072150395 -0.031243327117607175 0 0.00054040640818549019 -0.031780631051101821 0 0.00038331506168461262 -0.031872471056301185 0 0.00048371861384984298 -0.031681464667157204 0 0.00033267687891110227 -0.024722359809392042 0 0.0018026478943122611 -0.030534290854291001 0 0.00083750991949542951 -0.031425948534430481 0 0.0003848862975120549 -0.024976415205615676 0 0.00084770446773479904 -0.027069138922191947 0 0.00033267687891110227 -0.024722359809392042 0 6.4536082141157679e-05 -0.024270121933603495 0 0.00011412798805958357 -0.023989784363889852 0 6.4536082141157679e-05 -0.024270121933603495 0 8.7928160866841951e-07 -0.024187123046682222 0 -1.2839845942584562e-05 -0.024308526498461932 0 0.00033267687891110227 -0.024722359809392042 0 6.4536082141157679e-05 -0.024270121933603495 0 -1.2839845942584562e-05 -0.024308526498461932 0 6.4536082141157679e-05 -0.024270121933603495 0 7.5421044288320049e-05 -0.024079457629145914 0 0.00011412798805958357 -0.023989784363889852 0 -7.4201320681827491e-05 -0.024131140755064309 0 8.7928160866841951e-07 -0.024187123046682222 0 -1.2839845942584562e-05 -0.024308526498461932 0 8.7928160866841951e-07 -0.024187123046682222 0 2.2006876834269654e-05 -0.024094466734596701 0 7.5421044288320049e-05 -0.024079457629145914 0 6.4536082141157679e-05 -0.024270121933603495 0 8.7928160866841951e-07 -0.024187123046682222 0 7.5421044288320049e-05 -0.024079457629145914 0 -7.4201320681827491e-05 -0.024131140755064309 0 8.7928160866841951e-07 -0.024187123046682222 0 2.2006876834269654e-05 -0.024094466734596701 0 2.2006876834269654e-05 -0.024094466734596701 0 7.5421044288320049e-05 -0.024079457629145914 0 0.0002152169717446561 -0.023990618384604805 0 2.2006876834269654e-05 -0.024094466734596701 0 0.0002152169717446561 -0.023990618384604805 0 1.8789459064824256e-05 -0.02389771139982361 0 7.5421044288320049e-05 -0.024079457629145914 0 0.00011537689589366443 -0.024047510270740303 0 0.0002152169717446561 -0.023990618384604805 0 0.00011537689589366443 -0.024047510270740303 0 0.00011856183065464569 -0.02415551701461387 0 0.0002152169717446561 -0.023990618384604805 0 0.00011856183065464569 -0.02415551701461387 0 0.00011412798805958357 -0.023989784363889852 0 2.8503475314260341e-05 -0.024404208311814241 0 7.5421044288320049e-05 -0.024079457629145914 0 0.00011537689589366443 -0.024047510270740303 0 0.00011412798805958357 -0.023989784363889852 0 0.00011537689589366443 -0.024047510270740303 0 0.00011856183065464569 -0.02415551701461387 0 0.00011412798805958357 -0.023989784363889852 0 0.0018026478943122611 -0.030534290854291001 0 0.00083750991949542951 -0.031425948534430481 0 0.0010580726472471658 -0.032121623403520497 0 0.00083750991949542951 -0.031425948534430481 0 0.0010580726472471658 -0.032121623403520497 0 0.00063548159997567637 -0.032118590581003567 0 0.00084770446773479904 -0.027069138922191947 0 0.00090091113786130853 -0.028988785023736897 0 0.0018026478943122611 -0.030534290854291001 0 0.0010580726472471658 -0.032121623403520497 0 0.0015311913221339752 -0.032812907244611847 0 0.0010580726472471658 -0.032121623403520497 0 0.00091049465771355796 -0.032495432648890606 0 0.00063548159997567637 -0.032118590581003567 0 0.0010580726472471658 -0.032121623403520497 0 0.00091049465771355796 -0.032495432648890606 0 0.0011477715428943756 -0.032679877145148285 0 0.0010580726472471658 -0.032121623403520497 0 0.0015311913221339752 -0.032812907244611847 0 0.0011477715428943756 -0.032679877145148285 0 0.0015311913221339752 -0.032812907244611847 0 0.0011477715428943756 -0.032679877145148285 0 0.0012380071186529969 -0.032925069018067715 0 0.0010052381816006636 -0.032854233527656602 0 0.0011477715428943756 -0.032679877145148285 0 0.0012380071186529969 -0.032925069018067715 0 0.00091049465771355796 -0.032495432648890606 0 0.0010052381816006636 -0.032854233527656602 0 0.0006894302240018327 -0.032676135031128171 0 0.00091049465771355796 -0.032495432648890606 0 0.0010052381816006636 -0.032854233527656602 0 0.0011477715428943756 -0.032679877145148285 0 0.0002152169717446561 -0.023990618384604805 0 0.00060729643652592989 -0.023037997892873908 0 0.0001270163341616878 -0.023560605943664954 0 0.00011856183065464569 -0.02415551701461387 0 0.0002152169717446561 -0.023990618384604805 0 0.00028698491083978256 -0.024441282958114666 0 0.00025182394987673297 -0.02417518191645698 0 0.00044709758004245984 -0.02315301572715063 0 0.00011856183065464569 -0.02415551701461387 0 2.8503475314260341e-05 -0.024404208311814241 0 0.00028698491083978256 -0.024441282958114666 0 0.00060729643652592989 -0.023037997892873908 0 0.00016752518697439847 -0.0231062961271477 0 0.0001270163341616878 -0.023560605943664954 0 0.00060729643652592989 -0.023037997892873908 0 0.00029070320374256677 -0.02276393350644618 0 0.00016752518697439847 -0.0231062961271477 0 0.00044709758004245984 -0.02315301572715063 0 0.00073423717605580687 -0.026949150881665631 0 2.8503475314260341e-05 -0.024404208311814241 0 0.00028698491083978256 -0.024441282958114666 0 0.00020404577495300937 -0.025143146074897524 0 0.00060729643652592989 -0.023037997892873908 0 0.000453189002656277 -0.022612133590729472 0 0.00045756918947427715 -0.022408576999710619 0 0.00090091113786130853 -0.028988785023736897 0 0.00073423717605580687 -0.026949150881665631 0 0.0015311913221339752 -0.032812907244611847 0 0.0012801722468857664 -0.033071148007689517 0 0.0013399486323431476 -0.033244913063840392 0 0.00060729643652592989 -0.023037997892873908 0 0.000453189002656277 -0.022612133590729472 0 0.00029070320374256677 -0.02276393350644618 0 0.000453189002656277 -0.022612133590729472 0 0.00030157224679912379 -0.022514315087530073 0 0.00029070320374256677 -0.02276393350644618 0 0.000453189002656277 -0.022612133590729472 0 0.00050815024684855176 -0.022389441899479084 0 0.00045756918947427715 -0.022408576999710619 0 0.00050815024684855176 -0.022389441899479084 0 0.00030157224679912379 -0.022514315087530073 0 0.00016662409707741982 -0.022269110969842437 0 0.000453189002656277 -0.022612133590729472 0 0.00050815024684855176 -0.022389441899479084 0 0.00030157224679912379 -0.022514315087530073 0 0.0010052381816006636 -0.032854233527656602 0 0.0010872736384448477 -0.03309494813801811 0 0.0012380071186529969 -0.032925069018067715 0 0.0010872736384448477 -0.03309494813801811 0 0.00087328830517058894 -0.033140876511184886 0 0.00080313962519300243 -0.032990193532123339 0 0.0010052381816006636 -0.032854233527656602 0 0.0010872736384448477 -0.03309494813801811 0 0.00080313962519300243 -0.032990193532123339 0 0.0015311913221339752 -0.032812907244611847 0 0.0012380071186529969 -0.032925069018067715 0 0.0012801722468857664 -0.033071148007689517 0 0.0010872736384448477 -0.03309494813801811 0 0.0012380071186529969 -0.032925069018067715 0 0.0012801722468857664 -0.033071148007689517 0 0.0010872736384448477 -0.03309494813801811 0 0.0012801722468857664 -0.033071148007689517 0 0.001176217178280505 -0.033244513851388491 0 0.0012801722468857664 -0.033071148007689517 0 0.001176217178280505 -0.033244513851388491 0 0.0013399486323431476 -0.033244913063840392 0 0.0010872736384448477 -0.03309494813801811 0 0.001176217178280505 -0.033244513851388491 0 0.00097067162345415071 -0.033267474349716476 0 0.0010872736384448477 -0.03309494813801811 0 0.00097067162345415071 -0.033267474349716476 0 0.00087328830517058894 -0.033140876511184886 0 0.00097067162345415071 -0.033267474349716476 0 0.00087328830517058894 -0.033140876511184886 0 0.00064083292699835116 -0.033194977680751449 0 0.00087328830517058894 -0.033140876511184886 0 0.00064083292699835116 -0.033194977680751449 0 0.00080313962519300243 -0.032990193532123339 0 0.00064083292699835116 -0.033194977680751449 0 0.00026836575261742981 -0.033014096716258302 0 0.00030974878231262222 -0.03329552450510203 0 0.00064083292699835116 -0.033194977680751449 0 0.00030974878231262222 -0.03329552450510203 0 0.00061139438671260814 -0.033371044794619102 0 0.00064083292699835116 -0.033194977680751449 0 0.00054912735952149835 -0.032906719525218668 0 0.00026836575261742981 -0.033014096716258302 0 0.00064083292699835116 -0.033194977680751449 0 0.00054912735952149835 -0.032906719525218668 0 0.00080313962519300243 -0.032990193532123339 0 0.00054912735952149835 -0.032906719525218668 0 0.00080313962519300243 -0.032990193532123339 0 0.0006894302240018327 -0.032676135031128171 0 0.00027502556582867707 -0.032286067789613813 0 0.00037201549793339288 -0.032614765980882067 0 0.00063548159997567637 -0.032118590581003567 0 0.0010052381816006636 -0.032854233527656602 0 0.00080313962519300243 -0.032990193532123339 0 0.0006894302240018327 -0.032676135031128171 0 0.00054912735952149835 -0.032906719525218668 0 0.0006894302240018327 -0.032676135031128171 0 0.00037201549793339288 -0.032614765980882067 0 0.00054912735952149835 -0.032906719525218668 0 0.00037201549793339288 -0.032614765980882067 0 0.00026836575261742981 -0.033014096716258302 0 0.0006894302240018327 -0.032676135031128171 0 0.00037201549793339288 -0.032614765980882067 0 0.00063548159997567637 -0.032118590581003567 0 0.00091049465771355796 -0.032495432648890606 0 0.0006894302240018327 -0.032676135031128171 0 0.00063548159997567637 -0.032118590581003567 0 0.00037201549793339288 -0.032614765980882067 0 -2.2483860372437064e-05 -0.032939905380357383 0 0.00026836575261742981 -0.033014096716258302 0 0.00027502556582867707 -0.032286067789613813 0 0.00037201549793339288 -0.032614765980882067 0 -2.2483860372437064e-05 -0.032939905380357383 0 -5.4764359697490102e-06 -0.033223716919334005 0 -2.2483860372437064e-05 -0.032939905380357383 0 0.00026836575261742981 -0.033014096716258302 0 8.354685314779437e-05 -0.033445956340117211 0 -5.4764359697490102e-06 -0.033223716919334005 0 0.00030974878231262222 -0.03329552450510203 0 -5.4764359697490102e-06 -0.033223716919334005 0 0.00026836575261742981 -0.033014096716258302 0 0.00030974878231262222 -0.03329552450510203 0 8.354685314779437e-05 -0.033445956340117211 0 0.00030974878231262222 -0.03329552450510203 0 0.00028917189138582378 -0.033481218260605301 0 0.00030974878231262222 -0.03329552450510203 0 0.00028917189138582378 -0.033481218260605301 0 0.00047940447839468325 -0.033486424018881869 0 0.00028917189138582378 -0.033481218260605301 0 0.0002248020514808257 -0.033615424775792997 0 0.00042870774725980038 -0.033602984823991884 0 0.00028917189138582378 -0.033481218260605301 0 0.00047940447839468325 -0.033486424018881869 0 0.00042870774725980038 -0.033602984823991884 0 8.354685314779437e-05 -0.033445956340117211 0 0.00028917189138582378 -0.033481218260605301 0 0.0002248020514808257 -0.033615424775792997 0 0.00097067162345415071 -0.033267474349716476 0 0.00064083292699835116 -0.033194977680751449 0 0.00081795242507671909 -0.033410229671062164 0 0.00064083292699835116 -0.033194977680751449 0 0.00081795242507671909 -0.033410229671062164 0 0.00061139438671260814 -0.033371044794619102 0 0.00081795242507671909 -0.033410229671062164 0 0.00061139438671260814 -0.033371044794619102 0 0.00066579205797704039 -0.033496106755372554 0 0.00030974878231262222 -0.03329552450510203 0 0.00061139438671260814 -0.033371044794619102 0 0.00047940447839468325 -0.033486424018881869 0 0.00047940447839468325 -0.033486424018881869 0 0.0006066533417593042 -0.033614713297438759 0 0.00042870774725980038 -0.033602984823991884 0 0.00047940447839468325 -0.033486424018881869 0 0.00066579205797704039 -0.033496106755372554 0 0.0006066533417593042 -0.033614713297438759 0 0.00061139438671260814 -0.033371044794619102 0 0.00047940447839468325 -0.033486424018881869 0 0.00066579205797704039 -0.033496106755372554 0 0.0008157409725101859 -0.033589228770845116 0 0.00066579205797704039 -0.033496106755372554 0 0.0006066533417593042 -0.033614713297438759 0 0.00081795242507671909 -0.033410229671062164 0 0.0008157409725101859 -0.033589228770845116 0 0.00066579205797704039 -0.033496106755372554 0 0.00074364887641281154 -0.033768404323682173 0 0.00037925553186240942 -0.033870373311474869 0 0.00078787041736479027 -0.033987119108457968 0 0.0008157409725101859 -0.033589228770845116 0 0.00074364887641281154 -0.033768404323682173 0 0.00089707557078348818 -0.033692764671829495 0 0.0008157409725101859 -0.033589228770845116 0 0.0006066533417593042 -0.033614713297438759 0 0.00074364887641281154 -0.033768404323682173 0 0.0006066533417593042 -0.033614713297438759 0 0.00050012766002101576 -0.033707812698013886 0 0.00074364887641281154 -0.033768404323682173 0 0.0006066533417593042 -0.033614713297438759 0 0.00050012766002101576 -0.033707812698013886 0 0.00042870774725980038 -0.033602984823991884 0 0.00050012766002101576 -0.033707812698013886 0 0.00074364887641281154 -0.033768404323682173 0 0.00037925553186240942 -0.033870373311474869 0 -0.00010771862422580452 -0.033576599874071633 0 0.0002248020514808257 -0.033615424775792997 0 0.00035305861709210171 -0.033840652693523099 0 0.0002248020514808257 -0.033615424775792997 0 0.00037245016320497305 -0.033728962557358813 0 0.00035305861709210171 -0.033840652693523099 0 0.0002248020514808257 -0.033615424775792997 0 0.00042870774725980038 -0.033602984823991884 0 0.00037245016320497305 -0.033728962557358813 0 0.00050012766002101576 -0.033707812698013886 0 0.00042870774725980038 -0.033602984823991884 0 0.00037245016320497305 -0.033728962557358813 0 0.00044112625201764727 -0.03365019338524438 0 0.00048042894298279805 -0.033325213265703604 0 0.00050012766002101576 -0.033707812698013886 0 0.00037245016320497305 -0.033728962557358813 0 0.00037925553186240942 -0.033870373311474869 0 -0.00035261645965733437 -0.034543128441449626 0 -0.00049530949481653799 -0.034614393682135938 0 -0.00063510880064458872 -0.034490366874191082 0 0.00048042894298279805 -0.033325213265703604 0 0.00028524676107239663 -0.032517923638477671 0 -0.00063811100370053458 -0.03470336426391598 0 -0.00049530949481653799 -0.034614393682135938 0 -0.00063510880064458872 -0.034490366874191082 0 0.00048042894298279805 -0.033325213265703604 0 0.00092945223441282172 -0.032572897869901606 0 0.0012028045079037928 -0.030624720807074231 0 0.00063406054417106204 -0.03093906171285625 0 0.00074300276919449302 -0.030455472961468086 0 0.001184520368120238 -0.031178576298254629 0 0.0012028045079037928 -0.030624720807074231 0 0.00063406054417106204 -0.03093906171285625 0 0.00063406054417106204 -0.03093906171285625 0 0.00074300276919449302 -0.030455472961468086 0 0.0004407600555135104 -0.030578398353187538 0 0.0012028045079037928 -0.030624720807074231 0 0.00074300276919449302 -0.030455472961468086 0 0.00095794550389697393 -0.030241540500628297 0 0.00079703175292106059 -0.029973324024053373 0 0.00074300276919449302 -0.030455472961468086 0 0.00029426772265827363 -0.030277878510281325 0 0.00079703175292106059 -0.029973324024053373 0 0.00095794550389697393 -0.030241540500628297 0 0.0012162325664506156 -0.030085593987684962 0 0.00079703175292106059 -0.029973324024053373 0 0.00074300276919449302 -0.030455472961468086 0 0.00095794550389697393 -0.030241540500628297 0 0.0012028045079037928 -0.030624720807074231 0 0.00095794550389697393 -0.030241540500628297 0 0.0012162325664506156 -0.030085593987684962 0 0.00028524676107239663 -0.032517923638477671 0 6.0257809605523046e-05 -0.032036830374009416 0 -0.00035261645965733437 -0.034543128441449626 0 -0.00063510880064458872 -0.034490366874191082 0 -0.00062464903190635008 -0.03425842619012278 0 -0.00035261645965733437 -0.034543128441449626 0 -0.00074629705094632652 -0.034219466137162743 0 -0.0007078529077072153 -0.034229982311556391 0 6.0257809605523046e-05 -0.032036830374009416 0 -1.2727782209798393e-05 -0.03214087378477317 0 0.00051206823568332189 -0.02478821193372413 0 0.00022655797706423329 -0.024847217310193084 0 0.00052083716140111276 -0.024644716456894998 0 0.00023327858979234814 -0.027572474228729882 0 0.00054554539592652381 -0.027776460863436797 0 0.00029426772265827363 -0.030277878510281325 0 0.00013807827152381645 -0.030454448412314632 0 -0.00015913458230927741 -0.030544259265431778 0 0.00056701423733282008 -0.024701817074117238 0 0.00051206823568332189 -0.02478821193372413 0 0.00052083716140111276 -0.024644716456894998 0 0.00056701423733282008 -0.024701817074117238 0 0.00064283437709650095 -0.024721275021262579 0 0.00051206823568332189 -0.02478821193372413 0 0.00056701423733282008 -0.024701817074117238 0 0.00064283437709650095 -0.024721275021262579 0 0.00061888308878435853 -0.024661735876768769 0 0.00064283437709650095 -0.024721275021262579 0 0.00051206823568332189 -0.02478821193372413 0 0.00061064115160354871 -0.024841168292082688 0 0.00066410183041635564 -0.024971582333913427 0 0.00061064115160354871 -0.024841168292082688 0 0.00049557962089993553 -0.024924123204743777 0 0.00051206823568332189 -0.02478821193372413 0 0.00061064115160354871 -0.024841168292082688 0 0.00049557962089993553 -0.024924123204743777 0 0.00051206823568332189 -0.02478821193372413 0 0.00049557962089993553 -0.024924123204743777 0 0.00022655797706423329 -0.024847217310193084 0 0.00038551648481191612 -0.02510907014579589 0 0.00049557962089993553 -0.024924123204743777 0 0.00022655797706423329 -0.024847217310193084 0 0.00027842635596268014 -0.027434614730513458 0 0.00023327858979234814 -0.027572474228729882 0 0.00074300276919449302 -0.030455472961468086 0 0.00029426772265827363 -0.030277878510281325 0 0.0004407600555135104 -0.030578398353187538 0 0.00029426772265827363 -0.030277878510281325 0 0.00013807827152381645 -0.030454448412314632 0 0.0004407600555135104 -0.030578398353187538 0 0.00063406054417106204 -0.03093906171285625 0 9.8980111798100811e-05 -0.030695427359238213 0 0.0004407600555135104 -0.030578398353187538 0 9.3723530883018492e-05 -0.030407474540638042 0 0.00017283273841921704 -0.029592764371473887 0 0.00013807827152381645 -0.030454448412314632 0 9.8980111798100811e-05 -0.030695427359238213 0 0.0004407600555135104 -0.030578398353187538 0 0.00092945223441282172 -0.032572897869901606 0 0.00017283273841921704 -0.029592764371473887 0 0.00078787041736479027 -0.033987119108457968 0 0.0011398884152859455 -0.034077462251094551 0 0.00098980366412281559 -0.033812504119370347 0 0.0010933040672081213 -0.024557110400535639 0 0.00074142939561165416 -0.024638835624043242 0 0.00079296671853002984 -0.024953714485581532 0 0.0010933040672081213 -0.024557110400535639 0 0.00074875215848862055 -0.024470384770140012 0 0.00074142939561165416 -0.024638835624043242 0 0.00013807827152381645 -0.030454448412314632 0 0.00010923701369586097 -0.030647865388162367 0 -0.00015913458230927741 -0.030544259265431778 0 0.00017283273841921704 -0.029592764371473887 0 0.00054554539592652381 -0.027776460863436797 0 0.00061888308878435853 -0.024661735876768769 0 0.00062450626203183702 -0.024568535115596053 0 0.00066548573847223416 -0.024644487271641282 0 0.00064283437709650095 -0.024721275021262579 0 0.00061888308878435853 -0.024661735876768769 0 0.00066548573847223416 -0.024644487271641282 0 0.00061888308878435853 -0.024661735876768769 0 0.00052083716140111276 -0.024644716456894998 0 0.00062450626203183702 -0.024568535115596053 0 0.00056701423733282008 -0.024701817074117238 0 0.00061888308878435853 -0.024661735876768769 0 0.00052083716140111276 -0.024644716456894998 0 0.00054554539592652381 -0.027776460863436797 0 0.0010115703139268275 -0.027037583863384854 0 0.00074875215848862055 -0.024470384770140012 0 0.00062450626203183702 -0.024568535115596053 0 0.00074142939561165416 -0.024638835624043242 0 0.00062450626203183702 -0.024568535115596053 0 0.00056753936726333979 -0.024553132550288223 0 0.00066548573847223416 -0.024644487271641282 0 0.00062450626203183702 -0.024568535115596053 0 0.00074142939561165416 -0.024638835624043242 0 0.00056753936726333979 -0.024553132550288223 0 0.00074142939561165416 -0.024638835624043242 0 0.00079296671853002984 -0.024953714485581532 0 0.00056753936726333979 -0.024553132550288223 0 0.00079296671853002984 -0.024953714485581532 0 0.00065344027363366491 -0.025443487401243792 0 0.00056753936726333979 -0.024553132550288223 0 0.0010933040672081213 -0.024557110400535639 0 0.00079296671853002984 -0.024953714485581532 0 0.0010582370497207662 -0.025368159275755763 0 0.00038876719141784337 -0.02337979192204661 0 0.00075379696984478981 -0.023358362839040685 0 0.00056753936726333979 -0.024553132550288223 0 0.00044598925162902555 -0.023967785827902752 0 0.00061317135197573342 -0.024728373247115291 0 0.00017283273841921704 -0.029592764371473887 0 0.0011731771149047587 -0.029991865659750403 0 0.00079296671853002984 -0.024953714485581532 0 0.0010582370497207662 -0.025368159275755763 0 0.00065344027363366491 -0.025443487401243792 0 0.0011398884152859455 -0.034077462251094551 0 0.0012238807528501541 -0.033673479029710754 0 0.00098980366412281559 -0.033812504119370347 0 0.00074364887641281154 -0.033768404323682173 0 0.00098980366412281559 -0.033812504119370347 0 0.00089707557078348818 -0.033692764671829495 0 0.00074364887641281154 -0.033768404323682173 0 0.00078787041736479027 -0.033987119108457968 0 0.00098980366412281559 -0.033812504119370347 0 0.0012238807528501541 -0.033673479029710754 0 0.0010410875536127811 -0.033598540700141545 0 0.0011006141124234215 -0.03350247030007255 0 0.0012238807528501541 -0.033673479029710754 0 0.00098980366412281559 -0.033812504119370347 0 0.0010410875536127811 -0.033598540700141545 0 0.0008157409725101859 -0.033589228770845116 0 0.0010410875536127811 -0.033598540700141545 0 0.00089707557078348818 -0.033692764671829495 0 0.00098980366412281559 -0.033812504119370347 0 0.0010410875536127811 -0.033598540700141545 0 0.00089707557078348818 -0.033692764671829495 0 0.0008157409725101859 -0.033589228770845116 0 0.0010410875536127811 -0.033598540700141545 0 0.00095649875847503307 -0.03349849304195171 0 0.00081795242507671909 -0.033410229671062164 0 0.0008157409725101859 -0.033589228770845116 0 0.00095649875847503307 -0.03349849304195171 0 0.0012238807528501541 -0.033673479029710754 0 0.0011006141124234215 -0.03350247030007255 0 0.0012169731489386838 -0.033368882803853812 0 0.00095649875847503307 -0.03349849304195171 0 0.0011006141124234215 -0.03350247030007255 0 0.0010572251720942555 -0.03337407117867916 0 0.0010410875536127811 -0.033598540700141545 0 0.00095649875847503307 -0.03349849304195171 0 0.0011006141124234215 -0.03350247030007255 0 0.001176217178280505 -0.033244513851388491 0 0.0012169731489386838 -0.033368882803853812 0 0.0010572251720942555 -0.03337407117867916 0 0.001176217178280505 -0.033244513851388491 0 0.00097067162345415071 -0.033267474349716476 0 0.0010572251720942555 -0.03337407117867916 0 0.0011006141124234215 -0.03350247030007255 0 0.0012169731489386838 -0.033368882803853812 0 0.0010572251720942555 -0.03337407117867916 0 0.00097067162345415071 -0.033267474349716476 0 0.00081795242507671909 -0.033410229671062164 0 0.0010572251720942555 -0.03337407117867916 0 0.00081795242507671909 -0.033410229671062164 0 0.00095649875847503307 -0.03349849304195171 0 0.0010572251720942555 -0.03337407117867916 0 0.00044598925162902555 -0.023967785827902752 0 0.00073423717605580687 -0.026949150881665631 0 0.00038876719141784337 -0.02337979192204661 0 0.00051872556586907571 -0.022875206949388348 0 0.00045756918947427715 -0.022408576999710619 0 0.0012238807528501541 -0.033673479029710754 0 0.0012169731489386838 -0.033368882803853812 0 0.0013399486323431476 -0.033244913063840392 0 0.0010582370497207662 -0.025368159275755763 0 0.00065344027363366491 -0.025443487401243792 0 0.00093724326290066818 -0.026422360029382821 0 0.00051324183643991505 -0.022377329603897739 0 0.00047042180227306976 -0.022304627447438864 0 0.00050815024684855176 -0.022389441899479084 0 0.00051872556586907571 -0.022875206949388348 0 0.00075379696984478981 -0.023358362839040685 0 0.00050815024684855176 -0.022389441899479084 0 0.00020524771687975435 -0.021876725458503176 0 0.00025594159134342419 -0.021275215563357399 0 0.0011731771149047587 -0.029991865659750403 0 0.00073423717605580687 -0.026949150881665631 0 0.00038876719141784337 -0.02337979192204661 0 0.00051872556586907571 -0.022875206949388348 0 0.00075379696984478981 -0.023358362839040685 0 0.001176217178280505 -0.033244513851388491 0 0.0012169731489386838 -0.033368882803853812 0 0.0013399486323431476 -0.033244913063840392 0 0.00050815024684855176 -0.022389441899479084 0 0.00051872556586907571 -0.022875206949388348 0 0.00045756918947427715 -0.022408576999710619 0 0.00050815024684855176 -0.022389441899479084 0 0.00020524771687975435 -0.021876725458503176 0 0.00016662409707741982 -0.022269110969842437 0 0.00020524771687975435 -0.021876725458503176 0 -4.6067350828970429e-06 -0.022017012143487277 0 0.00016662409707741982 -0.022269110969842437 0 0.00020524771687975435 -0.021876725458503176 0 -4.6067350828970429e-06 -0.022017012143487277 0 -6.1080504539473316e-05 -0.021769337114638011 0 -4.6067350828970429e-06 -0.022017012143487277 0 0.00016662409707741982 -0.022269110969842437 0 -0.00011817077827665105 -0.022256527941851921 0 -4.6067350828970429e-06 -0.022017012143487277 0 -0.0002621036858485312 -0.021911086523273018 0 -0.00011817077827665105 -0.022256527941851921 0 -4.6067350828970429e-06 -0.022017012143487277 0 -0.0002621036858485312 -0.021911086523273018 0 -6.1080504539473316e-05 -0.021769337114638011 0 -0.0002621036858485312 -0.021911086523273018 0 -6.1080504539473316e-05 -0.021769337114638011 0 -0.00025496871929990252 -0.021515826606120298 0 -6.1080504539473316e-05 -0.021769337114638011 0 -0.00025496871929990252 -0.021515826606120298 0 2.3375243129135764e-05 -0.021525892614545305 0 0.00020524771687975435 -0.021876725458503176 0 2.3375243129135764e-05 -0.021525892614545305 0 0.00025594159134342419 -0.021275215563357399 0 0.00020524771687975435 -0.021876725458503176 0 -6.1080504539473316e-05 -0.021769337114638011 0 2.3375243129135764e-05 -0.021525892614545305 0 -0.00089281421561139324 -0.021757623084698311 0 -0.00060574868864564477 -0.02195928321116792 0 -0.00062979788367117733 -0.02158801499033991 0 -0.00089281421561139324 -0.021757623084698311 0 -0.00060574868864564477 -0.02195928321116792 0 -0.0007864182077021956 -0.022245963927587958 0 -0.0002621036858485312 -0.021911086523273018 0 -0.00060574868864564477 -0.02195928321116792 0 -0.00043942798911174758 -0.022305382932504517 0 -0.0002621036858485312 -0.021911086523273018 0 -0.00060574868864564477 -0.02195928321116792 0 -0.00062979788367117733 -0.02158801499033991 0 -0.00025496871929990252 -0.021515826606120298 0 -0.00062979788367117733 -0.02158801499033991 0 -0.00074770472713531905 -0.021079594038884656 0 -0.0002621036858485312 -0.021911086523273018 0 -0.00025496871929990252 -0.021515826606120298 0 -0.00062979788367117733 -0.02158801499033991 0 -0.00062979788367117733 -0.02158801499033991 0 -0.00074770472713531905 -0.021079594038884656 0 -0.0010872487123075251 -0.021391833418437898 0 -0.00089281421561139324 -0.021757623084698311 0 -0.00062979788367117733 -0.02158801499033991 0 -0.0010872487123075251 -0.021391833418437898 0 -0.00025496871929990252 -0.021515826606120298 0 -0.00074770472713531905 -0.021079594038884656 0 -0.00010407711505625948 -0.021237511160189782 0 -0.00074770472713531905 -0.021079594038884656 0 -0.00010407711505625948 -0.021237511160189782 0 -0.00019273072767467868 -0.020953587220536491 0 -0.00074770472713531905 -0.021079594038884656 0 -0.00019273072767467868 -0.020953587220536491 0 -0.00036879634849268177 -0.020755358774991798 0 0.00025594159134342419 -0.021275215563357399 0 -0.00019273072767467868 -0.020953587220536491 0 -0.0001026709237075167 -0.020521199777132532 0 0.00047042180227306976 -0.022304627447438864 0 0.00047295030327208868 -0.022635542465195696 0 2.3375243129135764e-05 -0.021525892614545305 0 0.00025594159134342419 -0.021275215563357399 0 -0.00010407711505625948 -0.021237511160189782 0 -0.00025496871929990252 -0.021515826606120298 0 2.3375243129135764e-05 -0.021525892614545305 0 -0.00010407711505625948 -0.021237511160189782 0 0.00025594159134342419 -0.021275215563357399 0 -0.00010407711505625948 -0.021237511160189782 0 -0.00019273072767467868 -0.020953587220536491 0 0.00075379696984478981 -0.023358362839040685 0 0.00056753936726333979 -0.024553132550288223 0 0.00087636617662792654 -0.024577451235017214 0 -0.0001026709237075167 -0.020521199777132532 0 -0.00046515236248281252 -0.02048069380457862 0 -0.0003126468137388321 -0.019988827233588479 0 0.00066548573847223416 -0.024644487271641282 0 0.00087636617662792654 -0.024577451235017214 0 0.00073465223325983151 -0.024787761367859571 0 0.00056753936726333979 -0.024553132550288223 0 0.00066548573847223416 -0.024644487271641282 0 0.00087636617662792654 -0.024577451235017214 0 -0.0001026709237075167 -0.020521199777132532 0 -0.00036879634849268177 -0.020755358774991798 0 -0.00046515236248281252 -0.02048069380457862 0 -0.00019273072767467868 -0.020953587220536491 0 -0.0001026709237075167 -0.020521199777132532 0 -0.00036879634849268177 -0.020755358774991798 0 -0.00074770472713531905 -0.021079594038884656 0 -0.00036879634849268177 -0.020755358774991798 0 -0.00046515236248281252 -0.02048069380457862 0 -0.00074770472713531905 -0.021079594038884656 0 -0.001025174682133502 -0.020564380447795409 0 -0.00092588435616129498 -0.020550302388330964 0 -0.00079618066156962423 -0.02115691007049714 0 -0.00064997519476661853 -0.020245846395982259 0 -0.001025174682133502 -0.020564380447795409 0 -0.00092588435616129498 -0.020550302388330964 0 -0.0011029188666277123 -0.020481491078887137 0 -0.0012044478118842933 -0.020552140317492033 0 -0.0011029188666277123 -0.020481491078887137 0 -0.0011507330781325696 -0.020517558933886387 0 -0.00064997519476661853 -0.020245846395982259 0 -0.00047430024763408087 -0.022014379596728993 0 -0.00092588435616129498 -0.020550302388330964 0 -0.0011029188666277123 -0.020481491078887137 0 -0.0011507330781325696 -0.020517558933886387 0 0.00087636617662792654 -0.024577451235017214 0 0.00087818466665961256 -0.024900036385125043 0 0.00073465223325983151 -0.024787761367859571 0 0.00047295030327208868 -0.022635542465195696 0 -0.00047430024763408087 -0.022014379596728993 0 0.00066410183041635564 -0.024971582333913427 0 0.00061064115160354871 -0.024841168292082688 0 0.00073465223325983151 -0.024787761367859571 0 0.00066410183041635564 -0.024971582333913427 0 0.00087818466665961256 -0.024900036385125043 0 0.00073465223325983151 -0.024787761367859571 0 0.00064283437709650095 -0.024721275021262579 0 0.00066548573847223416 -0.024644487271641282 0 0.00073465223325983151 -0.024787761367859571 0 0.00064283437709650095 -0.024721275021262579 0 0.00061064115160354871 -0.024841168292082688 0 0.00073465223325983151 -0.024787761367859571 0 -0.0010720109726857958 -0.020312801604365213 0 -0.0011447197779761516 -0.020298644816546713 0 -0.00078956003002232373 -0.019900085520100235 0 -0.0010720109726857958 -0.020312801604365213 0 -0.0011622060716107504 -0.020423286955159874 0 -0.0011447197779761516 -0.020298644816546713 0 -0.0011997622765848722 -0.02059505313458973 0 -0.0010720109726857958 -0.020312801604365213 0 -0.0011622060716107504 -0.020423286955159874 0 -0.0012044478118842933 -0.020552140317492033 0 -0.0011029188666277123 -0.020481491078887137 0 -0.0011622060716107504 -0.020423286955159874 0 -0.0011029188666277123 -0.020481491078887137 0 -0.0011622060716107504 -0.020423286955159874 0 -0.0011390313034638573 -0.020464135343053226 0 -0.0011622060716107504 -0.020423286955159874 0 -0.0011390313034638573 -0.020464135343053226 0 -0.0011447197779761516 -0.020298644816546713 0 -0.00074770472713531905 -0.021079594038884656 0 -0.001025174682133502 -0.020564380447795409 0 -0.0011025225925620121 -0.020670088768445557 0 -0.001025174682133502 -0.020564380447795409 0 -0.0011029188666277123 -0.020481491078887137 0 -0.0011390313034638573 -0.020464135343053226 0 -0.001025174682133502 -0.020564380447795409 0 -0.0011390313034638573 -0.020464135343053226 0 -0.0011025225925620121 -0.020670088768445557 0 -0.0011390313034638573 -0.020464135343053226 0 -0.0011025225925620121 -0.020670088768445557 0 -0.0012134185830009981 -0.020559643549528515 0 -0.0011447197779761516 -0.020298644816546713 0 -0.0014354401309644516 -0.020643730818427335 0 -0.00078956003002232373 -0.019900085520100235 0 -0.0012134185830009981 -0.020559643549528515 0 -0.0011447197779761516 -0.020298644816546713 0 -0.0014354401309644516 -0.020643730818427335 0 -0.0011390313034638573 -0.020464135343053226 0 -0.0012134185830009981 -0.020559643549528515 0 -0.0011447197779761516 -0.020298644816546713 0 -0.0012134185830009981 -0.020559643549528515 0 -0.0014354401309644516 -0.020643730818427335 0 -0.0012030421915457917 -0.020964430831872806 0 -0.0010098784346100169 -0.019184276295381917 0 -0.00096071122851405257 -0.018760055669166012 0 -0.00083427665063823492 -0.018888525570338693 0 -0.0014354401309644516 -0.020643730818427335 0 -0.0012030421915457917 -0.020964430831872806 0 -0.0014567692524940327 -0.021667341915471178 0 -0.0011370838708480299 -0.020011482834669799 0 -0.0014818612683152859 -0.019979433095661032 0 -0.00074770472713531905 -0.021079594038884656 0 -0.0012030421915457917 -0.020964430831872806 0 -0.0010872487123075251 -0.021391833418437898 0 -0.00074770472713531905 -0.021079594038884656 0 -0.0011025225925620121 -0.020670088768445557 0 -0.0012030421915457917 -0.020964430831872806 0 -0.0011025225925620121 -0.020670088768445557 0 -0.0012134185830009981 -0.020559643549528515 0 -0.0012030421915457917 -0.020964430831872806 0 -0.00089281421561139324 -0.021757623084698311 0 -0.0014567692524940327 -0.021667341915471178 0 -0.0007864182077021956 -0.022245963927587958 0 -0.0012030421915457917 -0.020964430831872806 0 -0.0010872487123075251 -0.021391833418437898 0 -0.0014567692524940327 -0.021667341915471178 0 -0.00089281421561139324 -0.021757623084698311 0 -0.0010872487123075251 -0.021391833418437898 0 -0.0014567692524940327 -0.021667341915471178 0 -0.0010098784346100169 -0.019184276295381917 0 -0.0011628598983757744 -0.018767239140368538 0 -0.00096071122851405257 -0.018760055669166012 0 -0.0011628598983757744 -0.018767239140368538 0 -0.00096071122851405257 -0.018760055669166012 0 -0.0011099994003153889 -0.018587907540437765 0 -0.00096071122851405257 -0.018760055669166012 0 -0.00094329348982169492 -0.01859306150097495 0 -0.0011099994003153889 -0.018587907540437765 0 -0.00094329348982169492 -0.01859306150097495 0 -0.0011099994003153889 -0.018587907540437765 0 -0.0011155995758134556 -0.018396756110073759 0 -0.00094329348982169492 -0.01859306150097495 0 -0.0009203695424141959 -0.018394769917877165 0 -0.00071145799550997077 -0.018313854172978893 0 -0.00094329348982169492 -0.01859306150097495 0 -0.0009203695424141959 -0.018394769917877165 0 -0.0011155995758134556 -0.018396756110073759 0 -0.0009203695424141959 -0.018394769917877165 0 -0.0011155995758134556 -0.018396756110073759 0 -0.0010316456914865278 -0.018115736835614876 0 -0.0009203695424141959 -0.018394769917877165 0 -0.0010316456914865278 -0.018115736835614876 0 -0.00074469184717681342 -0.018119128681051356 0 0.00034133982196985689 -0.020893311536719712 0 -0.00023394085025628067 -0.021670791585605503 0 -0.0011155995758134556 -0.018396756110073759 0 -0.0010316456914865278 -0.018115736835614876 0 -0.0013745938682666267 -0.018405900445458229 0 0.0015007694883215233 -0.02394117574140394 0 0.0011792393051874405 -0.024121830211421905 0 0.0012683434070133654 -0.0239166936319632 0 -0.0014567692524940327 -0.021667341915471178 0 -0.0010410967819503775 -0.022834664499343023 0 -0.0007864182077021956 -0.022245963927587958 0 -0.0011099994003153889 -0.018587907540437765 0 -0.0011155995758134556 -0.018396756110073759 0 -0.0013745938682666267 -0.018405900445458229 0 -0.0014818612683152859 -0.019979433095661032 0 -0.00023394085025628067 -0.021670791585605503 0 -0.0011628598983757744 -0.018767239140368538 0 -0.0011099994003153889 -0.018587907540437765 0 -0.0013745938682666267 -0.018405900445458229 0 -0.0007864182077021956 -0.022245963927587958 0 -0.00043942798911174758 -0.022305382932504517 0 -0.00070527406602195514 -0.02262817224221695 0 -0.00060574868864564477 -0.02195928321116792 0 -0.0007864182077021956 -0.022245963927587958 0 -0.00043942798911174758 -0.022305382932504517 0 -0.00070527406602195514 -0.02262817224221695 0 -0.00029233354439865352 -0.02272883412315542 0 -0.00042685382017077969 -0.022964474675457987 0 -0.00043942798911174758 -0.022305382932504517 0 -0.00070527406602195514 -0.02262817224221695 0 -0.00029233354439865352 -0.02272883412315542 0 -0.00023394085025628067 -0.021670791585605503 0 -0.0010175428855921569 -0.022573684831237065 0 -0.0010410967819503775 -0.022834664499343023 0 -0.0007864182077021956 -0.022245963927587958 0 -0.00070527406602195514 -0.02262817224221695 0 0.00030157224679912379 -0.022514315087530073 0 0.00016662409707741982 -0.022269110969842437 0 3.6373004095725467e-05 -0.022548293030587304 0 0.00016662409707741982 -0.022269110969842437 0 -0.00011817077827665105 -0.022256527941851921 0 3.6373004095725467e-05 -0.022548293030587304 0 -0.0002621036858485312 -0.021911086523273018 0 -0.00043942798911174758 -0.022305382932504517 0 -0.00011817077827665105 -0.022256527941851921 0 -0.00043942798911174758 -0.022305382932504517 0 -0.00011817077827665105 -0.022256527941851921 0 -0.00020894953002910808 -0.022463529844783486 0 -0.00011817077827665105 -0.022256527941851921 0 -0.00020894953002910808 -0.022463529844783486 0 3.6373004095725467e-05 -0.022548293030587304 0 -0.00043942798911174758 -0.022305382932504517 0 -0.00020894953002910808 -0.022463529844783486 0 -0.00029233354439865352 -0.02272883412315542 0 -0.00029233354439865352 -0.02272883412315542 0 3.6373004095725467e-05 -0.022548293030587304 0 1.926073091703284e-05 -0.022846766009895415 0 -0.00020894953002910808 -0.022463529844783486 0 -0.00029233354439865352 -0.02272883412315542 0 3.6373004095725467e-05 -0.022548293030587304 0 3.6373004095725467e-05 -0.022548293030587304 0 1.926073091703284e-05 -0.022846766009895415 0 0.00029070320374256677 -0.02276393350644618 0 0.00030157224679912379 -0.022514315087530073 0 3.6373004095725467e-05 -0.022548293030587304 0 0.00029070320374256677 -0.02276393350644618 0 0.00016752518697439847 -0.0231062961271477 0 -0.00011955777401390037 -0.023076949520192153 0 -4.9540437027295513e-05 -0.023441064956125635 0 1.926073091703284e-05 -0.022846766009895415 0 0.00029070320374256677 -0.02276393350644618 0 0.00016752518697439847 -0.0231062961271477 0 1.926073091703284e-05 -0.022846766009895415 0 0.00016752518697439847 -0.0231062961271477 0 -0.00011955777401390037 -0.023076949520192153 0 -0.00011955777401390037 -0.023076949520192153 0 -0.00028876463358219393 -0.023241196335972877 0 -0.00042685382017077969 -0.022964474675457987 0 -0.00029233354439865352 -0.02272883412315542 0 1.926073091703284e-05 -0.022846766009895415 0 -0.00011955777401390037 -0.023076949520192153 0 -0.00029233354439865352 -0.02272883412315542 0 -0.00011955777401390037 -0.023076949520192153 0 -0.00042685382017077969 -0.022964474675457987 0 -0.00011955777401390037 -0.023076949520192153 0 -0.00028876463358219393 -0.023241196335972877 0 -4.9540437027295513e-05 -0.023441064956125635 0 -0.00024960595146226907 -0.023497210508409819 0 -4.9540437027295513e-05 -0.023441064956125635 0 -0.00016889815229172549 -0.023867434054160613 0 -0.00028876463358219393 -0.023241196335972877 0 -0.00024960595146226907 -0.023497210508409819 0 -4.9540437027295513e-05 -0.023441064956125635 0 -0.00028876463358219393 -0.023241196335972877 0 -0.00024960595146226907 -0.023497210508409819 0 -0.00037431190119989309 -0.02336943657240418 0 0.00016752518697439847 -0.0231062961271477 0 -4.9540437027295513e-05 -0.023441064956125635 0 0.0001270163341616878 -0.023560605943664954 0 -0.0011254518490336548 -0.022924738298146077 0 -0.00063418505865801562 -0.02317768440365672 0 -0.00058703600350289175 -0.023812572810108103 0 0.0011792393051874405 -0.024121830211421905 0 0.0010298581707125401 -0.02386804398782871 0 0.0012683434070133654 -0.0239166936319632 0 -0.00023394085025628067 -0.021670791585605503 0 0.00023830439299589895 -0.024131586608721771 0 -0.0011254518490336548 -0.022924738298146077 0 -0.00070527406602195514 -0.02262817224221695 0 -0.00063418505865801562 -0.02317768440365672 0 -0.00070527406602195514 -0.02262817224221695 0 -0.00042685382017077969 -0.022964474675457987 0 -0.00063418505865801562 -0.02317768440365672 0 -0.00028876463358219393 -0.023241196335972877 0 -0.00042685382017077969 -0.022964474675457987 0 -0.00047291754168204638 -0.023207798100943703 0 -0.00042685382017077969 -0.022964474675457987 0 -0.00047291754168204638 -0.023207798100943703 0 -0.00063418505865801562 -0.02317768440365672 0 -0.00063418505865801562 -0.02317768440365672 0 -0.00048266535484726931 -0.0234892944131578 0 -0.00058703600350289175 -0.023812572810108103 0 -0.00047291754168204638 -0.023207798100943703 0 -0.00063418505865801562 -0.02317768440365672 0 -0.00048266535484726931 -0.0234892944131578 0 -0.00028876463358219393 -0.023241196335972877 0 -0.00047291754168204638 -0.023207798100943703 0 -0.00037431190119989309 -0.02336943657240418 0 -0.00047291754168204638 -0.023207798100943703 0 -0.00037431190119989309 -0.02336943657240418 0 -0.00048266535484726931 -0.0234892944131578 0 -0.00024960595146226907 -0.023497210508409819 0 -0.00037431190119989309 -0.02336943657240418 0 -0.00048266535484726931 -0.0234892944131578 0 -0.00024960595146226907 -0.023497210508409819 0 -0.00048266535484726931 -0.0234892944131578 0 -0.00033882805243766982 -0.023656532799640587 0 -0.00048266535484726931 -0.0234892944131578 0 -0.00046015530901776961 -0.023661973940729414 0 -0.00033882805243766982 -0.023656532799640587 0 -0.00049055600276978848 -0.023771880859157376 0 -0.00035149705114354761 -0.023830771746435834 0 -0.00056978237916061308 -0.023812452629018124 0 -0.00048266535484726931 -0.0234892944131578 0 -0.00046015530901776961 -0.023661973940729414 0 -0.00058703600350289175 -0.023812572810108103 0 -0.00046015530901776961 -0.023661973940729414 0 -0.00049055600276978848 -0.023771880859157376 0 -0.00058703600350289175 -0.023812572810108103 0 -0.00046015530901776961 -0.023661973940729414 0 -0.00049055600276978848 -0.023771880859157376 0 -0.00035149705114354761 -0.023830771746435834 0 0.00016257290253829815 -0.024141625044974212 0 0.00023830439299589895 -0.024131586608721771 0 -0.00033882805243766982 -0.023656532799640587 0 -0.00035149705114354761 -0.023830771746435834 0 -0.00016889815229172549 -0.023867434054160613 0 -0.00046015530901776961 -0.023661973940729414 0 -0.00033882805243766982 -0.023656532799640587 0 -0.00035149705114354761 -0.023830771746435834 0 -0.00035149705114354761 -0.023830771746435834 0 -0.00019948210307658574 -0.024128303904399063 0 -0.00016889815229172549 -0.023867434054160613 0 -0.00035149705114354761 -0.023830771746435834 0 -0.00056978237916061308 -0.023812452629018124 0 -0.00019948210307658574 -0.024128303904399063 0 0.00023830439299589895 -0.024131586608721771 0 -7.1570234971146497e-05 -0.023999879796335093 0 -0.00019948210307658574 -0.024128303904399063 0 -1.7271858447584988e-05 -0.024192009828858801 0 -5.459538290027304e-05 -0.024059721473515663 0 -5.756170468631375e-05 -0.024396565673566271 0 -0.00019948210307658574 -0.024128303904399063 0 -1.7271858447584988e-05 -0.024192009828858801 0 -5.756170468631375e-05 -0.024396565673566271 0 -1.7271858447584988e-05 -0.024192009828858801 0 0.00019381875324514926 -0.024210827101884519 0 -4.9540437027295513e-05 -0.023441064956125635 0 0.0001270163341616878 -0.023560605943664954 0 1.8789459064824256e-05 -0.02389771139982361 0 0.0002152169717446561 -0.023990618384604805 0 0.0001270163341616878 -0.023560605943664954 0 1.8789459064824256e-05 -0.02389771139982361 0 -0.00024960595146226907 -0.023497210508409819 0 -0.00033882805243766982 -0.023656532799640587 0 -0.00016889815229172549 -0.023867434054160613 0 -4.9540437027295513e-05 -0.023441064956125635 0 1.8789459064824256e-05 -0.02389771139982361 0 -0.00016889815229172549 -0.023867434054160613 0 -0.00019948210307658574 -0.024128303904399063 0 -9.425538369368537e-05 -0.024067449537506811 0 -0.00011610480667690152 -0.02408696718496035 0 -0.00019948210307658574 -0.024128303904399063 0 -0.00016889815229172549 -0.023867434054160613 0 -9.425538369368537e-05 -0.024067449537506811 0 1.8789459064824256e-05 -0.02389771139982361 0 -0.00016889815229172549 -0.023867434054160613 0 -9.425538369368537e-05 -0.024067449537506811 0 2.2006876834269654e-05 -0.024094466734596701 0 1.8789459064824256e-05 -0.02389771139982361 0 -9.425538369368537e-05 -0.024067449537506811 0 2.2006876834269654e-05 -0.024094466734596701 0 -9.425538369368537e-05 -0.024067449537506811 0 -0.00010310637943209689 -0.024068399714936205 0 -9.425538369368537e-05 -0.024067449537506811 0 -0.00011610480667690152 -0.02408696718496035 0 -0.00010310637943209689 -0.024068399714936205 0 -0.00011610480667690152 -0.02408696718496035 0 -0.00010310637943209689 -0.024068399714936205 0 -5.459538290027304e-05 -0.024059721473515663 0 -0.00010310637943209689 -0.024068399714936205 0 -5.459538290027304e-05 -0.024059721473515663 0 -8.9972025163076523e-05 -0.023946255127143379 0 -7.4201320681827491e-05 -0.024131140755064309 0 -0.00010310637943209689 -0.024068399714936205 0 -0.00013883081995149667 -0.023981725420025905 0 -7.4201320681827491e-05 -0.024131140755064309 0 2.2006876834269654e-05 -0.024094466734596701 0 -0.00010310637943209689 -0.024068399714936205 0 -5.459538290027304e-05 -0.024059721473515663 0 0.00012344807716980203 -0.023998795313845359 0 0.00019381875324514926 -0.024210827101884519 0 -1.7271858447584988e-05 -0.024192009828858801 0 -5.459538290027304e-05 -0.024059721473515663 0 0.00019381875324514926 -0.024210827101884519 0 -0.00019948210307658574 -0.024128303904399063 0 -0.00011610480667690152 -0.02408696718496035 0 -5.459538290027304e-05 -0.024059721473515663 0 -5.459538290027304e-05 -0.024059721473515663 0 2.4418509250422067e-05 -0.023916282927459651 0 -8.9972025163076523e-05 -0.023946255127143379 0 -5.459538290027304e-05 -0.024059721473515663 0 0.00012344807716980203 -0.023998795313845359 0 2.4418509250422067e-05 -0.023916282927459651 0 0.00012344807716980203 -0.023998795313845359 0 0.00014416458759936084 -0.023862590635864538 0 2.4418509250422067e-05 -0.023916282927459651 0 0.00012344807716980203 -0.023998795313845359 0 0.00034693616920642508 -0.023958690947894136 0 0.00014416458759936084 -0.023862590635864538 0 0.00012344807716980203 -0.023998795313845359 0 0.00034693616920642508 -0.023958690947894136 0 0.00019381875324514926 -0.024210827101884519 0 0.00034693616920642508 -0.023958690947894136 0 0.00019381875324514926 -0.024210827101884519 0 0.00056960290559616956 -0.02427652335907152 0 0.00034693616920642508 -0.023958690947894136 0 0.00076031351424874806 -0.023918810092636314 0 0.00056960290559616956 -0.02427652335907152 0 0.0016200965072215548 -0.023779239208533247 0 0.0013963016704455515 -0.023717237811287539 0 0.0017997105128958395 -0.023591721789304385 0 0.00076031351424874806 -0.023918810092636314 0 0.00056960290559616956 -0.02427652335907152 0 0.0013726229937066055 -0.024046503993524648 0 0.0010412875320455841 -0.02398425551181944 0 0.0015791266616211252 -0.023811892042853507 0 0.0015007694883215233 -0.02394117574140394 0 0.0016200965072215548 -0.023779239208533247 0 0.0013963016704455515 -0.023717237811287539 0 0.0015007694883215233 -0.02394117574140394 0 0.0016200965072215548 -0.023779239208533247 0 0.0018522677002903219 -0.023775943875735495 0 -5.756170468631375e-05 -0.024396565673566271 0 0.00019381875324514926 -0.024210827101884519 0 0.00056960290559616956 -0.02427652335907152 0 0.0010298581707125401 -0.02386804398782871 0 0.0012683434070133654 -0.0239166936319632 0 0.0013963016704455515 -0.023717237811287539 0 0.0015007694883215233 -0.02394117574140394 0 0.0012683434070133654 -0.0239166936319632 0 0.0013963016704455515 -0.023717237811287539 0 0.00023830439299589895 -0.024131586608721771 0 0.0010412875320455841 -0.02398425551181944 0 0.00033851891381327836 -0.02345446958300363 0 0.00047607464996198381 -0.023240350323139432 0 0.00068567308102820295 -0.023397760891492477 0 0.00033851891381327836 -0.02345446958300363 0 0.00022874985086066037 -0.023187517624368742 0 0.00047607464996198381 -0.023240350323139432 0 0.00033851891381327836 -0.02345446958300363 0 0.00023589608872729025 -0.023696777384865232 0 7.5788019045345379e-05 -0.023462904588752376 0 0.00033851891381327836 -0.02345446958300363 0 0.00022874985086066037 -0.023187517624368742 0 7.5788019045345379e-05 -0.023462904588752376 0 0.00022874985086066037 -0.023187517624368742 0 0.00047607464996198381 -0.023240350323139432 0 0.00043617695403510578 -0.022773797001702605 0 0.00047607464996198381 -0.023240350323139432 0 0.00076906873554110885 -0.022985111393506733 0 0.00043617695403510578 -0.022773797001702605 0 0.00076906873554110885 -0.022985111393506733 0 0.0010238113435954539 -0.023226629452347852 0 0.0012919944910135257 -0.022798277109647408 0 0.00047607464996198381 -0.023240350323139432 0 0.00076906873554110885 -0.022985111393506733 0 0.00068567308102820295 -0.023397760891492477 0 0.00076906873554110885 -0.022985111393506733 0 0.0010238113435954539 -0.023226629452347852 0 0.00068567308102820295 -0.023397760891492477 0 0.00068567308102820295 -0.023397760891492477 0 0.0010469713029730634 -0.023620608237157358 0 0.00054522282756499412 -0.0236890914190214 0 0.00076031351424874806 -0.023918810092636314 0 0.0010469713029730634 -0.023620608237157358 0 0.0013726229937066055 -0.024046503993524648 0 0.0010238113435954539 -0.023226629452347852 0 0.00068567308102820295 -0.023397760891492477 0 0.0010469713029730634 -0.023620608237157358 0 0.00076031351424874806 -0.023918810092636314 0 0.0010469713029730634 -0.023620608237157358 0 0.00054522282756499412 -0.0236890914190214 0 0.00034693616920642508 -0.023958690947894136 0 0.00076031351424874806 -0.023918810092636314 0 0.00054522282756499412 -0.0236890914190214 0 0.00033851891381327836 -0.02345446958300363 0 0.00068567308102820295 -0.023397760891492477 0 0.00054522282756499412 -0.0236890914190214 0 0.00033851891381327836 -0.02345446958300363 0 0.00054522282756499412 -0.0236890914190214 0 0.00023589608872729025 -0.023696777384865232 0 0.00034693616920642508 -0.023958690947894136 0 0.00054522282756499412 -0.0236890914190214 0 0.00023589608872729025 -0.023696777384865232 0 0.00034693616920642508 -0.023958690947894136 0 0.00023589608872729025 -0.023696777384865232 0 0.00014416458759936084 -0.023862590635864538 0 0.00023589608872729025 -0.023696777384865232 0 0.00014416458759936084 -0.023862590635864538 0 2.8276924798192498e-05 -0.023748301974711575 0 0.00014416458759936084 -0.023862590635864538 0 2.4418509250422067e-05 -0.023916282927459651 0 2.8276924798192498e-05 -0.023748301974711575 0 2.4418509250422067e-05 -0.023916282927459651 0 2.8276924798192498e-05 -0.023748301974711575 0 -8.9972025163076523e-05 -0.023946255127143379 0 2.8276924798192498e-05 -0.023748301974711575 0 -0.00014082170902199944 -0.02378831899534203 0 -8.4875609180458359e-05 -0.023588978239457235 0 0.00023589608872729025 -0.023696777384865232 0 2.8276924798192498e-05 -0.023748301974711575 0 7.5788019045345379e-05 -0.023462904588752376 0 -0.00013883081995149667 -0.023981725420025905 0 -8.9972025163076523e-05 -0.023946255127143379 0 -0.00014082170902199944 -0.02378831899534203 0 -0.00010310637943209689 -0.024068399714936205 0 -0.00013883081995149667 -0.023981725420025905 0 -8.9972025163076523e-05 -0.023946255127143379 0 2.8276924798192498e-05 -0.023748301974711575 0 -8.9972025163076523e-05 -0.023946255127143379 0 -0.00014082170902199944 -0.02378831899534203 0 -0.00013883081995149667 -0.023981725420025905 0 -0.00014082170902199944 -0.02378831899534203 0 -0.00023508384257948925 -0.023834103706366919 0 -0.00014082170902199944 -0.02378831899534203 0 -0.00023279514469739737 -0.023590937974243508 0 -0.00023508384257948925 -0.023834103706366919 0 -0.00023279514469739737 -0.023590937974243508 0 -0.00040786743821698041 -0.023642007724907089 0 -0.00023508384257948925 -0.023834103706366919 0 -0.00014082170902199944 -0.02378831899534203 0 -0.00023279514469739737 -0.023590937974243508 0 -8.4875609180458359e-05 -0.023588978239457235 0 -0.00023279514469739737 -0.023590937974243508 0 -0.00013862937620140608 -0.023312221393097958 0 -0.00035149848294737258 -0.023376062390364164 0 -0.00023279514469739737 -0.023590937974243508 0 -8.4875609180458359e-05 -0.023588978239457235 0 -0.00013862937620140608 -0.023312221393097958 0 -0.00023279514469739737 -0.023590937974243508 0 -0.00035149848294737258 -0.023376062390364164 0 -0.00040786743821698041 -0.023642007724907089 0 2.8276924798192498e-05 -0.023748301974711575 0 7.5788019045345379e-05 -0.023462904588752376 0 -8.4875609180458359e-05 -0.023588978239457235 0 7.5788019045345379e-05 -0.023462904588752376 0 -8.4875609180458359e-05 -0.023588978239457235 0 -0.00013862937620140608 -0.023312221393097958 0 7.5788019045345379e-05 -0.023462904588752376 0 -0.00013862937620140608 -0.023312221393097958 0 5.0778468156868612e-05 -0.023001208865981164 0 0.00022874985086066037 -0.023187517624368742 0 7.5788019045345379e-05 -0.023462904588752376 0 5.0778468156868612e-05 -0.023001208865981164 0 -0.00013862937620140608 -0.023312221393097958 0 5.0778468156868612e-05 -0.023001208865981164 0 -0.00026985655265417591 -0.022860468970036907 0 5.0778468156868612e-05 -0.023001208865981164 0 -0.00026985655265417591 -0.022860468970036907 0 -2.5509732436475432e-05 -0.022504224049001039 0 5.0778468156868612e-05 -0.023001208865981164 0 -2.5509732436475432e-05 -0.022504224049001039 0 0.00023981229080249827 -0.022434152026192609 0 -0.00035149848294737258 -0.023376062390364164 0 -0.00026985655265417591 -0.022860468970036907 0 -0.0005694488368481489 -0.023324582985346544 0 -0.00035149848294737258 -0.023376062390364164 0 -0.0005694488368481489 -0.023324582985346544 0 -0.00040786743821698041 -0.023642007724907089 0 -0.00013862937620140608 -0.023312221393097958 0 -0.00035149848294737258 -0.023376062390364164 0 -0.00026985655265417591 -0.022860468970036907 0 -0.00026985655265417591 -0.022860468970036907 0 -0.00056485220284479664 -0.022683678651734866 0 -0.00036086702095682402 -0.022167719401482055 0 -0.00026985655265417591 -0.022860468970036907 0 -0.00056485220284479664 -0.022683678651734866 0 -0.0005694488368481489 -0.023324582985346544 0 -0.00026985655265417591 -0.022860468970036907 0 -0.00015775898496463419 -0.022204012928908709 0 -0.00036086702095682402 -0.022167719401482055 0 -0.00026985655265417591 -0.022860468970036907 0 -2.5509732436475432e-05 -0.022504224049001039 0 -0.00015775898496463419 -0.022204012928908709 0 -2.5509732436475432e-05 -0.022504224049001039 0 -0.00015775898496463419 -0.022204012928908709 0 7.6791758102502422e-05 -0.021883612163022374 0 7.6791758102502422e-05 -0.021883612163022374 0 0.00048776259408459953 -0.02208643315914284 0 0.00043139540677017267 -0.021370446537703466 0 -2.5509732436475432e-05 -0.022504224049001039 0 7.6791758102502422e-05 -0.021883612163022374 0 0.00023981229080249827 -0.022434152026192609 0 7.6791758102502422e-05 -0.021883612163022374 0 0.00048776259408459953 -0.02208643315914284 0 0.00023981229080249827 -0.022434152026192609 0 5.0778468156868612e-05 -0.023001208865981164 0 0.00023981229080249827 -0.022434152026192609 0 0.00043617695403510578 -0.022773797001702605 0 0.00048776259408459953 -0.02208643315914284 0 0.00023981229080249827 -0.022434152026192609 0 0.00043617695403510578 -0.022773797001702605 0 0.00022874985086066037 -0.023187517624368742 0 5.0778468156868612e-05 -0.023001208865981164 0 0.00043617695403510578 -0.022773797001702605 0 0.00076906873554110885 -0.022985111393506733 0 0.0008731187271479717 -0.022453227799033044 0 0.0012919944910135257 -0.022798277109647408 0 0.00076906873554110885 -0.022985111393506733 0 0.00043617695403510578 -0.022773797001702605 0 0.0008731187271479717 -0.022453227799033044 0 0.00048776259408459953 -0.02208643315914284 0 0.00043617695403510578 -0.022773797001702605 0 0.0008731187271479717 -0.022453227799033044 0 0.0008731187271479717 -0.022453227799033044 0 0.00095929998922940297 -0.021787745108050188 0 0.0013337130141037603 -0.022239632427713586 0 0.00048776259408459953 -0.02208643315914284 0 0.0008731187271479717 -0.022453227799033044 0 0.00095929998922940297 -0.021787745108050188 0 0.00048776259408459953 -0.02208643315914284 0 0.00095929998922940297 -0.021787745108050188 0 0.00043139540677017267 -0.021370446537703466 0 0.00095929998922940297 -0.021787745108050188 0 0.00043139540677017267 -0.021370446537703466 0 0.00094249192687456402 -0.020880962390007161 0 0.00043139540677017267 -0.021370446537703466 0 0.00094249192687456402 -0.020880962390007161 0 0.00021111535492955572 -0.020384481845639197 0 7.6791758102502422e-05 -0.021883612163022374 0 0.00043139540677017267 -0.021370446537703466 0 4.3901996904676937e-05 -0.021200182277797762 0 0.00043139540677017267 -0.021370446537703466 0 4.3901996904676937e-05 -0.021200182277797762 0 0.00021111535492955572 -0.020384481845639197 0 4.3901996904676937e-05 -0.021200182277797762 0 0.00021111535492955572 -0.020384481845639197 0 -0.00016445664805001927 -0.020725810692603909 0 0.00021111535492955572 -0.020384481845639197 0 -2.6159641088718344e-05 -0.019100159414476146 0 -0.00016445664805001927 -0.020725810692603909 0 0.00094249192687456402 -0.020880962390007161 0 0.00021111535492955572 -0.020384481845639197 0 0.0005324243128466611 -0.018390143419603915 0 0.00021111535492955572 -0.020384481845639197 0 -2.6159641088718344e-05 -0.019100159414476146 0 0.0005324243128466611 -0.018390143419603915 0 -2.6159641088718344e-05 -0.019100159414476146 0 0.00023421088543392962 -0.017521929058867115 0 0.0005324243128466611 -0.018390143419603915 0 -2.6159641088718344e-05 -0.019100159414476146 0 -0.000165874832184488 -0.019958026307646703 0 -0.00016445664805001927 -0.020725810692603909 0 -2.6159641088718344e-05 -0.019100159414476146 0 1.4450316824965656e-07 -0.018196421657843215 0 -7.6265629532027034e-07 -0.020173526154369851 0 -2.6159641088718344e-05 -0.019100159414476146 0 1.4450316824965656e-07 -0.018196421657843215 0 0.00023421088543392962 -0.017521929058867115 0 -0.00024345042955152402 -0.021981034348261277 0 -0.00032061769907790378 -0.022356034013926915 0 -1.0279521514098057e-06 -0.021994128603349396 0 9.4299757049532516e-07 -0.020179538948708935 0 -0.00024345042955152402 -0.021981034348261277 0 -1.0279521514098057e-06 -0.021994128603349396 0 -7.6265629532027034e-07 -0.020173526154369851 0 -0.000165874832184488 -0.019958026307646703 0 -0.00038778509176290769 -0.020031352223470408 0 -1.8043518157401701e-07 -0.020177230926265815 0 -0.00035614592030751914 -0.021007519763184251 0 -2.6159641088718344e-05 -0.019100159414476146 0 -7.6265629532027034e-07 -0.020173526154369851 0 -0.000165874832184488 -0.019958026307646703 0 -0.000165874832184488 -0.019958026307646703 0 -0.00038778509176290769 -0.020031352223470408 0 -0.00043800294523593098 -0.020939778821744609 0 -0.00038778509176290769 -0.020031352223470408 0 -0.00043800294523593098 -0.020939778821744609 0 -0.00075053497401709926 -0.021544573056991204 0 -0.00024345042955152402 -0.021981034348261277 0 -0.00075053497401709926 -0.021544573056991204 0 -0.00049487952174090844 -0.022038824084776466 0 -0.00024345042955152402 -0.021981034348261277 0 -0.00049487952174090844 -0.022038824084776466 0 -0.00032061769907790378 -0.022356034013926915 0 -0.00035614592030751914 -0.021007519763184251 0 -0.00064734138306150153 -0.021425249930165251 0 -0.00043800294523593098 -0.020939778821744609 0 -0.00064687355848669305 -0.021623289085610287 0 -0.00075053497401709926 -0.021544573056991204 0 -0.00043800294523593098 -0.020939778821744609 0 -0.00064687355848669305 -0.021623289085610287 0 -0.00043077461368754932 -0.021494845937486688 0 -0.000165874832184488 -0.019958026307646703 0 -0.00043800294523593098 -0.020939778821744609 0 -0.00016445664805001927 -0.020725810692603909 0 -0.00043800294523593098 -0.020939778821744609 0 -0.00016445664805001927 -0.020725810692603909 0 -0.00043077461368754932 -0.021494845937486688 0 4.3901996904676937e-05 -0.021200182277797762 0 -0.00016445664805001927 -0.020725810692603909 0 -0.00018822164902579575 -0.021533573718943322 0 -0.00016445664805001927 -0.020725810692603909 0 -0.00018822164902579575 -0.021533573718943322 0 -0.00043077461368754932 -0.021494845937486688 0 -0.00015775898496463419 -0.022204012928908709 0 -0.00018822164902579575 -0.021533573718943322 0 -0.00036086702095682402 -0.022167719401482055 0 -0.00018822164902579575 -0.021533573718943322 0 -0.00043077461368754932 -0.021494845937486688 0 -0.00036086702095682402 -0.022167719401482055 0 7.6791758102502422e-05 -0.021883612163022374 0 4.3901996904676937e-05 -0.021200182277797762 0 -0.00018822164902579575 -0.021533573718943322 0 -0.00015775898496463419 -0.022204012928908709 0 7.6791758102502422e-05 -0.021883612163022374 0 -0.00018822164902579575 -0.021533573718943322 0 -0.00064687355848669305 -0.021623289085610287 0 -0.00055425638814178915 -0.022017656196603699 0 -0.00076642876521432082 -0.022096086480246819 0 -0.00064687355848669305 -0.021623289085610287 0 -0.00043077461368754932 -0.021494845937486688 0 -0.00055425638814178915 -0.022017656196603699 0 -0.00043077461368754932 -0.021494845937486688 0 -0.00036086702095682402 -0.022167719401482055 0 -0.00055425638814178915 -0.022017656196603699 0 -0.00056485220284479664 -0.022683678651734866 0 -0.00055425638814178915 -0.022017656196603699 0 -0.00076642876521432082 -0.022096086480246819 0 -0.00056485220284479664 -0.022683678651734866 0 -0.00036086702095682402 -0.022167719401482055 0 -0.00055425638814178915 -0.022017656196603699 0 -0.00076642876521432082 -0.022096086480246819 0 -0.0014356660698385923 -0.022327074782827912 0 -0.00094556093166542354 -0.021879962338596626 0 -0.00076642876521432082 -0.022096086480246819 0 -0.0014356660698385923 -0.022327074782827912 0 -0.00094977436847756575 -0.023263214274363557 0 -0.00076642876521432082 -0.022096086480246819 0 -0.00074674807170749041 -0.021695277484415087 0 -0.00094556093166542354 -0.021879962338596626 0 -0.00064687355848669305 -0.021623289085610287 0 -0.00076642876521432082 -0.022096086480246819 0 -0.00074674807170749041 -0.021695277484415087 0 -0.0014356660698385923 -0.022327074782827912 0 -0.0012271494223133252 -0.02186255219442651 0 -0.0017568263293962166 -0.021871971323618351 0 -0.0014356660698385923 -0.022327074782827912 0 -0.0012271494223133252 -0.02186255219442651 0 -0.00094556093166542354 -0.021879962338596626 0 -4.3372324821869432e-05 -0.022673870527569237 0 -0.00065025292573489145 -0.021719267577093238 0 -0.00031094412313893471 -0.022528107342868069 0 -0.0010327525708110716 -0.021949002632665856 0 -0.00063252985302719646 -0.021835728540474428 0 -0.0015296246228284753 -0.021556687465140806 0 -0.0012271494223133252 -0.02186255219442651 0 -0.00065025292573489145 -0.021719267577093238 0 -0.0015296246228284753 -0.021556687465140806 0 -0.0012271494223133252 -0.02186255219442651 0 -0.0017568263293962166 -0.021871971323618351 0 -0.00064687355848669305 -0.021623289085610287 0 -0.00074674807170749041 -0.021695277484415087 0 -0.00075053497401709926 -0.021544573056991204 0 -0.0012271494223133252 -0.02186255219442651 0 -0.00094556093166542354 -0.021879962338596626 0 -0.00065025292573489145 -0.021719267577093238 0 -0.00074674807170749041 -0.021695277484415087 0 -0.00094556093166542354 -0.021879962338596626 0 -0.00065025292573489145 -0.021719267577093238 0 -0.00065025292573489145 -0.021719267577093238 0 -0.00075053497401709926 -0.021544573056991204 0 -0.00049487952174090844 -0.022038824084776466 0 -0.00074674807170749041 -0.021695277484415087 0 -0.00065025292573489145 -0.021719267577093238 0 -0.00075053497401709926 -0.021544573056991204 0 -0.00049487952174090844 -0.022038824084776466 0 -0.00032061769907790378 -0.022356034013926915 0 -0.00031094412313893471 -0.022528107342868069 0 -0.00032061769907790378 -0.022356034013926915 0 -0.00031094412313893471 -0.022528107342868069 0 -0.00022617658128085282 -0.022866457495197369 0 -0.00065025292573489145 -0.021719267577093238 0 -0.00049487952174090844 -0.022038824084776466 0 -0.00031094412313893471 -0.022528107342868069 0 -4.3372324821869432e-05 -0.022673870527569237 0 -0.00031094412313893471 -0.022528107342868069 0 -6.830313371477375e-05 -0.023313895332484093 0 -0.00031094412313893471 -0.022528107342868069 0 -0.00022617658128085282 -0.022866457495197369 0 -6.830313371477375e-05 -0.023313895332484093 0 -0.00022617658128085282 -0.022866457495197369 0 -1.1420160531069069e-06 -0.023813393914751853 0 -6.830313371477375e-05 -0.023313895332484093 0 -0.00032061769907790378 -0.022356034013926915 0 -0.00022617658128085282 -0.022866457495197369 0 -1.0279521514098057e-06 -0.021994128603349396 0 -0.00022617658128085282 -0.022866457495197369 0 -1.1420160531069069e-06 -0.023813393914751853 0 -1.0279521514098057e-06 -0.021994128603349396 0 0.00014774017921920639 -0.024161817377996216 0 0.0012508849167241626 -0.024020680474101087 0 0.0014973817850418218 -0.024336113935717673 0 2.5983713668266759e-06 -0.02562706137196466 0 0.00014774017921920639 -0.024161817377996216 0 0.0014973817850418218 -0.024336113935717673 0 -4.8964677626403552e-09 -0.025631418275092171 0 0.00084004616584234713 -0.026016142541895864 0 -1.1420160531069069e-06 -0.023813393914751853 0 0.00014774017921920639 -0.024161817377996216 0 -6.830313371477375e-05 -0.023313895332484093 0 -1.1420160531069069e-06 -0.023813393914751853 0 2.5983713668266759e-06 -0.02562706137196466 0 0.00014774017921920639 -0.024161817377996216 0 -0.0010327525708110716 -0.021949002632665856 0 2.3518913357468271e-06 -0.023768435729823071 0 -4.3372324821869432e-05 -0.022673870527569237 0 -6.830313371477375e-05 -0.023313895332484093 0 0.00035963677432382011 -0.023233437712494316 0 0.00014774017921920639 -0.024161817377996216 0 -6.830313371477375e-05 -0.023313895332484093 0 0.00035963677432382011 -0.023233437712494316 0 2.3518913357468271e-06 -0.023768435729823071 0 0.0016306045476568323 -0.025558210675238925 0 0.00014774017921920639 -0.024161817377996216 0 0.00035963677432382011 -0.023233437712494316 0 0.0012508849167241626 -0.024020680474101087 0 2.3518913357468271e-06 -0.023768435729823071 0 0.0011620453766646947 -0.023928122070401084 0 0.00048807438220691891 -0.027489395377611206 0 0.00036904184805604088 -0.026536392329742451 0 0.0013556036335390367 -0.027023012980143986 0 0.00048807438220691891 -0.027489395377611206 0 0.00036904184805604088 -0.026536392329742451 0 -0.00048303388333406281 -0.026271887261561502 0 0.00036904184805604088 -0.026536392329742451 0 0.00088654843312706256 -0.026183258236392046 0 0.0013556036335390367 -0.027023012980143986 0 -0.0015296246228284753 -0.021556687465140806 0 -0.0020874658171000753 -0.021538860665653553 0 -0.0017568263293962166 -0.021871971323618351 0 2.3518913357468271e-06 -0.023768435729823071 0 -0.0011258685049962064 -0.024105283023211823 0 -0.0010090268197894892 -0.024848283205831566 0 -0.00048303388333406281 -0.026271887261561502 0 -7.0538948891918891e-05 -0.025233470228810381 0 0.00036904184805604088 -0.026536392329742451 0 -0.00048303388333406281 -0.026271887261561502 0 -7.0538948891918891e-05 -0.025233470228810381 0 -0.0011379453410937036 -0.023632317931672864 0 -0.0011258685049962064 -0.024105283023211823 0 0.00036904184805604088 -0.026536392329742451 0 -7.0538948891918891e-05 -0.025233470228810381 0 0.00088654843312706256 -0.026183258236392046 0 -7.0538948891918891e-05 -0.025233470228810381 0 0.00088654843312706256 -0.026183258236392046 0 0.00063084331598954949 -0.024857226608051387 0 -7.0538948891918891e-05 -0.025233470228810381 0 0.00063084331598954949 -0.024857226608051387 0 -0.00016548830387643672 -0.024272426057733058 0 0.00063084331598954949 -0.024857226608051387 0 0.00021139631558209451 -0.024120863571313499 0 -0.00016548830387643672 -0.024272426057733058 0 0.00021139631558209451 -0.024120863571313499 0 -0.00035313936084497779 -0.02379963956146984 0 -0.00017607836580880323 -0.023555413978564067 0 0.00021139631558209451 -0.024120863571313499 0 -0.00035313936084497779 -0.02379963956146984 0 -0.00016548830387643672 -0.024272426057733058 0 -0.00057083757080327534 -0.023770884589397249 0 -0.00016548830387643672 -0.024272426057733058 0 -0.00068011794442961074 -0.024105198515091408 0 -0.00057083757080327534 -0.023770884589397249 0 -0.00035313936084497779 -0.02379963956146984 0 -0.00016548830387643672 -0.024272426057733058 0 -7.0538948891918891e-05 -0.025233470228810381 0 -0.00016548830387643672 -0.024272426057733058 0 -0.00068011794442961074 -0.024105198515091408 0 -0.0010090268197894892 -0.024848283205831566 0 -7.0538948891918891e-05 -0.025233470228810381 0 -0.00068011794442961074 -0.024105198515091408 0 -0.00068011794442961074 -0.024105198515091408 0 -0.00094977436847756575 -0.023263214274363557 0 -0.00069990721850885808 -0.023573499766009073 0 -0.0010090268197894892 -0.024848283205831566 0 -0.00068011794442961074 -0.024105198515091408 0 -0.00094977436847756575 -0.023263214274363557 0 -0.0011379453410937036 -0.023632317931672864 0 -0.0009606140332537673 -0.023415237814023573 0 -0.00056485220284479664 -0.022683678651734866 0 -0.00076642876521432082 -0.022096086480246819 0 -0.00094977436847756575 -0.023263214274363557 0 -0.00056485220284479664 -0.022683678651734866 0 -0.00094977436847756575 -0.023263214274363557 0 -0.0005694488368481489 -0.023324582985346544 0 -0.00094977436847756575 -0.023263214274363557 0 -0.0005694488368481489 -0.023324582985346544 0 -0.00069990721850885808 -0.023573499766009073 0 -0.0005694488368481489 -0.023324582985346544 0 -0.00069990721850885808 -0.023573499766009073 0 -0.00040786743821698041 -0.023642007724907089 0 -0.00057083757080327534 -0.023770884589397249 0 -0.00069990721850885808 -0.023573499766009073 0 -0.0004358651215292873 -0.023753450466979541 0 -0.00057083757080327534 -0.023770884589397249 0 -0.00068011794442961074 -0.024105198515091408 0 -0.00069990721850885808 -0.023573499766009073 0 -0.00057083757080327534 -0.023770884589397249 0 -0.0004358651215292873 -0.023753450466979541 0 -0.00052907834136788285 -0.023768348823565738 0 -0.0004358651215292873 -0.023753450466979541 0 -0.00018395409760580046 -0.024005710637859851 0 -0.00016424655033744277 -0.024067931955898385 0 -0.0004358651215292873 -0.023753450466979541 0 -0.00016424655033744277 -0.024067931955898385 0 -0.00052907834136788285 -0.023768348823565738 0 -0.00069990721850885808 -0.023573499766009073 0 -0.0004358651215292873 -0.023753450466979541 0 -0.00040786743821698041 -0.023642007724907089 0 -0.0004358651215292873 -0.023753450466979541 0 -0.00040786743821698041 -0.023642007724907089 0 -0.00018395409760580046 -0.024005710637859851 0 -0.00040786743821698041 -0.023642007724907089 0 -0.00023508384257948925 -0.023834103706366919 0 -0.00018395409760580046 -0.024005710637859851 0 -0.00013883081995149667 -0.023981725420025905 0 -0.00023508384257948925 -0.023834103706366919 0 -0.00018395409760580046 -0.024005710637859851 0 -7.4201320681827491e-05 -0.024131140755064309 0 -0.00018395409760580046 -0.024005710637859851 0 -1.2839845942584562e-05 -0.024308526498461932 0 -7.4201320681827491e-05 -0.024131140755064309 0 -0.00013883081995149667 -0.023981725420025905 0 -0.00018395409760580046 -0.024005710637859851 0 -0.00018395409760580046 -0.024005710637859851 0 -0.00016424655033744277 -0.024067931955898385 0 -1.2839845942584562e-05 -0.024308526498461932 0 0.00033267687891110227 -0.024722359809392042 0 -0.00016424655033744277 -0.024067931955898385 0 -1.2839845942584562e-05 -0.024308526498461932 0 0.00033267687891110227 -0.024722359809392042 0 -0.00016424655033744277 -0.024067931955898385 0 -0.00057700108020920099 -0.024012171832565862 0 -0.0016538632797384407 -0.024725994269619404 0 0.00033267687891110227 -0.024722359809392042 0 -0.00057700108020920099 -0.024012171832565862 0 -0.0016538632797384407 -0.024725994269619404 0 -0.00057700108020920099 -0.024012171832565862 0 -0.00064883590284384662 -0.023815425944452764 0 -0.00016424655033744277 -0.024067931955898385 0 -0.00057700108020920099 -0.024012171832565862 0 -0.00052907834136788285 -0.023768348823565738 0 -0.00042362794820434917 -0.028472510806773058 0 -0.00012659918125883821 -0.026663867096581337 0 9.5440559093371613e-06 -0.031439115371898287 0 4.0252798021391624e-05 -0.030793055333164464 0 -0.00022599597949236059 -0.031180061870686688 0 0.00048371861384984298 -0.031681464667157204 0 9.5440559093371613e-06 -0.031439115371898287 0 4.0252798021391624e-05 -0.030793055333164464 0 -0.0016538632797384407 -0.024725994269619404 0 -0.00017607836580880323 -0.023555413978564067 0 -0.00064883590284384662 -0.023815425944452764 0 -0.00035313936084497779 -0.02379963956146984 0 -0.00017607836580880323 -0.023555413978564067 0 -0.00064883590284384662 -0.023815425944452764 0 -0.00035313936084497779 -0.02379963956146984 0 -0.00052907834136788285 -0.023768348823565738 0 -0.00064883590284384662 -0.023815425944452764 0 -0.00057083757080327534 -0.023770884589397249 0 -0.00035313936084497779 -0.02379963956146984 0 -0.00052907834136788285 -0.023768348823565738 0 -0.00057700108020920099 -0.024012171832565862 0 -0.00052907834136788285 -0.023768348823565738 0 -0.00064883590284384662 -0.023815425944452764 0 -3.8853064673657359e-06 -0.033847328674764948 0 -3.7075001430818008e-06 -0.033840355582476986 0 -5.1347396544241923e-05 -0.03384223922187192 0 -3.8853064673657359e-06 -0.033847328674764948 0 -3.7075001430818008e-06 -0.033840355582476986 0 2.7862470953869353e-05 -0.033835983113499064 0 -3.7075001430818008e-06 -0.033840355582476986 0 -5.1347396544241923e-05 -0.03384223922187192 0 2.1515279391034969e-05 -0.033822644430827255 0 4.0252798021391624e-05 -0.030793055333164464 0 -0.0004813759922409928 -0.030821646982283502 0 -0.00022599597949236059 -0.031180061870686688 0 -0.00032234426892465128 -0.032580503999384391 0 -0.0002779239436394762 -0.032695799262880187 0 -0.00046460868521527084 -0.031661178471355279 0 -0.0004813759922409928 -0.030821646982283502 0 -0.00022599597949236059 -0.031180061870686688 0 -0.00046460868521527084 -0.031661178471355279 0 9.5440559093371613e-06 -0.031439115371898287 0 -0.00022599597949236059 -0.031180061870686688 0 -0.00020736135869509425 -0.033679806076242963 0 -3.8853064673657359e-06 -0.033847328674764948 0 -6.0965721529959298e-05 -0.033765649427658861 0 -0.00020736135869509425 -0.033679806076242963 0 -3.8853064673657359e-06 -0.033847328674764948 0 -5.1347396544241923e-05 -0.03384223922187192 0 -3.8853064673657359e-06 -0.033847328674764948 0 4.4658489038598345e-05 -0.033889894227645469 0 4.7702860665560676e-05 -0.033883980195013465 0 -3.8853064673657359e-06 -0.033847328674764948 0 -6.0965721529959298e-05 -0.033765649427658861 0 4.4658489038598345e-05 -0.033889894227645469 0 3.744648012187562e-05 -0.03407833423790857 0 4.4658489038598345e-05 -0.033889894227645469 0 6.67358440488573e-05 -0.033993476791441525 0 4.4658489038598345e-05 -0.033889894227645469 0 7.5660689498810549e-05 -0.033920528258142853 0 4.7702860665560676e-05 -0.033883980195013465 0 4.4658489038598345e-05 -0.033889894227645469 0 6.67358440488573e-05 -0.033993476791441525 0 7.5660689498810549e-05 -0.033920528258142853 0 7.5660689498810549e-05 -0.033920528258142853 0 4.7702860665560676e-05 -0.033883980195013465 0 6.5908268496806026e-05 -0.033853352130492863 0 7.5660689498810549e-05 -0.033920528258142853 0 8.7139342553432743e-05 -0.0338786724823655 0 6.5908268496806026e-05 -0.033853352130492863 0 -3.8853064673657359e-06 -0.033847328674764948 0 4.7702860665560676e-05 -0.033883980195013465 0 4.0611881339215138e-05 -0.033854601380538099 0 -3.8853064673657359e-06 -0.033847328674764948 0 4.0611881339215138e-05 -0.033854601380538099 0 2.7862470953869353e-05 -0.033835983113499064 0 4.7702860665560676e-05 -0.033883980195013465 0 4.0611881339215138e-05 -0.033854601380538099 0 6.5908268496806026e-05 -0.033853352130492863 0 4.0611881339215138e-05 -0.033854601380538099 0 4.0756038508084668e-05 -0.033811426489648057 0 2.7862470953869353e-05 -0.033835983113499064 0 4.0611881339215138e-05 -0.033854601380538099 0 4.0756038508084668e-05 -0.033811426489648057 0 6.5908268496806026e-05 -0.033853352130492863 0 4.0756038508084668e-05 -0.033811426489648057 0 6.5908268496806026e-05 -0.033853352130492863 0 6.4523966611703215e-05 -0.033818791397825371 0 6.5908268496806026e-05 -0.033853352130492863 0 6.4523966611703215e-05 -0.033818791397825371 0 8.5505558452826479e-05 -0.033835687554252543 0 8.7139342553432743e-05 -0.0338786724823655 0 6.5908268496806026e-05 -0.033853352130492863 0 8.5505558452826479e-05 -0.033835687554252543 0 0.0018810277988214848 -0.029343278918402844 0 0.0020128737647466381 -0.02818452972505155 0 0.0014228458821360277 -0.028386970907139208 0 0.00095961527682547252 -0.031571465705978033 0 0.0008875324908334517 -0.031088650493201916 0 4.0756038508084668e-05 -0.033811426489648057 0 6.4523966611703215e-05 -0.033818791397825371 0 3.7946722913752574e-05 -0.033742712925148875 0 0.0018810277988214848 -0.029343278918402844 0 0.0022466583457113934 -0.027985852353188696 0 0.0020128737647466381 -0.02818452972505155 0 4.0756038508084668e-05 -0.033811426489648057 0 3.7946722913752574e-05 -0.033742712925148875 0 5.5619452802791631e-05 -0.03375085342834875 0 3.7946722913752574e-05 -0.033742712925148875 0 5.5619452802791631e-05 -0.03375085342834875 0 0.00012152211352705969 -0.033629363566565922 0 5.5619452802791631e-05 -0.03375085342834875 0 8.8998356633197207e-05 -0.03372008157355133 0 0.00012152211352705969 -0.033629363566565922 0 5.5619452802791631e-05 -0.03375085342834875 0 8.8998356633197207e-05 -0.03372008157355133 0 4.5879088989225161e-05 -0.033793762364665435 0 8.8998356633197207e-05 -0.03372008157355133 0 4.5879088989225161e-05 -0.033793762364665435 0 8.3298348582531534e-05 -0.033774907722536024 0 4.0756038508084668e-05 -0.033811426489648057 0 5.5619452802791631e-05 -0.03375085342834875 0 4.5879088989225161e-05 -0.033793762364665435 0 4.0756038508084668e-05 -0.033811426489648057 0 4.5879088989225161e-05 -0.033793762364665435 0 2.7862470953869353e-05 -0.033835983113499064 0 4.5879088989225161e-05 -0.033793762364665435 0 2.1515279391034969e-05 -0.033822644430827255 0 8.3298348582531534e-05 -0.033774907722536024 0 -3.7075001430818008e-06 -0.033840355582476986 0 2.1515279391034969e-05 -0.033822644430827255 0 2.7862470953869353e-05 -0.033835983113499064 0 4.5879088989225161e-05 -0.033793762364665435 0 2.1515279391034969e-05 -0.033822644430827255 0 2.7862470953869353e-05 -0.033835983113499064 0 -0.0002779239436394762 -0.032695799262880187 0 -5.9660166840255141e-05 -0.030122835952844804 0 -5.1347396544241923e-05 -0.03384223922187192 0 2.1515279391034969e-05 -0.033822644430827255 0 8.3298348582531534e-05 -0.033774907722536024 0 -0.00012659918125883821 -0.026663867096581337 0 -5.9660166840255141e-05 -0.030122835952844804 0 0.00021139631558209451 -0.024120863571313499 0 -0.00017607836580880323 -0.023555413978564067 0 0.0012928136057845797 -0.024381733553306261 0 4.0252798021391624e-05 -0.030793055333164464 0 -0.0004813759922409928 -0.030821646982283502 0 -0.00050371752859569325 -0.029940539974666943 0 8.8998356633197207e-05 -0.03372008157355133 0 0.00011329922348637279 -0.033750767185377735 0 0.00012152211352705969 -0.033629363566565922 0 -5.9660166840255141e-05 -0.030122835952844804 0 0.0015542689105622494 -0.028521276319420835 0 0.00063084331598954949 -0.024857226608051387 0 0.00021139631558209451 -0.024120863571313499 0 0.0012928136057845797 -0.024381733553306261 0 0.00063084331598954949 -0.024857226608051387 0 0.0012928136057845797 -0.024381733553306261 0 0.0016312155931033489 -0.025674378519928761 0 0.00086730661835047876 -0.033444483005934729 0 -5.9660166840255141e-05 -0.030122835952844804 0 0.00088654843312706256 -0.026183258236392046 0 0.0018900117911619912 -0.026858350048395919 0 0.0013556036335390367 -0.027023012980143986 0 0.00088654843312706256 -0.026183258236392046 0 0.00063084331598954949 -0.024857226608051387 0 0.0016312155931033489 -0.025674378519928761 0 0.0012427297819559994 -0.026282527187234339 0 0.0015542689105622494 -0.028521276319420835 0 0.0022466583457113934 -0.027985852353188696 0 0.0018900117911619912 -0.026858350048395919 0 0.0021575217906259206 -0.027462486806946639 0 0.0018900117911619912 -0.026858350048395919 0 0.0021575217906259206 -0.027462486806946639 0 0.0019755657614164103 -0.027312448313812403 0 0.0008875324908334517 -0.031088650493201916 0 0.0015542689105622494 -0.028521276319420835 0 0.0019755657614164103 -0.027312448313812403 0 0.001983795791526184 -0.027589469081546348 0 0.0021038536920421217 -0.027469892022642859 0 0.0021575217906259206 -0.027462486806946639 0 0.0019755657614164103 -0.027312448313812403 0 0.0021038536920421217 -0.027469892022642859 0 0.00048807438220691891 -0.027489395377611206 0 0.0013556036335390367 -0.027023012980143986 0 0.0014932392657833033 -0.02761085426044747 0 0.0018900117911619912 -0.026858350048395919 0 0.0019755657614164103 -0.027312448313812403 0 0.0013556036335390367 -0.027023012980143986 0 0.0019755657614164103 -0.027312448313812403 0 0.0013556036335390367 -0.027023012980143986 0 0.0014932392657833033 -0.02761085426044747 0 0.0014412408521756153 -0.023426713193634263 0 0.0023988373093127421 -0.023605034920424192 0 0.0014973817850418218 -0.024336113935717673 0 0.0016306045476568323 -0.025558210675238925 0 0.0013607465060728556 -0.027718703854110655 0 0.0013607465060728556 -0.027718703854110655 0 0.00084004616584234713 -0.026016142541895864 0 0.00049306104160214896 -0.023295586930399726 0 0.0014412408521756153 -0.023426713193634263 0 0.0012508849167241626 -0.024020680474101087 0 0.0014412408521756153 -0.023426713193634263 0 0.0012508849167241626 -0.024020680474101087 0 0.0014973817850418218 -0.024336113935717673 0 0.0019755657614164103 -0.027312448313812403 0 0.0014932392657833033 -0.02761085426044747 0 0.001983795791526184 -0.027589469081546348 0 0.00040074236650934728 -0.029377902394154949 0 0.00022696415932003185 -0.029168297598556939 0 0.00028685725304816549 -0.027810992264309692 0 0.0013607465060728556 -0.027718703854110655 0 0.00056902131892399145 -0.029714293093335224 0 0.00040074236650934728 -0.029377902394154949 0 0.00022696415932003185 -0.029168297598556939 0 0.00051186148426778848 -0.03030395380334755 0 4.7024015174385324e-07 -0.027634961100631353 0 0.00022696415932003185 -0.029168297598556939 0 0.00028685725304816549 -0.027810992264309692 0 1.0311871304660713e-06 -0.025632466077906722 0 4.7024015174385324e-07 -0.027634961100631353 0 0.00028685725304816549 -0.027810992264309692 0 1.9994882036934122e-07 -0.029637797170041228 0 0.00016192629946208451 -0.030470837665878207 0 -5.9700822543025582e-05 -0.031808926456106348 0 0.00022696415932003185 -0.029168297598556939 0 1.9994882036934122e-07 -0.029637797170041228 0 0.00016192629946208451 -0.030470837665878207 0 4.7024015174385324e-07 -0.027634961100631353 0 0.00022696415932003185 -0.029168297598556939 0 1.9994882036934122e-07 -0.029637797170041228 0 0.00022696415932003185 -0.029168297598556939 0 0.00016192629946208451 -0.030470837665878207 0 0.00051186148426778848 -0.03030395380334755 0 0.0016367018407840691 -0.030428197225232212 0 0.00051186148426778848 -0.03030395380334755 0 0.00048697550239908648 -0.032199952139663181 0 0.00051186148426778848 -0.03030395380334755 0 0.00012838112493177139 -0.031573370632373171 0 0.00048697550239908648 -0.032199952139663181 0 0.00016192629946208451 -0.030470837665878207 0 0.00051186148426778848 -0.03030395380334755 0 0.00012838112493177139 -0.031573370632373171 0 0.00016192629946208451 -0.030470837665878207 0 0.00012838112493177139 -0.031573370632373171 0 -5.9700822543025582e-05 -0.031808926456106348 0 0.00012838112493177139 -0.031573370632373171 0 0.00048697550239908648 -0.032199952139663181 0 -4.4650745431530746e-05 -0.03309096528088034 0 0.0013607465060728556 -0.027718703854110655 0 0.0012916528278796738 -0.030059158115835906 0 0.0021575217906259206 -0.027462486806946639 0 0.0021038536920421217 -0.027469892022642859 0 0.0020128737647466381 -0.02818452972505155 0 0.0022466583457113934 -0.027985852353188696 0 0.0021575217906259206 -0.027462486806946639 0 0.0020128737647466381 -0.02818452972505155 0 0.0021038536920421217 -0.027469892022642859 0 0.0020128737647466381 -0.02818452972505155 0 0.0014228458821360277 -0.028386970907139208 0 0.00048697550239908648 -0.032199952139663181 0 0.00023543890174596504 -0.03351823460772374 0 -4.4650745431530746e-05 -0.03309096528088034 0 0.0012916528278796738 -0.030059158115835906 0 0.00082486889399775482 -0.030944044111434567 0 0.00023543890174596504 -0.03351823460772374 0 -4.4650745431530746e-05 -0.03309096528088034 0 -5.8933612176258866e-06 -0.034457473230583256 0 -4.4650745431530746e-05 -0.03309096528088034 0 -0.00018138544589572293 -0.034273288560996568 0 -5.8933612176258866e-06 -0.034457473230583256 0 -4.4650745431530746e-05 -0.03309096528088034 0 -0.00019132758405664295 -0.03347374640652305 0 -0.00018138544589572293 -0.034273288560996568 0 0.00012838112493177139 -0.031573370632373171 0 -4.4650745431530746e-05 -0.03309096528088034 0 -5.9700822543025582e-05 -0.031808926456106348 0 -4.4650745431530746e-05 -0.03309096528088034 0 -5.9700822543025582e-05 -0.031808926456106348 0 -0.00019132758405664295 -0.03347374640652305 0 -5.9700822543025582e-05 -0.031808926456106348 0 -0.00019132758405664295 -0.03347374640652305 0 -0.00011607666959923442 -0.032950290884480801 0 -0.00011607666959923442 -0.032950290884480801 0 -2.3987547794579901e-07 -0.031640775075089216 0 -5.902115420349827e-07 -0.03364320986616582 0 -5.9700822543025582e-05 -0.031808926456106348 0 -0.00011607666959923442 -0.032950290884480801 0 -2.3987547794579901e-07 -0.031640775075089216 0 1.9994882036934122e-07 -0.029637797170041228 0 -5.9700822543025582e-05 -0.031808926456106348 0 -2.3987547794579901e-07 -0.031640775075089216 0 -8.0133153330501568e-08 -0.034999341582838156 0 7.8793762276844256e-08 -0.033643997545340067 0 1.1903050074778395e-10 -0.035000252883528794 0 -4.8834343682974015e-10 -0.034999488725159858 0 6.9576370488787892e-10 -0.033644109276789354 0 -2.5795947623058812e-07 -0.034997849391477258 0 -5.902115420349827e-07 -0.03364320986616582 0 -0.00011085795526721128 -0.034247995536243796 0 -0.00011607666959923442 -0.032950290884480801 0 -5.902115420349827e-07 -0.03364320986616582 0 -0.00011085795526721128 -0.034247995536243796 0 -0.00019132758405664295 -0.03347374640652305 0 -0.00011607666959923442 -0.032950290884480801 0 -0.00011085795526721128 -0.034247995536243796 0 -0.00019132758405664295 -0.03347374640652305 0 -0.00011085795526721128 -0.034247995536243796 0 -0.00015981374155590348 -0.034315278675994793 0 -0.00011085795526721128 -0.034247995536243796 0 -1.2597282276194142e-07 -0.034998955285658738 0 -0.00015981374155590348 -0.034315278675994793 0 -2.5795947623058812e-07 -0.034997849391477258 0 -0.00011085795526721128 -0.034247995536243796 0 -1.2597282276194142e-07 -0.034998955285658738 0 -1.2597282276194142e-07 -0.034998955285658738 0 -0.00015981374155590348 -0.034315278675994793 0 -2.4032539726192589e-07 -0.034999256095042265 0 -0.00019132758405664295 -0.03347374640652305 0 -0.00015981374155590348 -0.034315278675994793 0 -0.00018138544589572293 -0.034273288560996568 0 -0.00015981374155590348 -0.034315278675994793 0 -0.00018138544589572293 -0.034273288560996568 0 -2.4032539726192589e-07 -0.034999256095042265 0 -0.00018138544589572293 -0.034273288560996568 0 -2.4032539726192589e-07 -0.034999256095042265 0 -0.00012114710544285116 -0.034709240773435665 0 -2.4032539726192589e-07 -0.034999256095042265 0 -1.3565324722839351e-07 -0.034999718191140755 0 -0.00012114710544285116 -0.034709240773435665 0 -1.3565324722839351e-07 -0.034999718191140755 0 -6.6840897685123288e-05 -0.03487813355074372 0 -0.00012114710544285116 -0.034709240773435665 0 -1.3565324722839351e-07 -0.034999718191140755 0 -6.6840897685123288e-05 -0.03487813355074372 0 4.5277621217647298e-08 -0.035000007493859391 0 -0.00017912763223550286 -0.033495629458508216 0 -0.00054428563576933012 -0.033760342330255377 0 0.00029216819446716751 -0.030477697630289732 0 -0.00023648424727618249 -0.034206533732644213 0 0.00020464178058347737 -0.03247388126370504 0 -6.6840897685123288e-05 -0.03487813355074372 0 -0.00012114710544285116 -0.034709240773435665 0 -5.8933612176258866e-06 -0.034457473230583256 0 -0.00018138544589572293 -0.034273288560996568 0 -0.00012114710544285116 -0.034709240773435665 0 -5.8933612176258866e-06 -0.034457473230583256 0 0.0018810277988214848 -0.029343278918402844 0 0.0014228458821360277 -0.028386970907139208 0 0.001153115650573519 -0.029759164553831666 0 0.0018810277988214848 -0.029343278918402844 0 0.001153115650573519 -0.029759164553831666 0 0.00087661192087453875 -0.031028010012647822 0 0.00082486889399775482 -0.030944044111434567 0 0.00020464178058347737 -0.03247388126370504 0 0.00095961527682547252 -0.031571465705978033 0 0.00037901124526792176 -0.03248852119354876 0 0.0014228458821360277 -0.028386970907139208 0 0.00029216819446716751 -0.030477697630289732 0 0.001153115650573519 -0.029759164553831666 0 0.00029216819446716751 -0.030477697630289732 0 0.001153115650573519 -0.029759164553831666 0 0.00087661192087453875 -0.031028010012647822 0 6.4523966611703215e-05 -0.033818791397825371 0 9.8793053294366086e-05 -0.033786373545966288 0 8.5505558452826479e-05 -0.033835687554252543 0 9.8793053294366086e-05 -0.033786373545966288 0 8.8587275981951929e-05 -0.033853671259979838 0 6.8177952737524325e-05 -0.033863339848155316 0 9.8793053294366086e-05 -0.033786373545966288 0 8.8587275981951929e-05 -0.033853671259979838 0 8.5505558452826479e-05 -0.033835687554252543 0 8.7139342553432743e-05 -0.0338786724823655 0 8.8587275981951929e-05 -0.033853671259979838 0 8.5505558452826479e-05 -0.033835687554252543 0 -0.00017912763223550286 -0.033495629458508216 0 9.8793053294366086e-05 -0.033786373545966288 0 6.8177952737524325e-05 -0.033863339848155316 0 -0.00017912763223550286 -0.033495629458508216 0 0.00029216819446716751 -0.030477697630289732 0 0.00087661192087453875 -0.031028010012647822 0 -0.00029510178936096421 -0.033349525725113252 0 0.00037901124526792176 -0.03248852119354876 0 -0.00017912763223550286 -0.033495629458508216 0 6.8177952737524325e-05 -0.033863339848155316 0 -5.4048970673642784e-05 -0.03412269856740581 0 6.8177952737524325e-05 -0.033863339848155316 0 5.3841292187372064e-05 -0.034072239581698506 0 -5.4048970673642784e-05 -0.03412269856740581 0 5.3841292187372064e-05 -0.034072239581698506 0 -5.4048970673642784e-05 -0.03412269856740581 0 -4.7813196141804702e-06 -0.034232402739747585 0 7.5660689498810549e-05 -0.033920528258142853 0 8.7139342553432743e-05 -0.0338786724823655 0 8.9924272812839907e-05 -0.03396380384127945 0 8.7139342553432743e-05 -0.0338786724823655 0 8.8587275981951929e-05 -0.033853671259979838 0 8.9924272812839907e-05 -0.03396380384127945 0 8.8587275981951929e-05 -0.033853671259979838 0 6.8177952737524325e-05 -0.033863339848155316 0 8.9924272812839907e-05 -0.03396380384127945 0 5.3841292187372064e-05 -0.034072239581698506 0 8.9924272812839907e-05 -0.03396380384127945 0 5.4669376692309765e-05 -0.034124350520919333 0 6.8177952737524325e-05 -0.033863339848155316 0 5.3841292187372064e-05 -0.034072239581698506 0 8.9924272812839907e-05 -0.03396380384127945 0 6.67358440488573e-05 -0.033993476791441525 0 7.5660689498810549e-05 -0.033920528258142853 0 8.9924272812839907e-05 -0.03396380384127945 0 4.6163690519491392e-07 -0.034332728626146211 0 3.744648012187562e-05 -0.03407833423790857 0 5.4669376692309765e-05 -0.034124350520919333 0 3.744648012187562e-05 -0.03407833423790857 0 6.67358440488573e-05 -0.033993476791441525 0 5.4669376692309765e-05 -0.034124350520919333 0 6.67358440488573e-05 -0.033993476791441525 0 8.9924272812839907e-05 -0.03396380384127945 0 5.4669376692309765e-05 -0.034124350520919333 0 4.6163690519491392e-07 -0.034332728626146211 0 -4.7813196141804702e-06 -0.034232402739747585 0 -0.00014742739783620568 -0.034448848021717854 0 5.3841292187372064e-05 -0.034072239581698506 0 5.4669376692309765e-05 -0.034124350520919333 0 -4.7813196141804702e-06 -0.034232402739747585 0 4.6163690519491392e-07 -0.034332728626146211 0 5.4669376692309765e-05 -0.034124350520919333 0 -4.7813196141804702e-06 -0.034232402739747585 0 -5.692809407674281e-05 -0.034667669699892822 0 4.6163690519491392e-07 -0.034332728626146211 0 -0.00014742739783620568 -0.034448848021717854 0 -5.4048970673642784e-05 -0.03412269856740581 0 -4.7813196141804702e-06 -0.034232402739747585 0 -0.00014742739783620568 -0.034448848021717854 0 -5.692809407674281e-05 -0.034667669699892822 0 -0.00014742739783620568 -0.034448848021717854 0 -9.9675205533865708e-07 -0.034998432502792852 0 1.5854661877724904e-07 -0.034999843445364512 0 -5.692809407674281e-05 -0.034667669699892822 0 -9.9675205533865708e-07 -0.034998432502792852 0 -0.00023648424727618249 -0.034206533732644213 0 -5.2471876248635161e-08 -0.034999716338741584 0 -0.00054428563576933012 -0.033760342330255377 0 -9.9675205533865708e-07 -0.034998432502792852 0 -0.00026800716460686678 -0.034313059715611757 0 -0.00014742739783620568 -0.034448848021717854 0 -9.9675205533865708e-07 -0.034998432502792852 0 -0.00026800716460686678 -0.034313059715611757 0 -0.00017912763223550286 -0.033495629458508216 0 -0.00054428563576933012 -0.033760342330255377 0 -0.00026800716460686678 -0.034313059715611757 0 -0.00017912763223550286 -0.033495629458508216 0 -5.4048970673642784e-05 -0.03412269856740581 0 -0.00026800716460686678 -0.034313059715611757 0 -5.4048970673642784e-05 -0.03412269856740581 0 -0.00014742739783620568 -0.034448848021717854 0 -0.00026800716460686678 -0.034313059715611757 0 -0.00049103131568581165 -0.00084979280162481854 0 -0.00059175272375859372 -0.00056764404844571962 0 -0.00052353734272973167 -0.00074370631528378694 0 -0.00049103131568581165 -0.00084979280162481854 0 -0.00059175272375859372 -0.00056764404844571962 0 -0.00065291283757808497 -0.00084625808747143701 0 -0.00059175272375859372 -0.00056764404844571962 0 -0.00045559704004532889 -0.00056602919261578835 0 -0.00050327903945819965 -0.00068280494730566541 0 -0.00059175272375859372 -0.00056764404844571962 0 -0.00055602562958037604 -0.00068877619489462452 0 -0.00050327903945819965 -0.00068280494730566541 0 -0.00055602562958037604 -0.00068877619489462452 0 -0.00052353734272973167 -0.00074370631528378694 0 -0.00057676363099747204 -0.000764546057011812 0 -0.00059175272375859372 -0.00056764404844571962 0 -0.00055602562958037604 -0.00068877619489462452 0 -0.00052353734272973167 -0.00074370631528378694 0 -0.00052353734272973167 -0.00074370631528378694 0 -0.0004970527699643361 -0.00079406443326997256 0 -0.00057676363099747204 -0.000764546057011812 0 -0.00052353734272973167 -0.00074370631528378694 0 -0.0004970527699643361 -0.00079406443326997256 0 -0.00040414930414246276 -0.00085555955719128832 0 -0.0004970527699643361 -0.00079406443326997256 0 -0.00040414930414246276 -0.00085555955719128832 0 -0.00036253521840776251 -0.00081086154065503763 0 -0.00040414930414246276 -0.00085555955719128832 0 -0.00038765001065850448 -0.00096087319616556415 0 -0.000313238321717737 -0.00094253425942005269 0 -0.00040414930414246276 -0.00085555955719128832 0 -0.000313238321717737 -0.00094253425942005269 0 -0.00032114115359523006 -0.00086952743095754866 0 -0.00049103131568581165 -0.00084979280162481854 0 -0.00040414930414246276 -0.00085555955719128832 0 -0.00038765001065850448 -0.00096087319616556415 0 -0.00049103131568581165 -0.00084979280162481854 0 -0.00052353734272973167 -0.00074370631528378694 0 -0.00040414930414246276 -0.00085555955719128832 0 -0.00049103131568581165 -0.00084979280162481854 0 -0.00038765001065850448 -0.00096087319616556415 0 -0.00034326662156126709 -0.0011497000358165503 0 -0.00038765001065850448 -0.00096087319616556415 0 -0.00030505977232104386 -0.0010659190662791506 0 -0.000313238321717737 -0.00094253425942005269 0 -0.00038765001065850448 -0.00096087319616556415 0 -0.00030505977232104386 -0.0010659190662791506 0 -0.00034326662156126709 -0.0011497000358165503 0 -0.00030505977232104386 -0.0010659190662791506 0 -0.00032743966952651724 -0.0012263092824023501 0 -0.00034326662156126709 -0.0011497000358165503 0 -0.00034326662156126709 -0.0011497000358165503 0 -0.00011247623071966094 -0.0010710625378529922 0 -0.00019248740409111273 -0.001093659244154569 0 -0.00034169129888583414 -0.0011355371091764474 0 -0.0003414094835500516 -0.0010373141789666114 0 -0.00049103131568581165 -0.00084979280162481854 0 -0.00034326662156126709 -0.0011497000358165503 0 -0.00057354749779496312 -0.0010199754729945496 0 -0.00049103131568581165 -0.00084979280162481854 0 -0.00065291283757808497 -0.00084625808747143701 0 -0.00057354749779496312 -0.0010199754729945496 0 -0.00065291283757808497 -0.00084625808747143701 0 -0.00057354749779496312 -0.0010199754729945496 0 -0.00080996045444347014 -0.00097102161861570236 0 -0.0003414094835500516 -0.0010373141789666114 0 -0.00049681598650871787 -0.00097442127554597075 0 -9.4862336090100467e-05 -0.00085472021960513117 0 -0.00014604332799351413 -0.00080952436723815552 0 -6.6824234182913075e-05 -0.00093916417342968656 0 -0.00011247623071966094 -0.0010710625378529922 0 -9.4862336090100467e-05 -0.00085472021960513117 0 -6.6824234182913075e-05 -0.00093916417342968656 0 -9.4862336090100467e-05 -0.00085472021960513117 0 -0.00016718327365200939 -0.00075944625178667169 0 -0.00014604332799351413 -0.00080952436723815552 0 -0.00049681598650871787 -0.00097442127554597075 0 -0.00047039035391352978 -0.00036200829123356627 0 -9.4862336090100467e-05 -0.00085472021960513117 0 -0.00016718327365200939 -0.00075944625178667169 0 -0.00020830832438827445 -0.00068129223634554525 0 -0.00068914711459924435 -0.00046996737003727698 0 -0.00047039035391352978 -0.00036200829123356627 0 -0.00080996045444347014 -0.00097102161861570236 0 -0.00086661016057358066 -0.00079946114590940945 0 -0.0010494203465236391 -0.00094098713849379424 0 -0.00065291283757808497 -0.00084625808747143701 0 -0.00080996045444347014 -0.00097102161861570236 0 -0.00086661016057358066 -0.00079946114590940945 0 -0.00021617555033709245 -0.00016109495812490046 0 -0.00047039035391352978 -0.00036200829123356627 0 -0.00017933202558470418 0.00020458716043821428 0 -0.00024034094092277808 0.00017860472266939507 0 -0.00029400492330364415 0.00018231892652499317 0 -0.00027840149902820619 -0.00056678459980188099 0 -0.00020830832438827445 -0.00068129223634554525 0 -0.00021870577005987234 -0.00069042405978479856 0 -0.00017933202558470418 0.00020458716043821428 0 -0.00024034094092277808 0.00017860472266939507 0 -0.0002226250475628164 0.00021841500154657224 0 -0.00024034094092277808 0.00017860472266939507 0 -0.0002226250475628164 0.00021841500154657224 0 -0.00023941436986681274 0.00018657102720878583 0 -0.00023421936794630954 2.1776047210012415e-05 0 -0.00047039035391352978 -0.00036200829123356627 0 -0.00016718327365200939 -0.00075944625178667169 0 -0.00020830832438827445 -0.00068129223634554525 0 -0.00021870577005987234 -0.00069042405978479856 0 -0.00044859543445805448 -0.0001058374164385332 0 -0.0003184888434407624 0.00014474116640721452 0 -0.00034271130844940186 -0.00010068635673926553 0 -0.0003184888434407624 0.00014474116640721452 0 -0.00027523042228465652 5.3022675465704774e-05 0 -0.00034271130844940186 -0.00010068635673926553 0 -0.00024034094092277808 0.00017860472266939507 0 -0.0003184888434407624 0.00014474116640721452 0 -0.00027523042228465652 5.3022675465704774e-05 0 -0.00027523042228465652 5.3022675465704774e-05 0 -0.00023941436986681274 0.00018657102720878583 0 -0.00025429355902592874 0.00011638780372730485 0 -0.00024034094092277808 0.00017860472266939507 0 -0.00027523042228465652 5.3022675465704774e-05 0 -0.00023941436986681274 0.00018657102720878583 0 -0.00027523042228465652 5.3022675465704774e-05 0 -0.00026804831918742324 -1.6577934727490085e-05 0 -0.00025429355902592874 0.00011638780372730485 0 -0.00027523042228465652 5.3022675465704774e-05 0 -0.00026804831918742324 -1.6577934727490085e-05 0 -0.00029892069615352821 -0.00010520617680246866 0 -0.00027523042228465652 5.3022675465704774e-05 0 -0.00029892069615352821 -0.00010520617680246866 0 -0.00034271130844940186 -0.00010068635673926553 0 -0.00029892069615352821 -0.00010520617680246866 0 -0.00034271130844940186 -0.00010068635673926553 0 -0.0003317666727434857 -0.00025420925339319291 0 -0.0003317666727434857 -0.00025420925339319291 0 -0.00028214841732047903 -0.00019314453859294874 0 -0.00030308094596755608 -0.00036424975369483758 0 -0.00029892069615352821 -0.00010520617680246866 0 -0.0003317666727434857 -0.00025420925339319291 0 -0.00028214841732047903 -0.00019314453859294874 0 -0.00026804831918742324 -1.6577934727490085e-05 0 -0.00029892069615352821 -0.00010520617680246866 0 -0.00028214841732047903 -0.00019314453859294874 0 -0.00028214841732047903 -0.00019314453859294874 0 -0.00025860245654970096 -0.0002029656427408882 0 -0.00025626160013908169 -6.5147676584735589e-05 0 -0.00026804831918742324 -1.6577934727490085e-05 0 -0.00028214841732047903 -0.00019314453859294874 0 -0.00025626160013908169 -6.5147676584735589e-05 0 -0.00059175272375859372 -0.00056764404844571962 0 -0.00044859543445805448 -0.0001058374164385332 0 -0.0004108421150664212 -0.00038189610119943116 0 -0.00057384010194155605 -0.00053065714263334754 0 -0.00068914711459924435 -0.00046996737003727698 0 -0.00059175272375859372 -0.00056764404844571962 0 -0.00065291283757808497 -0.00084625808747143701 0 -0.00086661016057358066 -0.00079946114590940945 0 -0.00044859543445805448 -0.0001058374164385332 0 -0.00034271130844940186 -0.00010068635673926553 0 -0.0004108421150664212 -0.00038189610119943116 0 -0.00034271130844940186 -0.00010068635673926553 0 -0.0003317666727434857 -0.00025420925339319291 0 -0.0004108421150664212 -0.00038189610119943116 0 -0.0003317666727434857 -0.00025420925339319291 0 -0.0004108421150664212 -0.00038189610119943116 0 -0.00030308094596755608 -0.00036424975369483758 0 -0.00059175272375859372 -0.00056764404844571962 0 -0.0004108421150664212 -0.00038189610119943116 0 -0.00045559704004532889 -0.00056602919261578835 0 -0.00045559704004532889 -0.00056602919261578835 0 -0.00034091503693452441 -0.00051170825973331899 0 -0.00039829943166555174 -0.00075918852228411 0 -0.0004108421150664212 -0.00038189610119943116 0 -0.00045559704004532889 -0.00056602919261578835 0 -0.00034091503693452441 -0.00051170825973331899 0 -0.0004108421150664212 -0.00038189610119943116 0 -0.00034091503693452441 -0.00051170825973331899 0 -0.00030308094596755608 -0.00036424975369483758 0 -0.00034091503693452441 -0.00051170825973331899 0 -0.00027484237353094486 -0.00044765167190567403 0 -0.00030308094596755608 -0.00036424975369483758 0 -0.00027456987686129533 -0.00058616854492546128 0 -0.00027484237353094486 -0.00044765167190567403 0 -0.00022194631240120201 -0.00042954516484226433 0 -0.00034091503693452441 -0.00051170825973331899 0 -0.00027456987686129533 -0.00058616854492546128 0 -0.00027484237353094486 -0.00044765167190567403 0 -0.00027456987686129533 -0.00058616854492546128 0 -0.00030706766539397945 -0.0010676508929463847 0 -0.00039829943166555174 -0.00075918852228411 0 -0.00034091503693452441 -0.00051170825973331899 0 -0.00027456987686129533 -0.00058616854492546128 0 -0.00039829943166555174 -0.00075918852228411 0 -0.00028214841732047903 -0.00019314453859294874 0 -0.00025860245654970096 -0.0002029656427408882 0 -0.00027399504600539927 -0.00034691832741012542 0 -0.00025860245654970096 -0.0002029656427408882 0 -0.00027399504600539927 -0.00034691832741012542 0 -0.00025564211893767415 -0.00031659898430009029 0 -0.00028214841732047903 -0.00019314453859294874 0 -0.00027399504600539927 -0.00034691832741012542 0 -0.00030308094596755608 -0.00036424975369483758 0 -0.00027484237353094486 -0.00044765167190567403 0 -0.00027399504600539927 -0.00034691832741012542 0 -0.00030308094596755608 -0.00036424975369483758 0 -0.00022194631240120201 -0.00042954516484226433 0 0.00028025756137024717 7.9847545554524566e-05 0 8.8703322660957137e-05 -0.00049880819625752857 0 -0.00021114125045432194 -0.00038255833403920278 0 1.2989734589062761e-05 -0.00013244243117017289 0 -0.00027399504600539927 -0.00034691832741012542 0 -0.00022194631240120201 -0.00042954516484226433 0 -0.00025564211893767415 -0.00031659898430009029 0 -0.00027484237353094486 -0.00044765167190567403 0 -0.00027399504600539927 -0.00034691832741012542 0 -0.00022194631240120201 -0.00042954516484226433 0 0.00038777069359571727 -0.0002806572021773188 0 8.8703322660957137e-05 -0.00049880819625752857 0 0.000448469680561411 -0.00062075011128296807 0 0.00028025756137024717 7.9847545554524566e-05 0 0.00038777069359571727 -0.0002806572021773188 0 8.8703322660957137e-05 -0.00049880819625752857 0 -0.00022194631240120201 -0.00042954516484226433 0 8.8703322660957137e-05 -0.00049880819625752857 0 -0.00011409010971462539 -0.00057918948061590019 0 -0.00022194631240120201 -0.00042954516484226433 0 -0.00011409010971462539 -0.00057918948061590019 0 -0.00023142743485176566 -0.00056697639947228692 0 -0.00011409010971462539 -0.00057918948061590019 0 -0.00016278784466584444 -0.00070410770655007034 0 -0.00023142743485176566 -0.00056697639947228692 0 8.8703322660957137e-05 -0.00049880819625752857 0 -0.00011409010971462539 -0.00057918948061590019 0 -4.2523823279749616e-05 -0.00081561307519568862 0 -0.00040045074843709556 -0.00098199451800571507 0 -0.00016278784466584444 -0.00070410770655007034 0 -4.2523823279749616e-05 -0.00081561307519568862 0 -0.00011409010971462539 -0.00057918948061590019 0 -0.00016278784466584444 -0.00070410770655007034 0 -4.2523823279749616e-05 -0.00081561307519568862 0 0.00034319815964468372 -0.00093781956804725312 0 0.00065837508548991809 -0.00047886414954146028 0 0.0007952894888383638 -0.001001122964732869 0 0.0012987951634094164 -0.0021083631731254396 0 0.0012251472963396731 -0.001330370695265458 0 8.8703322660957137e-05 -0.00049880819625752857 0 -4.2523823279749616e-05 -0.00081561307519568862 0 0.000448469680561411 -0.00062075011128296807 0 0.0014367650659655726 -0.0021626028904198342 0 0.0012251472963396731 -0.001330370695265458 0 0.0025897997865036233 -0.0033475303171720326 0 0.0025551140255503698 -0.0032955866461412413 0 0.0026526085843907093 -0.0032020074795008095 0 -0.00033019314329887841 -0.00062713694641375133 0 -0.0002723834213351063 -0.00064606929247913996 0 -0.00032622536599153555 -0.00073072655621398124 0 -0.00027456987686129533 -0.00058616854492546128 0 -0.00033019314329887841 -0.00062713694641375133 0 -0.0002723834213351063 -0.00064606929247913996 0 -0.00027455775105068831 -0.00064959704249586568 0 -0.00034973466992856118 -0.00085630887122032826 0 -0.00027456987686129533 -0.00058616854492546128 0 -0.0002723834213351063 -0.00064606929247913996 0 -0.00023142743485176566 -0.00056697639947228692 0 -0.00027456987686129533 -0.00058616854492546128 0 -0.00022194631240120201 -0.00042954516484226433 0 -0.00023142743485176566 -0.00056697639947228692 0 -0.00016278784466584444 -0.00070410770655007034 0 -0.0002723834213351063 -0.00064606929247913996 0 -0.00023142743485176566 -0.00056697639947228692 0 0.0010051757545057279 -0.0022098188731683116 0 -0.00037081232179799622 -0.00053349055877039331 0 0.0010051757545057279 -0.0022098188731683116 0 0.0012987951634094164 -0.0021083631731254396 0 -0.00024515895156917473 -0.00079538165959065895 0 -0.00016278784466584444 -0.00070410770655007034 0 -0.0002723834213351063 -0.00064606929247913996 0 -0.00024515895156917473 -0.00079538165959065895 0 -0.0002723834213351063 -0.00064606929247913996 0 -0.00032622536599153555 -0.00073072655621398124 0 -0.00041310168643555263 -0.00080163264192741198 0 -0.00037626902746216832 -0.00077532613181487337 0 -0.00040884600493141268 -0.00070428787016235564 0 -0.00033019314329887841 -0.00062713694641375133 0 -0.00032622536599153555 -0.00073072655621398124 0 -0.00040884600493141268 -0.00070428787016235564 0 -0.00032622536599153555 -0.00073072655621398124 0 -0.00037626902746216832 -0.00077532613181487337 0 -0.00040884600493141268 -0.00070428787016235564 0 0.00069180714379718413 -0.0018030653260982161 0 0.00036112022310718023 -0.002543230813959475 0 -0.00066023021511569711 -0.0015354569980920866 0 0.00034835105158870417 -0.00065741711152004763 0 -0.00055221900784149195 -0.0016505315279338965 0 -0.00054692092862318638 -0.001025255393995588 0 0.00069180714379718413 -0.0018030653260982161 0 -0.00041310168643555263 -0.00080163264192741198 0 -0.00040884600493141268 -0.00070428787016235564 0 -0.00049107296947693683 -0.00078321407215461362 0 0.00034835105158870417 -0.00065741711152004763 0 -0.00055221900784149195 -0.0016505315279338965 0 0.00039371761820856103 -0.002752179359299957 0 -0.00055221900784149195 -0.0016505315279338965 0 0.00039371761820856103 -0.002752179359299957 0 0.00069944202745586938 -0.0032347356381918144 0 -0.00041391233499945803 -0.0017824565829324037 0 -6.2360029724320437e-05 -0.002015947679360221 0 -0.00055221900784149195 -0.0016505315279338965 0 -0.00067455674924997769 -0.0010814771147426851 0 -0.00075149353398549406 -0.0010042783016762445 0 -0.00054595348634596996 -0.001278120417406431 0 -0.00061338252283591312 -0.0010899437822846055 0 -0.00056746860840614275 -0.00090586402761115017 0 -0.00055221900784149195 -0.0016505315279338965 0 -0.00054595348634596996 -0.001278120417406431 0 -0.00061338252283591312 -0.0010899437822846055 0 -0.00055221900784149195 -0.0016505315279338965 0 -0.00061338252283591312 -0.0010899437822846055 0 -0.00067455674924997769 -0.0010814771147426851 0 -0.00061338252283591312 -0.0010899437822846055 0 -0.00067455674924997769 -0.0010814771147426851 0 -0.00066942230228338867 -0.00094454651053500619 0 -0.00034973466992856118 -0.00085630887122032826 0 -0.00054692092862318638 -0.001025255393995588 0 -0.00030706766539397945 -0.0010676508929463847 0 -0.00048899544922397984 -0.0012047786568861506 0 -0.00039829943166555174 -0.00075918852228411 0 -0.00030706766539397945 -0.0010676508929463847 0 -0.00066023021511569711 -0.0015354569980920866 0 -0.00048899544922397984 -0.0012047786568861506 0 -0.00066023021511569711 -0.0015354569980920866 0 -0.00055221900784149195 -0.0016505315279338965 0 -0.00048899544922397984 -0.0012047786568861506 0 -0.00055221900784149195 -0.0016505315279338965 0 -0.00054595348634596996 -0.001278120417406431 0 -0.00048899544922397984 -0.0012047786568861506 0 -0.00054595348634596996 -0.001278120417406431 0 -0.00048899544922397984 -0.0012047786568861506 0 -0.00056746860840614275 -0.00090586402761115017 0 -0.00039829943166555174 -0.00075918852228411 0 -0.00056746860840614275 -0.00090586402761115017 0 -0.00050327903945819965 -0.00068280494730566541 0 -0.00048899544922397984 -0.0012047786568861506 0 -0.00039829943166555174 -0.00075918852228411 0 -0.00056746860840614275 -0.00090586402761115017 0 -0.00056746860840614275 -0.00090586402761115017 0 -0.00066942230228338867 -0.00094454651053500619 0 -0.00062880663033065972 -0.00083565416511924165 0 -0.00061338252283591312 -0.0010899437822846055 0 -0.00056746860840614275 -0.00090586402761115017 0 -0.00066942230228338867 -0.00094454651053500619 0 -0.00067455674924997769 -0.0010814771147426851 0 -0.00066942230228338867 -0.00094454651053500619 0 -0.00070434258373619073 -0.00097345412288778437 0 -0.00056746860840614275 -0.00090586402761115017 0 -0.00062880663033065972 -0.00083565416511924165 0 -0.00057658161869118168 -0.00075753954965418425 0 -0.00056746860840614275 -0.00090586402761115017 0 -0.00057658161869118168 -0.00075753954965418425 0 -0.00050327903945819965 -0.00068280494730566541 0 -0.00062880663033065972 -0.00083565416511924165 0 -0.00057658161869118168 -0.00075753954965418425 0 -0.00057676363099747204 -0.000764546057011812 0 -0.00055602562958037604 -0.00068877619489462452 0 -0.00057658161869118168 -0.00075753954965418425 0 -0.00057676363099747204 -0.000764546057011812 0 -0.00055602562958037604 -0.00068877619489462452 0 -0.00057658161869118168 -0.00075753954965418425 0 -0.00050327903945819965 -0.00068280494730566541 0 -0.00045559704004532889 -0.00056602919261578835 0 -0.00039829943166555174 -0.00075918852228411 0 -0.00050327903945819965 -0.00068280494730566541 0 -0.00054591835597542259 -0.00080364336819194789 0 -0.00054820823108822582 -0.00080307799264173294 0 -0.00036253521840776251 -0.00081086154065503763 0 -0.0004970527699643361 -0.00079406443326997256 0 -0.00054591835597542259 -0.00080364336819194789 0 -0.00036253521840776251 -0.00081086154065503763 0 -0.0004970527699643361 -0.00079406443326997256 0 -0.00054591835597542259 -0.00080364336819194789 0 -0.00057676363099747204 -0.000764546057011812 0 -0.00062880663033065972 -0.00083565416511924165 0 -0.00057676363099747204 -0.000764546057011812 0 -0.0006158253202200682 -0.00082460056882015969 0 -0.00054591835597542259 -0.00080364336819194789 0 -0.00057676363099747204 -0.000764546057011812 0 -0.0006158253202200682 -0.00082460056882015969 0 0.00022731517606868189 -0.0032545456484103993 0 -6.2360029724320437e-05 -0.002015947679360221 0 -0.0006158253202200682 -0.00082460056882015969 0 -0.00067351913397114529 -0.0009005194607326285 0 -0.00061254413051911854 -0.00083590446625822121 0 -0.00054591835597542259 -0.00080364336819194789 0 -0.0006158253202200682 -0.00082460056882015969 0 -0.00061254413051911854 -0.00083590446625822121 0 -0.00067351913397114529 -0.0009005194607326285 0 -0.00060200969638897624 -0.00082972986298380049 0 -0.00075149353398549406 -0.0010042783016762445 0 -0.00062880663033065972 -0.00083565416511924165 0 -0.0006158253202200682 -0.00082460056882015969 0 -0.00067351913397114529 -0.0009005194607326285 0 -0.00066942230228338867 -0.00094454651053500619 0 -0.00070434258373619073 -0.00097345412288778437 0 -0.00067351913397114529 -0.0009005194607326285 0 -0.00070434258373619073 -0.00097345412288778437 0 -0.00067351913397114529 -0.0009005194607326285 0 -0.00075149353398549406 -0.0010042783016762445 0 -0.00066942230228338867 -0.00094454651053500619 0 -0.00062880663033065972 -0.00083565416511924165 0 -0.00067351913397114529 -0.0009005194607326285 0 0.00022731517606868189 -0.0032545456484103993 0 0.0010568974607888578 -0.0037581616856394956 0 -0.00067351913397114529 -0.0009005194607326285 0 -0.00060200969638897624 -0.00082972986298380049 0 -0.00061254413051911854 -0.00083590446625822121 0 0.0013546073144930753 -0.0038327105905382529 0 0.0012548444386113276 -0.0043250571073704131 0 0.00090649021533226626 -0.0033353506709932492 0 -0.00054591835597542259 -0.00080364336819194789 0 -0.00061254413051911854 -0.00083590446625822121 0 -0.00054820823108822582 -0.00080307799264173294 0 -0.00060200969638897624 -0.00082972986298380049 0 -0.00061254413051911854 -0.00083590446625822121 0 -0.00059065377941414467 -0.00084762943477049047 0 -0.00073785428833774 -0.0018819964273193764 0 -0.00044085538887506933 -0.002674922527093795 0 0.00022731517606868189 -0.0032545456484103993 0 -0.00044085538887506933 -0.002674922527093795 0 -0.00039970812586829959 -0.0035354944086808948 0 0.00034059557867159628 -0.0039808249015398055 0 -0.00014890753879378922 -0.0038865353959784631 0 -0.00010769719110978358 -0.0043950149894499179 0 -0.00018110940433178362 -0.0043788314956598315 0 -2.8711961389729938e-05 -0.0044443585432355822 0 0.00022731517606868189 -0.0032545456484103993 0 0.00038771354851291627 -0.0049539904081590249 0 0.00038771354851291627 -0.0049539904081590249 0 -0.00044085538887506933 -0.002674922527093795 0 0.0012548444386113276 -0.0043250571073704131 0 0.0017375924080030105 -0.0047024508003038219 0 0.0016706481825925399 -0.0041202716921604149 0 0.0013546073144930753 -0.0038327105905382529 0 0.0012548444386113276 -0.0043250571073704131 0 0.0016706481825925399 -0.0041202716921604149 0 0.0013546073144930753 -0.0038327105905382529 0 0.0016706481825925399 -0.0041202716921604149 0 0.0015882560797847649 -0.003569572714500173 0 0.0015882560797847649 -0.003569572714500173 0 0.0012189830720030789 -0.0030954603231304382 0 0.00090649021533226626 -0.0033353506709932492 0 0.0013546073144930753 -0.0038327105905382529 0 0.0015882560797847649 -0.003569572714500173 0 0.00090649021533226626 -0.0033353506709932492 0 0.0012189830720030789 -0.0030954603231304382 0 0.00073764655759055609 -0.0027977267068926104 0 0.0013020681971119177 -0.0027030674037168204 0 0.0012189830720030789 -0.0030954603231304382 0 0.0016293059625059547 -0.0030857388709824812 0 0.0013020681971119177 -0.0027030674037168204 0 0.0015882560797847649 -0.003569572714500173 0 0.0016293059625059547 -0.0030857388709824812 0 0.0021355171130910916 -0.0033041599390618999 0 0.0015882560797847649 -0.003569572714500173 0 0.0012189830720030789 -0.0030954603231304382 0 0.0016293059625059547 -0.0030857388709824812 0 0.0010730807585967218 -0.0036418981508595104 0 0.00069944202745586938 -0.0032347356381918144 0 0.00090649021533226626 -0.0033353506709932492 0 -0.00067455674924997769 -0.0010814771147426851 0 -0.00070434258373619073 -0.00097345412288778437 0 -0.00075149353398549406 -0.0010042783016762445 0 0.00069944202745586938 -0.0032347356381918144 0 0.00090649021533226626 -0.0033353506709932492 0 0.00073764655759055609 -0.0027977267068926104 0 0.0012189830720030789 -0.0030954603231304382 0 0.00090649021533226626 -0.0033353506709932492 0 0.00073764655759055609 -0.0027977267068926104 0 0.00039371761820856103 -0.002752179359299957 0 0.00069944202745586938 -0.0032347356381918144 0 0.00073764655759055609 -0.0027977267068926104 0 0.00045749952534528918 -0.0023407060217744023 0 0.00039371761820856103 -0.002752179359299957 0 0.00073764655759055609 -0.0027977267068926104 0 0.00045749952534528918 -0.0023407060217744023 0 0.00073764655759055609 -0.0027977267068926104 0 0.00091375586889397796 -0.0024211728076349616 0 0.00073764655759055609 -0.0027977267068926104 0 0.00091375586889397796 -0.0024211728076349616 0 0.0013020681971119177 -0.0027030674037168204 0 0.00093746072291890604 -0.001916897870594631 0 0.00045749952534528918 -0.0023407060217744023 0 0.00091375586889397796 -0.0024211728076349616 0 0.0016293059625059547 -0.0030857388709824812 0 0.0013020681971119177 -0.0027030674037168204 0 0.0019369472192361393 -0.0026982068279229289 0 0.0015182074607345908 -0.0021481657521187627 0 0.00091375586889397796 -0.0024211728076349616 0 0.0013020681971119177 -0.0027030674037168204 0 0.0015182074607345908 -0.0021481657521187627 0 0.0013020681971119177 -0.0027030674037168204 0 0.0019369472192361393 -0.0026982068279229289 0 0.0024462419855176328 -0.0020542063669965424 0 0.0015182074607345908 -0.0021481657521187627 0 0.0019369472192361393 -0.0026982068279229289 0 0.0024462419855176328 -0.0020542063669965424 0 0.0026780616900926439 -0.0029061175992701371 0 0.0019369472192361393 -0.0026982068279229289 0 0.0026780616900926439 -0.0029061175992701371 0 0.0019369472192361393 -0.0026982068279229289 0 0.0021355171130910916 -0.0033041599390618999 0 0.0026780616900926439 -0.0029061175992701371 0 0.0021355171130910916 -0.0033041599390618999 0 0.0031852950984815058 -0.0039685811934776615 0 0.0016293059625059547 -0.0030857388709824812 0 0.0019369472192361393 -0.0026982068279229289 0 0.0021355171130910916 -0.0033041599390618999 0 0.0021355171130910916 -0.0033041599390618999 0 0.0031852950984815058 -0.0039685811934776615 0 0.0022308637675534024 -0.0041309812876690021 0 0.0016706481825925399 -0.0041202716921604149 0 0.0015882560797847649 -0.003569572714500173 0 0.0022308637675534024 -0.0041309812876690021 0 0.0015882560797847649 -0.003569572714500173 0 0.0021355171130910916 -0.0033041599390618999 0 0.0022308637675534024 -0.0041309812876690021 0 0.0026780616900926439 -0.0029061175992701371 0 0.0031852950984815058 -0.0039685811934776615 0 0.0034989657235071419 -0.0028366863408199865 0 0.0024462419855176328 -0.0020542063669965424 0 0.0026780616900926439 -0.0029061175992701371 0 0.0034989657235071419 -0.0028366863408199865 0 0.0024401555198613799 -0.0065625372290648264 0 0.002891456340912534 -0.0066718843158429329 0 0.0029484485224255722 -0.011495682601166112 0 0.0033608185477298118 -0.011446284581023406 0 0.0033828054341013322 -0.011732098159199835 0 0.0040985979926271843 -0.015769438954216019 0 0.0043953109098459012 -0.011844561046678229 0 0.0033608185477298118 -0.011446284581023406 0 0.0032846142120170453 -0.011458383636295599 0 0.0033828054341013322 -0.011732098159199835 0 0.0029707585302455688 -0.010689248676672477 0 0.0029484485224255722 -0.011495682601166112 0 0.0033608185477298118 -0.011446284581023406 0 0.0033892362112486456 -0.012071498597462734 0 0.0033608185477298118 -0.011446284581023406 0 0.0032846142120170453 -0.011458383636295599 0 0.0051050538910393404 -0.018897318451620362 0 0.0044861428108345812 -0.018207495747677323 0 0.0054387077759070141 -0.017159680182169717 0 0.0034180174069738181 -0.019564121232769804 0 0.0042319149655339824 -0.01919307439269928 0 0.0035915273107780484 -0.018563315344368919 0 0.0042597473598526949 -0.019838622723209201 0 0.0034180174069738181 -0.019564121232769804 0 0.0042319149655339824 -0.01919307439269928 0 0.0042597473598526949 -0.019838622723209201 0 0.0042319149655339824 -0.01919307439269928 0 0.0051050538910393404 -0.018897318451620362 0 0.0042319149655339824 -0.01919307439269928 0 0.0051050538910393404 -0.018897318451620362 0 0.0044861428108345812 -0.018207495747677323 0 0.0042319149655339824 -0.01919307439269928 0 0.0044861428108345812 -0.018207495747677323 0 0.0035915273107780484 -0.018563315344368919 0 0.004052710336304742 -0.017204743809324172 0 0.0054387077759070141 -0.017159680182169717 0 0.0030421098652484734 -0.015019138968472283 0 0.0044861428108345812 -0.018207495747677323 0 0.0035915273107780484 -0.018563315344368919 0 0.004052710336304742 -0.017204743809324172 0 0.0044861428108345812 -0.018207495747677323 0 0.004052710336304742 -0.017204743809324172 0 0.0054387077759070141 -0.017159680182169717 0 0.002891456340912534 -0.0066718843158429329 0 0.0043953109098459012 -0.011844561046678229 0 0.0031852950984815058 -0.0039685811934776615 0 0.0034989657235071419 -0.0028366863408199865 0 0.004585217012293104 -0.0038436755298131712 0 0.0031852950984815058 -0.0039685811934776615 0 0.004585217012293104 -0.0038436755298131712 0 0.0043153601829674457 -0.0056667558380493485 0 0.0043953109098459012 -0.011844561046678229 0 0.0034489132606398401 -0.0093843148626971181 0 0.0048205769504547288 -0.015945211088677427 0 0.0051655232517988335 -0.013926080916204741 0 0.0030421098652484734 -0.015019138968472283 0 0.0043953109098459012 -0.011844561046678229 0 0.0037648730082941498 -0.016684798250912458 0 0.0051655232517988335 -0.013926080916204741 0 0.0030421098652484734 -0.015019138968472283 0 0.0029470412401046654 -0.013615868059861154 0 0.00043249871406240813 -0.0099386712051142533 0 0.00071486175856948567 -0.0099775748094869804 0 0.00057002316314062581 -0.010097624520918292 0 0.0034489132606398401 -0.0093843148626971181 0 0.0017234196937954886 -0.011770563951800204 0 0.0034489132606398401 -0.0093843148626971181 0 0.00098308486510029908 -0.0093816819802190997 0 0.00043249871406240813 -0.0099386712051142533 0 0.00040598344433082756 -0.010092863975376605 0 0.00057002316314062581 -0.010097624520918292 0 0.0026773102959128628 -0.0077725876027332687 0 0.00099947405920046569 -0.0080556388549517539 0 0.0024963875033899275 -0.0089746960961201976 0 0.00012104355722384346 -0.0085573745848966775 0 0.00098308486510029908 -0.0093816819802190997 0 0.0034489132606398401 -0.0093843148626971181 0 0.0020676029977376893 -0.0062061723850890703 0 -0.0009030871252506303 -0.0090459511068001659 0 -0.0012944807654289546 -0.0094074475027212702 0 -0.00063195480477980313 -0.0095014213080023852 0 0.0026773102959128628 -0.0077725876027332687 0 0.0010889578363772955 -0.0074499696123999388 0 0.00099947405920046569 -0.0080556388549517539 0 -0.0009030871252506303 -0.0090459511068001659 0 -0.00063195480477980313 -0.0095014213080023852 0 -0.00015398692242078147 -0.0095995441379899266 0 -0.00018110940433178362 -0.0043788314956598315 0 -2.8711961389729938e-05 -0.0044443585432355822 0 3.4152718463449278e-05 -0.0046781781238984807 0 -0.00044085538887506933 -0.002674922527093795 0 -0.00011688985067407514 -0.0043797936731944029 0 -0.00053239442697359607 -0.0069888712949280254 0 -0.00011688985067407514 -0.0043797936731944029 0 -0.0009030871252506303 -0.0090459511068001659 0 -0.0014835486629728449 -0.0086645472006232557 0 -0.0012944807654289546 -0.0094074475027212702 0 0.00012104355722384346 -0.0085573745848966775 0 -0.00053239442697359607 -0.0069888712949280254 0 0.0010889578363772955 -0.0074499696123999388 0 0.00099947405920046569 -0.0080556388549517539 0 -6.403932825046159e-05 -0.0073890401006536715 0 0.0017375924080030105 -0.0047024508003038219 0 0.0029865206134818967 -0.0051813148381853495 0 0.0022308637675534024 -0.0041309812876690021 0 -0.00050210757387042309 -0.0071127454623012287 0 0.0010889578363772955 -0.0074499696123999388 0 -6.403932825046159e-05 -0.0073890401006536715 0 0.00038771354851291627 -0.0049539904081590249 0 0.0020676029977376893 -0.0062061723850890703 0 0.00038771354851291627 -0.0049539904081590249 0 -0.00053239442697359607 -0.0069888712949280254 0 0.0017375924080030105 -0.0047024508003038219 0 0.0016706481825925399 -0.0041202716921604149 0 0.0022308637675534024 -0.0041309812876690021 0 0.0031852950984815058 -0.0039685811934776615 0 0.0029865206134818967 -0.0051813148381853495 0 0.0022308637675534024 -0.0041309812876690021 0 0.0031852950984815058 -0.0039685811934776615 0 0.0043153601829674457 -0.0056667558380493485 0 0.0029865206134818967 -0.0051813148381853495 0 -0.0010098784346100169 -0.019184276295381917 0 -0.00064863520976270021 -0.019389588924874464 0 -0.00078956003002232373 -0.019900085520100235 0 -0.0011370838708480299 -0.020011482834669799 0 -0.00084887200275575198 -0.01994376733485893 0 -0.00064863520976270021 -0.019389588924874464 0 -0.00078956003002232373 -0.019900085520100235 0 -0.00032467903900984275 -0.019700949152094669 0 -0.0010720109726857958 -0.020312801604365213 0 -0.00076305707206752332 -0.020223764622377672 0 -0.00078956003002232373 -0.019900085520100235 0 -0.00076305707206752332 -0.020223764622377672 0 -0.00078956003002232373 -0.019900085520100235 0 -0.00032467903900984275 -0.019700949152094669 0 -0.00032467903900984275 -0.019700949152094669 0 0.00053211045336505299 -0.018024781378583311 0 0.00056588862463806378 -0.019793821555715102 0 -0.00064863520976270021 -0.019389588924874464 0 -0.00032467903900984275 -0.019700949152094669 0 -0.00032147325211315258 -0.019221844992504303 0 -0.00032467903900984275 -0.019700949152094669 0 0.00053211045336505299 -0.018024781378583311 0 -0.00039184162072511685 -0.016148112094395036 0 -0.00033103141724186321 -0.019403418797738638 0 -0.00041536973098575008 -0.018084312985570613 0 0.00053211045336505299 -0.018024781378583311 0 0.0016295051928688635 -0.016607209490021861 0 0.0013868425156876086 -0.018867103908741367 0 0.00053211045336505299 -0.018024781378583311 0 0.0016295051928688635 -0.016607209490021861 0 -0.00039184162072511685 -0.016148112094395036 0 0.0018176048392748376 -0.020501654442555698 0 0.00056588862463806378 -0.019793821555715102 0 0.0013868425156876086 -0.018867103908741367 0 0.00053211045336505299 -0.018024781378583311 0 0.00056588862463806378 -0.019793821555715102 0 0.0013868425156876086 -0.018867103908741367 0 0.0018176048392748376 -0.020501654442555698 0 0.0013868425156876086 -0.018867103908741367 0 0.0025013736417304469 -0.019004308055842845 0 0.0013868425156876086 -0.018867103908741367 0 0.0025013736417304469 -0.019004308055842845 0 0.0027482319817577392 -0.017752503766371008 0 0.0034180174069738181 -0.019564121232769804 0 0.0035915273107780484 -0.018563315344368919 0 0.0025013736417304469 -0.019004308055842845 0 0.0035915273107780484 -0.018563315344368919 0 0.0025013736417304469 -0.019004308055842845 0 0.0027482319817577392 -0.017752503766371008 0 0.0035915273107780484 -0.018563315344368919 0 0.004052710336304742 -0.017204743809324172 0 0.0027482319817577392 -0.017752503766371008 0 0.004052710336304742 -0.017204743809324172 0 0.0027482319817577392 -0.017752503766371008 0 0.0028592198774693251 -0.016652155695800908 0 0.004052710336304742 -0.017204743809324172 0 0.0028592198774693251 -0.016652155695800908 0 0.0030421098652484734 -0.015019138968472283 0 0.0016295051928688635 -0.016607209490021861 0 0.0013868425156876086 -0.018867103908741367 0 0.0027482319817577392 -0.017752503766371008 0 0.0016295051928688635 -0.016607209490021861 0 0.0027482319817577392 -0.017752503766371008 0 0.0028592198774693251 -0.016652155695800908 0 0.0016295051928688635 -0.016607209490021861 0 0.0028592198774693251 -0.016652155695800908 0 0.0030421098652484734 -0.015019138968472283 0 0.0016295051928688635 -0.016607209490021861 0 0.0030421098652484734 -0.015019138968472283 0 0.0014725177676245011 -0.014840892608356663 0 0.0030421098652484734 -0.015019138968472283 0 0.0029470412401046654 -0.013615868059861154 0 0.0014725177676245011 -0.014840892608356663 0 0.0029470412401046654 -0.013615868059861154 0 0.0014725177676245011 -0.014840892608356663 0 4.6592069559738683e-05 -0.013007684697904216 0 0.0017234196937954886 -0.011770563951800204 0 0.00043275064337663103 -0.014160610189318678 0 0.0016295051928688635 -0.016607209490021861 0 0.0014725177676245011 -0.014840892608356663 0 -0.00039184162072511685 -0.016148112094395036 0 0.0014725177676245011 -0.014840892608356663 0 -0.00039184162072511685 -0.016148112094395036 0 4.6592069559738683e-05 -0.013007684697904216 0 -0.00032147325211315258 -0.019221844992504303 0 -0.00050913313436872312 -0.01875620706131154 0 -0.00083427665063823492 -0.018888525570338693 0 -0.00041536973098575008 -0.018084312985570613 0 0.00043275064337663103 -0.014160610189318678 0 -0.00032147325211315258 -0.019221844992504303 0 -0.00050913313436872312 -0.01875620706131154 0 -0.00018964720418030557 -0.01848810113372713 0 -0.00050913313436872312 -0.01875620706131154 0 -0.00018964720418030557 -0.01848810113372713 0 -0.00069726533837883924 -0.018403888425006131 0 -0.00050913313436872312 -0.01875620706131154 0 -0.00083427665063823492 -0.018888525570338693 0 -0.00069726533837883924 -0.018403888425006131 0 -0.00092079638794295433 -0.019163940113066585 0 -0.00075369578981506825 -0.017501393050978552 0 -0.00096071122851405257 -0.018760055669166012 0 -0.00083427665063823492 -0.018888525570338693 0 -0.00074004703219270203 -0.018627253863493815 0 -0.00064863520976270021 -0.019389588924874464 0 -0.00032147325211315258 -0.019221844992504303 0 -0.00083427665063823492 -0.018888525570338693 0 -0.0010098784346100169 -0.019184276295381917 0 -0.00064863520976270021 -0.019389588924874464 0 -0.00083427665063823492 -0.018888525570338693 0 -0.00075369578981506825 -0.017501393050978552 0 -0.00010489133092330435 -0.014905792864448788 0 -0.00071145799550997077 -0.018313854172978893 0 -0.00063513519856149081 -0.01865154297874742 0 -0.00040194237726679525 -0.018089989477101175 0 -0.00074469184717681342 -0.018119128681051356 0 -0.00071145799550997077 -0.018313854172978893 0 -0.00040194237726679525 -0.018089989477101175 0 -0.0009203695424141959 -0.018394769917877165 0 -0.00074469184717681342 -0.018119128681051356 0 -0.00071145799550997077 -0.018313854172978893 0 -0.00094329348982169492 -0.01859306150097495 0 -0.00071145799550997077 -0.018313854172978893 0 -0.00063513519856149081 -0.01865154297874742 0 -0.00080621825993623154 -0.018497016291688363 0 -0.00075369578981506825 -0.017501393050978552 0 -0.00096071122851405257 -0.018760055669166012 0 -0.00094329348982169492 -0.01859306150097495 0 -0.00074004703219270203 -0.018627253863493815 0 -0.00043177357571063144 -0.014753978396704254 0 0.00033032807251956599 -0.014119612759818918 0 0.00017792637746374981 -0.013095393025243981 0 0.00043275064337663103 -0.014160610189318678 0 -0.00075369578981506825 -0.017501393050978552 0 0.00071189133878483979 -0.014957075307008141 0 -0.00043177357571063144 -0.014753978396704254 0 0.00033032807251956599 -0.014119612759818918 0 0.00071189133878483979 -0.014957075307008141 0 0.00033032807251956599 -0.014119612759818918 0 0.00086720233572936344 -0.013684453085129023 0 0.00017792637746374981 -0.013095393025243981 0 0.00086720233572936344 -0.013684453085129023 0 0.00098818217120484977 -0.012492029311501803 0 0.00033032807251956599 -0.014119612759818918 0 0.00017792637746374981 -0.013095393025243981 0 0.00086720233572936344 -0.013684453085129023 0 0.001066772026940944 -0.011705751481775715 0 0.0010297806799109336 -0.011770108807448589 0 0.0011409156145177392 -0.010390735084686178 0 0.0008532553434433196 -0.010553981380380689 0 0.0011367472753184345 -0.010887824528733971 0 0.0011409156145177392 -0.010390735084686178 0 0.00081418451250335705 -0.010202575285612482 0 0.0008532553434433196 -0.010553981380380689 0 0.00043275064337663103 -0.014160610189318678 0 0.001066772026940944 -0.011705751481775715 0 0.0011422564520531893 -0.010048303096782483 0 0.0011409156145177392 -0.010390735084686178 0 0.00081418451250335705 -0.010202575285612482 0 0.00071486175856948567 -0.0099775748094869804 0 0.0011422564520531893 -0.010048303096782483 0 0.00081418451250335705 -0.010202575285612482 0 0.00071486175856948567 -0.0099775748094869804 0 0.00081418451250335705 -0.010202575285612482 0 0.00057002316314062581 -0.010097624520918292 0 0.00081418451250335705 -0.010202575285612482 0 0.00060033003761033178 -0.010280391654564134 0 0.00057002316314062581 -0.010097624520918292 0 0.00081418451250335705 -0.010202575285612482 0 0.00060033003761033178 -0.010280391654564134 0 0.0008532553434433196 -0.010553981380380689 0 0.00060033003761033178 -0.010280391654564134 0 0.0008532553434433196 -0.010553981380380689 0 0.00060702387606169372 -0.010687787606837513 0 0.0008532553434433196 -0.010553981380380689 0 0.00060702387606169372 -0.010687787606837513 0 0.00078924093979192394 -0.010882282108450462 0 0.00060702387606169372 -0.010687787606837513 0 0.00078924093979192394 -0.010882282108450462 0 0.00052490647063099056 -0.011038331838207328 0 0.00052490647063099056 -0.011038331838207328 0 0.00080915420611362354 -0.0112878865990653 0 0.00055604682208891662 -0.011406067710627696 0 0.00080915420611362354 -0.0112878865990653 0 0.00076030346603059252 -0.011471525253480693 0 0.00055604682208891662 -0.011406067710627696 0 0.00078924093979192394 -0.010882282108450462 0 0.00052490647063099056 -0.011038331838207328 0 0.00080915420611362354 -0.0112878865990653 0 0.00080915420611362354 -0.0112878865990653 0 0.0011367472753184345 -0.010887824528733971 0 0.00094202774570211422 -0.011551679523768085 0 0.0010297806799109336 -0.011770108807448589 0 0.00098058288740748823 -0.011537848678066953 0 0.00098818217120484977 -0.012492029311501803 0 0.00076423405580990067 -0.0116832882908819 0 0.00094202774570211422 -0.011551679523768085 0 0.00080915420611362354 -0.0112878865990653 0 0.00094202774570211422 -0.011551679523768085 0 0.0010179108952218421 -0.01147679388352958 0 0.00078924093979192394 -0.010882282108450462 0 0.00080915420611362354 -0.0112878865990653 0 0.0011367472753184345 -0.010887824528733971 0 0.0008532553434433196 -0.010553981380380689 0 0.00078924093979192394 -0.010882282108450462 0 0.0011367472753184345 -0.010887824528733971 0 -0.00010489133092330435 -0.014905792864448788 0 0.0010332288004396071 -0.017117619395821199 0 -0.00040194237726679525 -0.018089989477101175 0 -0.00015042187602557776 -0.017478461394448086 0 -0.00061601730070922917 -0.017794448936797297 0 0.00017792637746374981 -0.013095393025243981 0 0.00098818217120484977 -0.012492029311501803 0 0.00076423405580990067 -0.0116832882908819 0 0.0010332288004396071 -0.017117619395821199 0 0.00043260387947098605 -0.021261997454053862 0 0.0022472363930807187 -0.023656473536371875 0 0.0017997105128958395 -0.023591721789304385 0 0.0018522677002903219 -0.023775943875735495 0 0.0022472363930807187 -0.023656473536371875 0 0.0017997105128958395 -0.023591721789304385 0 0.002249363971464921 -0.023516945227619469 0 0.0016200965072215548 -0.023779239208533247 0 0.0017997105128958395 -0.023591721789304385 0 0.0018522677002903219 -0.023775943875735495 0 0.00034133982196985689 -0.020893311536719712 0 0.00043260387947098605 -0.021261997454053862 0 -0.0010316456914865278 -0.018115736835614876 0 -0.00074469184717681342 -0.018119128681051356 0 -0.00061601730070922917 -0.017794448936797297 0 -0.00074469184717681342 -0.018119128681051356 0 -0.00040194237726679525 -0.018089989477101175 0 -0.00061601730070922917 -0.017794448936797297 0 0.00051523987902953679 -0.0028908021269821579 0 0.00075301688894936943 -0.0027327098521865915 0 0.00097649984296922039 -0.0036231305687015902 0 3.4894960853584354e-06 -0.0068881912983684637 0 2.4091154976287154e-05 -0.0065662169523183142 0 0.00051523987902953679 -0.0028908021269821579 0 0.00075301688894936943 -0.0027327098521865915 0 0.00049702387703337266 -0.0024823996897830737 0 -0.00020452235018114919 -0.00089673504176273364 0 -0.000313238321717737 -0.00094253425942005269 0 -0.00032114115359523006 -0.00086952743095754866 0 -0.00020452235018114919 -0.00089673504176273364 0 -0.00032114115359523006 -0.00086952743095754866 0 -0.00036253521840776251 -0.00081086154065503763 0 -0.00040414930414246276 -0.00085555955719128832 0 -0.00032114115359523006 -0.00086952743095754866 0 -0.00036253521840776251 -0.00081086154065503763 0 0.00025724897333667619 -0.0013887979351405841 0 -0.00011688985067407514 -0.0043797936731944029 0 -0.00072414617286143746 -0.010190895329020679 0 -0.00045218856275770514 -0.0099033135985746364 0 -0.00063195480477980313 -0.0095014213080023852 0 3.4894960853584354e-06 -0.0068881912983684637 0 -0.00011688985067407514 -0.0043797936731944029 0 -0.00072414617286143746 -0.010190895329020679 0 -0.0012944807654289546 -0.0094074475027212702 0 -0.00063195480477980313 -0.0095014213080023852 0 -0.00045218856275770514 -0.0099033135985746364 0 -0.00063195480477980313 -0.0095014213080023852 0 -0.00033286866240276821 -0.009689054418779033 0 -0.00063195480477980313 -0.0095014213080023852 0 -0.00033286866240276821 -0.009689054418779033 0 -0.00015398692242078147 -0.0095995441379899266 0 -0.00033286866240276821 -0.009689054418779033 0 -0.00015398692242078147 -0.0095995441379899266 0 -0.00026539910744849816 -0.009805902104279578 0 -0.00045218856275770514 -0.0099033135985746364 0 -0.00014228357308649066 -0.0099691514032623739 0 -0.00026539910744849816 -0.009805902104279578 0 -0.00015398692242078147 -0.0095995441379899266 0 -0.00014228357308649066 -0.0099691514032623739 0 -0.00026539910744849816 -0.009805902104279578 0 -0.00045218856275770514 -0.0099033135985746364 0 -0.00033286866240276821 -0.009689054418779033 0 -0.00026539910744849816 -0.009805902104279578 0 0.00060033003761033178 -0.010280391654564134 0 -0.00015398692242078147 -0.0095995441379899266 0 -0.00014228357308649066 -0.0099691514032623739 0 0.00060033003761033178 -0.010280391654564134 0 0.00040598344433082756 -0.010092863975376605 0 0.00057002316314062581 -0.010097624520918292 0 0.00027910677018554755 -0.010327394337315918 0 0.00098308486510029908 -0.0093816819802190997 0 0.00060033003761033178 -0.010280391654564134 0 0.00060702387606169372 -0.010687787606837513 0 0.00023551019569905811 -0.01070229537073852 0 0.00060033003761033178 -0.010280391654564134 0 -0.00014228357308649066 -0.0099691514032623739 0 -0.00010488271223482452 -0.010305282150562917 0 0.00060033003761033178 -0.010280391654564134 0 -0.00010488271223482452 -0.010305282150562917 0 0.00023551019569905811 -0.01070229537073852 0 -0.00072414617286143746 -0.010190895329020679 0 -0.00045218856275770514 -0.0099033135985746364 0 -0.00010488271223482452 -0.010305282150562917 0 -0.00072414617286143746 -0.010190895329020679 0 -0.00010488271223482452 -0.010305282150562917 0 -0.00021520759600338629 -0.010810630204852805 0 -0.00045218856275770514 -0.0099033135985746364 0 -0.00014228357308649066 -0.0099691514032623739 0 -0.00010488271223482452 -0.010305282150562917 0 -0.00010488271223482452 -0.010305282150562917 0 -0.00021520759600338629 -0.010810630204852805 0 0.00023551019569905811 -0.01070229537073852 0 -0.00021520759600338629 -0.010810630204852805 0 0.00023551019569905811 -0.01070229537073852 0 0.00018531980366928279 -0.011314013108396793 0 0.00060702387606169372 -0.010687787606837513 0 0.00052490647063099056 -0.011038331838207328 0 0.00023551019569905811 -0.01070229537073852 0 0.00052490647063099056 -0.011038331838207328 0 0.00023551019569905811 -0.01070229537073852 0 0.00018531980366928279 -0.011314013108396793 0 0.00052490647063099056 -0.011038331838207328 0 0.00018531980366928279 -0.011314013108396793 0 0.00055604682208891662 -0.011406067710627696 0 2.4091154976287154e-05 -0.0065662169523183142 0 1.5632291132586286e-05 -0.0061928303176695711 0 0.00021292824042806819 -0.0022669863107289022 0 0.00022605547638850947 -0.001944114928289456 0 0.00026500649902604822 -0.0019860622117275836 0 0.00021292824042806819 -0.0022669863107289022 0 0.00026500649902604822 -0.0019860622117275836 0 0.00050612465047421436 -0.0020777881137695191 0 0.00026956323261240054 -0.0017160011586540294 0 0.00023707200654252047 -0.0017009971233501564 0 1.2300793683145789e-05 -0.0011123609371539349 0 -0.00021460812254441497 -0.0012117415777938305 0 0.00023117883504918834 -0.001747098322057825 0 0.00026500649902604822 -0.0019860622117275836 0 0.00050612465047421436 -0.0020777881137695191 0 0.00023117883504918834 -0.001747098322057825 0 0.00025724897333667619 -0.0013887979351405841 0 0.00026956323261240054 -0.0017160011586540294 0 0.00051523987902953679 -0.0028908021269821579 0 0.00021292824042806819 -0.0022669863107289022 0 0.00049702387703337266 -0.0024823996897830737 0 0.00021292824042806819 -0.0022669863107289022 0 0.00050612465047421436 -0.0020777881137695191 0 0.00049702387703337266 -0.0024823996897830737 0 0.00075301688894936943 -0.0027327098521865915 0 0.00050612465047421436 -0.0020777881137695191 0 0.00049702387703337266 -0.0024823996897830737 0 -0.00020452235018114919 -0.00089673504176273364 0 1.2300793683145789e-05 -0.0011123609371539349 0 -0.00020550275240263321 -0.0010243896541876055 0 -0.00030505977232104386 -0.0010659190662791506 0 -0.00020550275240263321 -0.0010243896541876055 0 -0.00021460812254441497 -0.0012117415777938305 0 -0.00030505977232104386 -0.0010659190662791506 0 -0.000313238321717737 -0.00094253425942005269 0 -0.00020550275240263321 -0.0010243896541876055 0 -0.00020452235018114919 -0.00089673504176273364 0 -0.000313238321717737 -0.00094253425942005269 0 -0.00020550275240263321 -0.0010243896541876055 0 1.2300793683145789e-05 -0.0011123609371539349 0 -0.00020550275240263321 -0.0010243896541876055 0 -0.00021460812254441497 -0.0012117415777938305 0 -0.00030505977232104386 -0.0010659190662791506 0 -0.00032743966952651724 -0.0012263092824023501 0 -0.00021460812254441497 -0.0012117415777938305 0 -0.00032743966952651724 -0.0012263092824023501 0 -0.00021460812254441497 -0.0012117415777938305 0 -0.00032889385048687426 -0.0014059250185269121 0 -0.00021460812254441497 -0.0012117415777938305 0 -0.00032889385048687426 -0.0014059250185269121 0 0.00023117883504918834 -0.001747098322057825 0 -0.0003169714630524211 -0.001400279385041359 0 -0.00058212343963545991 -0.0016418547198733527 0 -0.00032889385048687426 -0.0014059250185269121 0 -4.9284317967594215e-05 -0.0020120097389271017 0 -0.00065769440444854563 -0.0021914832063145268 0 -4.9284317967594215e-05 -0.0020120097389271017 0 0.00023117883504918834 -0.001747098322057825 0 0.00032443078081846697 -0.0021148309303698136 0 -0.00032889385048687426 -0.0014059250185269121 0 -4.9284317967594215e-05 -0.0020120097389271017 0 0.00023117883504918834 -0.001747098322057825 0 0.00022605547638850947 -0.001944114928289456 0 0.00026500649902604822 -0.0019860622117275836 0 0.00028162160648908245 -0.0018915208110067078 0 0.00026500649902604822 -0.0019860622117275836 0 0.00023117883504918834 -0.001747098322057825 0 0.00028162160648908245 -0.0018915208110067078 0 0.00022605547638850947 -0.001944114928289456 0 0.00028162160648908245 -0.0018915208110067078 0 0.00036067584174172143 -0.001963391104415083 0 1.5632291132586286e-05 -0.0061928303176695711 0 0.0008763278708089178 -0.0094192749784783019 0 0.00018531980366928279 -0.011314013108396793 0 0.00055604682208891662 -0.011406067710627696 0 0.00053685537273156527 -0.0117911906836908 0 0.0003653882977039223 -0.013537855794648277 0 -0.00050095131446297706 -0.013670125242287773 0 0.00053242980802107188 -0.012837089023953897 0 -3.4651005190793065e-05 -0.0075437170891370512 0 0.0008763278708089178 -0.0094192749784783019 0 0.00028162160648908245 -0.0018915208110067078 0 0.00032443078081846697 -0.0021148309303698136 0 0.00036067584174172143 -0.001963391104415083 0 0.00023117883504918834 -0.001747098322057825 0 0.00028162160648908245 -0.0018915208110067078 0 0.00032443078081846697 -0.0021148309303698136 0 -0.00050095131446297706 -0.013670125242287773 0 -0.00032890506578134369 -0.014116116535613498 0 -0.00056229367279137974 -0.013705773029442044 0 0.0003653882977039223 -0.013537855794648277 0 -0.00050095131446297706 -0.013670125242287773 0 0.00013655393212673399 -0.013933479387749198 0 0.0003653882977039223 -0.013537855794648277 0 0.00013655393212673399 -0.013933479387749198 0 0.00064054444217093718 -0.013900887273722145 0 -0.00032890506578134369 -0.014116116535613498 0 0.00013655393212673399 -0.013933479387749198 0 0.00029914857278517032 -0.014376687634819679 0 -0.00050095131446297706 -0.013670125242287773 0 -0.00032890506578134369 -0.014116116535613498 0 0.00013655393212673399 -0.013933479387749198 0 0.00013655393212673399 -0.013933479387749198 0 0.00029914857278517032 -0.014376687634819679 0 0.00064054444217093718 -0.013900887273722145 0 0.00029914857278517032 -0.014376687634819679 0 -0.00040447663892884166 -0.014918093349231439 0 0.00063887309146158904 -0.01510375094030207 0 -0.00032890506578134369 -0.014116116535613498 0 0.00029914857278517032 -0.014376687634819679 0 -0.00040447663892884166 -0.014918093349231439 0 -0.00066002387813199586 -0.013339115148731026 0 -0.00057483197497983671 -0.01349953298961591 0 -0.00059379253421092354 -0.013385163911076789 0 -0.00032890506578134369 -0.014116116535613498 0 -0.00040447663892884166 -0.014918093349231439 0 -0.00056229367279137974 -0.013705773029442044 0 -0.00047908573414504757 -0.014152738127660056 0 -0.0005541758352420028 -0.013795455134268438 0 -0.00066002387813199586 -0.013339115148731026 0 -0.00057483197497983671 -0.01349953298961591 0 -0.00056229367279137974 -0.013705773029442044 0 -0.00057483197497983671 -0.01349953298961591 0 -0.00049172748996421207 -0.01336978280145535 0 -0.00059379253421092354 -0.013385163911076789 0 -0.00057483197497983671 -0.01349953298961591 0 -0.00052249419381882392 -0.013667128573914143 0 -0.00056229367279137974 -0.013705773029442044 0 -0.00057483197497983671 -0.01349953298961591 0 -0.00052249419381882392 -0.013667128573914143 0 -0.00049172748996421207 -0.01336978280145535 0 -0.00052249419381882392 -0.013667128573914143 0 -0.00049172748996421207 -0.01336978280145535 0 -0.00019109674923985787 -0.013141455819078766 0 -4.3693131557085074e-05 -0.0025697785839343184 0 -0.00065044035620803937 -0.0030453441302352234 0 -0.00065032938446888875 -0.0029843379370458546 0 -0.00052249419381882392 -0.013667128573914143 0 -0.00019109674923985787 -0.013141455819078766 0 0.00013972565455375996 -0.013140106372849826 0 -0.00050353657462007934 -0.0083521179775395572 0 0.00057730755869111767 -0.0071646922884775806 0 -4.3693131557085074e-05 -0.0025697785839343184 0 -0.00065032938446888875 -0.0029843379370458546 0 -0.00065769440444854563 -0.0021914832063145268 0 -4.9284317967594215e-05 -0.0020120097389271017 0 -4.3693131557085074e-05 -0.0025697785839343184 0 -0.00065769440444854563 -0.0021914832063145268 0 -0.00050095131446297706 -0.013670125242287773 0 -0.00052249419381882392 -0.013667128573914143 0 -0.00056229367279137974 -0.013705773029442044 0 -3.4651005190793065e-05 -0.0075437170891370512 0 -0.00050353657462007934 -0.0083521179775395572 0 -4.9284317967594215e-05 -0.0020120097389271017 0 0.00032443078081846697 -0.0021148309303698136 0 -4.3693131557085074e-05 -0.0025697785839343184 0 0.0015626208600432697 -0.023327532877537516 0 0.0018779139324632767 -0.022847762521889584 0 0.0012919944910135257 -0.022798277109647408 0 0.0010238113435954539 -0.023226629452347852 0 0.0015626208600432697 -0.023327532877537516 0 0.0012919944910135257 -0.022798277109647408 0 0.0010469713029730634 -0.023620608237157358 0 0.0014589574076326797 -0.023624020190562204 0 0.0015626208600432697 -0.023327532877537516 0 0.0010238113435954539 -0.023226629452347852 0 0.0010469713029730634 -0.023620608237157358 0 0.0015626208600432697 -0.023327532877537516 0 0.0010469713029730634 -0.023620608237157358 0 0.0013726229937066055 -0.024046503993524648 0 0.0014589574076326797 -0.023624020190562204 0 0.0013726229937066055 -0.024046503993524648 0 0.0014589574076326797 -0.023624020190562204 0 0.0018540844445777309 -0.023515199342001553 0 0.0014589574076326797 -0.023624020190562204 0 0.0015626208600432697 -0.023327532877537516 0 0.0018540844445777309 -0.023515199342001553 0 0.0015626208600432697 -0.023327532877537516 0 0.0018540844445777309 -0.023515199342001553 0 0.0020703898484364346 -0.023198677601829382 0 0.0015791266616211252 -0.023811892042853507 0 0.0022009566810292031 -0.023539924996199245 0 0.0013726229937066055 -0.024046503993524648 0 0.0018540844445777309 -0.023515199342001553 0 0.002249363971464921 -0.023516945227619469 0 0.0018540844445777309 -0.023515199342001553 0 0.002249363971464921 -0.023516945227619469 0 0.0020703898484364346 -0.023198677601829382 0 0.002249363971464921 -0.023516945227619469 0 0.0020703898484364346 -0.023198677601829382 0 0.0024594254375576601 -0.023171216865310592 0 0.0020703898484364346 -0.023198677601829382 0 0.00231736931914637 -0.022846710086533387 0 0.0024594254375576601 -0.023171216865310592 0 0.0015626208600432697 -0.023327532877537516 0 0.0020703898484364346 -0.023198677601829382 0 0.0018779139324632767 -0.022847762521889584 0 0.0020703898484364346 -0.023198677601829382 0 0.0018779139324632767 -0.022847762521889584 0 0.00231736931914637 -0.022846710086533387 0 0.00231736931914637 -0.022846710086533387 0 0.0026306087097664067 -0.022889198664150366 0 0.0025607626879661266 -0.022635650686104937 0 0.0026306087097664067 -0.022889198664150366 0 0.0029769698288057761 -0.022849201740368159 0 0.0025607626879661266 -0.022635650686104937 0 0.0026306087097664067 -0.022889198664150366 0 0.002754519728552866 -0.023116951792654921 0 0.0024594254375576601 -0.023171216865310592 0 0.00231736931914637 -0.022846710086533387 0 0.0026306087097664067 -0.022889198664150366 0 0.0024594254375576601 -0.023171216865310592 0 0.002249363971464921 -0.023516945227619469 0 0.0024594254375576601 -0.023171216865310592 0 0.0026392797582051944 -0.023494863937359476 0 0.0010332288004396071 -0.017117619395821199 0 0.0016983801346559444 -0.017429201163493634 0 0.0022472363930807187 -0.023656473536371875 0 0.002249363971464921 -0.023516945227619469 0 0.0026392797582051944 -0.023494863937359476 0 0.00076423405580990067 -0.0116832882908819 0 0.00094202774570211422 -0.011551679523768085 0 0.0010179108952218421 -0.01147679388352958 0 0.002754519728552866 -0.023116951792654921 0 0.0024594254375576601 -0.023171216865310592 0 0.0026392797582051944 -0.023494863937359476 0 0.0016983801346559444 -0.017429201163493634 0 0.00044997650048538549 -0.014706080042221984 0 0.002754519728552866 -0.023116951792654921 0 0.0026392797582051944 -0.023494863937359476 0 0.0030523843286867393 -0.023190903528056386 0 0.00055604682208891662 -0.011406067710627696 0 0.00063066355945754263 -0.011729992439536777 0 0.00053685537273156527 -0.0117911906836908 0 0.0010179108952218421 -0.01147679388352958 0 0.00076030346603059252 -0.011471525253480693 0 0.00063229706440629582 -0.011806766141634744 0 0.00080915420611362354 -0.0112878865990653 0 0.0010179108952218421 -0.01147679388352958 0 0.00076030346603059252 -0.011471525253480693 0 0.00026640233194185432 -0.010806285092738439 0 0.00044997650048538549 -0.014706080042221984 0 0.00076030346603059252 -0.011471525253480693 0 0.00055604682208891662 -0.011406067710627696 0 0.00063229706440629582 -0.011806766141634744 0 0.00044997650048538549 -0.014706080042221984 0 0.0008763278708089178 -0.0094192749784783019 0 0.0008763278708089178 -0.0094192749784783019 0 0.0022842985543276334 -0.018194960976411476 0 0.00044997650048538549 -0.014706080042221984 0 0.0022842985543276334 -0.018194960976411476 0 0.0014920055293116213 -0.011716398431564584 0 -0.00012731085988523536 -0.012823928811017375 0 0.0027133518228675143 -0.016810836731105557 0 0.002754519728552866 -0.023116951792654921 0 0.0030523843286867393 -0.023190903528056386 0 0.0029769698288057761 -0.022849201740368159 0 0.0026306087097664067 -0.022889198664150366 0 0.002754519728552866 -0.023116951792654921 0 0.0029769698288057761 -0.022849201740368159 0 0.0003653882977039223 -0.013537855794648277 0 0.00053242980802107188 -0.012837089023953897 0 0.00087428755816856688 -0.013311966712128672 0 0.00087428755816856688 -0.013311966712128672 0 0.0011701526228172431 -0.014295611564712244 0 0.00064054444217093718 -0.013900887273722145 0 0.00029914857278517032 -0.014376687634819679 0 0.0011701526228172431 -0.014295611564712244 0 0.00064054444217093718 -0.013900887273722145 0 0.0022842985543276334 -0.018194960976411476 0 0.0012604445831103459 -0.01601355422096875 0 0.0003653882977039223 -0.013537855794648277 0 0.00087428755816856688 -0.013311966712128672 0 0.00064054444217093718 -0.013900887273722145 0 0.00029914857278517032 -0.014376687634819679 0 0.0011701526228172431 -0.014295611564712244 0 0.00063887309146158904 -0.01510375094030207 0 0.0011701526228172431 -0.014295611564712244 0 0.00063887309146158904 -0.01510375094030207 0 0.0014977807865275614 -0.015644068363570043 0 0.0016063176651362186 -0.018553557757112812 0 0.001310040584751546 -0.018482923399645992 0 0.0015098770775904833 -0.018038440074284266 0 0.0012604445831103459 -0.01601355422096875 0 0.0015042213839266128 -0.016925190324432487 0 0.0022842985543276334 -0.018194960976411476 0 0.0020876982229129574 -0.020811264447956741 0 0.0017303507747076345 -0.019013710631711551 0 0.0016063176651362186 -0.018553557757112812 0 0.001310040584751546 -0.018482923399645992 0 0.0029769698288057761 -0.022849201740368159 0 0.0025976591402093094 -0.022078211279776806 0 0.0025607626879661266 -0.022635650686104937 0 0.0025976591402093094 -0.022078211279776806 0 0.0025607626879661266 -0.022635650686104937 0 0.0022502973113624593 -0.022457561269996859 0 0.00231736931914637 -0.022846710086533387 0 0.0025607626879661266 -0.022635650686104937 0 0.0022502973113624593 -0.022457561269996859 0 0.0018779139324632767 -0.022847762521889584 0 0.00231736931914637 -0.022846710086533387 0 0.0022502973113624593 -0.022457561269996859 0 0.0018779139324632767 -0.022847762521889584 0 0.0018901708218498376 -0.022350797691831261 0 0.0022502973113624593 -0.022457561269996859 0 0.0018901708218498376 -0.022350797691831261 0 0.0022502973113624593 -0.022457561269996859 0 0.0021183545171358756 -0.021922999229346155 0 0.0020876982229129574 -0.020811264447956741 0 0.0014127433005154883 -0.019154681311686583 0 0.0025976591402093094 -0.022078211279776806 0 0.0021183545171358756 -0.021922999229346155 0 0.0022139041626589961 -0.020791547616708941 0 0.0021183545171358756 -0.021922999229346155 0 0.0016463057964806115 -0.021697639909765514 0 0.0022139041626589961 -0.020791547616708941 0 0.0025976591402093094 -0.022078211279776806 0 0.0022502973113624593 -0.022457561269996859 0 0.0021183545171358756 -0.021922999229346155 0 0.0018901708218498376 -0.022350797691831261 0 0.0021183545171358756 -0.021922999229346155 0 0.0016463057964806115 -0.021697639909765514 0 0.0018901708218498376 -0.022350797691831261 0 0.0016463057964806115 -0.021697639909765514 0 0.0013337130141037603 -0.022239632427713586 0 0.00095929998922940297 -0.021787745108050188 0 0.0016463057964806115 -0.021697639909765514 0 0.0013337130141037603 -0.022239632427713586 0 0.0008731187271479717 -0.022453227799033044 0 0.0013337130141037603 -0.022239632427713586 0 0.0012919944910135257 -0.022798277109647408 0 0.0018901708218498376 -0.022350797691831261 0 0.0013337130141037603 -0.022239632427713586 0 0.0012919944910135257 -0.022798277109647408 0 0.0018779139324632767 -0.022847762521889584 0 0.0018901708218498376 -0.022350797691831261 0 0.0012919944910135257 -0.022798277109647408 0 0.00094249192687456402 -0.020880962390007161 0 0.0022139041626589961 -0.020791547616708941 0 0.0005324243128466611 -0.018390143419603915 0 0.0014127433005154883 -0.019154681311686583 0 0.00062234196923178435 -0.01843498740455821 0 0.00094249192687456402 -0.020880962390007161 0 0.0016463057964806115 -0.021697639909765514 0 0.0022139041626589961 -0.020791547616708941 0 0.00095929998922940297 -0.021787745108050188 0 0.00094249192687456402 -0.020880962390007161 0 0.0016463057964806115 -0.021697639909765514 0 0.001310040584751546 -0.018482923399645992 0 0.00083368819799878888 -0.017771291440358911 0 0.0011737411468958649 -0.017794530371593762 0 0.00083368819799878888 -0.017771291440358911 0 0.00088945819937553852 -0.017630949173062297 0 0.0011737411468958649 -0.017794530371593762 0 0.00088945819937553852 -0.017630949173062297 0 0.00071705866612928489 -0.017511461218846537 0 0.0005324243128466611 -0.018390143419603915 0 0.00083368819799878888 -0.017771291440358911 0 0.00088945819937553852 -0.017630949173062297 0 0.0005324243128466611 -0.018390143419603915 0 0.00088945819937553852 -0.017630949173062297 0 0.0010418109970728457 -0.017412716785071121 0 0.00071705866612928489 -0.017511461218846537 0 0.001482688859228479 -0.017321688197894293 0 0.0011951382112175655 -0.016660375064566371 0 0.0014977807865275614 -0.015644068363570043 0 0.00088945819937553852 -0.017630949173062297 0 0.001482688859228479 -0.017321688197894293 0 0.0010418109970728457 -0.017412716785071121 0 0.001482688859228479 -0.017321688197894293 0 0.0015205025974821219 -0.017490467974770822 0 0.0010418109970728457 -0.017412716785071121 0 0.001482688859228479 -0.017321688197894293 0 0.0011951382112175655 -0.016660375064566371 0 0.0015205025974821219 -0.017490467974770822 0 0.00088945819937553852 -0.017630949173062297 0 0.001482688859228479 -0.017321688197894293 0 0.0011737411468958649 -0.017794530371593762 0 0.001491412433429507 -0.017204444141268156 0 0.0015042213839266128 -0.016925190324432487 0 0.001310040584751546 -0.018482923399645992 0 0.0011737411468958649 -0.017794530371593762 0 0.0015098770775904833 -0.018038440074284266 0 0.001482688859228479 -0.017321688197894293 0 0.0011737411468958649 -0.017794530371593762 0 0.0015098770775904833 -0.018038440074284266 0 0.00063887309146158904 -0.01510375094030207 0 0.0014977807865275614 -0.015644068363570043 0 0.00045935718310910728 -0.016356058681136695 0 0.0011951382112175655 -0.016660375064566371 0 0.0014977807865275614 -0.015644068363570043 0 0.00045935718310910728 -0.016356058681136695 0 0.0011951382112175655 -0.016660375064566371 0 0.00045935718310910728 -0.016356058681136695 0 0.0015205025974821219 -0.017490467974770822 0 -0.00035292173467646481 -0.01337566104345107 0 -0.00018734332994828741 -0.013641003157418723 0 0.00016581230523711159 -0.013703740316526252 0 9.6851544268996095e-05 -0.014876530689233976 0 0.00073127877788856533 -0.015616660502547704 0 -0.00035292173467646481 -0.01337566104345107 0 -0.00018734332994828741 -0.013641003157418723 0 -0.00053073089457120431 -0.013569179447762009 0 -4.4384972215627835e-05 -0.013736052868741024 0 -0.00044078278276385219 -0.012946033619113465 0 2.4650756301857143e-06 -0.01392201003829717 0 -0.00028046479724304661 -0.01218560507860604 0 -0.0001770626646318277 -0.012930436325721821 0 -0.00018734332994828741 -0.013641003157418723 0 2.4650756301857143e-06 -0.01392201003829717 0 -0.00053073089457120431 -0.013569179447762009 0 -6.8959280969729377e-05 -0.013692213362194623 0 2.4650756301857143e-06 -0.01392201003829717 0 -0.0001770626646318277 -0.012930436325721821 0 -0.00018734332994828741 -0.013641003157418723 0 2.4650756301857143e-06 -0.01392201003829717 0 0.00016581230523711159 -0.013703740316526252 0 -6.8959280969729377e-05 -0.013692213362194623 0 -4.602756897291659e-08 -0.014232462159633969 0 -4.3264077042538511e-07 -0.012251115133047096 0 -6.8959280969729377e-05 -0.013692213362194623 0 0.00017067791670203071 -0.01490817066154845 0 -4.602756897291659e-08 -0.014232462159633969 0 0.00017067791670203071 -0.01490817066154845 0 -4.602756897291659e-08 -0.014232462159633969 0 1.2074065821991174e-06 -0.016214088865049582 0 -6.8959280969729377e-05 -0.013692213362194623 0 0.00017067791670203071 -0.01490817066154845 0 2.4650756301857143e-06 -0.01392201003829717 0 0.00017067791670203071 -0.01490817066154845 0 2.4650756301857143e-06 -0.01392201003829717 0 0.00016581230523711159 -0.013703740316526252 0 0.00017067791670203071 -0.01490817066154845 0 0.00016581230523711159 -0.013703740316526252 0 0.00046884488524680858 -0.016248767200253696 0 0.00073127877788856533 -0.015616660502547704 0 0.00049088770576343366 -0.016050362970391144 0 0.0015205025974821219 -0.017490467974770822 0 0.0010418109970728457 -0.017412716785071121 0 0.00046884488524680858 -0.016248767200253696 0 0.0010418109970728457 -0.017412716785071121 0 0.00071705866612928489 -0.017511461218846537 0 0.00046884488524680858 -0.016248767200253696 0 0.00017067791670203071 -0.01490817066154845 0 0.00046884488524680858 -0.016248767200253696 0 1.2074065821991174e-06 -0.016214088865049582 0 1.4450316824965656e-07 -0.018196421657843215 0 1.2074065821991174e-06 -0.016214088865049582 0 0.00023421088543392962 -0.017521929058867115 0 0.00046884488524680858 -0.016248767200253696 0 1.2074065821991174e-06 -0.016214088865049582 0 0.00023421088543392962 -0.017521929058867115 0 0.00071705866612928489 -0.017511461218846537 0 0.00046884488524680858 -0.016248767200253696 0 0.0005324243128466611 -0.018390143419603915 0 0.00046884488524680858 -0.016248767200253696 0 0.00023421088543392962 -0.017521929058867115 0 0.0005324243128466611 -0.018390143419603915 0 -0.00017193173276856263 -0.011858791949646641 0 6.3214895722772478e-05 -0.011663844084635016 0 -0.00025243859329821547 -0.011413246846160768 0 3.7913748876650885e-06 -0.012962190639146002 0 -0.00047840033380328745 -0.011980108955780848 0 -0.00029591279524158727 -0.012635276880005585 0 -0.00035091078464086309 -0.012328179688353848 0 -0.00031997811026521499 -0.012157790006431945 0 -0.00017193173276856263 -0.011858791949646641 0 -3.4870368790444712e-05 -0.01195826537685938 0 -0.00031997811026521499 -0.012157790006431945 0 -0.00017193173276856263 -0.011858791949646641 0 6.3214895722772478e-05 -0.011663844084635016 0 -3.4870368790444712e-05 -0.01195826537685938 0 6.3214895722772478e-05 -0.011663844084635016 0 0.00049527487385208756 -0.011200919516176114 0 0.00046132084496386839 -0.011709787521299848 0 6.3214895722772478e-05 -0.011663844084635016 0 0.00026963675399179567 -0.011907536544110867 0 0.00046132084496386839 -0.011709787521299848 0 6.3214895722772478e-05 -0.011663844084635016 0 0.00026963675399179567 -0.011907536544110867 0 -3.4870368790444712e-05 -0.01195826537685938 0 -0.00019109674923985787 -0.013141455819078766 0 -0.00029591279524158727 -0.012635276880005585 0 0.00013972565455375996 -0.013140106372849826 0 0.00026963675399179567 -0.011907536544110867 0 -3.4870368790444712e-05 -0.01195826537685938 0 0.000426036801086659 -0.012095597884987069 0 3.7913748876650885e-06 -0.012962190639146002 0 0.00057730755869111767 -0.0071646922884775806 0 -0.00019109674923985787 -0.013141455819078766 0 -0.00029591279524158727 -0.012635276880005585 0 -0.00035091078464086309 -0.012328179688353848 0 -0.00049172748996421207 -0.01336978280145535 0 -0.00019109674923985787 -0.013141455819078766 0 -0.00065273214360001095 -0.013304068726823817 0 -0.00015908257810873545 -0.013130660829504101 0 -0.00045921858890636585 -0.012845858931224797 0 -0.00049172748996421207 -0.01336978280145535 0 -0.00059379253421092354 -0.013385163911076789 0 -0.00065273214360001095 -0.013304068726823817 0 -0.00066002387813199586 -0.013339115148731026 0 -0.00059379253421092354 -0.013385163911076789 0 -0.0006337967813813683 -0.013345877756596552 0 -0.00059379253421092354 -0.013385163911076789 0 -0.0006337967813813683 -0.013345877756596552 0 -0.00065273214360001095 -0.013304068726823817 0 -0.0006337967813813683 -0.013345877756596552 0 -0.00065273214360001095 -0.013304068726823817 0 -0.00059558907535286999 -0.013381899134652835 0 -0.00066002387813199586 -0.013339115148731026 0 -0.0006337967813813683 -0.013345877756596552 0 -0.00059558907535286999 -0.013381899134652835 0 -0.00047908573414504757 -0.014152738127660056 0 9.6851544268996095e-05 -0.014876530689233976 0 -0.00040447663892884166 -0.014918093349231439 0 0.00063887309146158904 -0.01510375094030207 0 0.00045935718310910728 -0.016356058681136695 0 -0.00066002387813199586 -0.013339115148731026 0 -0.00035292173467646481 -0.01337566104345107 0 -0.00059558907535286999 -0.013381899134652835 0 -0.00035292173467646481 -0.01337566104345107 0 -0.00059558907535286999 -0.013381899134652835 0 -0.00053073089457120431 -0.013569179447762009 0 -0.00045921858890636585 -0.012845858931224797 0 -0.00044078278276385219 -0.012946033619113465 0 -0.00065273214360001095 -0.013304068726823817 0 -0.00059558907535286999 -0.013381899134652835 0 -0.00053073089457120431 -0.013569179447762009 0 -0.00035091078464086309 -0.012328179688353848 0 -0.00028046479724304661 -0.01218560507860604 0 -0.00031997811026521499 -0.012157790006431945 0 -0.00031997811026521499 -0.012157790006431945 0 -0.00029203334702169694 -0.011900898664292106 0 -0.00029555432497756277 -0.012140368319968294 0 -0.00028046479724304661 -0.01218560507860604 0 -0.00031997811026521499 -0.012157790006431945 0 -0.00029555432497756277 -0.012140368319968294 0 -0.00017193173276856263 -0.011858791949646641 0 -0.00031997811026521499 -0.012157790006431945 0 -0.00029203334702169694 -0.011900898664292106 0 -0.00029203334702169694 -0.011900898664292106 0 -0.00029555432497756277 -0.012140368319968294 0 -0.00025243859329821547 -0.011413246846160768 0 -0.00028046479724304661 -0.01218560507860604 0 -0.00029555432497756277 -0.012140368319968294 0 -0.0001770626646318277 -0.012930436325721821 0 -6.8959280969729377e-05 -0.013692213362194623 0 -0.0001770626646318277 -0.012930436325721821 0 -4.3264077042538511e-07 -0.012251115133047096 0 -0.00029555432497756277 -0.012140368319968294 0 -0.0001770626646318277 -0.012930436325721821 0 -4.3264077042538511e-07 -0.012251115133047096 0 -0.00029555432497756277 -0.012140368319968294 0 -4.3264077042538511e-07 -0.012251115133047096 0 -0.00025243859329821547 -0.011413246846160768 0 -4.3264077042538511e-07 -0.012251115133047096 0 -9.9199630227189474e-07 -0.010269665535321354 0 -0.00025243859329821547 -0.011413246846160768 0 -9.9199630227189474e-07 -0.010269665535321354 0 -0.00025243859329821547 -0.011413246846160768 0 1.736564948433293e-05 -0.010591149556440079 0 6.3214895722772478e-05 -0.011663844084635016 0 -0.00025243859329821547 -0.011413246846160768 0 1.736564948433293e-05 -0.010591149556440079 0 -0.00017193173276856263 -0.011858791949646641 0 -0.00029203334702169694 -0.011900898664292106 0 -0.00025243859329821547 -0.011413246846160768 0 6.3214895722772478e-05 -0.011663844084635016 0 1.736564948433293e-05 -0.010591149556440079 0 0.00079321492813605021 -0.010550983589958644 0 -0.00029481243805567884 -0.01236499605918355 0 0.00092611372902414986 -0.0083562028216430332 0 -9.9199630227189474e-07 -0.010269665535321354 0 1.736564948433293e-05 -0.010591149556440079 0 2.4997097847211553e-06 -0.0082913570418070778 0 2.0631643320649194e-08 -0.0082855926091823882 0 -9.9055274994128915e-05 -0.0077310738172914669 0 0.00022876380394493839 -0.0074611427936747696 0 1.736564948433293e-05 -0.010591149556440079 0 2.4997097847211553e-06 -0.0082913570418070778 0 0.00079321492813605021 -0.010550983589958644 0 1.5301557063279102e-07 -0.0082891816434558056 0 0.00092611372902414986 -0.0083562028216430332 0 0.0010249553577350136 -0.0062676560757280644 0 0.00092611372902414986 -0.0083562028216430332 0 2.0631643320649194e-08 -0.0082855926091823882 0 -7.5701132908578839e-10 -0.006685215188095792 0 -9.9055274994128915e-05 -0.0077310738172914669 0 9.6512623167927241e-08 -0.0066829608534678285 0 0.0010249553577350136 -0.0062676560757280644 0 3.5112878277812881e-06 -0.0066791402124276944 0 0.00076902464529539024 -0.0047220648112458446 0 0.0018217174038130373 -0.0051919363414378141 0 0.00076902464529539024 -0.0047220648112458446 0 0.0018217174038130373 -0.0051919363414378141 0 0.001683067922492999 -0.0040500464678700325 0 0.001683067922492999 -0.0040500464678700325 0 0.00062797292076357863 -0.0037905959336003653 0 0.0011673158418837612 -0.0033656296911076175 0 0.00076902464529539024 -0.0047220648112458446 0 0.001683067922492999 -0.0040500464678700325 0 0.00062797292076357863 -0.0037905959336003653 0 0.001683067922492999 -0.0040500464678700325 0 0.0016041883388207246 -0.003488629771755077 0 0.0011673158418837612 -0.0033656296911076175 0 0.001683067922492999 -0.0040500464678700325 0 0.0020198066555581029 -0.003327479288194486 0 0.0016041883388207246 -0.003488629771755077 0 0.00092611372902414986 -0.0083562028216430332 0 0.0014691039379354468 -0.0074041703687990502 0 0.001683067922492999 -0.0040500464678700325 0 0.0025502958582719211 -0.0042492141739742927 0 0.0020198066555581029 -0.003327479288194486 0 0.0018217174038130373 -0.0051919363414378141 0 0.001683067922492999 -0.0040500464678700325 0 0.0025502958582719211 -0.0042492141739742927 0 -1.1653862888963929e-06 -0.0046996766405464326 0 0.00011162519449951726 -0.0044867851562836103 0 -6.7969212532249543e-05 -0.0034233051711893875 0 3.5112878277812881e-06 -0.0066791402124276944 0 -1.1653862888963929e-06 -0.0046996766405464326 0 0.00011162519449951726 -0.0044867851562836103 0 3.5112878277812881e-06 -0.0066791402124276944 0 0.00076902464529539024 -0.0047220648112458446 0 0.00011162519449951726 -0.0044867851562836103 0 0.00011162519449951726 -0.0044867851562836103 0 0.00062797292076357863 -0.0037905959336003653 0 0.00021903912055467272 -0.0031446257770296302 0 0.00076902464529539024 -0.0047220648112458446 0 0.00011162519449951726 -0.0044867851562836103 0 0.00062797292076357863 -0.0037905959336003653 0 0.00011162519449951726 -0.0044867851562836103 0 -6.7969212532249543e-05 -0.0034233051711893875 0 0.00021903912055467272 -0.0031446257770296302 0 -6.7969212532249543e-05 -0.0034233051711893875 0 0.00021903912055467272 -0.0031446257770296302 0 -9.5297546795905232e-05 -0.002571133153192184 0 0.00021903912055467272 -0.0031446257770296302 0 0.00054185627391931525 -0.0026056645415940111 0 0.0001888056390498218 -0.0023567531094738788 0 0.00021903912055467272 -0.0031446257770296302 0 0.0001888056390498218 -0.0023567531094738788 0 -9.5297546795905232e-05 -0.002571133153192184 0 0.00062797292076357863 -0.0037905959336003653 0 0.00021903912055467272 -0.0031446257770296302 0 0.00060592505327577604 -0.003109256524219554 0 0.00021903912055467272 -0.0031446257770296302 0 0.00054185627391931525 -0.0026056645415940111 0 0.00060592505327577604 -0.003109256524219554 0 0.00060592505327577604 -0.003109256524219554 0 0.0011673158418837612 -0.0033656296911076175 0 0.0010039467516381438 -0.0028325767098383004 0 0.00062797292076357863 -0.0037905959336003653 0 0.00060592505327577604 -0.003109256524219554 0 0.0011673158418837612 -0.0033656296911076175 0 0.00054185627391931525 -0.0026056645415940111 0 0.00083095563863612855 -0.0023665136425222635 0 0.0010039467516381438 -0.0028325767098383004 0 0.00054185627391931525 -0.0026056645415940111 0 0.00060592505327577604 -0.003109256524219554 0 0.0010039467516381438 -0.0028325767098383004 0 0.00083095563863612855 -0.0023665136425222635 0 0.0004926407291859238 -0.0021172145180879389 0 0.0007918060761600501 -0.0018161020156849074 0 0.0004926407291859238 -0.0021172145180879389 0 0.0007918060761600501 -0.0018161020156849074 0 0.00039816343805749207 -0.0017193634461750934 0 0.00054185627391931525 -0.0026056645415940111 0 0.00083095563863612855 -0.0023665136425222635 0 0.0004926407291859238 -0.0021172145180879389 0 0.00054185627391931525 -0.0026056645415940111 0 0.0004926407291859238 -0.0021172145180879389 0 0.0001888056390498218 -0.0023567531094738788 0 0.0001888056390498218 -0.0023567531094738788 0 -4.7940420007356685e-05 -0.0019594373337599434 0 -9.5297546795905232e-05 -0.002571133153192184 0 0.0004926407291859238 -0.0021172145180879389 0 0.00022384924209934565 -0.001876548708526059 0 0.00039816343805749207 -0.0017193634461750934 0 0.0004926407291859238 -0.0021172145180879389 0 0.0001888056390498218 -0.0023567531094738788 0 0.00022384924209934565 -0.001876548708526059 0 0.0001888056390498218 -0.0023567531094738788 0 0.00022384924209934565 -0.001876548708526059 0 -4.7940420007356685e-05 -0.0019594373337599434 0 0.0025502958582719211 -0.0042492141739742927 0 0.0023227998585780532 -0.0031620676183731298 0 0.0020198066555581029 -0.003327479288194486 0 0.0021211584256862494 -0.0031312476605599151 0 0.0020198066555581029 -0.003327479288194486 0 0.0020463898259308988 -0.0030908360583638706 0 0.0021211584256862494 -0.0031312476605599151 0 0.0023227998585780532 -0.0031620676183731298 0 0.0020198066555581029 -0.003327479288194486 0 0.0021211584256862494 -0.0031312476605599151 0 0.0020463898259308988 -0.0030908360583638706 0 0.0021308295594068515 -0.0030622436197466664 0 0.0021211584256862494 -0.0031312476605599151 0 0.0023227998585780532 -0.0031620676183731298 0 0.0021308295594068515 -0.0030622436197466664 0 0.0020198066555581029 -0.003327479288194486 0 0.0016041883388207246 -0.003488629771755077 0 0.0014407997765969777 -0.0031197485066820378 0 0.0016041883388207246 -0.003488629771755077 0 0.0014407997765969777 -0.0031197485066820378 0 0.0011673158418837612 -0.0033656296911076175 0 0.0014407997765969777 -0.0031197485066820378 0 0.0011673158418837612 -0.0033656296911076175 0 0.0010039467516381438 -0.0028325767098383004 0 0.0014407997765969777 -0.0031197485066820378 0 0.0010039467516381438 -0.0028325767098383004 0 0.001458712172417088 -0.002583642599217166 0 0.00083095563863612855 -0.0023665136425222635 0 0.0010039467516381438 -0.0028325767098383004 0 0.001458712172417088 -0.002583642599217166 0 0.0020198066555581029 -0.003327479288194486 0 0.0014407997765969777 -0.0031197485066820378 0 0.001458712172417088 -0.002583642599217166 0 0.0020198066555581029 -0.003327479288194486 0 0.0019934620366538758 -0.0030562584340116565 0 0.0020463898259308988 -0.0030908360583638706 0 0.0020806424608507228 -0.0034058740957932359 0 0.0010783456363623451 -0.0023830297544365649 0 0.0010783456363623451 -0.0023830297544365649 0 0.0002875275775152176 -0.0013736025709348073 0 0.0020463898259308988 -0.0030908360583638706 0 0.0019954516495571447 -0.0030559423374521073 0 0.0021308295594068515 -0.0030622436197466664 0 0.00083095563863612855 -0.0023665136425222635 0 0.001458712172417088 -0.002583642599217166 0 0.0007918060761600501 -0.0018161020156849074 0 0.0019934620366538758 -0.0030562584340116565 0 0.0019954516495571447 -0.0030559423374521073 0 0.0019857122711249456 -0.0030663776894651893 0 4.7582192713038283e-05 -0.0013028146186880743 0 0.00011452184192122224 -0.0010840736934820969 0 -0.00010289274691309508 -0.0010923562773865801 0 0.0019934620366538758 -0.0030562584340116565 0 0.0020463898259308988 -0.0030908360583638706 0 0.0019954516495571447 -0.0030559423374521073 0 0.0010783456363623451 -0.0023830297544365649 0 0.00011595157058772736 -0.0019943557484110763 0 0.0023227998585780532 -0.0031620676183731298 0 0.0021308295594068515 -0.0030622436197466664 0 0.0022101784847503333 -0.0028982777686567501 0 0.0014691039379354468 -0.0074041703687990502 0 0.00057730755869111767 -0.0071646922884775806 0 0.0019954516495571447 -0.0030559423374521073 0 0.0019689333780104315 -0.0030789603718461693 0 0.0019857122711249456 -0.0030663776894651893 0 0.0029920051377778506 -0.0022562222242974656 0 0.00057730755869111767 -0.0071646922884775806 0 0.00026963675399179567 -0.011907536544110867 0 0.00046132084496386839 -0.011709787521299848 0 0.000426036801086659 -0.012095597884987069 0 0.0019954516495571447 -0.0030559423374521073 0 0.0021308295594068515 -0.0030622436197466664 0 0.0022101784847503333 -0.0028982777686567501 0 0.00057730755869111767 -0.0071646922884775806 0 0.00054263161936493728 -0.0065520408161930709 0 -0.00065032938446888875 -0.0029843379370458546 0 -0.00092613898561827684 -0.0029092609798913849 0 -0.00065769440444854563 -0.0021914832063145268 0 0.00057730755869111767 -0.0071646922884775806 0 0.00011595157058772736 -0.0019943557484110763 0 -0.00065101048820125583 -0.003042531367095958 0 -0.00065032938446888875 -0.0029843379370458546 0 -0.00092613898561827684 -0.0029092609798913849 0 -0.00025045077106675021 -0.00092302733240614242 0 -0.00032674935977155498 -0.0010786514740508963 0 -0.00021161256348795928 -0.0010275228919969185 0 0.00011595157058772736 -0.0019943557484110763 0 -0.00058212343963545991 -0.0016418547198733527 0 -0.00025045077106675021 -0.00092302733240614242 0 -0.00021161256348795928 -0.0010275228919969185 0 -0.0001150914057005747 -0.00099482811306540438 0 0.00011452184192122224 -0.0010840736934820969 0 -0.0001150914057005747 -0.00099482811306540438 0 -0.00010289274691309508 -0.0010923562773865801 0 0.00011595157058772736 -0.0019943557484110763 0 -0.00025598761942953691 -0.00072488325866480199 0 -0.0001150914057005747 -0.00099482811306540438 0 -0.00010289274691309508 -0.0010923562773865801 0 -0.00011294047012855886 -0.00097631070074975356 0 0.0002875275775152176 -0.0013736025709348073 0 0.00014311464337890295 -0.0011856713241655348 0 0.0007918060761600501 -0.0018161020156849074 0 0.00039816343805749207 -0.0017193634461750934 0 0.00036265109210086282 -0.0013377444845610565 0 0.00022384924209934565 -0.001876548708526059 0 0.00016788310577572883 -0.001526622187556548 0 -4.7940420007356685e-05 -0.0019594373337599434 0 0.00022384924209934565 -0.001876548708526059 0 0.00039816343805749207 -0.0017193634461750934 0 0.00016788310577572883 -0.001526622187556548 0 0.00039816343805749207 -0.0017193634461750934 0 0.00016788310577572883 -0.001526622187556548 0 0.00036265109210086282 -0.0013377444845610565 0 0.00036265109210086282 -0.0013377444845610565 0 3.4316437373289478e-06 -0.0010227559370305577 0 4.6505888885974127e-05 -0.0012964448027324275 0 -0.00011294047012855886 -0.00097631070074975356 0 -0.00012474562500606909 -0.0010234985992357199 0 3.4316437373289478e-06 -0.0010227559370305577 0 0.00014311464337890295 -0.0011856713241655348 0 1.278888114174979e-05 -0.0010292717830145037 0 0.00016788310577572883 -0.001526622187556548 0 0.00036265109210086282 -0.0013377444845610565 0 4.6505888885974127e-05 -0.0012964448027324275 0 -0.0001150914057005747 -0.00099482811306540438 0 -0.00011294047012855886 -0.00097631070074975356 0 -0.00012474562500606909 -0.0010234985992357199 0 -0.00021161256348795928 -0.0010275228919969185 0 -0.0001150914057005747 -0.00099482811306540438 0 -0.00012474562500606909 -0.0010234985992357199 0 -0.00012474562500606909 -0.0010234985992357199 0 -0.00019248740409111273 -0.001093659244154569 0 -8.7129909587149279e-05 -0.0010367933423824503 0 -0.00021161256348795928 -0.0010275228919969185 0 -0.00012474562500606909 -0.0010234985992357199 0 -0.00019248740409111273 -0.001093659244154569 0 -0.00012474562500606909 -0.0010234985992357199 0 -8.7129909587149279e-05 -0.0010367933423824503 0 3.4316437373289478e-06 -0.0010227559370305577 0 -0.00011247623071966094 -0.0010710625378529922 0 -8.7129909587149279e-05 -0.0010367933423824503 0 -6.6824234182913075e-05 -0.00093916417342968656 0 -8.7129909587149279e-05 -0.0010367933423824503 0 -6.6824234182913075e-05 -0.00093916417342968656 0 3.4316437373289478e-06 -0.0010227559370305577 0 -0.00011247623071966094 -0.0010710625378529922 0 -0.00019248740409111273 -0.001093659244154569 0 -8.7129909587149279e-05 -0.0010367933423824503 0 -0.00034326662156126709 -0.0011497000358165503 0 -0.00019248740409111273 -0.001093659244154569 0 -0.00028282849158566101 -0.0012050342386326167 0 -0.00032743966952651724 -0.0012263092824023501 0 -0.00034326662156126709 -0.0011497000358165503 0 -0.00028282849158566101 -0.0012050342386326167 0 -0.00032743966952651724 -0.0012263092824023501 0 -0.00032889385048687426 -0.0014059250185269121 0 -0.00028282849158566101 -0.0012050342386326167 0 -0.00032889385048687426 -0.0014059250185269121 0 -0.00032674935977155498 -0.0010786514740508963 0 -0.00028282849158566101 -0.0012050342386326167 0 -0.00032674935977155498 -0.0010786514740508963 0 -0.00021161256348795928 -0.0010275228919969185 0 -0.00028282849158566101 -0.0012050342386326167 0 -0.00021161256348795928 -0.0010275228919969185 0 -0.00019248740409111273 -0.001093659244154569 0 -0.00028282849158566101 -0.0012050342386326167 0 -0.00016939966241836258 -0.00090299465895599422 0 -0.00019942383388244904 -0.00075293751300775636 0 -0.00011169055362524569 -0.0009093719438033925 0 -0.00016939966241836258 -0.00090299465895599422 0 -0.00024610851747955962 -0.00062029435341900713 0 -0.00019942383388244904 -0.00075293751300775636 0 -0.00016939966241836258 -0.00090299465895599422 0 -0.00024610851747955962 -0.00062029435341900713 0 -0.00020475980950711002 -0.0010501848299260036 0 -0.00024610851747955962 -0.00062029435341900713 0 -0.00042139002255575842 -0.00038436662978365358 0 -0.00030869108293271515 -0.00038645969339031903 0 -0.00024610851747955962 -0.00062029435341900713 0 -0.00020475980950711002 -0.0010501848299260036 0 -0.0002533123381168795 -0.00086031696745421111 0 -0.00024610851747955962 -0.00062029435341900713 0 -0.0002533123381168795 -0.00086031696745421111 0 -0.00042139002255575842 -0.00038436662978365358 0 -0.00027840149902820619 -0.00056678459980188099 0 -0.00024610851747955962 -0.00062029435341900713 0 -0.00021870577005987234 -0.00069042405978479856 0 -0.00027840149902820619 -0.00056678459980188099 0 -0.00024610851747955962 -0.00062029435341900713 0 -0.00030869108293271515 -0.00038645969339031903 0 -0.00024610851747955962 -0.00062029435341900713 0 -0.00021870577005987234 -0.00069042405978479856 0 -0.00019942383388244904 -0.00075293751300775636 0 -0.00016718327365200939 -0.00075944625178667169 0 -0.00021870577005987234 -0.00069042405978479856 0 -0.00014604332799351413 -0.00080952436723815552 0 -0.00021870577005987234 -0.00069042405978479856 0 -0.00019942383388244904 -0.00075293751300775636 0 -0.00014604332799351413 -0.00080952436723815552 0 -0.00019942383388244904 -0.00075293751300775636 0 -0.00014604332799351413 -0.00080952436723815552 0 -0.00011169055362524569 -0.0009093719438033925 0 -0.00014604332799351413 -0.00080952436723815552 0 -6.6824234182913075e-05 -0.00093916417342968656 0 -0.00011169055362524569 -0.0009093719438033925 0 3.4316437373289478e-06 -0.0010227559370305577 0 -0.00011169055362524569 -0.0009093719438033925 0 -9.4846036955079967e-05 -0.0011193271181760332 0 -6.6824234182913075e-05 -0.00093916417342968656 0 3.4316437373289478e-06 -0.0010227559370305577 0 -0.00011169055362524569 -0.0009093719438033925 0 -0.00016939966241836258 -0.00090299465895599422 0 -0.00011169055362524569 -0.0009093719438033925 0 -9.4846036955079967e-05 -0.0011193271181760332 0 -9.4846036955079967e-05 -0.0011193271181760332 0 -0.00019505196029684415 -0.0012964959621907884 0 -7.7599474174443295e-05 -0.0015397349381606651 0 -0.00016939966241836258 -0.00090299465895599422 0 -9.4846036955079967e-05 -0.0011193271181760332 0 -0.00019505196029684415 -0.0012964959621907884 0 -9.4846036955079967e-05 -0.0011193271181760332 0 4.6505888885974127e-05 -0.0012964448027324275 0 -7.7599474174443295e-05 -0.0015397349381606651 0 3.4316437373289478e-06 -0.0010227559370305577 0 -9.4846036955079967e-05 -0.0011193271181760332 0 4.6505888885974127e-05 -0.0012964448027324275 0 0.00016788310577572883 -0.001526622187556548 0 -7.7599474174443295e-05 -0.0015397349381606651 0 -4.7940420007356685e-05 -0.0019594373337599434 0 0.00016788310577572883 -0.001526622187556548 0 4.6505888885974127e-05 -0.0012964448027324275 0 -7.7599474174443295e-05 -0.0015397349381606651 0 -7.7599474174443295e-05 -0.0015397349381606651 0 -4.7940420007356685e-05 -0.0019594373337599434 0 -0.00019245547166221212 -0.0017146150289744921 0 -0.00019505196029684415 -0.0012964959621907884 0 -0.00027655609615466286 -0.0016647795232969176 0 -0.00019245547166221212 -0.0017146150289744921 0 -0.00019505196029684415 -0.0012964959621907884 0 -7.7599474174443295e-05 -0.0015397349381606651 0 -0.00019245547166221212 -0.0017146150289744921 0 -0.00019505196029684415 -0.0012964959621907884 0 -0.00027446243686957903 -0.0014780102507188832 0 -0.00025305516783877713 -0.0012221021726012216 0 -0.00019505196029684415 -0.0012964959621907884 0 -0.00027446243686957903 -0.0014780102507188832 0 -0.00027655609615466286 -0.0016647795232969176 0 -0.00016939966241836258 -0.00090299465895599422 0 -0.00019505196029684415 -0.0012964959621907884 0 -0.00020475980950711002 -0.0010501848299260036 0 -0.00019505196029684415 -0.0012964959621907884 0 -0.00020475980950711002 -0.0010501848299260036 0 -0.00025305516783877713 -0.0012221021726012216 0 -0.00020475980950711002 -0.0010501848299260036 0 -0.0002533123381168795 -0.00086031696745421111 0 -0.00025305516783877713 -0.0012221021726012216 0 -0.00025305516783877713 -0.0012221021726012216 0 -0.00030950970864769209 -0.001074304577439186 0 -0.0002967166965152278 -0.001369338737165974 0 -0.0002533123381168795 -0.00086031696745421111 0 -0.00025305516783877713 -0.0012221021726012216 0 -0.00030950970864769209 -0.001074304577439186 0 -0.00027446243686957903 -0.0014780102507188832 0 -0.00025305516783877713 -0.0012221021726012216 0 -0.0002967166965152278 -0.001369338737165974 0 -0.00027446243686957903 -0.0014780102507188832 0 -0.00027278180178765411 -0.0015274872300050496 0 -0.0002967166965152278 -0.001369338737165974 0 -0.00027278180178765411 -0.0015274872300050496 0 -0.00030369531401191379 -0.0016951162590333759 0 -0.00024627851875244178 -0.0015402118518441305 0 -0.00027446243686957903 -0.0014780102507188832 0 -0.00027278180178765411 -0.0015274872300050496 0 -0.00030369531401191379 -0.0016951162590333759 0 -0.00027446243686957903 -0.0014780102507188832 0 -0.00030369531401191379 -0.0016951162590333759 0 -0.00027655609615466286 -0.0016647795232969176 0 -0.00030369531401191379 -0.0016951162590333759 0 -0.00027655609615466286 -0.0016647795232969176 0 -0.00028819613055501521 -0.0020356455847421384 0 -0.00030369531401191379 -0.0016951162590333759 0 -0.00028819613055501521 -0.0020356455847421384 0 -0.00031857473389630182 -0.0017299092847702861 0 -0.00030369531401191379 -0.0016951162590333759 0 -0.00024627851875244178 -0.0015402118518441305 0 -0.00031857473389630182 -0.0017299092847702861 0 -0.00024627851875244178 -0.0015402118518441305 0 -0.00014206098286281536 -0.0012872510355436469 0 -0.00031857473389630182 -0.0017299092847702861 0 -0.00027655609615466286 -0.0016647795232969176 0 -0.00019245547166221212 -0.0017146150289744921 0 -0.00028819613055501521 -0.0020356455847421384 0 -4.7940420007356685e-05 -0.0019594373337599434 0 -0.00019245547166221212 -0.0017146150289744921 0 -0.00028819613055501521 -0.0020356455847421384 0 -0.00028819613055501521 -0.0020356455847421384 0 -0.00026490261504099293 -0.0025638756403299906 0 -0.00031857473389630182 -0.0017299092847702861 0 -0.00028819613055501521 -0.0020356455847421384 0 -9.5297546795905232e-05 -0.002571133153192184 0 -0.00026490261504099293 -0.0025638756403299906 0 -4.7940420007356685e-05 -0.0019594373337599434 0 -0.00028819613055501521 -0.0020356455847421384 0 -9.5297546795905232e-05 -0.002571133153192184 0 -6.7969212532249543e-05 -0.0034233051711893875 0 -9.5297546795905232e-05 -0.002571133153192184 0 -0.00026490261504099293 -0.0025638756403299906 0 -6.7969212532249543e-05 -0.0034233051711893875 0 -0.00026490261504099293 -0.0025638756403299906 0 -0.00015187367835160112 -0.0033535404364842297 0 -0.00026490261504099293 -0.0025638756403299906 0 -3.3358298002306218e-07 -0.0027165406672231612 0 -0.00015187367835160112 -0.0033535404364842297 0 -0.00026490261504099293 -0.0025638756403299906 0 -3.3358298002306218e-07 -0.0027165406672231612 0 -0.00022200655718566733 -0.0017503405962217178 0 -1.1653862888963929e-06 -0.0046996766405464326 0 -6.7969212532249543e-05 -0.0034233051711893875 0 -0.00015187367835160112 -0.0033535404364842297 0 -1.1653862888963929e-06 -0.0046996766405464326 0 -3.3358298002306218e-07 -0.0027165406672231612 0 -0.00015187367835160112 -0.0033535404364842297 0 -0.00014206098286281536 -0.0012872510355436469 0 -0.00031857473389630182 -0.0017299092847702861 0 -0.00016864044369167881 -0.00091145260847461617 0 -0.00031857473389630182 -0.0017299092847702861 0 -0.00022200655718566733 -0.0017503405962217178 0 -0.00016864044369167881 -0.00091145260847461617 0 -0.00026490261504099293 -0.0025638756403299906 0 -0.00031857473389630182 -0.0017299092847702861 0 -0.00022200655718566733 -0.0017503405962217178 0 -3.3358298002306218e-07 -0.0027165406672231612 0 -0.00022200655718566733 -0.0017503405962217178 0 -6.8297861098773399e-07 -0.00073487148489674787 0 -0.00022200655718566733 -0.0017503405962217178 0 -0.00016864044369167881 -0.00091145260847461617 0 -6.8297861098773399e-07 -0.00073487148489674787 0 -0.00016864044369167881 -0.00091145260847461617 0 -6.8297861098773399e-07 -0.00073487148489674787 0 4.068086107385335e-05 0.00017157229907855163 0 -0.00016864044369167881 -0.00091145260847461617 0 4.068086107385335e-05 0.00017157229907855163 0 8.7051618264570674e-05 -0.00092229506086589019 0 -6.8297861098773399e-07 -0.00073487148489674787 0 4.068086107385335e-05 0.00017157229907855163 0 6.4804107624487046e-07 0.0012487752015213501 0 -0.00014206098286281536 -0.0012872510355436469 0 8.7051618264570674e-05 -0.00092229506086589019 0 -7.2918904309406324e-05 -0.0013610195205278636 0 -0.00014206098286281536 -0.0012872510355436469 0 -0.00016864044369167881 -0.00091145260847461617 0 8.7051618264570674e-05 -0.00092229506086589019 0 8.7051618264570674e-05 -0.00092229506086589019 0 0.00020522300937543959 -0.0011214258907826197 0 -7.2918904309406324e-05 -0.0013610195205278636 0 8.7051618264570674e-05 -0.00092229506086589019 0 0.00020522300937543959 -0.0011214258907826197 0 0.00041080286690413934 -0.00083668080701532199 0 4.1788715615285481e-05 0.0028402357890864966 0 6.4804107624487046e-07 0.0012487752015213501 0 1.3336160819625844e-07 0.0032326099104664757 0 -7.4501800432998837e-05 0.00045445827205048932 0 0.00011179301511514368 0.00078139451591857092 0 4.068086107385335e-05 0.00017157229907855163 0 4.1788715615285481e-05 0.0028402357890864966 0 6.4804107624487046e-07 0.0012487752015213501 0 4.068086107385335e-05 0.00017157229907855163 0 8.7051618264570674e-05 -0.00092229506086589019 0 0.00041080286690413934 -0.00083668080701532199 0 4.1788715615285481e-05 0.0028402357890864966 0 1.3336160819625844e-07 0.0032326099104664757 0 8.9124542830880895e-05 0.0037415257275358656 0 1.3336160819625844e-07 0.0032326099104664757 0 0.0003859664001459497 0.0048237613680456445 0 4.657127085899597e-07 0.0052150144017993729 0 1.3336160819625844e-07 0.0032326099104664757 0 8.9124542830880895e-05 0.0037415257275358656 0 0.0003859664001459497 0.0048237613680456445 0 0.00078974093618201921 0.005076513055707773 0 0.00069835695981889572 0.0031637070440137171 0 8.9124542830880895e-05 0.0037415257275358656 0 0.0003859664001459497 0.0048237613680456445 0 0.00015698301769367384 0.0039034818650577402 0 4.1788715615285481e-05 0.0028402357890864966 0 8.9124542830880895e-05 0.0037415257275358656 0 0.00015698301769367384 0.0039034818650577402 0 0.00041080286690413934 -0.00083668080701532199 0 0.00055534711725883923 -0.0010006904586039478 0 0.00038270271390367582 -0.0011763538268642051 0 0.00011179301511514368 0.00078139451591857092 0 0.00069835695981889572 0.0031637070440137171 0 0.00020522300937543959 -0.0011214258907826197 0 0.00041080286690413934 -0.00083668080701532199 0 0.00038270271390367582 -0.0011763538268642051 0 0.00044226735431348658 -0.0012123815073919828 0 0.00038270271390367582 -0.0011763538268642051 0 0.00010498976592229847 -0.0013227812079412637 0 0.00020522300937543959 -0.0011214258907826197 0 0.00038270271390367582 -0.0011763538268642051 0 0.00010498976592229847 -0.0013227812079412637 0 0.00055534711725883923 -0.0010006904586039478 0 0.00043783420865713818 -0.0011947593665018296 0 0.00038270271390367582 -0.0011763538268642051 0 -3.0178496277558184e-05 0.0010202607026073398 0 0.00041989287403469331 0.00049866171220596626 0 0.00072869720771968351 0.0045013968209022199 0 0.00071314073494554552 0.0045609199861952679 0 0.00064031675182438317 0.0045827262119083438 0 -3.0178496277558184e-05 0.0010202607026073398 0 0.00022576608002692895 0.0028144166815483947 0 0.00076229683855182117 0.0045502236795591676 0 0.00071314073494554552 0.0045609199861952679 0 0.00068560681446999748 0.0046168136721337245 0 0.00069835695981889572 0.0031637070440137171 0 -3.0178496277558184e-05 0.0010202607026073398 0 0.00072869720771968351 0.0045013968209022199 0 0.00076229683855182117 0.0045502236795591676 0 0.00071314073494554552 0.0045609199861952679 0 -0.00029238389600663099 0.00080253780373903971 0 -0.00026272431159992808 0.00066252411207648129 0 -0.00018199343997332996 0.00076000326238321203 0 -0.00026272431159992808 0.00066252411207648129 0 -0.00018199343997332996 0.00076000326238321203 0 -0.00018198734027168143 0.00066105524439985487 0 -3.0178496277558184e-05 0.0010202607026073398 0 -0.00023645924354102286 -0.00060772724807042614 0 -0.00029238389600663099 0.00080253780373903971 0 -0.00026272431159992808 0.00066252411207648129 0 -0.00038277676917424549 0.00062987583313550179 0 0.00044226735431348658 -0.0012123815073919828 0 -1.7773808039262283e-06 -0.0014543076963358711 0 0.00010498976592229847 -0.0013227812079412637 0 -1.7773808039262283e-06 -0.0014543076963358711 0 -0.00017589196676996355 -0.0014504994049788634 0 0.00010498976592229847 -0.0013227812079412637 0 -0.00027278180178765411 -0.0015274872300050496 0 -0.00017589196676996355 -0.0014504994049788634 0 -0.0002967166965152278 -0.001369338737165974 0 -0.00027278180178765411 -0.0015274872300050496 0 -0.00017589196676996355 -0.0014504994049788634 0 -7.2918904309406324e-05 -0.0013610195205278636 0 -0.00024627851875244178 -0.0015402118518441305 0 -0.00014206098286281536 -0.0012872510355436469 0 -7.2918904309406324e-05 -0.0013610195205278636 0 -0.00027278180178765411 -0.0015274872300050496 0 -0.00024627851875244178 -0.0015402118518441305 0 -7.2918904309406324e-05 -0.0013610195205278636 0 0.00020522300937543959 -0.0011214258907826197 0 -7.2918904309406324e-05 -0.0013610195205278636 0 0.00010498976592229847 -0.0013227812079412637 0 -0.00017589196676996355 -0.0014504994049788634 0 -7.2918904309406324e-05 -0.0013610195205278636 0 0.00010498976592229847 -0.0013227812079412637 0 0.00013348249461026451 0.0084735663918471971 0 3.2519232693554778e-05 0.0086835873329476811 0 0.00016453884040779583 0.0090525501353744785 0 0.00013348249461026451 0.0084735663918471971 0 3.2519232693554778e-05 0.0086835873329476811 0 -8.7716166328593583e-06 0.0080018609861599761 0 3.2519232693554778e-05 0.0086835873329476811 0 -8.7716166328593583e-06 0.0080018609861599761 0 -3.0645632807048042e-07 0.0091799872884135731 0 -8.7716166328593583e-06 0.0080018609861599761 0 -1.3308904909397153e-07 0.0071980129926866206 0 -3.0645632807048042e-07 0.0091799872884135731 0 -8.7716166328593583e-06 0.0080018609861599761 0 -1.3308904909397153e-07 0.0071980129926866206 0 1.1209162541403987e-05 0.0069242972075556179 0 -8.7716166328593583e-06 0.0080018609861599761 0 4.9403514907902511e-05 0.007665996891964939 0 1.1209162541403987e-05 0.0069242972075556179 0 0.00013348249461026451 0.0084735663918471971 0 -8.7716166328593583e-06 0.0080018609861599761 0 4.9403514907902511e-05 0.007665996891964939 0 0.00013348249461026451 0.0084735663918471971 0 4.9403514907902511e-05 0.007665996891964939 0 0.00016601597369592778 0.0081277614921672313 0 4.9403514907902511e-05 0.007665996891964939 0 9.4583073794774733e-05 0.0073752150808984269 0 0.00016601597369592778 0.0081277614921672313 0 9.4583073794774733e-05 0.0073752150808984269 0 9.866539483342479e-05 0.0062048755048340802 0 0.00024486727834072396 0.0072873912452724541 0 9.4583073794774733e-05 0.0073752150808984269 0 1.1209162541403987e-05 0.0069242972075556179 0 9.866539483342479e-05 0.0062048755048340802 0 4.9403514907902511e-05 0.007665996891964939 0 9.4583073794774733e-05 0.0073752150808984269 0 1.1209162541403987e-05 0.0069242972075556179 0 -1.3308904909397153e-07 0.0071980129926866206 0 1.1209162541403987e-05 0.0069242972075556179 0 4.657127085899597e-07 0.0052150144017993729 0 1.1209162541403987e-05 0.0069242972075556179 0 4.657127085899597e-07 0.0052150144017993729 0 9.866539483342479e-05 0.0062048755048340802 0 0.0003859664001459497 0.0048237613680456445 0 4.657127085899597e-07 0.0052150144017993729 0 9.866539483342479e-05 0.0062048755048340802 0 0.00069835695981889572 0.0031637070440137171 0 0.00019128168946957972 0.0060216710844382499 0 0.0003859664001459497 0.0048237613680456445 0 9.866539483342479e-05 0.0062048755048340802 0 0.00024486727834072396 0.0072873912452724541 0 0.0003859664001459497 0.0048237613680456445 0 0.0012388875484929092 0.0059649651054744139 0 0.00024486727834072396 0.0072873912452724541 0 0.00071314073494554552 0.0045609199861952679 0 0.00064031675182438317 0.0045827262119083438 0 0.00068560681446999748 0.0046168136721337245 0 0.00064031675182438317 0.0045827262119083438 0 0.00068560681446999748 0.0046168136721337245 0 0.00061499306075244603 0.0046867700878398411 0 0.00022576608002692895 0.0028144166815483947 0 0.00011484044506654527 0.0025001733727254001 0 -0.00018199343997332996 0.00076000326238321203 0 -0.00010366420332440056 0.00077519204533487286 0 -0.00018198734027168143 0.00066105524439985487 0 0.00011484044506654527 0.0025001733727254001 0 0.0025035142098320628 0.0072251891866317456 0 0.00061499306075244603 0.0046867700878398411 0 0.00056301036060966102 0.0046663544629809471 0 0.00055178666217644147 0.004753997497011885 0 9.4583073794774733e-05 0.0073752150808984269 0 0.00024486727834072396 0.0072873912452724541 0 0.00022786563594880078 0.008146142945061113 0 0.00019128168946957972 0.0060216710844382499 0 0.0018283138260933988 0.008416344942454846 0 0.00064031675182438317 0.0045827262119083438 0 0.00061499306075244603 0.0046867700878398411 0 0.00056301036060966102 0.0046663544629809471 0 0.00024486727834072396 0.0072873912452724541 0 0.00022786563594880078 0.008146142945061113 0 0.00023993693569567017 0.0082825074232638195 0 9.4583073794774733e-05 0.0073752150808984269 0 0.00016601597369592778 0.0081277614921672313 0 0.00022786563594880078 0.008146142945061113 0 0.00016601597369592778 0.0081277614921672313 0 0.00026375803336845183 0.0084784311120575072 0 0.00022786563594880078 0.008146142945061113 0 0.00013348249461026451 0.0084735663918471971 0 0.00016601597369592778 0.0081277614921672313 0 0.00027974151408930451 0.0087590178404731295 0 0.00016601597369592778 0.0081277614921672313 0 0.00026375803336845183 0.0084784311120575072 0 0.00027974151408930451 0.0087590178404731295 0 0.00026375803336845183 0.0084784311120575072 0 0.00022786563594880078 0.008146142945061113 0 0.00029663551017668178 0.0083985453222919296 0 0.0015369179766059869 0.0084774069846789684 0 0.0018283138260933988 0.008416344942454846 0 0.00026375803336845183 0.0084784311120575072 0 0.00029663551017668178 0.0083985453222919296 0 0.0004911075794725554 0.0094712210692166551 0 0.0045648734741277029 0.011182913262087967 0 0.0036077150279286247 0.011677877458842068 0 0.0043100900233990509 0.012117534184840593 0 0.0018283138260933988 0.008416344942454846 0 0.0025035142098320628 0.0072251891866317456 0 0.0018283138260933988 0.008416344942454846 0 0.0020305016447700265 0.010710847210508424 0 0.0036077150279286247 0.011677877458842068 0 0.0033803631439783635 0.012206734606972209 0 0.0025355064906362463 0.012174265372333697 0 0.0036077150279286247 0.011677877458842068 0 0.0033803631439783635 0.012206734606972209 0 0.0043100900233990509 0.012117534184840593 0 0.0004911075794725554 0.0094712210692166551 0 0.00035816089203702254 0.0092509263807639582 0 0.00054192995414745551 0.010018311086075166 0 0.0004911075794725554 0.0094712210692166551 0 0.00035816089203702254 0.0092509263807639582 0 0.00027974151408930451 0.0087590178404731295 0 0.00026375803336845183 0.0084784311120575072 0 0.0004911075794725554 0.0094712210692166551 0 0.00027974151408930451 0.0087590178404731295 0 0.00013348249461026451 0.0084735663918471971 0 0.00035816089203702254 0.0092509263807639582 0 0.00027974151408930451 0.0087590178404731295 0 0.00013348249461026451 0.0084735663918471971 0 0.00035816089203702254 0.0092509263807639582 0 0.00016453884040779583 0.0090525501353744785 0 0.0037013313282652023 0.014040083101583297 0 0.0047404370746501326 0.015366364666871784 0 0.0025210367214771024 0.014912320784452341 0 0.0017515548013685974 0.0096979014720505342 0 0.0010467243205331306 0.015492229358595965 0 0.0037013313282652023 0.014040083101583297 0 0.0049010029422432181 0.014810369222215163 0 0.0047404370746501326 0.015366364666871784 0 0.0023691293907841708 0.0079957627122333452 0 0.0017515548013685974 0.0096979014720505342 0 0.0041768114008615027 0.013887429373737718 0 0.0023691293907841708 0.0079957627122333452 0 0.0036121233785938291 0.013653229795227314 0 0.0025035142098320628 0.0072251891866317456 0 0.0032653998538091956 0.012934574184188632 0 0.0045082040595742189 0.011795840077279117 0 0.0040805024091259351 0.013311363448279075 0 0.0032653998538091956 0.012934574184188632 0 0.0031560212408731484 0.012689863171276827 0 0.0045082040595742189 0.011795840077279117 0 0.0031560212408731484 0.012689863171276827 0 0.0033803631439783635 0.012206734606972209 0 0.0043100900233990509 0.012117534184840593 0 0.0031560212408731484 0.012689863171276827 0 0.0033803631439783635 0.012206734606972209 0 0.0028586862936403135 0.012527067301093701 0 -2.9844009004834378e-05 0.00086549975151471845 0 3.4146108275772525e-05 0.0007686905806017682 0 -5.5442265134153031e-05 0.00072992377263025952 0 0.0025035142098320628 0.0072251891866317456 0 0.0023691293907841708 0.0079957627122333452 0 3.4146108275772525e-05 0.0007686905806017682 0 -5.5442265134153031e-05 0.00072992377263025952 0 -5.9398968757539875e-05 0.00056247497413131737 0 -0.00014157425007219464 0.00062731140210128746 0 -0.00020375593360871807 0.00050392032884204489 0 -5.9398968757539875e-05 0.00056247497413131737 0 -5.5442265134153031e-05 0.00072992377263025952 0 -0.00014157425007219464 0.00062731140210128746 0 -5.9398968757539875e-05 0.00056247497413131737 0 -0.00010366420332440056 0.00077519204533487286 0 -2.9844009004834378e-05 0.00086549975151471845 0 -0.00010477460018222999 0.00073114291967854182 0 -5.5442265134153031e-05 0.00072992377263025952 0 -0.00010477460018222999 0.00073114291967854182 0 -0.00014157425007219464 0.00062731140210128746 0 -2.9844009004834378e-05 0.00086549975151471845 0 -5.5442265134153031e-05 0.00072992377263025952 0 -0.00010477460018222999 0.00073114291967854182 0 -0.00018198734027168143 0.00066105524439985487 0 -0.0002096230360328217 0.00054741182078339625 0 -0.00014157425007219464 0.00062731140210128746 0 -0.00010477460018222999 0.00073114291967854182 0 -0.00018198734027168143 0.00066105524439985487 0 -0.00014157425007219464 0.00062731140210128746 0 -0.00010366420332440056 0.00077519204533487286 0 -0.00010477460018222999 0.00073114291967854182 0 -0.00018198734027168143 0.00066105524439985487 0 -0.0002096230360328217 0.00054741182078339625 0 -0.00020375593360871807 0.00050392032884204489 0 -0.00027447179901492197 0.00041625087723824906 0 -0.0002096230360328217 0.00054741182078339625 0 -0.00014157425007219464 0.00062731140210128746 0 -0.00020375593360871807 0.00050392032884204489 0 -0.00020375593360871807 0.00050392032884204489 0 -0.00020072827940756296 0.00041912281340341284 0 -5.9398968757539875e-05 0.00056247497413131737 0 -0.0010130526341568359 0.00036065169971500536 0 -0.0010727034839697737 0.00049535976486198528 0 -0.0013617202563277486 0.00030866757035582072 0 -0.00020375593360871807 0.00050392032884204489 0 -0.00020072827940756296 0.00041912281340341284 0 -0.00026402544714694228 0.00042976788568644878 0 -0.00052199737140481268 0.0015037056850705701 0 -0.00049688850463393101 0.0011220918689789686 0 -0.0010727034839697737 0.00049535976486198528 0 -0.00072833957330201442 0.00053899223227321278 0 -0.00048044274879844765 0.00098299213218631704 0 -0.00019331690685216245 0.0024816987753987704 0 -0.00048044274879844765 0.00098299213218631704 0 -0.00016736273787636111 0.001484873360100685 0 -0.0010130526341568359 0.00036065169971500536 0 -0.0010727034839697737 0.00049535976486198528 0 -0.00072833957330201442 0.00053899223227321278 0 -0.00019331690685216245 0.0024816987753987704 0 0.00021087180411651408 0.0020752386348431872 0 -0.00016736273787636111 0.001484873360100685 0 0.00021087180411651408 0.0020752386348431872 0 0.00049382999009862645 0.003696985798171628 0 0.00073177857866515679 0.0024449258592246386 0 -0.00019331690685216245 0.0024816987753987704 0 0.00021087180411651408 0.0020752386348431872 0 0.00049382999009862645 0.003696985798171628 0 -0.00052199737140481268 0.0015037056850705701 0 -0.00069657692551110728 0.0021054578451870009 0 -0.00065866521973014533 0.00026074373544588688 0 -0.00069657692551110728 0.0021054578451870009 0 0.0025851266314955794 0.0076392926751370329 0 -0.0014642387438758787 0.0049281004274688974 0 0.0030207677012513336 0.0061911550365929199 0 0.00049382999009862645 0.003696985798171628 0 0.0011426260453910064 0.0033895541908182196 0 0.0014470215706673417 0.0045319422167191233 0 -0.00069657692551110728 0.0021054578451870009 0 0.0017515548013685974 0.0096979014720505342 0 0.0023691293907841708 0.0079957627122333452 0 -0.00069657692551110728 0.0021054578451870009 0 0.0011426260453910064 0.0033895541908182196 0 0.00073177857866515679 0.0024449258592246386 0 0.0013220776084044697 0.0019646457744531575 0 0.00049382999009862645 0.003696985798171628 0 0.0011426260453910064 0.0033895541908182196 0 0.00073177857866515679 0.0024449258592246386 0 0.0011426260453910064 0.0033895541908182196 0 0.0018252589028044763 0.0030998322034461638 0 0.0013220776084044697 0.0019646457744531575 0 0.0011426260453910064 0.0033895541908182196 0 0.0018252589028044763 0.0030998322034461638 0 0.0014470215706673417 0.0045319422167191233 0 -5.1121998250352782e-05 0.0078645946004870029 0 0.0017515548013685974 0.0096979014720505342 0 -0.00156888487874139 0.012568625476467771 0 -0.001888294198615789 0.013923761141735075 0 -0.00098305203308200425 0.013734022889993714 0 -0.001888294198615789 0.013923761141735075 0 -0.00098305203308200425 0.013734022889993714 0 -0.00050525361863554112 0.014962231996037757 0 -0.00045717999303070378 0.00034587185221630673 0 -0.00032926803005810202 0.00021645497658622024 0 -0.0003277330839517733 0.00044963548012371838 0 -0.00045717999303070378 0.00034587185221630673 0 -0.00032926803005810202 0.00021645497658622024 0 -0.00036007012589939474 -6.0684468804473788e-05 0 -0.00044472307829782488 -0.0012935762544605512 0 -0.00030950970864769209 -0.001074304577439186 0 -0.0002967166965152278 -0.001369338737165974 0 -0.0002533123381168795 -0.00086031696745421111 0 -0.00030950970864769209 -0.001074304577439186 0 -0.00042139002255575842 -0.00038436662978365358 0 -0.00044472307829782488 -0.0012935762544605512 0 -0.00030950970864769209 -0.001074304577439186 0 -0.00042139002255575842 -0.00038436662978365358 0 -0.00039284917301326638 -0.00039850745865666108 0 -0.00040972844180010159 -0.00036990757476419836 0 -0.00017589196676996355 -0.0014504994049788634 0 -0.00044472307829782488 -0.0012935762544605512 0 -0.0002967166965152278 -0.001369338737165974 0 -0.00038277676917424549 0.00062987583313550179 0 -0.00045717999303070378 0.00034587185221630673 0 -0.0003277330839517733 0.00044963548012371838 0 -1.7773808039262283e-06 -0.0014543076963358711 0 -0.00017589196676996355 -0.0014504994049788634 0 -0.00044472307829782488 -0.0012935762544605512 0 -0.00023645924354102286 -0.00060772724807042614 0 -0.00039284917301326638 -0.00039850745865666108 0 -0.00026272431159992808 0.00066252411207648129 0 -0.0003277330839517733 0.00044963548012371838 0 -0.00025575835116287333 0.0004993687210699219 0 -0.00026272431159992808 0.00066252411207648129 0 -0.00038277676917424549 0.00062987583313550179 0 -0.0003277330839517733 0.00044963548012371838 0 -0.00018198734027168143 0.00066105524439985487 0 -0.0002096230360328217 0.00054741182078339625 0 -0.00025575835116287333 0.0004993687210699219 0 -0.00026272431159992808 0.00066252411207648129 0 -0.00018198734027168143 0.00066105524439985487 0 -0.00025575835116287333 0.0004993687210699219 0 -0.00025575835116287333 0.0004993687210699219 0 -0.00030763641438473878 0.00032152534583664672 0 -0.00027447179901492197 0.00041625087723824906 0 -0.0002096230360328217 0.00054741182078339625 0 -0.00025575835116287333 0.0004993687210699219 0 -0.00027447179901492197 0.00041625087723824906 0 -0.00032926803005810202 0.00021645497658622024 0 -0.0003277330839517733 0.00044963548012371838 0 -0.00030763641438473878 0.00032152534583664672 0 -0.0003277330839517733 0.00044963548012371838 0 -0.00025575835116287333 0.0004993687210699219 0 -0.00030763641438473878 0.00032152534583664672 0 -0.00032926803005810202 0.00021645497658622024 0 -0.00030763641438473878 0.00032152534583664672 0 -0.0003179119767064484 0.00023816215335617294 0 -0.00030763641438473878 0.00032152534583664672 0 -0.00031448262041988852 0.00034087493887366633 0 -0.0003179119767064484 0.00023816215335617294 0 -0.00031448262041988852 0.00034087493887366633 0 -0.0003179119767064484 0.00023816215335617294 0 -0.00035741786678387515 0.00040727927103042936 0 -0.00065866521973014533 0.00026074373544588688 0 -0.00033824796583466064 0.00044069139552891772 0 -0.00020072827940756296 0.00041912281340341284 0 -0.00026402544714694228 0.00042976788568644878 0 -0.00035741786678387515 0.00040727927103042936 0 -0.00027447179901492197 0.00041625087723824906 0 -0.00026402544714694228 0.00042976788568644878 0 -0.00035741786678387515 0.00040727927103042936 0 -0.00031448262041988852 0.00034087493887366633 0 -0.00027447179901492197 0.00041625087723824906 0 -0.00035741786678387515 0.00040727927103042936 0 -0.00020375593360871807 0.00050392032884204489 0 -0.00027447179901492197 0.00041625087723824906 0 -0.00026402544714694228 0.00042976788568644878 0 -0.00030763641438473878 0.00032152534583664672 0 -0.00031448262041988852 0.00034087493887366633 0 -0.00027447179901492197 0.00041625087723824906 0 -0.0010130526341568359 0.00036065169971500536 0 -0.00072833957330201442 0.00053899223227321278 0 -0.00035741786678387515 0.00040727927103042936 0 -0.00072833957330201442 0.00053899223227321278 0 -0.00035741786678387515 0.00040727927103042936 0 -0.00048044274879844765 0.00098299213218631704 0 -0.00035741786678387515 0.00040727927103042936 0 -0.00048044274879844765 0.00098299213218631704 0 -0.00033186453380633265 0.0005801023314648678 0 -0.0003179119767064484 0.00023816215335617294 0 -0.00033186453380633265 0.0005801023314648678 0 -0.00032463380173692306 0.00041532702115521826 0 -0.0003179119767064484 0.00023816215335617294 0 -0.00035741786678387515 0.00040727927103042936 0 -0.00033186453380633265 0.0005801023314648678 0 -0.00033024095292954461 0.00013083476874951435 0 -0.00030809318918939967 0.00025104048656491337 0 -0.00032463380173692306 0.00041532702115521826 0 -0.0003179119767064484 0.00023816215335617294 0 -0.00033024095292954461 0.00013083476874951435 0 -0.00032463380173692306 0.00041532702115521826 0 -0.00033024095292954461 0.00013083476874951435 0 -0.00030732582926575134 -9.8932372509090232e-05 0 -0.00030809318918939967 0.00025104048656491337 0 -0.00033024095292954461 0.00013083476874951435 0 -0.00036007012589939474 -6.0684468804473788e-05 0 -0.00030732582926575134 -9.8932372509090232e-05 0 -0.0003179119767064484 0.00023816215335617294 0 -0.00033024095292954461 0.00013083476874951435 0 -0.00036007012589939474 -6.0684468804473788e-05 0 -0.00032926803005810202 0.00021645497658622024 0 -0.0003179119767064484 0.00023816215335617294 0 -0.00036007012589939474 -6.0684468804473788e-05 0 -0.00045717999303070378 0.00034587185221630673 0 -0.00036007012589939474 -6.0684468804473788e-05 0 -0.00042139002255575842 -0.00038436662978365358 0 -0.00036007012589939474 -6.0684468804473788e-05 0 -0.00042139002255575842 -0.00038436662978365358 0 -0.00030732582926575134 -9.8932372509090232e-05 0 -0.00042139002255575842 -0.00038436662978365358 0 -0.00030869108293271515 -0.00038645969339031903 0 -0.00030732582926575134 -9.8932372509090232e-05 0 -0.00017933202558470418 0.00020458716043821428 0 -0.00030732582926575134 -9.8932372509090232e-05 0 -0.00024773332059226409 0.00020495227780591046 0 -0.00021617555033709245 -0.00016109495812490046 0 -0.00033380053694246167 -0.00015545200252826537 0 -0.00027840149902820619 -0.00056678459980188099 0 -0.00030869108293271515 -0.00038645969339031903 0 -0.00030732582926575134 -9.8932372509090232e-05 0 -0.00030732582926575134 -9.8932372509090232e-05 0 -0.00024773332059226409 0.00020495227780591046 0 -0.00030809318918939967 0.00025104048656491337 0 -0.00017933202558470418 0.00020458716043821428 0 -0.00024773332059226409 0.00020495227780591046 0 -0.0002226250475628164 0.00021841500154657224 0 -0.00024773332059226409 0.00020495227780591046 0 -0.00025702681826982987 0.00027170019006939988 0 -0.00030809318918939967 0.00025104048656491337 0 -0.00025702681826982987 0.00027170019006939988 0 -0.0002226250475628164 0.00021841500154657224 0 -0.00023941436986681274 0.00018657102720878583 0 -0.00024773332059226409 0.00020495227780591046 0 -0.00025702681826982987 0.00027170019006939988 0 -0.0002226250475628164 0.00021841500154657224 0 -0.00030809318918939967 0.00025104048656491337 0 -0.00029298948707604774 0.0003703775033046785 0 -0.00032463380173692306 0.00041532702115521826 0 -0.00025702681826982987 0.00027170019006939988 0 -0.00030809318918939967 0.00025104048656491337 0 -0.00029298948707604774 0.0003703775033046785 0 -0.00029298948707604774 0.0003703775033046785 0 -0.00031014787984955968 0.00050921394286568267 0 -0.00032463380173692306 0.00041532702115521826 0 -0.00025702681826982987 0.00027170019006939988 0 -0.00029298948707604774 0.0003703775033046785 0 -0.00026254922294577431 0.00026258391527275948 0 -0.00029298948707604774 0.0003703775033046785 0 -0.00028614601417507716 0.0003956212980780042 0 -0.00031014787984955968 0.00050921394286568267 0 -0.00029298948707604774 0.0003703775033046785 0 -0.00028614601417507716 0.0003956212980780042 0 -0.00026254922294577431 0.00026258391527275948 0 -0.00028614601417507716 0.0003956212980780042 0 -0.00026254922294577431 0.00026258391527275948 0 -0.00025789318889860128 0.00033181820600097973 0 -0.00025702681826982987 0.00027170019006939988 0 -0.00023941436986681274 0.00018657102720878583 0 -0.00026254922294577431 0.00026258391527275948 0 -0.00023941436986681274 0.00018657102720878583 0 -0.00026254922294577431 0.00026258391527275948 0 -0.00025429355902592874 0.00011638780372730485 0 -0.00026804831918742324 -1.6577934727490085e-05 0 -0.0002529925982144766 8.8212710093515023e-05 0 -0.00025626160013908169 -6.5147676584735589e-05 0 -0.00026804831918742324 -1.6577934727490085e-05 0 -0.00025429355902592874 0.00011638780372730485 0 -0.0002529925982144766 8.8212710093515023e-05 0 -0.00026254922294577431 0.00026258391527275948 0 -0.00025429355902592874 0.00011638780372730485 0 -0.0002529925982144766 8.8212710093515023e-05 0 -0.00026254922294577431 0.00026258391527275948 0 -0.0002529925982144766 8.8212710093515023e-05 0 -0.00024276604550999348 0.00017925230723311172 0 -0.00025789318889860128 0.00033181820600097973 0 -0.00024276604550999348 0.00017925230723311172 0 -0.0001850532921031843 0.00031759638930953194 0 -0.00026254922294577431 0.00026258391527275948 0 -0.00025789318889860128 0.00033181820600097973 0 -0.00024276604550999348 0.00017925230723311172 0 -0.0002529925982144766 8.8212710093515023e-05 0 -0.00024276604550999348 0.00017925230723311172 0 -0.00023215039417958896 1.4871300112300026e-05 0 -0.00024276604550999348 0.00017925230723311172 0 -0.00023215039417958896 1.4871300112300026e-05 0 -0.0001656932186619758 6.588397313274487e-05 0 -0.00023215039417958896 1.4871300112300026e-05 0 -0.0001656932186619758 6.588397313274487e-05 0 -0.00020977734792403441 -0.00011741933305862694 0 -0.00023215039417958896 1.4871300112300026e-05 0 -0.00025626160013908169 -6.5147676584735589e-05 0 -0.00020977734792403441 -0.00011741933305862694 0 -0.0002529925982144766 8.8212710093515023e-05 0 -0.00023215039417958896 1.4871300112300026e-05 0 -0.00025626160013908169 -6.5147676584735589e-05 0 0.00012702516765375339 0.0002727455378151736 0 0.00021451142469391349 0.00019210653867210399 0 0.00010007617692551223 0.00029588413580684326 0 0.000602532207970742 0.00030192112862332523 0 0.00031309917807125209 0.00046916100888762821 0 0.00010007617692551223 0.00029588413580684326 0 -0.0001656932186619758 6.588397313274487e-05 0 -0.0001850532921031843 0.00031759638930953194 0 -0.00024276604550999348 0.00017925230723311172 0 -0.0001656932186619758 6.588397313274487e-05 0 -0.0001850532921031843 0.00031759638930953194 0 -0.00025789318889860128 0.00033181820600097973 0 -0.0001850532921031843 0.00031759638930953194 0 -0.00026310073364224336 0.00048883182405409385 0 -0.0001850532921031843 0.00031759638930953194 0 -8.1930943925402248e-05 0.00046329220382976689 0 -0.00026310073364224336 0.00048883182405409385 0 0.00010007617692551223 0.00029588413580684326 0 -8.1930943925402248e-05 0.00046329220382976689 0 4.9105800851419302e-06 0.00062093622886838116 0 0.00010007617692551223 0.00029588413580684326 0 -0.0001850532921031843 0.00031759638930953194 0 -8.1930943925402248e-05 0.00046329220382976689 0 -0.00022281827376203003 0.00063676098947153367 0 -0.00034342681650065439 0.00070222472276868799 0 -0.00024516581549473732 0.00095649182131870886 0 -0.00022281827376203003 0.00063676098947153367 0 -0.00024516581549473732 0.00095649182131870886 0 4.9105800851419302e-06 0.00062093622886838116 0 -8.1930943925402248e-05 0.00046329220382976689 0 -0.00022281827376203003 0.00063676098947153367 0 4.9105800851419302e-06 0.00062093622886838116 0 -8.1930943925402248e-05 0.00046329220382976689 0 -0.00022281827376203003 0.00063676098947153367 0 -0.00026310073364224336 0.00048883182405409385 0 -0.00022281827376203003 0.00063676098947153367 0 -0.00026310073364224336 0.00048883182405409385 0 -0.00034342681650065439 0.00070222472276868799 0 -0.00026310073364224336 0.00048883182405409385 0 -0.00031014787984955968 0.00050921394286568267 0 -0.00034342681650065439 0.00070222472276868799 0 -0.00028614601417507716 0.0003956212980780042 0 -0.00025789318889860128 0.00033181820600097973 0 -0.00026310073364224336 0.00048883182405409385 0 -0.00028614601417507716 0.0003956212980780042 0 -0.00026310073364224336 0.00048883182405409385 0 -0.00031014787984955968 0.00050921394286568267 0 -0.00031014787984955968 0.00050921394286568267 0 -0.00034342681650065439 0.00070222472276868799 0 -0.00032463380173692306 0.00041532702115521826 0 -0.00033186453380633265 0.0005801023314648678 0 -0.00034342681650065439 0.00070222472276868799 0 -0.00032463380173692306 0.00041532702115521826 0 -0.00048044274879844765 0.00098299213218631704 0 -0.00034342681650065439 0.00070222472276868799 0 -0.00024516581549473732 0.00095649182131870886 0 -0.00048044274879844765 0.00098299213218631704 0 -0.00033186453380633265 0.0005801023314648678 0 -0.00034342681650065439 0.00070222472276868799 0 -0.00048044274879844765 0.00098299213218631704 0 -0.00024516581549473732 0.00095649182131870886 0 -0.00016736273787636111 0.001484873360100685 0 0.00021087180411651408 0.0020752386348431872 0 -0.00016736273787636111 0.001484873360100685 0 0.00016845366441739217 0.001197431868914679 0 -0.00024516581549473732 0.00095649182131870886 0 -0.00016736273787636111 0.001484873360100685 0 0.00016845366441739217 0.001197431868914679 0 0.00016845366441739217 0.001197431868914679 0 0.00093531637105853985 0.00069634526839186138 0 4.9105800851419302e-06 0.00062093622886838116 0 0.00021087180411651408 0.0020752386348431872 0 0.00066454280483541626 0.0016591242933305995 0 0.00016845366441739217 0.001197431868914679 0 0.00021087180411651408 0.0020752386348431872 0 0.00073177857866515679 0.0024449258592246386 0 0.00066454280483541626 0.0016591242933305995 0 0.00066454280483541626 0.0016591242933305995 0 0.00016845366441739217 0.001197431868914679 0 0.00093531637105853985 0.00069634526839186138 0 -0.00024516581549473732 0.00095649182131870886 0 0.00016845366441739217 0.001197431868914679 0 4.9105800851419302e-06 0.00062093622886838116 0 0.0018252589028044763 0.0030998322034461638 0 0.0013220776084044697 0.0019646457744531575 0 0.0021644707996647909 0.0016892233131698135 0 -5.1121998250352782e-05 0.0078645946004870029 0 0.00024096793725505864 0.0060171365784003365 0 0.00073177857866515679 0.0024449258592246386 0 0.00066454280483541626 0.0016591242933305995 0 0.0013220776084044697 0.0019646457744531575 0 0.00066454280483541626 0.0016591242933305995 0 0.0013220776084044697 0.0019646457744531575 0 0.00093531637105853985 0.00069634526839186138 0 0.0011264414110604263 0.0017469134151816264 0 0.0010228375434481421 0.0013668258208005258 0 0.00075884501956004929 0.0013663180178482321 0 0.00024096793725505864 0.0060171365784003365 0 0.0009473816067025432 0.00036352980422587434 0 0.0013220776084044697 0.0019646457744531575 0 0.0021644707996647909 0.0016892233131698135 0 0.00093531637105853985 0.00069634526839186138 0 0.0011264414110604263 0.0017469134151816264 0 0.0010228375434481421 0.0013668258208005258 0 0.0012225470848795496 0.0013883774837993332 0 0.0010228375434481421 0.0013668258208005258 0 0.00075884501956004929 0.0013663180178482321 0 0.00099850340885050161 0.0011504184037900843 0 0.0010228375434481421 0.0013668258208005258 0 0.00099850340885050161 0.0011504184037900843 0 0.0011769420233438616 0.0011974145206682643 0 0.00075884501956004929 0.0013663180178482321 0 0.00084486539572719058 0.00096593713270177832 0 0.00064666815399999134 0.00095103548696333666 0 0.00075884501956004929 0.0013663180178482321 0 0.00084486539572719058 0.00096593713270177832 0 0.00099850340885050161 0.0011504184037900843 0 0.00084486539572719058 0.00096593713270177832 0 0.00064666815399999134 0.00095103548696333666 0 0.00067936328541354761 0.00075742524245788021 0 0.00084486539572719058 0.00096593713270177832 0 0.00098694642398552404 0.0009954370435427142 0 0.0010040643352347254 0.00087644924104526888 0 0.00084486539572719058 0.00096593713270177832 0 0.00099850340885050161 0.0011504184037900843 0 0.00098694642398552404 0.0009954370435427142 0 0.00098694642398552404 0.0009954370435427142 0 0.0011002699680014425 0.00094902651151613864 0 0.0011212860722455825 0.0010522719288922565 0 0.00099850340885050161 0.0011504184037900843 0 0.0011769420233438616 0.0011974145206682643 0 0.0011212860722455825 0.0010522719288922565 0 0.00099850340885050161 0.0011504184037900843 0 0.00098694642398552404 0.0009954370435427142 0 0.0011212860722455825 0.0010522719288922565 0 0.00093531637105853985 0.00069634526839186138 0 4.9105800851419302e-06 0.00062093622886838116 0 0.00020260180666436197 0.00025164285878324401 0 0.00010007617692551223 0.00029588413580684326 0 4.9105800851419302e-06 0.00062093622886838116 0 0.00020260180666436197 0.00025164285878324401 0 0.0009473816067025432 0.00036352980422587434 0 0.00036612604249535016 0.00073734146162254583 0 0.00064666815399999134 0.00095103548696333666 0 0.00045440495400836991 0.00097663661240014873 0 0.0005063362822581508 0.00073515144819747303 0 0.00075884501956004929 0.0013663180178482321 0 0.00064666815399999134 0.00095103548696333666 0 0.00045440495400836991 0.00097663661240014873 0 0.00036612604249535016 0.00073734146162254583 0 0.00030493838880804927 0.00045686894489241852 0 0.00010007617692551223 0.00029588413580684326 0 0.00020260180666436197 0.00025164285878324401 0 0.00031309917807125209 0.00046916100888762821 0 0.00045440495400836991 0.00097663661240014873 0 0.00039929399599102408 0.00057561413263709478 0 0.0005063362822581508 0.00073515144819747303 0 0.00045440495400836991 0.00097663661240014873 0 0.00039929399599102408 0.00057561413263709478 0 0.00031309917807125209 0.00046916100888762821 0 0.00039929399599102408 0.00057561413263709478 0 0.0005063362822581508 0.00073515144819747303 0 0.00046772552401827213 0.00056577529137967345 0 0.00064666815399999134 0.00095103548696333666 0 0.0005063362822581508 0.00073515144819747303 0 0.00067936328541354761 0.00075742524245788021 0 0.00067936328541354761 0.00075742524245788021 0 0.00055783764535253426 0.00066290523317788128 0 0.00059878603750499414 0.00058759318876419511 0 0.0005063362822581508 0.00073515144819747303 0 0.00055783764535253426 0.00066290523317788128 0 0.00046772552401827213 0.00056577529137967345 0 0.0005063362822581508 0.00073515144819747303 0 0.00067936328541354761 0.00075742524245788021 0 0.00055783764535253426 0.00066290523317788128 0 0.00055783764535253426 0.00066290523317788128 0 0.00059878603750499414 0.00058759318876419511 0 0.00046772552401827213 0.00056577529137967345 0 0.00059878603750499414 0.00058759318876419511 0 0.00043615742152655309 0.00047913673604026966 0 0.00069767294944609952 0.00045144563709412742 0 0.00059878603750499414 0.00058759318876419511 0 0.00043615742152655309 0.00047913673604026966 0 0.00046772552401827213 0.00056577529137967345 0 0.0013631850204654486 0.00068052378621520616 0 0.00079675685981310898 0.00032369890127993206 0 0.00039929399599102408 0.00057561413263709478 0 0.00044184604594483249 0.00053432313560341431 0 0.00046772552401827213 0.00056577529137967345 0 0.00039929399599102408 0.00057561413263709478 0 0.00044184604594483249 0.00053432313560341431 0 0.00039071666301813778 0.00054692480962958263 0 0.0013631850204654486 0.00068052378621520616 0 0.00080642155223738688 0.00040335039200784455 0 0.0010234906212384751 0.00076869776660532473 0 0.0011201312669257551 0.00086830064742613366 0 0.0011436832526606478 0.00078345057773812502 0 0.0010234906212384751 0.00076869776660532473 0 0.0011201312669257551 0.00086830064742613366 0 0.0010040643352347254 0.00087644924104526888 0 0.0011201312669257551 0.00086830064742613366 0 0.0011002699680014425 0.00094902651151613864 0 0.0010040643352347254 0.00087644924104526888 0 0.00098694642398552404 0.0009954370435427142 0 0.0011002699680014425 0.00094902651151613864 0 0.0010040643352347254 0.00087644924104526888 0 0.00084486539572719058 0.00096593713270177832 0 0.0010040643352347254 0.00087644924104526888 0 0.00086638529117107608 0.00077161793506725978 0 0.0010234906212384751 0.00076869776660532473 0 0.0010040643352347254 0.00087644924104526888 0 0.00086638529117107608 0.00077161793506725978 0 0.00084486539572719058 0.00096593713270177832 0 0.00067936328541354761 0.00075742524245788021 0 0.00086638529117107608 0.00077161793506725978 0 0.00067936328541354761 0.00075742524245788021 0 0.00086638529117107608 0.00077161793506725978 0 0.00079441490297939353 0.00060731766118092047 0 0.00067936328541354761 0.00075742524245788021 0 0.00059878603750499414 0.00058759318876419511 0 0.00079441490297939353 0.00060731766118092047 0 0.00059878603750499414 0.00058759318876419511 0 0.00079441490297939353 0.00060731766118092047 0 0.00069767294944609952 0.00045144563709412742 0 0.00086638529117107608 0.00077161793506725978 0 0.00079441490297939353 0.00060731766118092047 0 0.00095839803599277946 0.00063753293754158062 0 0.00095839803599277946 0.00063753293754158062 0 0.00103405283010785 0.00053628686185987326 0 0.00098964038028172101 0.00041359289372634408 0 0.00079441490297939353 0.00060731766118092047 0 0.00095839803599277946 0.00063753293754158062 0 0.00098964038028172101 0.00041359289372634408 0 0.0010234906212384751 0.00076869776660532473 0 0.00086638529117107608 0.00077161793506725978 0 0.00095839803599277946 0.00063753293754158062 0 0.00095839803599277946 0.00063753293754158062 0 0.00103405283010785 0.00053628686185987326 0 0.0010616419533826256 0.0006677528528288186 0 0.00103405283010785 0.00053628686185987326 0 0.0010930747463764733 0.00061777274843739392 0 0.0011626496972195657 0.00059467176885529124 0 0.00103405283010785 0.00053628686185987326 0 0.0010930747463764733 0.00061777274843739392 0 0.0010616419533826256 0.0006677528528288186 0 0.0010234906212384751 0.00076869776660532473 0 0.00095839803599277946 0.00063753293754158062 0 0.0010616419533826256 0.0006677528528288186 0 0.0010616419533826256 0.0006677528528288186 0 0.0011436832526606478 0.00078345057773812502 0 0.0011204538749019931 0.00067497030487277958 0 0.0010234906212384751 0.00076869776660532473 0 0.0010616419533826256 0.0006677528528288186 0 0.0011436832526606478 0.00078345057773812502 0 0.0010930747463764733 0.00061777274843739392 0 0.0010616419533826256 0.0006677528528288186 0 0.0011204538749019931 0.00067497030487277958 0 0.0017140402911040963 0.005051326514964323 0 0.0017672528141675701 0.0050361610319790079 0 0.0018850527521887105 0.0052507416931747482 0 0.00064660448401915945 0.0099525793865431009 0 0.00069397137262160039 0.010285137288523226 0 0.00044599573929416536 0.010130024288657707 0 0.0010017523565611693 0.0063487639932771614 0 0.0016047985583103515 0.0030190124795910871 0 0.0018523153584964125 0.0020855320049579704 0 0.0020306048778674095 0.0020463927793796691 0 0.0015742473336741592 0.0014586123390642953 0 0.00103405283010785 0.00053628686185987326 0 0.00098964038028172101 0.00041359289372634408 0 0.0011626496972195657 0.00059467176885529124 0 0.0016047985583103515 0.0030190124795910871 0 0.0011910395543845416 0.00085907552154228977 0 0.00079441490297939353 0.00060731766118092047 0 0.00098964038028172101 0.00041359289372634408 0 0.00069767294944609952 0.00045144563709412742 0 0.0016818733877540292 0.0017653834623738262 0 0.0020402184262464278 0.0016682539492976752 0 0.0019204732236619152 0.0020172718889872763 0 0.0016047985583103515 0.0030190124795910871 0 0.0013707431022531766 0.00094478306154489411 0 0.0020402184262464278 0.0016682539492976752 0 0.0019204732236619152 0.0020172718889872763 0 0.0022235557537592337 0.0019666566609578377 0 0.0016047985583103515 0.0030190124795910871 0 0.0018758780369245106 0.0036812993559190645 0 0.0018850527521887105 0.0052507416931747482 0 0.0019490242213612739 0.0052251753523529249 0 0.0020428456987270508 0.0054171308111388931 0 0.0017672528141675701 0.0050361610319790079 0 0.0018850527521887105 0.0052507416931747482 0 0.0019490242213612739 0.0052251753523529249 0 0.0018758780369245106 0.0036812993559190645 0 0.0034077716147688547 0.0031254518016187302 0 0.0010017523565611693 0.0063487639932771614 0 0.0016184216109793488 0.0082472353691827004 0 0.00064660448401915945 0.0099525793865431009 0 0.00096746554325078955 0.010395256184847594 0 0.00069397137262160039 0.010285137288523226 0 0.00096746554325078955 0.010395256184847594 0 0.00069397137262160039 0.010285137288523226 0 0.00080916107615689392 0.010617540009001194 0 0.00069397137262160039 0.010285137288523226 0 0.00048242362335164867 0.010573188425026527 0 0.00080916107615689392 0.010617540009001194 0 0.0016946536716047856 7.3063727538907105e-05 0 0.0015925986899953505 -0.00019808565286395799 0 0.0014054613689356656 -5.0461161834334003e-05 0 0.0024964057819736036 0.001828942714363391 0 0.0022950593345309345 0.0017639633981953999 0 0.0022235557537592337 0.0019666566609578377 0 0.0023957898131752487 0.0015739029890590253 0 0.0024964057819736036 0.001828942714363391 0 0.0022950593345309345 0.0017639633981953999 0 0.0013631850204654486 0.00068052378621520616 0 0.0020602998883802802 0.00086840588504102304 0 0.0013631850204654486 0.00068052378621520616 0 0.0013707431022531766 0.00094478306154489411 0 0.0023957898131752487 0.0015739029890590253 0 0.0020402184262464278 0.0016682539492976752 0 0.0022950593345309345 0.0017639633981953999 0 0.0020402184262464278 0.0016682539492976752 0 0.0022950593345309345 0.0017639633981953999 0 0.0022235557537592337 0.0019666566609578377 0 0.0019204732236619152 0.0020172718889872763 0 0.0022235557537592337 0.0019666566609578377 0 0.0021619029824133276 0.0022697767072911751 0 0.0022235557537592337 0.0019666566609578377 0 0.002595336384177097 0.0020795177568138155 0 0.0021619029824133276 0.0022697767072911751 0 0.0024964057819736036 0.001828942714363391 0 0.0022235557537592337 0.0019666566609578377 0 0.002595336384177097 0.0020795177568138155 0 0.0020602998883802802 0.00086840588504102304 0 0.0024598588668361056 0.00066713007063300351 0 0.0024598588668361056 0.00066713007063300351 0 0.0012774280069173187 -0.0005161062382971393 0 0.002277140690659337 -0.00070415639801172053 0 0.00165012336669609 -0.00046273450377688362 0 0.0017891070628155768 -0.00094094299366170387 0 0.0014906354523563877 -0.00047053695869668207 0 0.0013294858467403599 -0.00021558480115816154 0 0.0010568029646189508 -0.00030174243601997135 0 0.0015925986899953505 -0.00019808565286395799 0 0.0014906354523563877 -0.00047053695869668207 0 0.0013294858467403599 -0.00021558480115816154 0 0.0015925986899953505 -0.00019808565286395799 0 0.0013294858467403599 -0.00021558480115816154 0 0.0014054613689356656 -5.0461161834334003e-05 0 0.0013294858467403599 -0.00021558480115816154 0 0.0014054613689356656 -5.0461161834334003e-05 0 0.0011138675478656829 -7.2068154932552981e-05 0 0.0014054613689356656 -5.0461161834334003e-05 0 0.0011138675478656829 -7.2068154932552981e-05 0 0.001303842155918386 0.00016811103217562962 0 0.0013294858467403599 -0.00021558480115816154 0 0.0011138675478656829 -7.2068154932552981e-05 0 0.0010568029646189508 -0.00030174243601997135 0 0.0011138675478656829 -7.2068154932552981e-05 0 0.0010568029646189508 -0.00030174243601997135 0 0.00090762446503310056 -0.00010211905303885455 0 0.00165012336669609 -0.00046273450377688362 0 0.0017891070628155768 -0.00094094299366170387 0 0.0013685205418362276 -0.00085094719057669539 0 0.00165012336669609 -0.00046273450377688362 0 0.0010949610161901234 -0.00053259082713534231 0 0.00083077678893339287 -0.0002425273048432759 0 0.00165012336669609 -0.00046273450377688362 0 0.0010949610161901234 -0.00053259082713534231 0 0.0013685205418362276 -0.00085094719057669539 0 0.0010949610161901234 -0.00053259082713534231 0 0.0009693788999118897 -0.00072978945287855801 0 0.0013685205418362276 -0.00085094719057669539 0 0.0010949610161901234 -0.00053259082713534231 0 0.0009693788999118897 -0.00072978945287855801 0 0.00079984058788200448 -0.00033490933208241814 0 0.0009693788999118897 -0.00072978945287855801 0 0.00065837508548991809 -0.00047886414954146028 0 0.0007952894888383638 -0.001001122964732869 0 0.0009693788999118897 -0.00072978945287855801 0 0.00065837508548991809 -0.00047886414954146028 0 0.00079984058788200448 -0.00033490933208241814 0 0.0012251472963396731 -0.001330370695265458 0 0.00087751097796348945 -0.00068814171269552615 0 0.00038777069359571727 -0.0002806572021773188 0 0.000448469680561411 -0.00062075011128296807 0 0.00054415706849396763 -0.00029235137626992997 0 0.000448469680561411 -0.00062075011128296807 0 0.00075809756005021855 -0.00020124977420676074 0 0.00054415706849396763 -0.00029235137626992997 0 0.0012251472963396731 -0.001330370695265458 0 0.00080516725822231145 -0.00026697833206392954 0 0.0006769166655330621 -0.00042158462447423932 0 0.00079984058788200448 -0.00033490933208241814 0 0.00075809756005021855 -0.00020124977420676074 0 0.00079984058788200448 -0.00033490933208241814 0 0.00075809756005021855 -0.00020124977420676074 0 0.00083077678893339287 -0.0002425273048432759 0 0.00075809756005021855 -0.00020124977420676074 0 0.00054415706849396763 -0.00029235137626992997 0 0.00058089163401890058 -9.5316193036474236e-05 0 0.00075809756005021855 -0.00020124977420676074 0 0.00077336193282708605 -4.690156348788451e-05 0 0.00058089163401890058 -9.5316193036474236e-05 0 0.00038777069359571727 -0.0002806572021773188 0 0.00054415706849396763 -0.00029235137626992997 0 0.00058089163401890058 -9.5316193036474236e-05 0 0.0012774280069173187 -0.0005161062382971393 0 0.00088821208131150201 -0.0002184280808095648 0 0.0010568029646189508 -0.00030174243601997135 0 0.00083077678893339287 -0.0002425273048432759 0 0.00090762446503310056 -0.00010211905303885455 0 0.0010949610161901234 -0.00053259082713534231 0 0.00079984058788200448 -0.00033490933208241814 0 0.00083077678893339287 -0.0002425273048432759 0 0.00083077678893339287 -0.0002425273048432759 0 0.00090762446503310056 -0.00010211905303885455 0 0.00077336193282708605 -4.690156348788451e-05 0 0.00075809756005021855 -0.00020124977420676074 0 0.00083077678893339287 -0.0002425273048432759 0 0.00077336193282708605 -4.690156348788451e-05 0 0.00090762446503310056 -0.00010211905303885455 0 0.00078662114332216549 0.00029579633004132058 0 0.00077336193282708605 -4.690156348788451e-05 0 0.00078662114332216549 0.00029579633004132058 0 0.00066802893801747531 0.00011275418502611224 0 0.00070915738739917651 0.00030557573724280135 0 0.00078662114332216549 0.00029579633004132058 0 0.00077336193282708605 -4.690156348788451e-05 0 0.00066802893801747531 0.00011275418502611224 0 0.00028025756137024717 7.9847545554524566e-05 0 0.00038777069359571727 -0.0002806572021773188 0 0.00058089163401890058 -9.5316193036474236e-05 0 0.00028025756137024717 7.9847545554524566e-05 0 0.00066802893801747531 0.00011275418502611224 0 0.00070915738739917651 0.00030557573724280135 0 0.00028025756137024717 7.9847545554524566e-05 0 0.00058089163401890058 -9.5316193036474236e-05 0 0.00066802893801747531 0.00011275418502611224 0 0.00077336193282708605 -4.690156348788451e-05 0 0.00058089163401890058 -9.5316193036474236e-05 0 0.00066802893801747531 0.00011275418502611224 0 -0.00025860245654970096 -0.0002029656427408882 0 -0.00025564211893767415 -0.00031659898430009029 0 -0.00020977734792403441 -0.00011741933305862694 0 -0.00025860245654970096 -0.0002029656427408882 0 -0.00025626160013908169 -6.5147676584735589e-05 0 -0.00020977734792403441 -0.00011741933305862694 0 1.2989734589062761e-05 -0.00013244243117017289 0 0.00023403904998770374 8.8016809689712351e-05 0 0.00021451142469391349 0.00019210653867210399 0 0.00023403904998770374 8.8016809689712351e-05 0 0.000602532207970742 0.00030192112862332523 0 0.00078662114332216549 0.00029579633004132058 0 0.00070915738739917651 0.00030557573724280135 0 0.000602532207970742 0.00030192112862332523 0 0.00078662114332216549 0.00029579633004132058 0 0.00052662552751715059 0.00039946342747213941 0 0.000602532207970742 0.00030192112862332523 0 0.00052662552751715059 0.00039946342747213941 0 0.00031309917807125209 0.00046916100888762821 0 0.00052662552751715059 0.00039946342747213941 0 0.00031309917807125209 0.00046916100888762821 0 0.00039071666301813778 0.00054692480962958263 0 0.00039929399599102408 0.00057561413263709478 0 0.00031309917807125209 0.00046916100888762821 0 0.00039071666301813778 0.00054692480962958263 0 0.0016946536716047856 7.3063727538907105e-05 0 0.0014054613689356656 -5.0461161834334003e-05 0 0.001303842155918386 0.00016811103217562962 0 0.0007987382211075393 0.00031746970150980729 0 0.00079675685981310898 0.00032369890127993206 0 0.00078662114332216549 0.00029579633004132058 0 0.00052662552751715059 0.00039946342747213941 0 0.00039071666301813778 0.00054692480962958263 0 0.0011138675478656829 -7.2068154932552981e-05 0 0.00078662114332216549 0.00029579633004132058 0 0.001303842155918386 0.00016811103217562962 0 0.0011138675478656829 -7.2068154932552981e-05 0 0.00090762446503310056 -0.00010211905303885455 0 0.00078662114332216549 0.00029579633004132058 0 0.0015138697614034669 0.022323107744490651 0 0.0015325425911005778 0.022336226470411957 0 0.001512557387144078 0.022319406745762341 0 0.0016454076774667886 0.021049128024378375 0 0.0012135187178410089 0.020932579328829651 0 0.0012879297995368687 0.021396703512902394 0 0.0016454076774667886 0.021049128024378375 0 0.0012879297995368687 0.021396703512902394 0 0.0016252145300853719 0.02164724633033616 0 0.0012879297995368687 0.021396703512902394 0 0.0016252145300853719 0.02164724633033616 0 0.0011508553872186477 0.0219311071961087 0 0.0015423490312825 0.022338927516201701 0 0.0015325425911005778 0.022336226470411957 0 0.0015597075765643733 0.022355040404189064 0 0.0016484477846943335 0.021921166320523672 0 0.0015734600431932656 0.021943258688961225 0 0.0015138697614034669 0.022323107744490651 0 0.0015423490312825 0.022338927516201701 0 0.0015325425911005778 0.022336226470411957 0 0.0015325425911005778 0.022336226470411957 0 0.0015225680710155723 0.022340738844443361 0 0.0015597075765643733 0.022355040404189064 0 0.0015225680710155723 0.022340738844443361 0 0.0015597075765643733 0.022355040404189064 0 0.001573437594092582 0.022393793663150228 0 0.0014943284645479087 0.022311085211867566 0 0.0015225680710155723 0.022340738844443361 0 0.0015026815726446527 0.022311699278152533 0 0.0014943284645479087 0.022311085211867566 0 0.0015225680710155723 0.022340738844443361 0 0.0015189860067945831 0.022381913395443355 0 0.0015225680710155723 0.022340738844443361 0 0.001512557387144078 0.022319406745762341 0 0.0015026815726446527 0.022311699278152533 0 0.0015325425911005778 0.022336226470411957 0 0.0015225680710155723 0.022340738844443361 0 0.001512557387144078 0.022319406745762341 0 0.001512557387144078 0.022319406745762341 0 0.0015026815726446527 0.022311699278152533 0 0.0015012402763923437 0.022299594908104327 0 0.0010958312186659283 0.022479180947990226 0 0.00059731990283478276 0.020206356749083165 0 0.00060285959280643162 0.02215755839888351 0 0.0010176007021709659 0.021899668227082641 0 0.0014803302986220411 0.022223668964916503 0 0.0010958312186659283 0.022479180947990226 0 0.0014433413918916746 0.022169168908574233 0 0.0014943284645479087 0.022311085211867566 0 0.0015026815726446527 0.022311699278152533 0 0.0014803302986220411 0.022223668964916503 0 0.00060285959280643162 0.02215755839888351 0 0.0010176007021709659 0.021899668227082641 0 0.00066070873533470575 0.021632884890371955 0 0.0010176007021709659 0.021899668227082641 0 0.00066070873533470575 0.021632884890371955 0 0.0010505722128491156 0.02159069501861869 0 0.00060285959280643162 0.02215755839888351 0 0.00022964771907272102 0.021628144722911684 0 -0.0001508857479186205 0.022066405946429508 0 0.00060285959280643162 0.02215755839888351 0 0.00066070873533470575 0.021632884890371955 0 0.00022964771907272102 0.021628144722911684 0 0.0010013693991296996 0.020358335148142295 0 0.00059731990283478276 0.020206356749083165 0 0.00053680059664935518 0.021094791572992145 0 0.00059731990283478276 0.020206356749083165 0 0.0010292384107069669 0.020253770498998507 0 0.00099833303442227093 0.020259168853260547 0 0.00099314771785434324 0.020303068657507518 0 0.00099833303442227093 0.020259168853260547 0 0.0010234385212586196 0.020574700066532038 0 0.00082200765189072915 0.020409123219882072 0 0.0015138697614034669 0.022323107744490651 0 0.001512557387144078 0.022319406745762341 0 0.0015012402763923437 0.022299594908104327 0 0.0016484477846943335 0.021921166320523672 0 0.00059731990283478276 0.020206356749083165 0 -0.0004993183912332331 0.015787556370992994 0 -0.00089232900247670165 0.016272016904301564 0 -0.00022839016058674665 0.016271791402861249 0 0.00045337186741430097 0.018022403922832071 0 0.00059731990283478276 0.020206356749083165 0 0.0016454076774667886 0.021049128024378375 0 0.0012135187178410089 0.020932579328829651 0 0.0016411198398074102 0.020447151355871322 0 0.00059731990283478276 0.020206356749083165 0 -2.8245951477153886e-05 0.018661934138047662 0 0.0010234385212586196 0.020574700066532038 0 0.00082200765189072915 0.020409123219882072 0 0.00043271383967828441 0.020566310366850891 0 0.00082200765189072915 0.020409123219882072 0 0.00043271383967828441 0.020566310366850891 0 0.00061800042768422403 0.020092770485044875 0 0.00099833303442227093 0.020259168853260547 0 0.00082200765189072915 0.020409123219882072 0 0.00061800042768422403 0.020092770485044875 0 0.00014964400752927632 0.020187985774608244 0 0.00043271383967828441 0.020566310366850891 0 0.00061800042768422403 0.020092770485044875 0 0.00014964400752927632 0.020187985774608244 0 -0.00037387983346013031 0.02049490045527191 0 -0.00023218224100659632 0.019814378317189501 0 0.00014964400752927632 0.020187985774608244 0 0.00043271383967828441 0.020566310366850891 0 -0.00037387983346013031 0.02049490045527191 0 -2.8245951477153886e-05 0.018661934138047662 0 0.00014183948069813434 0.014506458584096037 0 0.00014183948069813434 0.014506458584096037 0 -0.00040151330906472709 0.015638301757505392 0 -0.00022839016058674665 0.016271791402861249 0 0.00043476614888993944 0.016279054531502263 0 5.045485742403317e-05 0.01580881825966347 0 0.00043476614888993944 0.016279054531502263 0 0.00056996174049936974 0.015810319814322168 0 5.045485742403317e-05 0.01580881825966347 0 -0.0004993183912332331 0.015787556370992994 0 -0.00022839016058674665 0.016271791402861249 0 5.045485742403317e-05 0.01580881825966347 0 0.00069397137262160039 0.010285137288523226 0 0.00048242362335164867 0.010573188425026527 0 0.00030756592748307416 0.010300860976158465 0 0.00069397137262160039 0.010285137288523226 0 0.00010732070759395691 0.010300041180744591 0 0.00044599573929416536 0.010130024288657707 0 0.00068730962343333609 0.010301443768004714 0 6.3139066659330257e-05 0.010274803452482967 0 0.00048242362335164867 0.010573188425026527 0 0.00030756592748307416 0.010300860976158465 0 0.00014863130002758175 0.010577513215265181 0 0.00030756592748307416 0.010300860976158465 0 -0.00017575793054246442 0.010268619020744279 0 0.00014863130002758175 0.010577513215265181 0 -0.00017575793054246442 0.010268619020744279 0 0.00014863130002758175 0.010577513215265181 0 -0.00041202883961407189 0.010995794864828941 0 6.3139066659330257e-05 0.010274803452482967 0 0.00014183948069813434 0.014506458584096037 0 0.00010732070759395691 0.010300041180744591 0 -0.000582338990039025 0.010292919626907968 0 -8.0630208641580838e-05 0.0099123453035654067 0 -0.000582338990039025 0.010292919626907968 0 -8.0630208641580838e-05 0.0099123453035654067 0 -0.00037066418838895145 0.009550986247778788 0 0.00014183948069813434 0.014506458584096037 0 -1.171108024876573e-05 0.01310968438905097 0 -8.0630208641580838e-05 0.0099123453035654067 0 0.00031450214474024169 0.0100034359176611 0 0.00028096171132286832 0.0093566590332288656 0 0.00070954534430404546 0.0098935868300260819 0 0.00031450214474024169 0.0100034359176611 0 0.00028096171132286832 0.0093566590332288656 0 -8.0630208641580838e-05 0.0099123453035654067 0 0.00028096171132286832 0.0093566590332288656 0 -0.00037066418838895145 0.009550986247778788 0 0.00010732070759395691 0.010300041180744591 0 -8.0630208641580838e-05 0.0099123453035654067 0 0.00031450214474024169 0.0100034359176611 0 0.0010017523565611693 0.0063487639932771614 0 0.00061143134336929432 0.0050258501262745951 0 0.0010017523565611693 0.0063487639932771614 0 -5.1891101999059062e-06 0.0087523851663318282 0 0.00010732070759395691 0.010300041180744591 0 0.00031450214474024169 0.0100034359176611 0 0.00044599573929416536 0.010130024288657707 0 0.00064660448401915945 0.0099525793865431009 0 0.00031450214474024169 0.0100034359176611 0 0.00044599573929416536 0.010130024288657707 0 0.00028096171132286832 0.0093566590332288656 0 -0.00037066418838895145 0.009550986247778788 0 -0.00015040282787949212 0.0088083349032852618 0 0.0015742473336741592 0.0014586123390642953 0 0.0014348152317970675 0.0014210154474851638 0 0.0012881585539717712 0.00092711211346744877 0 0.0011611289771720006 0.00072272903470979534 0 0.0011626496972195657 0.00059467176885529124 0 0.0012246508763059888 0.00083246033855611048 0 0.0011436832526606478 0.00078345057773812502 0 0.0011611289771720006 0.00072272903470979534 0 0.0012246508763059888 0.00083246033855611048 0 0.0011611289771720006 0.00072272903470979534 0 0.0011204538749019931 0.00067497030487277958 0 0.0011626496972195657 0.00059467176885529124 0 0.0011436832526606478 0.00078345057773812502 0 0.0011611289771720006 0.00072272903470979534 0 0.0011204538749019931 0.00067497030487277958 0 0.0018523153584964125 0.0020855320049579704 0 0.0015742473336741592 0.0014586123390642953 0 0.0014348152317970675 0.0014210154474851638 0 0.0010930747463764733 0.00061777274843739392 0 0.0011204538749019931 0.00067497030487277958 0 0.0011626496972195657 0.00059467176885529124 0 0.00061143134336929432 0.0050258501262745951 0 0.00024615954055220469 0.008337961208314898 0 0.0011910395543845416 0.00085907552154228977 0 0.001330339785398781 0.00097803141167338383 0 0.0014348152317970675 0.0014210154474851638 0 0.0012239236995286304 0.0008493552694144623 0 0.0012881585539717712 0.00092711211346744877 0 0.0011626496972195657 0.00059467176885529124 0 0.0012246508763059888 0.00083246033855611048 0 0.0012881585539717712 0.00092711211346744877 0 -1.171108024876573e-05 0.01310968438905097 0 0.00024615954055220469 0.008337961208314898 0 0.00056996174049936974 0.015810319814322168 0 0.00069896227340467468 0.015332970214475855 0 0.00029945953725992244 0.015419754311773011 0 0.00024615954055220469 0.008337961208314898 0 0.00023848815540380207 0.016575581312100501 0 0.00069896227340467468 0.015332970214475855 0 0.00029945953725992244 0.015419754311773011 0 0.00028670559867173447 0.014856914235835551 0 0.00024615954055220469 0.008337961208314898 0 0.00055702480884254116 0.0047835408251727333 0 0.0012239236995286304 0.0008493552694144623 0 0.0012085615868210591 0.00099332154216370317 0 0.0012696380160212403 0.0010720411229726409 0 0.0012239236995286304 0.0008493552694144623 0 0.0012881585539717712 0.00092711211346744877 0 0.0012231379602826479 0.00088658156736234157 0 0.0012239236995286304 0.0008493552694144623 0 0.0011926260576629651 0.00092415801291397762 0 0.0012231379602826479 0.00088658156736234157 0 0.0012246508763059888 0.00083246033855611048 0 0.0012881585539717712 0.00092711211346744877 0 0.0012231379602826479 0.00088658156736234157 0 0.0012239236995286304 0.0008493552694144623 0 0.0011926260576629651 0.00092415801291397762 0 0.0012085615868210591 0.00099332154216370317 0 0.0011002699680014425 0.00094902651151613864 0 0.0011926260576629651 0.00092415801291397762 0 0.0012085615868210591 0.00099332154216370317 0 0.0011201312669257551 0.00086830064742613366 0 0.0011002699680014425 0.00094902651151613864 0 0.0011926260576629651 0.00092415801291397762 0 0.0011201312669257551 0.00086830064742613366 0 0.0011926260576629651 0.00092415801291397762 0 0.0012231379602826479 0.00088658156736234157 0 0.0011436832526606478 0.00078345057773812502 0 0.0012246508763059888 0.00083246033855611048 0 0.0012231379602826479 0.00088658156736234157 0 0.0011201312669257551 0.00086830064742613366 0 0.0011436832526606478 0.00078345057773812502 0 0.0012231379602826479 0.00088658156736234157 0 0.00045337186741430097 0.018022403922832071 0 0.00024956138837246519 0.018683108034780026 0 -0.0004993183912332331 0.015787556370992994 0 5.045485742403317e-05 0.01580881825966347 0 -0.00010787567250008548 0.015312168088789022 0 5.045485742403317e-05 0.01580881825966347 0 0.00029945953725992244 0.015419754311773011 0 -0.00010787567250008548 0.015312168088789022 0 0.00056996174049936974 0.015810319814322168 0 5.045485742403317e-05 0.01580881825966347 0 0.00029945953725992244 0.015419754311773011 0 0.00029945953725992244 0.015419754311773011 0 -0.00010787567250008548 0.015312168088789022 0 0.00028670559867173447 0.014856914235835551 0 0.00024956138837246519 0.018683108034780026 0 0.00023848815540380207 0.016575581312100501 0 0.0012879297995368687 0.021396703512902394 0 0.0008205415280749716 0.021406675670643777 0 0.0011508553872186477 0.0219311071961087 0 0.0012135187178410089 0.020932579328829651 0 0.0012879297995368687 0.021396703512902394 0 0.0008205415280749716 0.021406675670643777 0 0.0008205415280749716 0.021406675670643777 0 0.00045146287309274298 0.021829825620654286 0 0.0011508553872186477 0.0219311071961087 0 -0.0011111161970803508 0.01816412340609037 0 -0.00072151538226850553 0.018245856391523988 0 -0.00076332549245735086 0.018086237683184424 0 -0.00077098675883506031 0.018508905200970798 0 -0.0011111161970803508 0.01816412340609037 0 -0.00072151538226850553 0.018245856391523988 0 0.00023848815540380207 0.016575581312100501 0 1.9076054645914548e-06 0.020889718176650161 0 0.00089476962977874154 0.022358225535215 0 0.0013366717901274407 0.022379364717902844 0 0.0011508553872186477 0.0219311071961087 0 0.00045146287309274298 0.021829825620654286 0 0.00089476962977874154 0.022358225535215 0 0.0011508553872186477 0.0219311071961087 0 0.0011769420233438616 0.0011974145206682643 0 0.0011212860722455825 0.0010522719288922565 0 0.0011945900309432123 0.0010765311858373892 0 0.0011769420233438616 0.0011974145206682643 0 0.0011945900309432123 0.0010765311858373892 0 0.0012696380160212403 0.0010720411229726409 0 0.0011002699680014425 0.00094902651151613864 0 0.0011212860722455825 0.0010522719288922565 0 0.0012085615868210591 0.00099332154216370317 0 0.0011212860722455825 0.0010522719288922565 0 0.0012085615868210591 0.00099332154216370317 0 0.0011945900309432123 0.0010765311858373892 0 0.0012085615868210591 0.00099332154216370317 0 0.0011945900309432123 0.0010765311858373892 0 0.0012696380160212403 0.0010720411229726409 0 -0.00048284049919042419 0.0098550767917860802 0 -0.00043926010313143267 0.0099238051418936973 0 -0.00042984872705976443 0.010211071155420734 0 0.0008395211129106926 0.0099858984385920637 0 -0.00043926010313143267 0.0099238051418936973 0 -0.00017733350194713029 0.011134110589671573 0 0.0008395211129106926 0.0099858984385920637 0 -0.00048284049919042419 0.0098550767917860802 0 -0.00043926010313143267 0.0099238051418936973 0 -0.00013962715490082879 0.0087318078521245873 0 0.0008395211129106926 0.0099858984385920637 0 -0.00048284049919042419 0.0098550767917860802 0 0.00023848815540380207 0.016575581312100501 0 -0.00051291174868361869 0.013382458968539221 0 -0.00077098675883506031 0.018508905200970798 0 -0.00072151538226850553 0.018245856391523988 0 -0.00048566840895405196 0.018161999105929829 0 -0.00072151538226850553 0.018245856391523988 0 -0.00048566840895405196 0.018161999105929829 0 -0.00064353846719125316 0.018119139533641217 0 -0.00072151538226850553 0.018245856391523988 0 -0.00064353846719125316 0.018119139533641217 0 -0.00076332549245735086 0.018086237683184424 0 -0.0002569589464284269 0.010469426274599666 0 -0.00033541473304168218 0.01056122968765051 0 -0.00027736097279005233 0.010737889181338481 0 -0.00048284049919042419 0.0098550767917860802 0 -0.00042984872705976443 0.010211071155420734 0 -0.00065858042761332732 0.010419195112459171 0 0.00055702480884254116 0.0047835408251727333 0 0.00020444554487735394 0.0061326194457414791 0 -0.00055518896427089845 0.0091212242479951043 0 -0.00051291174868361869 0.013382458968539221 0 -0.00043926010313143267 0.0099238051418936973 0 -0.0002569589464284269 0.010469426274599666 0 -0.00042984872705976443 0.010211071155420734 0 0.0011769420233438616 0.0011974145206682643 0 0.0012696380160212403 0.0010720411229726409 0 0.0012225470848795496 0.0013883774837993332 0 -0.00042984872705976443 0.010211071155420734 0 -0.00040960712465849011 0.010371156591133537 0 -0.00065858042761332732 0.010419195112459171 0 -0.0002569589464284269 0.010469426274599666 0 -0.00042984872705976443 0.010211071155420734 0 -0.00035994363842917784 0.010451819086024512 0 -0.00040960712465849011 0.010371156591133537 0 -0.00035994363842917784 0.010451819086024512 0 -0.00041667608872075182 0.010502168700689391 0 -0.00042984872705976443 0.010211071155420734 0 -0.00040960712465849011 0.010371156591133537 0 -0.00035994363842917784 0.010451819086024512 0 -0.0002569589464284269 0.010469426274599666 0 -0.00035994363842917784 0.010451819086024512 0 -0.00033541473304168218 0.01056122968765051 0 -0.00035994363842917784 0.010451819086024512 0 -0.00041667608872075182 0.010502168700689391 0 -0.00033541473304168218 0.01056122968765051 0 -0.00041667608872075182 0.010502168700689391 0 -0.00033541473304168218 0.01056122968765051 0 -0.00048201508701750315 0.010646348572598613 0 -0.00041667608872075182 0.010502168700689391 0 -0.00065858042761332732 0.010419195112459171 0 -0.00048201508701750315 0.010646348572598613 0 -0.00040960712465849011 0.010371156591133537 0 -0.00041667608872075182 0.010502168700689391 0 -0.00065858042761332732 0.010419195112459171 0 0.0010228375434481421 0.0013668258208005258 0 0.0011769420233438616 0.0011974145206682643 0 0.0012225470848795496 0.0013883774837993332 0 -0.0010111011679545753 0.011256524853420991 0 -0.00065858042761332732 0.010419195112459171 0 -0.00061784948521229662 0.010901355183942018 0 0.00024096793725505864 0.0060171365784003365 0 0.00020444554487735394 0.0061326194457414791 0 -0.0010111011679545753 0.011256524853420991 0 -0.00064922046633636248 0.011231301340417926 0 -0.00061784948521229662 0.010901355183942018 0 -0.00065858042761332732 0.010419195112459171 0 -0.00061784948521229662 0.010901355183942018 0 -0.00048201508701750315 0.010646348572598613 0 -0.00061784948521229662 0.010901355183942018 0 -0.00048201508701750315 0.010646348572598613 0 -0.00035684976018391247 0.011008412892910683 0 -0.00048201508701750315 0.010646348572598613 0 -0.00027736097279005233 0.010737889181338481 0 -0.00035684976018391247 0.011008412892910683 0 -0.00033541473304168218 0.01056122968765051 0 -0.00048201508701750315 0.010646348572598613 0 -0.00027736097279005233 0.010737889181338481 0 -0.00035684976018391247 0.011008412892910683 0 -0.00050650698488152041 0.011054344194574567 0 -0.00030234245347456908 0.011355693106627136 0 -0.00064922046633636248 0.011231301340417926 0 -0.00061784948521229662 0.010901355183942018 0 -0.00050650698488152041 0.011054344194574567 0 -0.00061784948521229662 0.010901355183942018 0 -0.00035684976018391247 0.011008412892910683 0 -0.00050650698488152041 0.011054344194574567 0 -0.00064922046633636248 0.011231301340417926 0 -0.00050650698488152041 0.011054344194574567 0 -0.00030234245347456908 0.011355693106627136 0 -0.00051291174868361869 0.013382458968539221 0 -0.00015094248815873459 0.014865954998545176 0 -0.00048566840895405196 0.018161999105929829 0 -0.0006315321117142447 0.018006799083057846 0 -0.00054033087858366621 0.017826761305068446 0 -0.0002569589464284269 0.010469426274599666 0 -0.00027736097279005233 0.010737889181338481 0 0.00015513604571443316 0.011484712715827803 0 -0.00027736097279005233 0.010737889181338481 0 -0.00035684976018391247 0.011008412892910683 0 0.00015513604571443316 0.011484712715827803 0 -0.00035684976018391247 0.011008412892910683 0 0.00015513604571443316 0.011484712715827803 0 -0.00030234245347456908 0.011355693106627136 0 -0.00048566840895405196 0.018161999105929829 0 -0.0006315321117142447 0.018006799083057846 0 -0.00064353846719125316 0.018119139533641217 0 -0.0006315321117142447 0.018006799083057846 0 -0.00064353846719125316 0.018119139533641217 0 -0.00076332549245735086 0.018086237683184424 0 -0.0006315321117142447 0.018006799083057846 0 -0.00054033087858366621 0.017826761305068446 0 -0.0007816220654961964 0.017885292235150198 0 -0.0006315321117142447 0.018006799083057846 0 -0.00076332549245735086 0.018086237683184424 0 -0.0007816220654961964 0.017885292235150198 0 -0.00015094248815873459 0.014865954998545176 0 -3.0126915161053807e-05 0.015210412664107085 0 -0.00054033087858366621 0.017826761305068446 0 -0.0007816220654961964 0.017885292235150198 0 -0.00041091605391537178 0.017503681431734881 0 -0.00019647084667673864 0.012201658580680216 0 0.00015513604571443316 0.011484712715827803 0 0.00046050079569364804 0.01313897805335716 0 -0.00019647084667673864 0.012201658580680216 0 0.00015513604571443316 0.011484712715827803 0 -0.00030234245347456908 0.011355693106627136 0 -0.00156888487874139 0.012568625476467771 0 -0.0011476551114051295 0.011088023842686144 0 -0.00067257683097785264 0.011598645170303189 0 -0.00019647084667673864 0.012201658580680216 0 -0.00067257683097785264 0.011598645170303189 0 -0.00063511432320475332 0.012822308129692605 0 -0.00019647084667673864 0.012201658580680216 0 -0.00030234245347456908 0.011355693106627136 0 -0.00067257683097785264 0.011598645170303189 0 -0.00064922046633636248 0.011231301340417926 0 -0.00030234245347456908 0.011355693106627136 0 -0.00067257683097785264 0.011598645170303189 0 0.00024096793725505864 0.0060171365784003365 0 0.00052063719878349412 0.010020221104248423 0 -0.0010111011679545753 0.011256524853420991 0 -0.00064922046633636248 0.011231301340417926 0 -0.00067257683097785264 0.011598645170303189 0 -0.0011111161970803508 0.01816412340609037 0 -0.0011742825798537768 0.017684781616429612 0 -0.0014546996608399577 0.017629484903366827 0 1.9076054645914548e-06 0.020889718176650161 0 -6.7437916654531765e-05 0.020018106741680624 0 -0.0011111161970803508 0.01816412340609037 0 -0.00076332549245735086 0.018086237683184424 0 -0.0007816220654961964 0.017885292235150198 0 -0.0011111161970803508 0.01816412340609037 0 -0.0007816220654961964 0.017885292235150198 0 -0.0011742825798537768 0.017684781616429612 0 -0.0007816220654961964 0.017885292235150198 0 -0.0011742825798537768 0.017684781616429612 0 -0.00041091605391537178 0.017503681431734881 0 -0.0011742825798537768 0.017684781616429612 0 -0.0014546996608399577 0.017629484903366827 0 -0.0015347861432123281 0.017539565781355859 0 -6.7437916654531765e-05 0.020018106741680624 0 0.00051938664723073184 0.020220976689669674 0 0.0013434010554651344 0.0226745098391011 0 0.0016442200990722665 0.022689880605748947 0 0.0017875423532575448 0.02280613584732941 0 0.0013434010554651344 0.0226745098391011 0 0.0016442200990722665 0.022689880605748947 0 0.0015802528410731923 0.022484156824180899 0 0.0013434010554651344 0.0226745098391011 0 0.0015802528410731923 0.022484156824180899 0 0.0013366717901274407 0.022379364717902844 0 0.00089476962977874154 0.022358225535215 0 0.0013434010554651344 0.0226745098391011 0 0.0013366717901274407 0.022379364717902844 0 0.0013366717901274407 0.022379364717902844 0 0.0015457468134559471 0.022282358174085994 0 0.0011508553872186477 0.0219311071961087 0 0.0015802528410731923 0.022484156824180899 0 0.0015457468134559471 0.022282358174085994 0 0.0015992645655468639 0.022380141344353958 0 0.0015802528410731923 0.022484156824180899 0 0.0013366717901274407 0.022379364717902844 0 0.0015457468134559471 0.022282358174085994 0 0.0015457468134559471 0.022282358174085994 0 0.0015597075765643733 0.022355040404189064 0 0.0015992645655468639 0.022380141344353958 0 0.0015734600431932656 0.021943258688961225 0 0.001555636882247785 0.022275122583206658 0 0.0015423490312825 0.022338927516201701 0 0.0015457468134559471 0.022282358174085994 0 0.0015597075765643733 0.022355040404189064 0 0.0016252145300853719 0.02164724633033616 0 0.0015457468134559471 0.022282358174085994 0 0.0011508553872186477 0.0219311071961087 0 0.0015597075765643733 0.022355040404189064 0 0.0016081334512934411 0.02240294565897348 0 0.001573437594092582 0.022393793663150228 0 0.0015597075765643733 0.022355040404189064 0 0.0015992645655468639 0.022380141344353958 0 0.0016081334512934411 0.02240294565897348 0 0.0015992645655468639 0.022380141344353958 0 0.0016081334512934411 0.02240294565897348 0 0.0016639394022718594 0.022480777943547976 0 0.0012565168393752061 0.024971747526242837 0 0.0005748809702185761 0.025665182289505272 0 0.001630174801173793 0.022441968047112595 0 0.0016081334512934411 0.02240294565897348 0 0.0016639394022718594 0.022480777943547976 0 0.001630174801173793 0.022441968047112595 0 0.0016081334512934411 0.02240294565897348 0 0.001573437594092582 0.022393793663150228 0 0.0012565168393752061 0.024971747526242837 0 0.0019996690474231521 0.022525130564695402 0 0.0012565168393752061 0.024971747526242837 0 0.0018973947482707205 0.023701434050281044 0 0.0017950558414674084 0.026280814707770314 0 0.0020052103878456119 0.025010544994329077 0 0.0014427941878203078 0.025605181629378988 0 0.0018305796672557183 0.022462340169368149 0 0.0016639394022718594 0.022480777943547976 0 0.001756505017145669 0.022719280662530098 0 0.0015802528410731923 0.022484156824180899 0 0.0015992645655468639 0.022380141344353958 0 0.0016639394022718594 0.022480777943547976 0 0.0016442200990722665 0.022689880605748947 0 0.0015802528410731923 0.022484156824180899 0 0.0016639394022718594 0.022480777943547976 0 0.0016442200990722665 0.022689880605748947 0 0.0016639394022718594 0.022480777943547976 0 0.001756505017145669 0.022719280662530098 0 0.0016442200990722665 0.022689880605748947 0 0.001756505017145669 0.022719280662530098 0 0.0016598657409796892 0.022789427295983097 0 0.0020052103878456119 0.025010544994329077 0 0.0012974128867578763 0.024174086787857423 0 0.0014427941878203078 0.025605181629378988 0 0.0020052103878456119 0.025010544994329077 0 0.0015559787317592551 0.022849726199695452 0 0.0012974128867578763 0.024174086787857423 0 0.0018973947482707205 0.023701434050281044 0 0.0016270523025815112 0.023058722091342226 0 0.0012926367484308197 0.022905966770365997 0 0.0015559787317592551 0.022849726199695452 0 0.0012974128867578763 0.024174086787857423 0 0.0012926367484308197 0.022905966770365997 0 0.0014164801135246076 0.021342598347030638 0 0.0015559787317592551 0.022849726199695452 0 0.0014164801135246076 0.021342598347030638 0 0.0015559787317592551 0.022849726199695452 0 0.0017875423532575448 0.02280613584732941 0 0.001756505017145669 0.022719280662530098 0 0.0016598657409796892 0.022789427295983097 0 0.0015559787317592551 0.022849726199695452 0 0.0016598657409796892 0.022789427295983097 0 0.0015559787317592551 0.022849726199695452 0 0.0017875423532575448 0.02280613584732941 0 0.0016442200990722665 0.022689880605748947 0 0.0016598657409796892 0.022789427295983097 0 0.0017875423532575448 0.02280613584732941 0 -0.0014546996608399577 0.017629484903366827 0 -0.00073695201715146387 0.017470280217153234 0 -0.0015347861432123281 0.017539565781355859 0 -0.00073695201715146387 0.017470280217153234 0 -0.0015347861432123281 0.017539565781355859 0 -0.0015340552097421599 0.017968500369700255 0 -0.0015340552097421599 0.017968500369700255 0 -0.00053155320754886268 0.019726152780091717 0 -0.0024280279245082869 0.017567758761827885 0 -0.0015347861432123281 0.017539565781355859 0 -0.0015340552097421599 0.017968500369700255 0 -0.0017630291794582676 0.017478577888575687 0 -0.0015340552097421599 0.017968500369700255 0 -0.0017630291794582676 0.017478577888575687 0 -0.0024280279245082869 0.017567758761827885 0 0.0014164801135246076 0.021342598347030638 0 -0.00073695201715146387 0.017470280217153234 0 -0.00053155320754886268 0.019726152780091717 0 0.0013160444790848971 0.021180129290966233 0 0.00051938664723073184 0.020220976689669674 0 -0.00073695201715146387 0.017470280217153234 0 -0.0015340552097421599 0.017968500369700255 0 -0.00053155320754886268 0.019726152780091717 0 -0.00053155320754886268 0.019726152780091717 0 -0.00024814988591482948 0.022393056645129306 0 0.00075387538716178537 0.021645260707259195 0 0.0014164801135246076 0.021342598347030638 0 -0.00053155320754886268 0.019726152780091717 0 0.00075387538716178537 0.021645260707259195 0 -0.00053155320754886268 0.019726152780091717 0 -0.00024814988591482948 0.022393056645129306 0 -0.0024280279245082869 0.017567758761827885 0 -0.0020191585419515692 0.018615538119260304 0 -0.0023621183535488736 0.017790569337696654 0 -0.0027785218696519906 0.015526306951814639 0 -0.0040204399976136356 0.014915653735947224 0 -0.0024280279245082869 0.017567758761827885 0 -0.0027785218696519906 0.015526306951814639 0 -0.0040204399976136356 0.014915653735947224 0 -0.0032780839092141235 0.014527655365043858 0 -0.00024814988591482948 0.022393056645129306 0 0.0010518044573935776 0.022529681604236879 0 0.0010496657812241424 0.023237798322383232 0 -0.00024814988591482948 0.022393056645129306 0 0.0010518044573935776 0.022529681604236879 0 0.00075387538716178537 0.021645260707259195 0 0.0013071402520925389 0.022859714397256384 0 0.0012952091687820494 0.023118741357240659 0 0.0012290591017810541 0.02320056649706858 0 0.0010518044573935776 0.022529681604236879 0 0.0013071402520925389 0.022859714397256384 0 0.0012108158378397098 0.022927791610835253 0 0.0010518044573935776 0.022529681604236879 0 0.0013071402520925389 0.022859714397256384 0 0.0013821429518304511 0.022334278131773144 0 0.0012926367484308197 0.022905966770365997 0 0.0014164801135246076 0.021342598347030638 0 0.0013821429518304511 0.022334278131773144 0 0.0012926367484308197 0.022905966770365997 0 0.0013821429518304511 0.022334278131773144 0 0.0012534138372159241 0.023000140126882777 0 0.0013071402520925389 0.022859714397256384 0 0.0013821429518304511 0.022334278131773144 0 0.0012534138372159241 0.023000140126882777 0 0.0014164801135246076 0.021342598347030638 0 0.0013821429518304511 0.022334278131773144 0 0.00075387538716178537 0.021645260707259195 0 0.0010518044573935776 0.022529681604236879 0 0.0013821429518304511 0.022334278131773144 0 0.00075387538716178537 0.021645260707259195 0 -0.00098305203308200425 0.013734022889993714 0 -0.00033060268064243422 0.014283700745399005 0 -0.00050525361863554112 0.014962231996037757 0 -0.00098305203308200425 0.013734022889993714 0 -0.00063511432320475332 0.012822308129692605 0 -0.00033060268064243422 0.014283700745399005 0 -0.00156888487874139 0.012568625476467771 0 -0.00067257683097785264 0.011598645170303189 0 -0.00063511432320475332 0.012822308129692605 0 -0.00156888487874139 0.012568625476467771 0 -0.00098305203308200425 0.013734022889993714 0 -0.00063511432320475332 0.012822308129692605 0 -0.00063511432320475332 0.012822308129692605 0 0.00046050079569364804 0.01313897805335716 0 -0.00033060268064243422 0.014283700745399005 0 -0.00019647084667673864 0.012201658580680216 0 -0.00063511432320475332 0.012822308129692605 0 0.00046050079569364804 0.01313897805335716 0 -3.0126915161053807e-05 0.015210412664107085 0 -6.0974789827654982e-05 0.01546203932609579 0 0.00046050079569364804 0.01313897805335716 0 -0.00033060268064243422 0.014283700745399005 0 -7.4117112720445467e-05 0.015584677747418202 0 -0.00033060268064243422 0.014283700745399005 0 -0.0001961283488890879 0.015082879968162669 0 -0.00050525361863554112 0.014962231996037757 0 -0.00033060268064243422 0.014283700745399005 0 -7.4117112720445467e-05 0.015584677747418202 0 -0.0001961283488890879 0.015082879968162669 0 -0.00041091605391537178 0.017503681431734881 0 -7.4117112720445467e-05 0.015584677747418202 0 -0.00084495371323445312 0.016799603230347064 0 -7.4117112720445467e-05 0.015584677747418202 0 -0.00084495371323445312 0.016799603230347064 0 -0.0013568617557221719 0.016736290134118609 0 -0.00084495371323445312 0.016799603230347064 0 -0.00126186914603157 0.017339739930849501 0 -0.0013568617557221719 0.016736290134118609 0 -0.0011742825798537768 0.017684781616429612 0 -0.00041091605391537178 0.017503681431734881 0 -0.00126186914603157 0.017339739930849501 0 -0.00041091605391537178 0.017503681431734881 0 -0.00084495371323445312 0.016799603230347064 0 -0.00126186914603157 0.017339739930849501 0 -0.0011742825798537768 0.017684781616429612 0 -0.0015347861432123281 0.017539565781355859 0 -0.00126186914603157 0.017339739930849501 0 -0.0015347861432123281 0.017539565781355859 0 -0.00126186914603157 0.017339739930849501 0 -0.0017630291794582676 0.017478577888575687 0 -0.00126186914603157 0.017339739930849501 0 -0.0017630291794582676 0.017478577888575687 0 -0.0013568617557221719 0.016736290134118609 0 -0.0017630291794582676 0.017478577888575687 0 -0.0013568617557221719 0.016736290134118609 0 -0.0024280279245082869 0.017567758761827885 0 -0.0013568617557221719 0.016736290134118609 0 -0.0024280279245082869 0.017567758761827885 0 -0.00141037135511022 0.015621109830563621 0 -0.0027785218696519906 0.015526306951814639 0 -0.0024280279245082869 0.017567758761827885 0 -0.00141037135511022 0.015621109830563621 0 -0.002805302522061336 0.015240895998437486 0 -0.0024173970621234552 0.013020897867103103 0 -0.0027785218696519906 0.015526306951814639 0 -0.0025600110195771837 0.014425456082908126 0 -0.0032780839092141235 0.014527655365043858 0 -0.0027785218696519906 0.015526306951814639 0 -0.00094858603906238707 0.013966957460877134 0 -0.0012902656002313009 0.012617495358680453 0 -0.0027785218696519906 0.015526306951814639 0 -0.00141037135511022 0.015621109830563621 0 -0.00094858603906238707 0.013966957460877134 0 -0.0027785218696519906 0.015526306951814639 0 -0.0012902656002313009 0.012617495358680453 0 -0.0022038306123727093 0.011454521094980663 0 -0.00094858603906238707 0.013966957460877134 0 -0.0012902656002313009 0.012617495358680453 0 -0.00027643365127630933 0.012068606897199694 0 -0.00094858603906238707 0.013966957460877134 0 0.00023011515938556115 0.013371065960235875 0 -0.00027643365127630933 0.012068606897199694 0 -0.00094858603906238707 0.013966957460877134 0 -0.0002131951646771401 0.014921509349413806 0 0.00023011515938556115 0.013371065960235875 0 -0.00141037135511022 0.015621109830563621 0 -0.0002131951646771401 0.014921509349413806 0 -0.00073164561950392142 0.015711232338009386 0 -0.00141037135511022 0.015621109830563621 0 -0.00094858603906238707 0.013966957460877134 0 -0.0002131951646771401 0.014921509349413806 0 -7.4117112720445467e-05 0.015584677747418202 0 -0.0013568617557221719 0.016736290134118609 0 -0.00073164561950392142 0.015711232338009386 0 -0.0013568617557221719 0.016736290134118609 0 -0.00141037135511022 0.015621109830563621 0 -0.00073164561950392142 0.015711232338009386 0 -7.4117112720445467e-05 0.015584677747418202 0 -0.0002131951646771401 0.014921509349413806 0 -0.00073164561950392142 0.015711232338009386 0 -0.0002131951646771401 0.014921509349413806 0 -0.0001961283488890879 0.015082879968162669 0 -0.00050525361863554112 0.014962231996037757 0 -0.00023550642803909732 0.014739056870408922 0 0.0010467243205331306 0.015492229358595965 0 -0.0002131951646771401 0.014921509349413806 0 0.0015693268281905814 0.014034128465652001 0 0.0025210367214771024 0.014912320784452341 0 -7.4117112720445467e-05 0.015584677747418202 0 -0.0002131951646771401 0.014921509349413806 0 -0.0001961283488890879 0.015082879968162669 0 0.00023011515938556115 0.013371065960235875 0 0.00072646299186739235 0.010945346259128571 0 0.00034330187778712625 0.011570157510997292 0 0.0015693268281905814 0.014034128465652001 0 0.00023011515938556115 0.013371065960235875 0 0.0023579112028650892 0.01290738744443135 0 -0.0002131951646771401 0.014921509349413806 0 0.0015693268281905814 0.014034128465652001 0 0.00023011515938556115 0.013371065960235875 0 0.00023011515938556115 0.013371065960235875 0 0.0023579112028650892 0.01290738744443135 0 0.0025355064906362463 0.012174265372333697 0 0.00018288956801789302 0.013099870922070107 0 0.0014893403728888917 0.011681868122593681 0 0.00023011515938556115 0.013371065960235875 0 0.00034330187778712625 0.011570157510997292 0 -0.00027643365127630933 0.012068606897199694 0 0.0015693268281905814 0.014034128465652001 0 0.0023579112028650892 0.01290738744443135 0 0.0025539246096233318 0.013991740144928051 0 0.0023579112028650892 0.01290738744443135 0 0.0025355064906362463 0.012174265372333697 0 0.0028586862936403135 0.012527067301093701 0 0.0033803631439783635 0.012206734606972209 0 0.0025355064906362463 0.012174265372333697 0 0.0028586862936403135 0.012527067301093701 0 0.0037013313282652023 0.014040083101583297 0 0.0023579112028650892 0.01290738744443135 0 0.0025539246096233318 0.013991740144928051 0 0.0032653998538091956 0.012934574184188632 0 0.0031560212408731484 0.012689863171276827 0 0.0023579112028650892 0.01290738744443135 0 0.0031560212408731484 0.012689863171276827 0 0.0023579112028650892 0.01290738744443135 0 0.0028586862936403135 0.012527067301093701 0 0.0041768114008615027 0.013887429373737718 0 0.0022411401978757531 0.012771239658962742 0 0.0037013313282652023 0.014040083101583297 0 0.0025539246096233318 0.013991740144928051 0 0.0025210367214771024 0.014912320784452341 0 0.0015693268281905814 0.014034128465652001 0 0.0025539246096233318 0.013991740144928051 0 0.0025210367214771024 0.014912320784452341 0 0.00035816089203702254 0.0092509263807639582 0 0.00034739422986859611 0.0097141265851952673 0 0.00016453884040779583 0.0090525501353744785 0 0.00034739422986859611 0.0097141265851952673 0 0.00013617124208142284 0.0093444730584800149 0 0.00016453884040779583 0.0090525501353744785 0 0.00035816089203702254 0.0092509263807639582 0 0.00034739422986859611 0.0097141265851952673 0 0.00054192995414745551 0.010018311086075166 0 0.0020305016447700265 0.010710847210508424 0 0.0014893403728888917 0.011681868122593681 0 0.0004911075794725554 0.0094712210692166551 0 0.00072646299186739235 0.010945346259128571 0 0.00054192995414745551 0.010018311086075166 0 0.00072646299186739235 0.010945346259128571 0 0.00054192995414745551 0.010018311086075166 0 0.00056771213792780888 0.010536831192586556 0 0.00072646299186739235 0.010945346259128571 0 0.00050597520820099646 0.010861181200444877 0 0.00034330187778712625 0.011570157510997292 0 0.00072646299186739235 0.010945346259128571 0 0.00056771213792780888 0.010536831192586556 0 0.00050597520820099646 0.010861181200444877 0 0.00056771213792780888 0.010536831192586556 0 0.00050597520820099646 0.010861181200444877 0 0.00044297617836283972 0.010414867072098238 0 0.00034739422986859611 0.0097141265851952673 0 0.00044297617836283972 0.010414867072098238 0 0.00025059582423705778 0.010323087128450141 0 0.00034739422986859611 0.0097141265851952673 0 0.00054192995414745551 0.010018311086075166 0 0.00044297617836283972 0.010414867072098238 0 0.00054192995414745551 0.010018311086075166 0 0.00056771213792780888 0.010536831192586556 0 0.00044297617836283972 0.010414867072098238 0 0.00025059582423705778 0.010323087128450141 0 -3.9711531680144769e-05 0.010817975730252361 0 0.00013592933988951345 0.0098613789842822604 0 0.00025059582423705778 0.010323087128450141 0 0.00031934312970930854 0.010793730567959244 0 -3.9711531680144769e-05 0.010817975730252361 0 0.00044297617836283972 0.010414867072098238 0 0.00025059582423705778 0.010323087128450141 0 0.00031934312970930854 0.010793730567959244 0 0.00031934312970930854 0.010793730567959244 0 0.00034330187778712625 0.011570157510997292 0 -3.9711531680144769e-05 0.010817975730252361 0 0.00050597520820099646 0.010861181200444877 0 0.00031934312970930854 0.010793730567959244 0 0.00034330187778712625 0.011570157510997292 0 0.00050597520820099646 0.010861181200444877 0 0.00044297617836283972 0.010414867072098238 0 0.00031934312970930854 0.010793730567959244 0 0.00034330187778712625 0.011570157510997292 0 -3.9711531680144769e-05 0.010817975730252361 0 -0.00027643365127630933 0.012068606897199694 0 -3.9711531680144769e-05 0.010817975730252361 0 0.00013592933988951345 0.0098613789842822604 0 -0.00053439219447208206 0.010153750641687991 0 0.00034739422986859611 0.0097141265851952673 0 0.00025059582423705778 0.010323087128450141 0 0.00013592933988951345 0.0098613789842822604 0 0.00013592933988951345 0.0098613789842822604 0 0.00013617124208142284 0.0093444730584800149 0 -3.9351105526293707e-05 0.0093088646323725589 0 0.00034739422986859611 0.0097141265851952673 0 0.00013592933988951345 0.0098613789842822604 0 0.00013617124208142284 0.0093444730584800149 0 0.00013592933988951345 0.0098613789842822604 0 -0.00053439219447208206 0.010153750641687991 0 -3.9351105526293707e-05 0.0093088646323725589 0 -0.00053439219447208206 0.010153750641687991 0 -0.0022038306123727093 0.011454521094980663 0 -0.0010398568227550135 0.0091698452234728837 0 -0.0024173970621234552 0.013020897867103103 0 -0.00077154789523179855 0.011538101183281453 0 -0.00053439219447208206 0.010153750641687991 0 -0.0010398568227550135 0.0091698452234728837 0 -3.9351105526293707e-05 0.0093088646323725589 0 -3.9711531680144769e-05 0.010817975730252361 0 -0.00053439219447208206 0.010153750641687991 0 -0.00077348195046423847 0.011361853865565914 0 -0.00053439219447208206 0.010153750641687991 0 -0.00077348195046423847 0.011361853865565914 0 -0.0022038306123727093 0.011454521094980663 0 -0.0012902656002313009 0.012617495358680453 0 -0.00077348195046423847 0.011361853865565914 0 -0.00027643365127630933 0.012068606897199694 0 -3.9711531680144769e-05 0.010817975730252361 0 -0.00077348195046423847 0.011361853865565914 0 -0.00027643365127630933 0.012068606897199694 0 -0.0012902656002313009 0.012617495358680453 0 -0.00077348195046423847 0.011361853865565914 0 -0.0022038306123727093 0.011454521094980663 0 -0.0025600110195771837 0.014425456082908126 0 -0.0021579415669200023 0.013626303018176017 0 -0.0032441054352581205 0.013705833466094202 0 -0.00077154789523179855 0.011538101183281453 0 -0.0017595728593143012 0.014208986117887496 0 -0.0001013847946190105 0.013119876971425923 0 0.00020525318980369985 0.013296461952260138 0 -0.00024904016282259494 0.014017706982212772 0 -0.0001013847946190105 0.013119876971425923 0 -1.1423455776162671e-05 0.012212716854964731 0 -7.2582559018475342e-07 0.013146720345489502 0 -1.1423455776162671e-05 0.012212716854964731 0 0.00034207164595163213 0.012574166198294554 0 0.00012985156595245743 0.010597414880183197 0 9.8853110206036433e-07 0.011163614385357729 0 -1.1423455776162671e-05 0.012212716854964731 0 -7.2582559018475342e-07 0.013146720345489502 0 -0.0001013847946190105 0.013119876971425923 0 -1.1423455776162671e-05 0.012212716854964731 0 0.00034207164595163213 0.012574166198294554 0 9.8853110206036433e-07 0.011163614385357729 0 -1.1423455776162671e-05 0.012212716854964731 0 0.00012985156595245743 0.010597414880183197 0 -0.0001013847946190105 0.013119876971425923 0 0.00034207164595163213 0.012574166198294554 0 0.00020525318980369985 0.013296461952260138 0 0.0002473099104355757 0.010968607287007924 0 -0.00077154789523179855 0.011538101183281453 0 -0.00077154789523179855 0.011538101183281453 0 -8.2805480309836911e-05 0.0099982140264795859 0 0.00029471407194908949 0.009510524131875012 0 0.00023825761026722645 0.0093039225036766968 0 -3.9351105526293707e-05 0.0093088646323725589 0 0.00029471407194908949 0.009510524131875012 0 -3.9351105526293707e-05 0.0093088646323725589 0 3.006318717819509e-05 0.0093233164441642209 0 0.00013617124208142284 0.0093444730584800149 0 -3.9351105526293707e-05 0.0093088646323725589 0 3.006318717819509e-05 0.0093233164441642209 0 0.00013617124208142284 0.0093444730584800149 0 3.006318717819509e-05 0.0093233164441642209 0 8.9638586243357127e-06 0.0091717931241080252 0 3.006318717819509e-05 0.0093233164441642209 0 -3.0983867679388738e-05 0.0096428443317212471 0 8.9638586243357127e-06 0.0091717931241080252 0 0.00029471407194908949 0.009510524131875012 0 3.006318717819509e-05 0.0093233164441642209 0 -3.0983867679388738e-05 0.0096428443317212471 0 9.8853110206036433e-07 0.011163614385357729 0 0.00012985156595245743 0.010597414880183197 0 -3.0645632807048042e-07 0.0091799872884135731 0 0.00012985156595245743 0.010597414880183197 0 -3.0983867679388738e-05 0.0096428443317212471 0 -3.0645632807048042e-07 0.0091799872884135731 0 0.00029471407194908949 0.009510524131875012 0 0.00012985156595245743 0.010597414880183197 0 -3.0983867679388738e-05 0.0096428443317212471 0 0.0002473099104355757 0.010968607287007924 0 0.00015965331603897878 0.010841876119644713 0 -3.0983867679388738e-05 0.0096428443317212471 0 -3.0645632807048042e-07 0.0091799872884135731 0 8.9638586243357127e-06 0.0091717931241080252 0 3.2519232693554778e-05 0.0086835873329476811 0 -3.0645632807048042e-07 0.0091799872884135731 0 8.9638586243357127e-06 0.0091717931241080252 0 3.2519232693554778e-05 0.0086835873329476811 0 8.9638586243357127e-06 0.0091717931241080252 0 0.00016453884040779583 0.0090525501353744785 0 0.00013617124208142284 0.0093444730584800149 0 8.9638586243357127e-06 0.0091717931241080252 0 0.00016453884040779583 0.0090525501353744785 0 -0.0040994285374369981 0.014330069781453415 0 -0.0040024781030268096 0.013996512266243134 0 -0.0042220958715535979 0.014141520665968087 0 -0.0040994285374369981 0.014330069781453415 0 -0.0037760330607564882 0.014291174392477122 0 -0.0040024781030268096 0.013996512266243134 0 0.0012952091687820494 0.023118741357240659 0 0.0010496657812241424 0.023237798322383232 0 0.0012907293638539136 0.023225479216012944 0 -0.0016761940709727294 0.018848374805776481 0 -0.00072700162984429967 0.018173147562014456 0 0.0012952091687820494 0.023118741357240659 0 0.0012108158378397098 0.022927791610835253 0 0.0010496657812241424 0.023237798322383232 0 0.0013071402520925389 0.022859714397256384 0 0.0012952091687820494 0.023118741357240659 0 0.0012108158378397098 0.022927791610835253 0 0.0010518044573935776 0.022529681604236879 0 0.0012108158378397098 0.022927791610835253 0 0.0010496657812241424 0.023237798322383232 0 -0.0020191585419515692 0.018615538119260304 0 -0.0016761940709727294 0.018848374805776481 0 -0.0040204399976136356 0.014915653735947224 0 -0.0037760330607564882 0.014291174392477122 0 -0.0032780839092141235 0.014527655365043858 0 -0.0040204399976136356 0.014915653735947224 0 -0.0040994285374369981 0.014330069781453415 0 -0.0037760330607564882 0.014291174392477122 0 -0.0025600110195771837 0.014425456082908126 0 -0.0032780839092141235 0.014527655365043858 0 -0.0032441054352581205 0.013705833466094202 0 -0.0037760330607564882 0.014291174392477122 0 -0.0032780839092141235 0.014527655365043858 0 -0.0032441054352581205 0.013705833466094202 0 -0.0037760330607564882 0.014291174392477122 0 -0.0032441054352581205 0.013705833466094202 0 -0.0040024781030268096 0.013996512266243134 0 -0.00020287025199791373 0.014563969178377826 0 -0.00024904016282259494 0.014017706982212772 0 -0.00026721347106027486 0.015222912168056484 0 -0.0017595728593143012 0.014208986117887496 0 -0.0024657491353665129 0.014128920565838515 0 -0.0001013847946190105 0.013119876971425923 0 -0.00020287025199791373 0.014563969178377826 0 -0.00024904016282259494 0.014017706982212772 0 -0.0001013847946190105 0.013119876971425923 0 -0.00020287025199791373 0.014563969178377826 0 -7.2582559018475342e-07 0.013146720345489502 0 -0.00020287025199791373 0.014563969178377826 0 -7.2582559018475342e-07 0.013146720345489502 0 -3.3192949822462463e-07 0.015128843151759689 0 -3.3192949822462463e-07 0.015128843151759689 0 -0.00016055671391716951 0.016020750998690644 0 -6.5909795337845501e-07 0.017111735767264116 0 -0.00020287025199791373 0.014563969178377826 0 -3.3192949822462463e-07 0.015128843151759689 0 -0.00016055671391716951 0.016020750998690644 0 -0.00020287025199791373 0.014563969178377826 0 -0.00026721347106027486 0.015222912168056484 0 -0.00016055671391716951 0.016020750998690644 0 -0.0024657491353665129 0.014128920565838515 0 -0.00072700162984429967 0.018173147562014456 0 -0.00016055671391716951 0.016020750998690644 0 5.2213033895427822e-05 0.016892217967346381 0 5.4489536588008198e-05 0.016010373064004428 0 -0.00026721347106027486 0.015222912168056484 0 -0.00016055671391716951 0.016020750998690644 0 5.4489536588008198e-05 0.016010373064004428 0 -0.00016055671391716951 0.016020750998690644 0 -6.5909795337845501e-07 0.017111735767264116 0 5.2213033895427822e-05 0.016892217967346381 0 5.2213033895427822e-05 0.016892217967346381 0 1.8199295054701589e-06 0.019092127678403875 0 0.00044448254819567235 0.016610692352402145 0 -6.5909795337845501e-07 0.017111735767264116 0 5.2213033895427822e-05 0.016892217967346381 0 1.8199295054701589e-06 0.019092127678403875 0 7.3344692950581607e-08 0.019097057178558807 0 3.4289686135278507e-06 0.019188995101229369 0 0.00012384193051307674 0.019285258214868081 0 -6.7870721800269408e-07 0.019092599055028393 0 0.00066245437151361375 0.019200229206147841 0 7.3344692950581607e-08 0.019097057178558807 0 3.4289686135278507e-06 0.019188995101229369 0 -5.7549481213611577e-08 0.019958531181607991 0 0.00080509855136746641 0.020296854123518455 0 1.2356449998591246e-07 0.019960558112017936 0 0.0014133976546959184 0.021982491443047963 0 0.0025140993970000042 0.022550305641505532 0 0.00060675289609174953 0.022646314377813677 0 0.0012566599205726381 0.021614709034585573 0 0.00092372705666356257 0.022958539870155715 0 0.00141885151522256 0.021114500043682462 0 0.0014133976546959184 0.021982491443047963 0 0.00018971852821584705 0.021574875047420068 0 0.00141885151522256 0.021114500043682462 0 0.0014133976546959184 0.021982491443047963 0 0.0022010363576627627 0.021907126395926065 0 0.00080509855136746641 0.020296854123518455 0 0.00066245437151361375 0.019200229206147841 0 0.0014133976546959184 0.021982491443047963 0 0.0022010363576627627 0.021907126395926065 0 0.0025140993970000042 0.022550305641505532 0 5.2213033895427822e-05 0.016892217967346381 0 0.00044448254819567235 0.016610692352402145 0 5.4489536588008198e-05 0.016010373064004428 0 0.00066245437151361375 0.019200229206147841 0 0.0012566599205726381 0.021614709034585573 0 0.00066245437151361375 0.019200229206147841 0 -0.00072700162984429967 0.018173147562014456 0 0.00077046144567795988 0.019589802760041786 0 0.00063327739527032018 0.019335346459833019 0 0.00047632814168428327 0.019334512207086079 0 0.0012566599205726381 0.021614709034585573 0 -0.00072700162984429967 0.018173147562014456 0 0.0012952091687820494 0.023118741357240659 0 0.0012767596363207785 0.022810270328320576 0 0.0011723251382964148 0.023143890267931781 0 0.0014205383598975831 0.023629943677354052 0 0.0012566599205726381 0.021614709034585573 0 0.0012952091687820494 0.023118741357240659 0 0.0013151741188202916 0.023222279901068166 0 0.0012907293638539136 0.023225479216012944 0 0.0011723251382964148 0.023143890267931781 0 0.00074559961675146566 0.023310848004573229 0 0.00060675289609174953 0.022646314377813677 0 0.0012767596363207785 0.022810270328320576 0 0.0011723251382964148 0.023143890267931781 0 0.00060675289609174953 0.022646314377813677 0 0.0011723251382964148 0.023143890267931781 0 0.00074559961675146566 0.023310848004573229 0 0.00097535848223453655 0.023497028584351567 0 0.00074559961675146566 0.023310848004573229 0 0.00097535848223453655 0.023497028584351567 0 0.00062829919670322827 0.023842267393740849 0 0.0012952091687820494 0.023118741357240659 0 0.0011723251382964148 0.023143890267931781 0 0.0012290591017810541 0.02320056649706858 0 0.0011723251382964148 0.023143890267931781 0 0.0012290591017810541 0.02320056649706858 0 0.00097535848223453655 0.023497028584351567 0 0.0003820754262469421 0.023681758725532163 0 1.3207696443121435e-05 0.024188697191606882 0 -3.2915264855920773e-06 0.023306705033349671 0 0.0003820754262469421 0.023681758725532163 0 1.3207696443121435e-05 0.024188697191606882 0 0.00031219843343517742 0.024249198446539652 0 0.0003820754262469421 0.023681758725532163 0 0.00062829919670322827 0.023842267393740849 0 0.00031219843343517742 0.024249198446539652 0 0.0003820754262469421 0.023681758725532163 0 0.00074559961675146566 0.023310848004573229 0 0.00062829919670322827 0.023842267393740849 0 0.0003820754262469421 0.023681758725532163 0 0.00074559961675146566 0.023310848004573229 0 0.00038520585545344941 0.023103297479098134 0 0.00074559961675146566 0.023310848004573229 0 0.00038520585545344941 0.023103297479098134 0 0.00060675289609174953 0.022646314377813677 0 0.00038520585545344941 0.023103297479098134 0 1.6067677126715132e-05 0.022476148121993274 0 0.00060675289609174953 0.022646314377813677 0 0.00038520585545344941 0.023103297479098134 0 -3.2915264855920773e-06 0.023306705033349671 0 1.6067677126715132e-05 0.022476148121993274 0 0.0003820754262469421 0.023681758725532163 0 0.00038520585545344941 0.023103297479098134 0 -3.2915264855920773e-06 0.023306705033349671 0 -3.2915264855920773e-06 0.023306705033349671 0 1.6067677126715132e-05 0.022476148121993274 0 -0.00050494693617192962 0.022934346515487192 0 1.6067677126715132e-05 0.022476148121993274 0 0.00018971852821584705 0.021574875047420068 0 -0.00011024382167872314 0.021932264031629903 0 1.6067677126715132e-05 0.022476148121993274 0 -0.00011024382167872314 0.021932264031629903 0 -0.00040967336078807129 0.022179869233030104 0 1.6067677126715132e-05 0.022476148121993274 0 0.00060675289609174953 0.022646314377813677 0 0.00018971852821584705 0.021574875047420068 0 0.0014133976546959184 0.021982491443047963 0 0.00060675289609174953 0.022646314377813677 0 0.00018971852821584705 0.021574875047420068 0 0.00018971852821584705 0.021574875047420068 0 2.8453645654433836e-06 0.019963429632251419 0 -1.3757674440467328e-06 0.02132175642003234 0 0.00141885151522256 0.021114500043682462 0 0.00018971852821584705 0.021574875047420068 0 2.8453645654433836e-06 0.019963429632251419 0 0.00018971852821584705 0.021574875047420068 0 -0.00011024382167872314 0.021932264031629903 0 -1.3757674440467328e-06 0.02132175642003234 0 -0.00011024382167872314 0.021932264031629903 0 -1.3757674440467328e-06 0.02132175642003234 0 -0.00027055197681595734 0.022198229872180973 0 2.2993040262174516e-07 0.022680565828194072 0 -0.00027055197681595734 0.022198229872180973 0 -0.0002990836920654044 0.022024674537431416 0 -1.3757674440467328e-06 0.02132175642003234 0 2.2993040262174516e-07 0.022680565828194072 0 -0.00027055197681595734 0.022198229872180973 0 5.2709251846745934e-07 0.022681797406292989 0 -0.00016086401175432344 0.02473059690847634 0 2.9439041221985155e-06 0.022686371154295806 0 0.00016558491777763154 0.024651505199930375 0 -7.5536494302912268e-07 0.024554413411667551 0 2.9439041221985155e-06 0.022686371154295806 0 0.00016558491777763154 0.024651505199930375 0 0.0010462046881488259 0.0258131165601235 0 0.00016558491777763154 0.024651505199930375 0 0.0010462046881488259 0.0258131165601235 0 -7.0765977445183448e-06 0.0268976081044516 0 -0.00016086401175432344 0.02473059690847634 0 -2.7971762249200239e-05 0.023350935625631137 0 -0.00097037303874419661 0.022374816570090956 0 -0.00040967336078807129 0.022179869233030104 0 -0.00050494693617192962 0.022934346515487192 0 1.6067677126715132e-05 0.022476148121993274 0 -0.00040967336078807129 0.022179869233030104 0 -0.00050494693617192962 0.022934346515487192 0 -0.00011024382167872314 0.021932264031629903 0 -0.00027055197681595734 0.022198229872180973 0 -0.00040967336078807129 0.022179869233030104 0 -0.00027055197681595734 0.022198229872180973 0 -0.0002990836920654044 0.022024674537431416 0 -0.00040967336078807129 0.022179869233030104 0 -7.5536494302912268e-07 0.024554413411667551 0 -7.3876874760005705e-05 0.025916742191029019 0 -1.6380057635608979e-07 0.026427123102644758 0 -7.3876874760005705e-05 0.025916742191029019 0 -1.6380057635608979e-07 0.026427123102644758 0 -0.0001268684014010958 0.027258635872527161 0 0.00016558491777763154 0.024651505199930375 0 -7.5536494302912268e-07 0.024554413411667551 0 -7.3876874760005705e-05 0.025916742191029019 0 0.00016558491777763154 0.024651505199930375 0 -7.3876874760005705e-05 0.025916742191029019 0 -7.0765977445183448e-06 0.0268976081044516 0 -7.3876874760005705e-05 0.025916742191029019 0 -7.0765977445183448e-06 0.0268976081044516 0 -0.0001268684014010958 0.027258635872527161 0 -0.00018317438531633313 0.027841035181049877 0 -0.00019312920511736434 0.028066937708844934 0 -7.0765977445183448e-06 0.0268976081044516 0 -0.0001268684014010958 0.027258635872527161 0 -4.6914811635352648e-05 0.027903996217477973 0 -0.00030347274926295485 0.028087503619698091 0 -0.00027072229118463417 0.027806018865803351 0 -0.00074358204113177866 0.027821898912236943 0 -0.00030347274926295485 0.028087503619698091 0 -0.00027072229118463417 0.027806018865803351 0 -0.00027611363997423688 0.028131353344896991 0 -0.00030347274926295485 0.028087503619698091 0 -0.00027611363997423688 0.028131353344896991 0 -0.00030707761204534084 0.028272936939986944 0 -0.00027611363997423688 0.028131353344896991 0 -0.00034344213659948005 0.02840935093522106 0 -0.00030707761204534084 0.028272936939986944 0 -0.00027072229118463417 0.027806018865803351 0 -0.00027611363997423688 0.028131353344896991 0 -0.00034344213659948005 0.02840935093522106 0 -0.00097037303874419661 0.022374816570090956 0 -0.00050494693617192962 0.022934346515487192 0 -0.001091212239325721 0.02379710693390551 0 -3.2915264855920773e-06 0.023306705033349671 0 -0.00050494693617192962 0.022934346515487192 0 -0.001091212239325721 0.02379710693390551 0 -0.00016086401175432344 0.02473059690847634 0 -0.00018317438531633313 0.027841035181049877 0 -0.00016086401175432344 0.02473059690847634 0 -0.00093654832023783163 0.025932814270379186 0 -0.00076943215792204102 0.028192368951433958 0 -0.00030347274926295485 0.028087503619698091 0 -0.00074358204113177866 0.027821898912236943 0 -0.00093654832023783163 0.025932814270379186 0 -0.0006987919368978625 0.026283893153208397 0 -0.00027072229118463417 0.027806018865803351 0 -0.00074358204113177866 0.027821898912236943 0 -0.00038535759551100137 0.027227831769470426 0 1.3207696443121435e-05 0.024188697191606882 0 -3.2915264855920773e-06 0.023306705033349671 0 -0.001091212239325721 0.02379710693390551 0 1.3207696443121435e-05 0.024188697191606882 0 -0.001091212239325721 0.02379710693390551 0 -0.00033352491547964823 0.025070913400023518 0 1.3207696443121435e-05 0.024188697191606882 0 -5.1408549351610432e-05 0.024984818657777696 0 -0.00033352491547964823 0.025070913400023518 0 -5.1408549351610432e-05 0.024984818657777696 0 -0.00026347879136524589 0.025748851163709681 0 -0.00033352491547964823 0.025070913400023518 0 -0.001091212239325721 0.02379710693390551 0 -0.00033352491547964823 0.025070913400023518 0 -0.0006370261172746653 0.026441284235365025 0 -5.1408549351610432e-05 0.024984818657777696 0 -0.00026347879136524589 0.025748851163709681 0 -0.00018489147235066649 0.025489436337756802 0 -0.00026347879136524589 0.025748851163709681 0 -0.0006370261172746653 0.026441284235365025 0 -0.0001659676479364258 0.026344872192574705 0 -0.00026347879136524589 0.025748851163709681 0 -0.00033352491547964823 0.025070913400023518 0 -0.0006370261172746653 0.026441284235365025 0 -0.00074358204113177866 0.027821898912236943 0 -0.00038535759551100137 0.027227831769470426 0 -0.0006370261172746653 0.026441284235365025 0 -0.00038535759551100137 0.027227831769470426 0 -0.0006370261172746653 0.026441284235365025 0 -0.0004201357805698526 0.027268134248666247 0 -0.0006370261172746653 0.026441284235365025 0 -0.0001659676479364258 0.026344872192574705 0 -0.0004201357805698526 0.027268134248666247 0 -0.0001659676479364258 0.026344872192574705 0 -0.0004201357805698526 0.027268134248666247 0 6.7240268927603006e-05 0.029090722086869008 0 -0.0001659676479364258 0.026344872192574705 0 -0.00018489147235066649 0.025489436337756802 0 -0.00030018061348076791 0.025306571401115443 0 -0.00026347879136524589 0.025748851163709681 0 -0.0001659676479364258 0.026344872192574705 0 -0.00018489147235066649 0.025489436337756802 0 -0.00027072229118463417 0.027806018865803351 0 -0.00034344213659948005 0.02840935093522106 0 -0.0003877944972717244 0.028023307624559058 0 -0.00034344213659948005 0.02840935093522106 0 -0.0003877944972717244 0.028023307624559058 0 -0.00046659896364160968 0.028669999291628959 0 -0.00027072229118463417 0.027806018865803351 0 -0.00038535759551100137 0.027227831769470426 0 -0.0003877944972717244 0.028023307624559058 0 -0.00038535759551100137 0.027227831769470426 0 -0.0003877944972717244 0.028023307624559058 0 -0.000437602071964012 0.027765606788641897 0 -0.00038535759551100137 0.027227831769470426 0 -0.0004201357805698526 0.027268134248666247 0 -0.000437602071964012 0.027765606788641897 0 -0.0004201357805698526 0.027268134248666247 0 -0.000437602071964012 0.027765606788641897 0 -0.00052671917006489471 0.028442539934284757 0 -0.000437602071964012 0.027765606788641897 0 -0.00052620353986819923 0.028535168854487637 0 -0.00052671917006489471 0.028442539934284757 0 -0.0003877944972717244 0.028023307624559058 0 -0.000437602071964012 0.027765606788641897 0 -0.00052620353986819923 0.028535168854487637 0 -0.00052620353986819923 0.028535168854487637 0 -0.00046659896364160968 0.028669999291628959 0 -0.00057417088788443258 0.029289584345457722 0 -0.0003877944972717244 0.028023307624559058 0 -0.00052620353986819923 0.028535168854487637 0 -0.00046659896364160968 0.028669999291628959 0 -0.00052620353986819923 0.028535168854487637 0 -0.00060259507167076691 0.029107947130407045 0 -0.00057417088788443258 0.029289584345457722 0 -0.00060259507167076691 0.029107947130407045 0 -0.00066216254336610037 0.029637201969837098 0 -0.00057417088788443258 0.029289584345457722 0 -0.00052671917006489471 0.028442539934284757 0 -0.00056060777438170901 0.029234980424118453 0 6.7240268927603006e-05 0.029090722086869008 0 -0.00052620353986819923 0.028535168854487637 0 -0.00060259507167076691 0.029107947130407045 0 -0.00052671917006489471 0.028442539934284757 0 -0.00060259507167076691 0.029107947130407045 0 -0.00052671917006489471 0.028442539934284757 0 -0.00056060777438170901 0.029234980424118453 0 -0.00056060777438170901 0.029234980424118453 0 6.7240268927603006e-05 0.029090722086869008 0 -0.00063682436688128948 0.029700990203418286 0 -0.00056060777438170901 0.029234980424118453 0 -0.00066216254336610037 0.029637201969837098 0 -0.00063682436688128948 0.029700990203418286 0 -0.00060259507167076691 0.029107947130407045 0 -0.00056060777438170901 0.029234980424118453 0 -0.00066216254336610037 0.029637201969837098 0 -0.0001659676479364258 0.026344872192574705 0 -0.00030018061348076791 0.025306571401115443 0 -0.00043706918864617404 0.025095971356730487 0 -0.00030018061348076791 0.025306571401115443 0 -0.00043706918864617404 0.025095971356730487 0 -0.00023560171724474135 0.025165615919625663 0 -0.00014871358533178892 0.026425975127725189 0 -0.00024665291474787698 0.027107248125947569 0 -0.0004201357805698526 0.027268134248666247 0 -0.00052671917006489471 0.028442539934284757 0 6.7240268927603006e-05 0.029090722086869008 0 -0.00024665291474787698 0.027107248125947569 0 -0.00087334518886450843 0.027982183822767882 0 -0.00043706918864617404 0.025095971356730487 0 -0.00023560171724474135 0.025165615919625663 0 -0.00030689598687911668 0.025672894676840294 0 -0.00023560171724474135 0.025165615919625663 0 3.5770175159282578e-06 0.025223390027283549 0 -0.00030689598687911668 0.025672894676840294 0 3.5770175159282578e-06 0.025223390027283549 0 0.00025064089529329008 0.025487794516656361 0 -0.00030689598687911668 0.025672894676840294 0 -0.00023560171724474135 0.025165615919625663 0 3.5770175159282578e-06 0.025223390027283549 0 -1.3866321695119152e-05 0.024973003405414418 0 -0.00030018061348076791 0.025306571401115443 0 -0.00023560171724474135 0.025165615919625663 0 -1.3866321695119152e-05 0.024973003405414418 0 3.5770175159282578e-06 0.025223390027283549 0 -1.3866321695119152e-05 0.024973003405414418 0 0.00028826200757666815 0.024829070959361804 0 -1.3866321695119152e-05 0.024973003405414418 0 -9.5831279133858101e-07 0.024957159774618591 0 0.00029169364463163517 0.024600629097801568 0 -0.00030018061348076791 0.025306571401115443 0 -1.3866321695119152e-05 0.024973003405414418 0 -9.5831279133858101e-07 0.024957159774618591 0 0.00048394463836809681 0.024469589329414662 0 0.00028826200757666815 0.024829070959361804 0 0.00069109200684959633 0.024326766379860965 0 0.00048394463836809681 0.024469589329414662 0 0.00065709941130883234 0.024118676627142798 0 0.00029169364463163517 0.024600629097801568 0 0.00048394463836809681 0.024469589329414662 0 0.00028826200757666815 0.024829070959361804 0 0.00029169364463163517 0.024600629097801568 0 -1.3866321695119152e-05 0.024973003405414418 0 0.00028826200757666815 0.024829070959361804 0 0.00029169364463163517 0.024600629097801568 0 0.00028826200757666815 0.024829070959361804 0 0.00058148450846602325 0.025034627136945462 0 0.00069109200684959633 0.024326766379860965 0 3.5770175159282578e-06 0.025223390027283549 0 0.00028826200757666815 0.024829070959361804 0 0.00025064089529329008 0.025487794516656361 0 0.00028826200757666815 0.024829070959361804 0 0.00058148450846602325 0.025034627136945462 0 0.00025064089529329008 0.025487794516656361 0 0.00058148450846602325 0.025034627136945462 0 0.00087011836297151636 0.024508147021967536 0 0.00092914467815079563 0.025300487077791901 0 0.00058148450846602325 0.025034627136945462 0 0.00087011836297151636 0.024508147021967536 0 0.00069109200684959633 0.024326766379860965 0 0.00087011836297151636 0.024508147021967536 0 0.001043898002594193 0.023818968267626219 0 0.00069109200684959633 0.024326766379860965 0 0.00087011836297151636 0.024508147021967536 0 0.0012974128867578763 0.024174086787857423 0 0.001043898002594193 0.023818968267626219 0 0.00087011836297151636 0.024508147021967536 0 0.0012974128867578763 0.024174086787857423 0 0.00092914467815079563 0.025300487077791901 0 0.0012926367484308197 0.022905966770365997 0 0.0012974128867578763 0.024174086787857423 0 0.001043898002594193 0.023818968267626219 0 0.0012926367484308197 0.022905966770365997 0 0.001043898002594193 0.023818968267626219 0 0.0010140308633884727 0.023599631453062639 0 0.0010140308633884727 0.023599631453062639 0 0.00069109200684959633 0.024326766379860965 0 0.00065709941130883234 0.024118676627142798 0 0.001043898002594193 0.023818968267626219 0 0.0010140308633884727 0.023599631453062639 0 0.00069109200684959633 0.024326766379860965 0 0.00048394463836809681 0.024469589329414662 0 0.00069109200684959633 0.024326766379860965 0 0.00065709941130883234 0.024118676627142798 0 0.0010140308633884727 0.023599631453062639 0 0.00065709941130883234 0.024118676627142798 0 0.0010066606980308592 0.023538699925427311 0 0.00065709941130883234 0.024118676627142798 0 0.0010066606980308592 0.023538699925427311 0 0.00074603514587042493 0.023900546025918085 0 0.0012926367484308197 0.022905966770365997 0 0.0010140308633884727 0.023599631453062639 0 0.0012534138372159241 0.023000140126882777 0 0.0010140308633884727 0.023599631453062639 0 0.0010066606980308592 0.023538699925427311 0 0.0012534138372159241 0.023000140126882777 0 0.0013071402520925389 0.022859714397256384 0 0.0012534138372159241 0.023000140126882777 0 0.0012290591017810541 0.02320056649706858 0 0.0010066606980308592 0.023538699925427311 0 0.0012534138372159241 0.023000140126882777 0 0.0012290591017810541 0.02320056649706858 0 0.0010066606980308592 0.023538699925427311 0 0.00074603514587042493 0.023900546025918085 0 0.00097535848223453655 0.023497028584351567 0 0.0010066606980308592 0.023538699925427311 0 0.0012290591017810541 0.02320056649706858 0 0.00097535848223453655 0.023497028584351567 0 0.00074603514587042493 0.023900546025918085 0 0.00097535848223453655 0.023497028584351567 0 0.00062829919670322827 0.023842267393740849 0 0.00074603514587042493 0.023900546025918085 0 0.00062829919670322827 0.023842267393740849 0 0.00041330915287257066 0.024358097898092929 0 0.00062829919670322827 0.023842267393740849 0 0.00031219843343517742 0.024249198446539652 0 0.00041330915287257066 0.024358097898092929 0 -5.1408549351610432e-05 0.024984818657777696 0 0.00031219843343517742 0.024249198446539652 0 0.00010268563218215245 0.024817589801821707 0 1.3207696443121435e-05 0.024188697191606882 0 -5.1408549351610432e-05 0.024984818657777696 0 0.00031219843343517742 0.024249198446539652 0 -5.1408549351610432e-05 0.024984818657777696 0 -0.00018489147235066649 0.025489436337756802 0 0.00010268563218215245 0.024817589801821707 0 0.00031219843343517742 0.024249198446539652 0 0.00010268563218215245 0.024817589801821707 0 0.00041330915287257066 0.024358097898092929 0 0.00010268563218215245 0.024817589801821707 0 -9.5831279133858101e-07 0.024957159774618591 0 0.00041330915287257066 0.024358097898092929 0 -0.00018489147235066649 0.025489436337756802 0 0.00010268563218215245 0.024817589801821707 0 -9.5831279133858101e-07 0.024957159774618591 0 -0.00018489147235066649 0.025489436337756802 0 -0.00030018061348076791 0.025306571401115443 0 -9.5831279133858101e-07 0.024957159774618591 0 -9.5831279133858101e-07 0.024957159774618591 0 0.00029169364463163517 0.024600629097801568 0 0.00041330915287257066 0.024358097898092929 0 0.00065709941130883234 0.024118676627142798 0 0.00029169364463163517 0.024600629097801568 0 0.00041330915287257066 0.024358097898092929 0 0.00065709941130883234 0.024118676627142798 0 0.00074603514587042493 0.023900546025918085 0 0.00041330915287257066 0.024358097898092929 0 -0.0002648370169559846 0.034351334131603725 0 -1.7764145999906956e-06 0.034996443974180856 0 -0.00056481364312201295 0.033165570101197139 0 -0.0002648370169559846 0.034351334131603725 0 -0.00056481364312201295 0.033165570101197139 0 -0.00030174281256555908 0.033514149017016652 0 -0.00056481364312201295 0.033165570101197139 0 -0.00024675547693669438 0.03236841043483632 0 -0.00030174281256555908 0.033514149017016652 0 -6.783005309058574e-08 0.034999453781011131 0 -0.00020121142475848007 0.033938168325572393 0 -9.023745459075954e-07 0.034997560905788004 0 4.2328260449033805e-05 0.034134615957813863 0 1.377922969171723e-06 0.03204608193683206 0 4.2657002274709546e-07 0.035000461219262008 0 -1.1766812632121829e-05 0.034801951054654501 0 -9.023745459075954e-07 0.034997560905788004 0 -1.1766812632121829e-05 0.034801951054654501 0 -9.023745459075954e-07 0.034997560905788004 0 4.2328260449033805e-05 0.034134615957813863 0 -0.00056481364312201295 0.033165570101197139 0 -0.00032073529774974424 0.031836406652264185 0 -0.00024675547693669438 0.03236841043483632 0 -0.00020121142475848007 0.033938168325572393 0 -0.00018611258666526484 0.033044362892854673 0 -0.00032073529774974424 0.031836406652264185 0 -0.00016805809820190921 0.031476339327991133 0 -0.00024675547693669438 0.03236841043483632 0 -0.00018611258666526484 0.033044362892854673 0 -1.5408172369994834e-07 0.0320422293112992 0 -0.00032073529774974424 0.031836406652264185 0 -3.6751228898223082e-07 0.032038623732177675 0 -0.00016805809820190921 0.031476339327991133 0 -0.00016805809820190921 0.031476339327991133 0 -2.9207457747635098e-05 0.030653413124407555 0 -2.0784394068397639e-07 0.03017084189271196 0 -3.6751228898223082e-07 0.032038623732177675 0 -0.00016805809820190921 0.031476339327991133 0 -2.0784394068397639e-07 0.03017084189271196 0 -0.00016805809820190921 0.031476339327991133 0 -0.00012699242048288544 0.031649033866633189 0 -0.00024675547693669438 0.03236841043483632 0 -0.00016805809820190921 0.031476339327991133 0 -0.00012699242048288544 0.031649033866633189 0 -2.9207457747635098e-05 0.030653413124407555 0 -0.00012699242048288544 0.031649033866633189 0 -0.00021004104764076842 0.032868763139679395 0 8.3296335140692227e-05 0.031817680235046622 0 -0.00012699242048288544 0.031649033866633189 0 -0.00024675547693669438 0.03236841043483632 0 -0.00021004104764076842 0.032868763139679395 0 -0.00024675547693669438 0.03236841043483632 0 -0.00030174281256555908 0.033514149017016652 0 -0.00021004104764076842 0.032868763139679395 0 -0.00021004104764076842 0.032868763139679395 0 8.3296335140692227e-05 0.031817680235046622 0 0.00026081035636846441 0.032818015773068511 0 0.00057568190756737149 0.031198397649689378 0 8.3296335140692227e-05 0.031817680235046622 0 0.00026081035636846441 0.032818015773068511 0 -6.2150929046955733e-05 0.029794596117917412 0 -0.00039881965705068363 0.031069780067712455 0 -0.00044104836312684563 0.02883868019828692 0 -0.00053531241936179608 0.028314365288858494 0 -0.0010736777185445963 0.029346638409681363 0 0.00057568190756737149 0.031198397649689378 0 0.00012842529104458442 0.030563177229998625 0 0.00010387160296630383 0.028476746180168409 0 -0.00012699242048288544 0.031649033866633189 0 0.00012842529104458442 0.030563177229998625 0 8.3296335140692227e-05 0.031817680235046622 0 0.00057568190756737149 0.031198397649689378 0 0.00012842529104458442 0.030563177229998625 0 8.3296335140692227e-05 0.031817680235046622 0 -0.00012699242048288544 0.031649033866633189 0 0.00012842529104458442 0.030563177229998625 0 -2.9207457747635098e-05 0.030653413124407555 0 0.00012842529104458442 0.030563177229998625 0 -2.9207457747635098e-05 0.030653413124407555 0 4.8644297052997899e-05 0.029666507235655701 0 -2.9207457747635098e-05 0.030653413124407555 0 -2.0784394068397639e-07 0.03017084189271196 0 4.8644297052997899e-05 0.029666507235655701 0 4.8644297052997899e-05 0.029666507235655701 0 0.00010387160296630383 0.028476746180168409 0 2.0971157929823535e-07 0.028298040716843092 0 -2.0784394068397639e-07 0.03017084189271196 0 4.8644297052997899e-05 0.029666507235655701 0 2.0971157929823535e-07 0.028298040716843092 0 0.00012842529104458442 0.030563177229998625 0 4.8644297052997899e-05 0.029666507235655701 0 0.00010387160296630383 0.028476746180168409 0 0.00010387160296630383 0.028476746180168409 0 2.0971157929823535e-07 0.028298040716843092 0 -1.6380057635608979e-07 0.026427123102644758 0 0.00010387160296630383 0.028476746180168409 0 -1.6380057635608979e-07 0.026427123102644758 0 -0.0001268684014010958 0.027258635872527161 0 0.00010387160296630383 0.028476746180168409 0 -0.0001268684014010958 0.027258635872527161 0 -0.0001896666401854659 0.028167905674591827 0 -0.0001268684014010958 0.027258635872527161 0 -0.0001896666401854659 0.028167905674591827 0 -4.6914811635352648e-05 0.027903996217477973 0 -6.2150929046955733e-05 0.029794596117917412 0 8.4540655648505391e-05 0.028749786808774269 0 -0.00053531241936179608 0.028314365288858494 0 0.00010387160296630383 0.028476746180168409 0 -0.0001896666401854659 0.028167905674591827 0 -0.00044104836312684563 0.02883868019828692 0 -0.00030707761204534084 0.028272936939986944 0 -0.00038909852446015287 0.028813167073122432 0 -0.00044104836312684563 0.02883868019828692 0 -0.00053531241936179608 0.028314365288858494 0 -0.0001896666401854659 0.028167905674591827 0 -0.0004629051517474641 0.028753231089294062 0 -0.00019312920511736434 0.028066937708844934 0 -0.00044104836312684563 0.02883868019828692 0 -0.0001896666401854659 0.028167905674591827 0 -4.6914811635352648e-05 0.027903996217477973 0 -0.00034344213659948005 0.02840935093522106 0 -0.00030707761204534084 0.028272936939986944 0 -0.00038909852446015287 0.028813167073122432 0 -0.00034344213659948005 0.02840935093522106 0 -0.00038909852446015287 0.028813167073122432 0 -0.00047630940464282582 0.02914421027195831 0 -0.00034344213659948005 0.02840935093522106 0 -0.00046659896364160968 0.028669999291628959 0 -0.00047630940464282582 0.02914421027195831 0 -0.00038909852446015287 0.028813167073122432 0 -0.00054114974635718243 0.02958567668499228 0 -0.00047630940464282582 0.02914421027195831 0 -0.00044104836312684563 0.02883868019828692 0 -0.00038909852446015287 0.028813167073122432 0 -0.00054114974635718243 0.02958567668499228 0 -0.00054114974635718243 0.02958567668499228 0 -0.00047630940464282582 0.02914421027195831 0 -0.00060764308286631607 0.029994624925607078 0 -0.00047630940464282582 0.02914421027195831 0 -0.00057417088788443258 0.029289584345457722 0 -0.00060764308286631607 0.029994624925607078 0 -0.00046659896364160968 0.028669999291628959 0 -0.00047630940464282582 0.02914421027195831 0 -0.00057417088788443258 0.029289584345457722 0 -0.00066216254336610037 0.029637201969837098 0 -0.00057417088788443258 0.029289584345457722 0 -0.00067395680821128064 0.03025984893736219 0 -0.00066216254336610037 0.029637201969837098 0 -0.00067395680821128064 0.03025984893736219 0 -0.000707397278212936 0.030085384555296916 0 -0.00067395680821128064 0.03025984893736219 0 -0.00072620389807221981 0.030983082871544571 0 -0.00074133137702296723 0.030476403807257694 0 -0.00057417088788443258 0.029289584345457722 0 -0.00067395680821128064 0.03025984893736219 0 -0.00060764308286631607 0.029994624925607078 0 -0.00067395680821128064 0.03025984893736219 0 -0.00060764308286631607 0.029994624925607078 0 -0.00072620389807221981 0.030983082871544571 0 -0.00060764308286631607 0.029994624925607078 0 -0.00072620389807221981 0.030983082871544571 0 -0.00070793413675107879 0.030612522106028734 0 -0.00072620389807221981 0.030983082871544571 0 -0.00077254173458090182 0.031857837375283415 0 -0.00068514281442096905 0.031711225259507821 0 -0.00070793413675107879 0.030612522106028734 0 -0.0011416942374636197 0.030862865065276874 0 -0.00077254173458090182 0.031857837375283415 0 -0.00072620389807221981 0.030983082871544571 0 -0.00070793413675107879 0.030612522106028734 0 -0.00077254173458090182 0.031857837375283415 0 -0.00070793413675107879 0.030612522106028734 0 -0.00079337986250009812 0.029967622220326125 0 -0.0011416942374636197 0.030862865065276874 0 -0.00054114974635718243 0.02958567668499228 0 -0.00070793413675107879 0.030612522106028734 0 -0.00079337986250009812 0.029967622220326125 0 -0.00054114974635718243 0.02958567668499228 0 -0.00060764308286631607 0.029994624925607078 0 -0.00070793413675107879 0.030612522106028734 0 -0.00044104836312684563 0.02883868019828692 0 -0.0010736777185445963 0.029346638409681363 0 -0.00079337986250009812 0.029967622220326125 0 -0.00044104836312684563 0.02883868019828692 0 -0.00054114974635718243 0.02958567668499228 0 -0.00079337986250009812 0.029967622220326125 0 -0.0010736777185445963 0.029346638409681363 0 -0.00079337986250009812 0.029967622220326125 0 -0.0011416942374636197 0.030862865065276874 0 -0.00039881965705068363 0.031069780067712455 0 -0.00064752610712910945 0.032170844285639252 0 -0.00021004104764076842 0.032868763139679395 0 -0.00036256835195677841 0.033713798940291299 0 -0.00031631028197429481 0.033594783572988139 0 -0.00021004104764076842 0.032868763139679395 0 0.00026081035636846441 0.032818015773068511 0 -0.00031631028197429481 0.033594783572988139 0 -0.00030174281256555908 0.033514149017016652 0 -0.00036256835195677841 0.033713798940291299 0 -0.00023467125864444098 0.034128011541612768 0 -0.00030174281256555908 0.033514149017016652 0 -0.00021004104764076842 0.032868763139679395 0 -0.00036256835195677841 0.033713798940291299 0 -0.00036256835195677841 0.033713798940291299 0 -0.00031631028197429481 0.033594783572988139 0 -0.00060428752085463265 0.033036902843737524 0 -0.00036256835195677841 0.033713798940291299 0 -0.00060428752085463265 0.033036902843737524 0 -0.00023467125864444098 0.034128011541612768 0 -0.00064752610712910945 0.032170844285639252 0 -0.00059846558049181495 0.032828487032156184 0 -0.0011416942374636197 0.030862865065276874 0 -0.00077254173458090182 0.031857837375283415 0 -0.00060428752085463265 0.033036902843737524 0 -0.00077254173458090182 0.031857837375283415 0 -0.00042397914548883029 0.03278670220708247 0 -0.00060428752085463265 0.033036902843737524 0 -0.00077254173458090182 0.031857837375283415 0 -0.00042397914548883029 0.03278670220708247 0 -0.00068514281442096905 0.031711225259507821 0 -0.00042397914548883029 0.03278670220708247 0 -0.00060428752085463265 0.033036902843737524 0 -6.8855227712926698e-05 0.033918831831452945 0 -0.00060428752085463265 0.033036902843737524 0 -0.00011067723136523225 0.034207388831161575 0 -0.00023467125864444098 0.034128011541612768 0 -0.00060428752085463265 0.033036902843737524 0 -0.00011067723136523225 0.034207388831161575 0 -6.8855227712926698e-05 0.033918831831452945 0 -6.8855227712926698e-05 0.033918831831452945 0 -1.402804322209222e-07 0.034998585169304458 0 1.1920892414767631e-07 0.034998650870114806 0 -0.00011067723136523225 0.034207388831161575 0 -6.8855227712926698e-05 0.033918831831452945 0 -1.402804322209222e-07 0.034998585169304458 0 -0.00011067723136523225 0.034207388831161575 0 -1.402804322209222e-07 0.034998585169304458 0 2.470973047461537e-07 0.034999692290446215 0 -0.00011067723136523225 0.034207388831161575 0 2.470973047461537e-07 0.034999692290446215 0 -0.00023467125864444098 0.034128011541612768 0 -0.0002648370169559846 0.034351334131603725 0 -0.00030174281256555908 0.033514149017016652 0 -0.00023467125864444098 0.034128011541612768 0 -0.0002648370169559846 0.034351334131603725 0 -1.7764145999906956e-06 0.034996443974180856 0 2.470973047461537e-07 0.034999692290446215 0 -0.0002648370169559846 0.034351334131603725 0 2.470973047461537e-07 0.034999692290446215 0 -0.00023467125864444098 0.034128011541612768 0 -5.7358343602363144e-05 0.035041169807272246 0 -0.0002472068307915106 0.034902653158123027 0 2.2909040567641355e-07 0.034999375709512941 0 -0.00013541377678261756 0.035031219089262912 0 -0.00032745210582813959 0.034673869962871813 0 -5.7358343602363144e-05 0.035041169807272246 0 -2.0342166395265274e-07 0.034995072660583638 0 2.2909040567641355e-07 0.034999375709512941 0 -0.00013541377678261756 0.035031219089262912 0 -4.1136571199432536e-08 0.034994610510541646 0 -0.00032270729902506739 0.034731704609509084 0 -0.00050303743977243691 0.034619614785956439 0 -0.00058452605601954537 0.034752411777395679 0 -0.00013541377678261756 0.035031219089262912 0 -5.3302017188872578e-05 0.032675201074184763 0 -0.00032270729902506739 0.034731704609509084 0 -0.00050303743977243691 0.034619614785956439 0 -0.00039540881773413998 0.034553667715404898 0 -1.8956831101068316e-05 0.034904322274379958 0 8.6384468004201099e-05 0.034763309113139247 0 0.0004009642032078123 0.034925848839842628 0 8.6384468004201099e-05 0.034763309113139247 0 0.00045137616321821972 0.034559194761982104 0 0.0004009642032078123 0.034925848839842628 0 -2.6372228749380395e-06 0.034994898086208065 0 -1.2715487879845513e-09 0.034994577873956656 0 3.608434092215196e-10 0.035000000400841863 0 -1.8956831101068316e-05 0.034904322274379958 0 8.6384468004201099e-05 0.034763309113139247 0 -5.0867331356724787e-07 0.034998739166373756 0 -0.00013541377678261756 0.035031219089262912 0 9.9983029805278609e-09 0.034999942307120877 0 -5.0867331356724787e-07 0.034998739166373756 0 -2.1662192972073623e-05 0.034287118292560995 0 1.4757846226051989e-05 0.034398729230981952 0 8.6384468004201099e-05 0.034763309113139247 0 -5.0867331356724787e-07 0.034998739166373756 0 1.4757846226051989e-05 0.034398729230981952 0 -5.0867331356724787e-07 0.034998739166373756 0 1.1920892414767631e-07 0.034998650870114806 0 -2.1662192972073623e-05 0.034287118292560995 0 -6.8855227712926698e-05 0.033918831831452945 0 1.1920892414767631e-07 0.034998650870114806 0 -2.1662192972073623e-05 0.034287118292560995 0 -6.8855227712926698e-05 0.033918831831452945 0 -2.1662192972073623e-05 0.034287118292560995 0 0.00018959720329955675 0.033375269640044718 0 -0.00042397914548883029 0.03278670220708247 0 -6.8855227712926698e-05 0.033918831831452945 0 0.00018959720329955675 0.033375269640044718 0 0.00023812726942747816 0.033310866754914667 0 0.00028810489881398897 0.033289497518465556 0 -2.1662192972073623e-05 0.034287118292560995 0 0.00018959720329955675 0.033375269640044718 0 1.4757846226051989e-05 0.034398729230981952 0 8.6384468004201099e-05 0.034763309113139247 0 1.4757846226051989e-05 0.034398729230981952 0 0.00045137616321821972 0.034559194761982104 0 0.00018959720329955675 0.033375269640044718 0 1.4757846226051989e-05 0.034398729230981952 0 0.00045137616321821972 0.034559194761982104 0 0.00018959720329955675 0.033375269640044718 0 0.00020490533136794899 0.031882834963407623 0 -0.0004373299104199003 0.03221036821425638 0 0.00020490533136794899 0.031882834963407623 0 -0.0004373299104199003 0.03221036821425638 0 -0.000372947381623728 0.031589297717836813 0 -0.00042397914548883029 0.03278670220708247 0 0.00018959720329955675 0.033375269640044718 0 -0.0004373299104199003 0.03221036821425638 0 -0.00042397914548883029 0.03278670220708247 0 -0.0004373299104199003 0.03221036821425638 0 -0.00068514281442096905 0.031711225259507821 0 -0.0004373299104199003 0.03221036821425638 0 -0.000372947381623728 0.031589297717836813 0 -0.00065037046369428874 0.031310321730898365 0 -0.0004373299104199003 0.03221036821425638 0 -0.00065037046369428874 0.031310321730898365 0 -0.00068514281442096905 0.031711225259507821 0 -0.00060083672448504866 0.031181742075354148 0 -0.000372947381623728 0.031589297717836813 0 -0.00065037046369428874 0.031310321730898365 0 -0.00060083672448504866 0.031181742075354148 0 -0.000372947381623728 0.031589297717836813 0 7.2655858277115924e-05 0.031255938611546699 0 -0.00042762732524447879 0.030440425225709514 0 -5.3302017188872578e-05 0.032675201074184763 0 0.00020490533136794899 0.031882834963407623 0 -0.000372947381623728 0.031589297717836813 0 7.2655858277115924e-05 0.031255938611546699 0 0.00028810489881398897 0.033289497518465556 0 -5.3302017188872578e-05 0.032675201074184763 0 -9.174524794734634e-05 0.030177222403303117 0 -0.00024380568156337861 0.030041971809627786 0 -0.00018982280776622576 0.029923725608341875 0 -5.3302017188872578e-05 0.032675201074184763 0 -0.00049009790395596205 0.032109073098909001 0 -0.00050303743977243691 0.034619614785956439 0 -0.00058452605601954537 0.034752411777395679 0 -0.00069224741434440124 0.034450937090954717 0 -0.00027422080172298622 0.030220829959860994 0 -9.174524794734634e-05 0.030177222403303117 0 -0.00024380568156337861 0.030041971809627786 0 -0.00027422080172298622 0.030220829959860994 0 -0.00024380568156337861 0.030041971809627786 0 -0.00045258846877917035 0.029973238587798625 0 -0.00027422080172298622 0.030220829959860994 0 -0.00045258846877917035 0.029973238587798625 0 -0.00063032394600199897 0.030450190294155344 0 -0.00045258846877917035 0.029973238587798625 0 -0.00063032394600199897 0.030450190294155344 0 -0.00066393473095816826 0.029871213883545862 0 -0.00042762732524447879 0.030440425225709514 0 -0.00068803523896379551 0.030565181306025691 0 -0.00060083672448504866 0.031181742075354148 0 -0.00063032394600199897 0.030450190294155344 0 -0.00065037046369428874 0.031310321730898365 0 -0.00063032394600199897 0.030450190294155344 0 -0.00065037046369428874 0.031310321730898365 0 -0.00070551760089648504 0.031045559562891244 0 -0.00065037046369428874 0.031310321730898365 0 -0.00068514281442096905 0.031711225259507821 0 -0.00070551760089648504 0.031045559562891244 0 -0.00072620389807221981 0.030983082871544571 0 -0.00068514281442096905 0.031711225259507821 0 -0.00070551760089648504 0.031045559562891244 0 -0.00072620389807221981 0.030983082871544571 0 -0.00070551760089648504 0.031045559562891244 0 -0.00074133137702296723 0.030476403807257694 0 -0.00063032394600199897 0.030450190294155344 0 -0.00070551760089648504 0.031045559562891244 0 -0.00074133137702296723 0.030476403807257694 0 -0.00067395680821128064 0.03025984893736219 0 -0.00074133137702296723 0.030476403807257694 0 -0.000707397278212936 0.030085384555296916 0 -0.00074133137702296723 0.030476403807257694 0 -0.000707397278212936 0.030085384555296916 0 -0.00069471105827740686 0.029949123853522129 0 -0.00066216254336610037 0.029637201969837098 0 -0.000707397278212936 0.030085384555296916 0 -0.00069471105827740686 0.029949123853522129 0 -0.00074133137702296723 0.030476403807257694 0 -0.00069471105827740686 0.029949123853522129 0 -0.00074489217219951326 0.029809347367394021 0 -0.00074133137702296723 0.030476403807257694 0 -0.00072252968010553446 0.030116615652222054 0 -0.00074489217219951326 0.029809347367394021 0 -0.00072252968010553446 0.030116615652222054 0 -0.00077446679160348829 0.029675700067252026 0 -0.00074489217219951326 0.029809347367394021 0 -0.00063032394600199897 0.030450190294155344 0 -0.00074133137702296723 0.030476403807257694 0 -0.00072252968010553446 0.030116615652222054 0 -0.00063032394600199897 0.030450190294155344 0 -0.00072252968010553446 0.030116615652222054 0 -0.00066393473095816826 0.029871213883545862 0 -0.00066393473095816826 0.029871213883545862 0 -0.00077446679160348829 0.029675700067252026 0 -0.00071977250515741767 0.029559320217870375 0 -0.00072252968010553446 0.030116615652222054 0 -0.00066393473095816826 0.029871213883545862 0 -0.00077446679160348829 0.029675700067252026 0 -0.00077446679160348829 0.029675700067252026 0 -0.00071977250515741767 0.029559320217870375 0 -0.00084212089943665983 0.029377267739347884 0 -0.00071977250515741767 0.029559320217870375 0 -0.00077898663792777599 0.029346529970630704 0 -0.00084212089943665983 0.029377267739347884 0 -0.00066393473095816826 0.029871213883545862 0 -0.00071977250515741767 0.029559320217870375 0 -0.00051688896537808429 0.029626596446850225 0 -0.00049762200574610886 0.029609946494394294 0 -0.00045220053255584603 0.029513573169469755 0 -0.00051688896537808429 0.029626596446850225 0 -0.0006850871026758803 0.029395288782192771 0 -0.00057813026050619663 0.029195874240245799 0 -0.00071977250515741767 0.029559320217870375 0 -0.00051688896537808429 0.029626596446850225 0 -0.0006850871026758803 0.029395288782192771 0 -0.00071977250515741767 0.029559320217870375 0 -0.0006850871026758803 0.029395288782192771 0 -0.00077898663792777599 0.029346529970630704 0 -0.0006850871026758803 0.029395288782192771 0 -0.00077898663792777599 0.029346529970630704 0 -0.00075255468716498616 0.0292366042742493 0 -0.00075255468716498616 0.0292366042742493 0 -0.00071505852977478673 0.029117339481349969 0 -0.00057813026050619663 0.029195874240245799 0 -0.0006850871026758803 0.029395288782192771 0 -0.00075255468716498616 0.0292366042742493 0 -0.00057813026050619663 0.029195874240245799 0 -0.00071505852977478673 0.029117339481349969 0 -0.00057813026050619663 0.029195874240245799 0 -0.00063014802291263411 0.029036971636081422 0 -0.00045220053255584603 0.029513573169469755 0 -0.00046517645658234532 0.029416666569937331 0 -0.00031863192046895078 0.029779899443420962 0 -0.0003542268729356114 0.029856578420889176 0 -0.00024755185142249294 0.029923514285272894 0 -0.00051688896537808429 0.029626596446850225 0 -0.00031863192046895078 0.029779899443420962 0 -0.00042876293330788032 0.029746471835670363 0 -0.00031863192046895078 0.029779899443420962 0 -0.00042876293330788032 0.029746471835670363 0 -0.0003542268729356114 0.029856578420889176 0 -0.00042876293330788032 0.029746471835670363 0 -0.0003542268729356114 0.029856578420889176 0 -0.00042547050574466636 0.029809361067950527 0 -0.00042876293330788032 0.029746471835670363 0 -0.00042547050574466636 0.029809361067950527 0 -0.00043810496516213877 0.029759041627777448 0 -0.0003542268729356114 0.029856578420889176 0 -0.00042547050574466636 0.029809361067950527 0 -0.0004071694318993806 0.029917720587402268 0 -0.00042547050574466636 0.029809361067950527 0 -0.00046829020536125481 0.029867809483740532 0 -0.00044101897205442789 0.029776017213978379 0 -0.00042547050574466636 0.029809361067950527 0 -0.00046829020536125481 0.029867809483740532 0 -0.0004071694318993806 0.029917720587402268 0 -0.00043810496516213877 0.029759041627777448 0 -0.00035309268447355406 0.029819916443384054 0 -0.00044101897205442789 0.029776017213978379 0 -0.00042547050574466636 0.029809361067950527 0 -0.00043810496516213877 0.029759041627777448 0 -0.00044101897205442789 0.029776017213978379 0 -0.00045258846877917035 0.029973238587798625 0 -0.00051688896537808429 0.029626596446850225 0 -0.00038225104807571193 0.029854791052268757 0 -0.00051688896537808429 0.029626596446850225 0 -0.00043810496516213877 0.029759041627777448 0 -0.00038225104807571193 0.029854791052268757 0 -0.00043810496516213877 0.029759041627777448 0 -0.00038225104807571193 0.029854791052268757 0 -0.00035309268447355406 0.029819916443384054 0 -0.00051688896537808429 0.029626596446850225 0 -0.00042876293330788032 0.029746471835670363 0 -0.00043810496516213877 0.029759041627777448 0 -0.00045258846877917035 0.029973238587798625 0 -0.00066393473095816826 0.029871213883545862 0 -0.00051688896537808429 0.029626596446850225 0 -0.00024380568156337861 0.030041971809627786 0 -0.00045258846877917035 0.029973238587798625 0 -0.00038225104807571193 0.029854791052268757 0 -0.00024380568156337861 0.030041971809627786 0 -0.00038225104807571193 0.029854791052268757 0 -0.00018982280776622576 0.029923725608341875 0 -0.00018982280776622576 0.029923725608341875 0 -0.00035309268447355406 0.029819916443384054 0 -0.00032243749705356315 0.02977866375861267 0 -0.00069224741434440124 0.034450937090954717 0 -0.00087458161263428156 0.033843053636553877 0 -0.00059786584167172564 0.034128868964511595 0 -0.00049009790395596205 0.032109073098909001 0 -0.00058896346361481274 0.031939390182311803 0 -0.00038225104807571193 0.029854791052268757 0 -0.00018982280776622576 0.029923725608341875 0 -0.00035309268447355406 0.029819916443384054 0 -0.00035309268447355406 0.029819916443384054 0 -0.00044101897205442789 0.029776017213978379 0 -0.00032243749705356315 0.02977866375861267 0 -0.00044101897205442789 0.029776017213978379 0 -0.00038921285138864735 0.029730600017171576 0 -0.00032243749705356315 0.02977866375861267 0 -0.00046829020536125481 0.029867809483740532 0 -0.00044101897205442789 0.029776017213978379 0 -0.00059005948356714855 0.029873927961413443 0 -0.00038921285138864735 0.029730600017171576 0 -0.00032243749705356315 0.02977866375861267 0 -0.00037891736105791121 0.02970336453264524 0 -0.00047692711149667722 0.02982247472056301 0 -0.00040727661553153328 0.02969119647254477 0 -0.00058896346361481274 0.031939390182311803 0 -0.00061853617629049321 0.030887631028449752 0 -0.00087458161263428156 0.033843053636553877 0 -0.00056441809499961377 0.033285349175747422 0 -0.0010021914475560666 0.033096922271675877 0 -0.00087458161263428156 0.033843053636553877 0 -0.00034274993322789095 0.033808416854865186 0 -0.00059786584167172564 0.034128868964511595 0 -0.00087458161263428156 0.033843053636553877 0 -0.00034274993322789095 0.033808416854865186 0 -0.00056441809499961377 0.033285349175747422 0 -0.00018456465581406404 0.034374247168957255 0 -0.00025286522060327768 0.034274565049499668 0 -5.6823956363306248e-06 0.034996464794917054 0 -5.2801707257817261e-06 0.034995056511421041 0 -1.2356930300378358e-05 0.034990338249065556 0 -5.6823956363306248e-06 0.034996464794917054 0 -4.1781635960851042e-09 0.034999992207418007 0 -5.2801707257817261e-06 0.034995056511421041 0 -5.6823956363306248e-06 0.034996464794917054 0 -4.1781635960851042e-09 0.034999992207418007 0 -2.3791765479730752e-09 0.034999997469380824 0 -0.00018456465581406404 0.034374247168957255 0 -6.7929922129345992e-05 0.034673740701638991 0 -5.6823956363306248e-06 0.034996464794917054 0 -2.3791765479730752e-09 0.034999997469380824 0 -1.5379305048829798e-06 0.034999107353795807 0 -2.3791765479730752e-09 0.034999997469380824 0 -1.5379305048829798e-06 0.034999107353795807 0 2.8553614853437476e-10 0.034999999779918162 0 -0.00069224741434440124 0.034450937090954717 0 -0.00043639400495069583 0.034353391571123805 0 -0.00059786584167172564 0.034128868964511595 0 -0.00034274993322789095 0.033808416854865186 0 -0.00043639400495069583 0.034353391571123805 0 -0.00059786584167172564 0.034128868964511595 0 -0.00034274993322789095 0.033808416854865186 0 -0.00011825720730004122 0.034342847294029477 0 -0.00043639400495069583 0.034353391571123805 0 -0.00069224741434440124 0.034450937090954717 0 -0.00043639400495069583 0.034353391571123805 0 -0.00050938985351003539 0.034499651569347228 0 -0.00050303743977243691 0.034619614785956439 0 -0.00069224741434440124 0.034450937090954717 0 -0.00050938985351003539 0.034499651569347228 0 -0.00042596107958169934 0.034410058456877855 0 -0.00032745210582813959 0.034673869962871813 0 -0.00011825720730004122 0.034342847294029477 0 -0.00043639400495069583 0.034353391571123805 0 -0.0002472068307915106 0.034902653158123027 0 -0.00043639400495069583 0.034353391571123805 0 -0.00050938985351003539 0.034499651569347228 0 -0.00039540881773413998 0.034553667715404898 0 -0.00050303743977243691 0.034619614785956439 0 -0.00050938985351003539 0.034499651569347228 0 -0.00039540881773413998 0.034553667715404898 0 -6.7929922129345992e-05 0.034673740701638991 0 -1.1901621467564155e-08 0.034999879641587149 0 -0.00011825720730004122 0.034342847294029477 0 -0.0002472068307915106 0.034902653158123027 0 2.2909040567641355e-07 0.034999375709512941 0 -0.00019502214759852283 0.028072720634677986 0 6.6573520000603925e-05 0.027977353952025961 0 0.00024720461105588769 0.027491262060670412 0 0.00087472165653861109 0.02672539136774436 0 0.00055700487951595447 0.026084282326656574 0 0.00024720461105588769 0.027491262060670412 0 9.2937382857414251e-05 0.02653932910413382 0 -0.00056453208356790679 0.027345229838493256 0 -0.00063086327970860541 0.028682438598167482 0 -0.00072440192706693315 0.028905128006299061 0 -0.00063194934713926257 0.028893192868663098 0 -0.00063086327970860541 0.028682438598167482 0 -0.00049327428206772045 0.028783942366559283 0 -0.00063194934713926257 0.028893192868663098 0 -0.00063086327970860541 0.028682438598167482 0 -0.00049327428206772045 0.028783942366559283 0 -0.00043984640527494883 0.028548687993840614 0 -0.00049327428206772045 0.028783942366559283 0 -0.00026278581741439889 0.028709982581036249 0 -0.00043984640527494883 0.028548687993840614 0 -0.00015091629734090365 0.028418490057738506 0 -0.00026278581741439889 0.028709982581036249 0 -0.00043984640527494883 0.028548687993840614 0 0.0012565168393752061 0.024971747526242837 0 6.6573520000603925e-05 0.027977353952025961 0 0.00087472165653861109 0.02672539136774436 0 0.00092914467815079563 0.025300487077791901 0 0.00055700487951595447 0.026084282326656574 0 0.0017950558414674084 0.026280814707770314 0 0.00087472165653861109 0.02672539136774436 0 0.0014427941878203078 0.025605181629378988 0 0.00087472165653861109 0.02672539136774436 0 0.0014427941878203078 0.025605181629378988 0 0.00092914467815079563 0.025300487077791901 0 0.0012974128867578763 0.024174086787857423 0 0.0014427941878203078 0.025605181629378988 0 0.00092914467815079563 0.025300487077791901 0 0.00058148450846602325 0.025034627136945462 0 0.00092914467815079563 0.025300487077791901 0 0.00055700487951595447 0.026084282326656574 0 0.00025064089529329008 0.025487794516656361 0 0.00055700487951595447 0.026084282326656574 0 9.2937382857414251e-05 0.02653932910413382 0 0.00058148450846602325 0.025034627136945462 0 0.00025064089529329008 0.025487794516656361 0 0.00055700487951595447 0.026084282326656574 0 0.00024720461105588769 0.027491262060670412 0 0.00055700487951595447 0.026084282326656574 0 9.2937382857414251e-05 0.02653932910413382 0 0.00025064089529329008 0.025487794516656361 0 9.2937382857414251e-05 0.02653932910413382 0 -0.00030689598687911668 0.025672894676840294 0 -0.00043706918864617404 0.025095971356730487 0 -0.00030689598687911668 0.025672894676840294 0 -0.0012072799587656581 0.026250892488218942 0 6.7240268927603006e-05 0.029090722086869008 0 -0.00062374870654633482 0.029739558432764032 0 -0.00063682436688128948 0.029700990203418286 0 -0.0012072799587656581 0.026250892488218942 0 -0.00056453208356790679 0.027345229838493256 0 -0.0011693631170662919 0.028798049298212343 0 -0.00087334518886450843 0.027982183822767882 0 -0.0011474785574767234 0.028715226830213422 0 -0.00062374870654633482 0.029739558432764032 0 -0.0007258350010273274 0.029606393659012045 0 -0.0011693631170662919 0.028798049298212343 0 9.2937382857414251e-05 0.02653932910413382 0 -0.00030689598687911668 0.025672894676840294 0 -0.00056453208356790679 0.027345229838493256 0 -0.00030689598687911668 0.025672894676840294 0 -0.0012072799587656581 0.026250892488218942 0 -0.00056453208356790679 0.027345229838493256 0 -0.00066216254336610037 0.029637201969837098 0 -0.00069471105827740686 0.029949123853522129 0 -0.00063682436688128948 0.029700990203418286 0 -0.00069471105827740686 0.029949123853522129 0 -0.00063682436688128948 0.029700990203418286 0 -0.0007258350010273274 0.029606393659012045 0 -0.00062374870654633482 0.029739558432764032 0 -0.00063682436688128948 0.029700990203418286 0 -0.0007258350010273274 0.029606393659012045 0 -0.00069471105827740686 0.029949123853522129 0 -0.0007258350010273274 0.029606393659012045 0 -0.00074489217219951326 0.029809347367394021 0 -0.00077446679160348829 0.029675700067252026 0 -0.00074489217219951326 0.029809347367394021 0 -0.00086177554373621421 0.029391963486871328 0 -0.00074489217219951326 0.029809347367394021 0 -0.00086409815492375719 0.029293508947061633 0 -0.00086177554373621421 0.029391963486871328 0 -0.0007258350010273274 0.029606393659012045 0 -0.00074489217219951326 0.029809347367394021 0 -0.00086409815492375719 0.029293508947061633 0 -0.0007258350010273274 0.029606393659012045 0 -0.00086409815492375719 0.029293508947061633 0 -0.0011693631170662919 0.028798049298212343 0 -0.00086409815492375719 0.029293508947061633 0 -0.00098109800713395024 0.02909502833646924 0 -0.0011693631170662919 0.028798049298212343 0 -0.00098109800713395024 0.02909502833646924 0 -0.00093727378337877935 0.029090013581887716 0 -0.00091542259112511288 0.029223476374028824 0 -0.00098109800713395024 0.02909502833646924 0 -0.00086177554373621421 0.029391963486871328 0 -0.00091542259112511288 0.029223476374028824 0 -0.00086409815492375719 0.029293508947061633 0 -0.00098109800713395024 0.02909502833646924 0 -0.00086177554373621421 0.029391963486871328 0 -0.00077446679160348829 0.029675700067252026 0 -0.00086177554373621421 0.029391963486871328 0 -0.00084212089943665983 0.029377267739347884 0 -0.00019502214759852283 0.028072720634677986 0 -0.00083814744213455382 0.028670105876219463 0 0.00024720461105588769 0.027491262060670412 0 -0.00056453208356790679 0.027345229838493256 0 -0.00079281633735899307 0.028741912213609676 0 -0.00056453208356790679 0.027345229838493256 0 -0.0011693631170662919 0.028798049298212343 0 -0.00079281633735899307 0.028741912213609676 0 -0.0011693631170662919 0.028798049298212343 0 -0.00098514425421347977 0.028953858144916599 0 -0.00079281633735899307 0.028741912213609676 0 -0.00098109800713395024 0.02909502833646924 0 -0.0011693631170662919 0.028798049298212343 0 -0.00098514425421347977 0.028953858144916599 0 -0.00098109800713395024 0.02909502833646924 0 -0.00098514425421347977 0.028953858144916599 0 -0.00093727378337877935 0.029090013581887716 0 -0.00098514425421347977 0.028953858144916599 0 -0.00086730378542841744 0.029001058416349246 0 -0.00093727378337877935 0.029090013581887716 0 -0.00098514425421347977 0.028953858144916599 0 -0.00079281633735899307 0.028741912213609676 0 -0.00086730378542841744 0.029001058416349246 0 -0.00063086327970860541 0.028682438598167482 0 -0.00079281633735899307 0.028741912213609676 0 -0.00072440192706693315 0.028905128006299061 0 -0.00079281633735899307 0.028741912213609676 0 -0.00072440192706693315 0.028905128006299061 0 -0.00086730378542841744 0.029001058416349246 0 -0.00072440192706693315 0.028905128006299061 0 -0.00080959064146534038 0.029040593552105518 0 -0.00070971091651899991 0.029013056141172559 0 -0.00072440192706693315 0.028905128006299061 0 -0.00080959064146534038 0.029040593552105518 0 -0.00086730378542841744 0.029001058416349246 0 -0.00086730378542841744 0.029001058416349246 0 -0.00093727378337877935 0.029090013581887716 0 -0.00088069924467512725 0.029126337501439798 0 -0.00080959064146534038 0.029040593552105518 0 -0.00086730378542841744 0.029001058416349246 0 -0.00088069924467512725 0.029126337501439798 0 -0.00080959064146534038 0.029040593552105518 0 -0.00088069924467512725 0.029126337501439798 0 -0.00078612945362079218 0.029077218866137122 0 -0.00088069924467512725 0.029126337501439798 0 -0.00084728262540189594 0.029171193694581897 0 -0.00081924113778711935 0.029123560902847932 0 -0.00088069924467512725 0.029126337501439798 0 -0.00078612945362079218 0.029077218866137122 0 -0.00081924113778711935 0.029123560902847932 0 -0.00078612945362079218 0.029077218866137122 0 -0.00073538533042540998 0.029066283715235269 0 -0.00070971091651899991 0.029013056141172559 0 -0.00080959064146534038 0.029040593552105518 0 -0.00078612945362079218 0.029077218866137122 0 -0.00070971091651899991 0.029013056141172559 0 -0.00086177554373621421 0.029391963486871328 0 -0.00084212089943665983 0.029377267739347884 0 -0.00091542259112511288 0.029223476374028824 0 -0.00084212089943665983 0.029377267739347884 0 -0.00091542259112511288 0.029223476374028824 0 -0.00087789121101325993 0.029206551274378944 0 -0.00093727378337877935 0.029090013581887716 0 -0.00088069924467512725 0.029126337501439798 0 -0.00091542259112511288 0.029223476374028824 0 -0.00088069924467512725 0.029126337501439798 0 -0.00091542259112511288 0.029223476374028824 0 -0.00087789121101325993 0.029206551274378944 0 -0.00088069924467512725 0.029126337501439798 0 -0.00084728262540189594 0.029171193694581897 0 -0.00087789121101325993 0.029206551274378944 0 -0.00084728262540189594 0.029171193694581897 0 -0.00087789121101325993 0.029206551274378944 0 -0.00083084896741715205 0.029236888737271857 0 -0.00084212089943665983 0.029377267739347884 0 -0.00087789121101325993 0.029206551274378944 0 -0.00083084896741715205 0.029236888737271857 0 -0.00077898663792777599 0.029346529970630704 0 -0.00084212089943665983 0.029377267739347884 0 -0.00083084896741715205 0.029236888737271857 0 -0.00077898663792777599 0.029346529970630704 0 -0.00075255468716498616 0.0292366042742493 0 -0.00083084896741715205 0.029236888737271857 0 -0.00075255468716498616 0.0292366042742493 0 -0.00071505852977478673 0.029117339481349969 0 -0.0008040457451802983 0.029145007076711416 0 -0.00075255468716498616 0.0292366042742493 0 -0.00083084896741715205 0.029236888737271857 0 -0.0008040457451802983 0.029145007076711416 0 -0.00084728262540189594 0.029171193694581897 0 -0.0008040457451802983 0.029145007076711416 0 -0.00079421965246628595 0.029109127551634733 0 -0.00084728262540189594 0.029171193694581897 0 -0.00083084896741715205 0.029236888737271857 0 -0.0008040457451802983 0.029145007076711416 0 -0.0008040457451802983 0.029145007076711416 0 -0.00079421965246628595 0.029109127551634733 0 -0.00078020435535173095 0.029084232907699764 0 -0.00071646455400104598 0.029106483617537267 0 -0.00074371286133675019 0.029064514785192248 0 -0.00071505852977478673 0.029117339481349969 0 -0.0008040457451802983 0.029145007076711416 0 -0.00078020435535173095 0.029084232907699764 0 -0.00078612945362079218 0.029077218866137122 0 -0.00077154853821476555 0.029095137800390782 0 -0.00073538533042540998 0.029066283715235269 0 -0.00077154853821476555 0.029095137800390782 0 -0.00073538533042540998 0.029066283715235269 0 -0.00071488053099320328 0.029071334678819997 0 -0.00078612945362079218 0.029077218866137122 0 -0.00077154853821476555 0.029095137800390782 0 -0.00081924113778711935 0.029123560902847932 0 -0.00077154853821476555 0.029095137800390782 0 -0.00081924113778711935 0.029123560902847932 0 -0.00079421965246628595 0.029109127551634733 0 -0.00084728262540189594 0.029171193694581897 0 -0.00081924113778711935 0.029123560902847932 0 -0.00079421965246628595 0.029109127551634733 0 -0.00077154853821476555 0.029095137800390782 0 -0.00079421965246628595 0.029109127551634733 0 -0.00072773531745574211 0.029077004893402671 0 -0.00079421965246628595 0.029109127551634733 0 -0.00072773531745574211 0.029077004893402671 0 -0.00075846993581885937 0.029083899821102301 0 -0.00077154853821476555 0.029095137800390782 0 -0.00071488053099320328 0.029071334678819997 0 -0.00072773531745574211 0.029077004893402671 0 -0.00066545874703497268 0.029056455426201604 0 -0.00071488053099320328 0.029071334678819997 0 -0.00072773531745574211 0.029077004893402671 0 -0.00066545874703497268 0.029056455426201604 0 -0.00071488053099320328 0.029071334678819997 0 -0.00067107947409910111 0.029042534998908642 0 -0.00066545874703497268 0.029056455426201604 0 -0.00060490137100601684 0.029030616454722328 0 -0.00067107947409910111 0.029042534998908642 0 -0.00066545874703497268 0.029056455426201604 0 -0.00060490137100601684 0.029030616454722328 0 -0.00062990563623829669 0.029028302084241044 0 -0.00060490137100601684 0.029030616454722328 0 -0.00061282734000087731 0.028983523120766862 0 -0.00053240645731827507 0.028974074839678836 0 -0.00060490137100601684 0.029030616454722328 0 -0.00067107947409910111 0.029042534998908642 0 -0.00061282734000087731 0.028983523120766862 0 -0.00073538533042540998 0.029066283715235269 0 -0.00067107947409910111 0.029042534998908642 0 -0.00070971091651899991 0.029013056141172559 0 -0.00073538533042540998 0.029066283715235269 0 -0.00071488053099320328 0.029071334678819997 0 -0.00067107947409910111 0.029042534998908642 0 -0.00067107947409910111 0.029042534998908642 0 -0.00070971091651899991 0.029013056141172559 0 -0.00061282734000087731 0.028983523120766862 0 -0.00070971091651899991 0.029013056141172559 0 -0.00061282734000087731 0.028983523120766862 0 -0.00063194934713926257 0.028893192868663098 0 -0.00061282734000087731 0.028983523120766862 0 -0.00063194934713926257 0.028893192868663098 0 -0.00053790110857928589 0.028912174518779265 0 -0.00061282734000087731 0.028983523120766862 0 -0.00053790110857928589 0.028912174518779265 0 -0.00053240645731827507 0.028974074839678836 0 -0.00049327428206772045 0.028783942366559283 0 -0.00063194934713926257 0.028893192868663098 0 -0.00053790110857928589 0.028912174518779265 0 -0.00072440192706693315 0.028905128006299061 0 -0.00070971091651899991 0.029013056141172559 0 -0.00063194934713926257 0.028893192868663098 0 0.0005748809702185761 0.025665182289505272 0 0.00057675280554188681 0.025616789816021654 0 -0.00049327428206772045 0.028783942366559283 0 -0.00026278581741439889 0.028709982581036249 0 -0.00039492773609521462 0.028913137859678258 0 0.0015225680710155723 0.022340738844443361 0 0.001573437594092582 0.022393793663150228 0 0.0015189860067945831 0.022381913395443355 0 -0.00049327428206772045 0.028783942366559283 0 -0.00053790110857928589 0.028912174518779265 0 -0.00039492773609521462 0.028913137859678258 0 -0.00053790110857928589 0.028912174518779265 0 -0.00053240645731827507 0.028974074839678836 0 -0.00039492773609521462 0.028913137859678258 0 0.0014943284645479087 0.022311085211867566 0 0.0015189860067945831 0.022381913395443355 0 0.0014803302986220411 0.022223668964916503 0 0.00057675280554188681 0.025616789816021654 0 0.00051534426134886458 0.025567174027115433 0 0.0015189860067945831 0.022381913395443355 0 0.0014803302986220411 0.022223668964916503 0 0.0015658483508411856 0.022141771422387789 0 0.0014803302986220411 0.022223668964916503 0 0.0015658483508411856 0.022141771422387789 0 0.0013015750895399069 0.021906041979200305 0 -0.00053240645731827507 0.028974074839678836 0 -0.00039492773609521462 0.028913137859678258 0 -0.000535858975371804 0.029012611596429774 0 -0.00060490137100601684 0.029030616454722328 0 -0.00053240645731827507 0.028974074839678836 0 -0.000535858975371804 0.029012611596429774 0 -0.00060490137100601684 0.029030616454722328 0 -0.000535858975371804 0.029012611596429774 0 -0.00062990563623829669 0.029028302084241044 0 0.00051534426134886458 0.025567174027115433 0 0.00052792760857008297 0.025182290054613771 0 0.0015658483508411856 0.022141771422387789 0 0.0013792312849539982 0.021614056577469162 0 0.0017077953749788199 0.021290677289531528 0 0.0010176007021709659 0.021899668227082641 0 0.0014803302986220411 0.022223668964916503 0 0.0013015750895399069 0.021906041979200305 0 0.0015658483508411856 0.022141771422387789 0 0.0013015750895399069 0.021906041979200305 0 0.0013792312849539982 0.021614056577469162 0 0.0010505722128491156 0.02159069501861869 0 0.0013015750895399069 0.021906041979200305 0 0.0013792312849539982 0.021614056577469162 0 0.0010176007021709659 0.021899668227082641 0 0.0010505722128491156 0.02159069501861869 0 0.0013015750895399069 0.021906041979200305 0 0.0013792312849539982 0.021614056577469162 0 0.0012727677755508628 0.021160172192487343 0 0.0017077953749788199 0.021290677289531528 0 0.0010505722128491156 0.02159069501861869 0 0.0013792312849539982 0.021614056577469162 0 0.0012727677755508628 0.021160172192487343 0 0.0012727677755508628 0.021160172192487343 0 0.0017077953749788199 0.021290677289531528 0 0.0014273689697983148 0.020778295955536551 0 0.00052792760857008297 0.025182290054613771 0 0.00054595170834660265 0.024773832137772182 0 0.0017077953749788199 0.021290677289531528 0 0.0014273689697983148 0.020778295955536551 0 0.0016918874544777057 0.020691277907820455 0 0.0012727677755508628 0.021160172192487343 0 0.0014273689697983148 0.020778295955536551 0 0.0010491272348897949 0.020654884073197554 0 0.0014273689697983148 0.020778295955536551 0 0.0012643463049855392 0.02048956836135752 0 0.0010491272348897949 0.020654884073197554 0 0.0014273689697983148 0.020778295955536551 0 0.0012643463049855392 0.02048956836135752 0 0.0015692228613789427 0.020447337842799538 0 0.0014273689697983148 0.020778295955536551 0 0.0015692228613789427 0.020447337842799538 0 0.0016918874544777057 0.020691277907820455 0 0.0015692228613789427 0.020447337842799538 0 0.0012246582007317717 0.020255021549254782 0 0.0016738740771243949 0.02025656882764184 0 0.0012643463049855392 0.02048956836135752 0 0.0015692228613789427 0.020447337842799538 0 0.0012246582007317717 0.020255021549254782 0 0.0012643463049855392 0.02048956836135752 0 0.0012246582007317717 0.020255021549254782 0 0.0010322435877135393 0.020468110165319194 0 -0.00092858696349485347 0.028683920639296055 0 -0.00084315957036825925 0.02882289368535423 0 -0.00085575356860076988 0.028692903632466016 0 0.00032894761588238796 0.024926487738302788 0 -0.00079410659932934065 0.029527300195947084 0 -0.00067836900394980734 0.028903289330567402 0 -0.00067225944972639114 0.02899212945709027 0 -0.00066395173393761367 0.029011857276913511 0 0.0015692228613789427 0.020447337842799538 0 0.0017344073162486972 0.020314186342762195 0 0.0016918874544777057 0.020691277907820455 0 0.00032894761588238796 0.024926487738302788 0 0.00054595170834660265 0.024773832137772182 0 0.0015692228613789427 0.020447337842799538 0 0.0017344073162486972 0.020314186342762195 0 0.0016738740771243949 0.02025656882764184 0 -0.00067834356494966906 0.028989788564685981 0 -0.00067225944972639114 0.02899212945709027 0 -0.00067473745194954822 0.029041727536901207 0 -0.00067836900394980734 0.028903289330567402 0 -0.00067834356494966906 0.028989788564685981 0 -0.00067225944972639114 0.02899212945709027 0 -0.00067225944972639114 0.02899212945709027 0 -0.00066395173393761367 0.029011857276913511 0 -0.00067473745194954822 0.029041727536901207 0 -0.00062990563623829669 0.029028302084241044 0 -0.00067834356494966906 0.028989788564685981 0 -0.00067473745194954822 0.029041727536901207 0 -0.00066545874703497268 0.029056455426201604 0 -0.00062990563623829669 0.029028302084241044 0 -0.00067473745194954822 0.029041727536901207 0 -0.00066545874703497268 0.029056455426201604 0 -0.00067473745194954822 0.029041727536901207 0 -0.00072773531745574211 0.029077004893402671 0 -0.00072773531745574211 0.029077004893402671 0 -0.00075846993581885937 0.029083899821102301 0 -0.00072360104974041886 0.029072204476503907 0 -0.00075846993581885937 0.029083899821102301 0 -0.00072360104974041886 0.029072204476503907 0 -0.00078020435535173095 0.029084232907699764 0 -0.00067473745194954822 0.029041727536901207 0 -0.00072773531745574211 0.029077004893402671 0 -0.00072360104974041886 0.029072204476503907 0 -0.00066395173393761367 0.029011857276913511 0 -0.00067473745194954822 0.029041727536901207 0 -0.00072360104974041886 0.029072204476503907 0 -0.00071505852977478673 0.029117339481349969 0 -0.00068535805564037702 0.029002386342196741 0 -0.00073271942446407972 0.028999866047814297 0 -0.00068535805564037702 0.029002386342196741 0 -0.00073271942446407972 0.028999866047814297 0 -0.00069573509762644789 0.028946482623801967 0 -0.00079421965246628595 0.029109127551634733 0 -0.00075846993581885937 0.029083899821102301 0 -0.00078020435535173095 0.029084232907699764 0 -0.00076985747965903296 0.028890566732317872 0 -0.00074371286133675019 0.029064514785192248 0 -0.00077132772686355603 0.028921841882148282 0 -0.00073271942446407972 0.028999866047814297 0 -0.00072808265312135898 0.028900462075261105 0 -0.00073271942446407972 0.028999866047814297 0 -0.00069573509762644789 0.028946482623801967 0 -0.00072808265312135898 0.028900462075261105 0 -0.00069573509762644789 0.028946482623801967 0 -0.00069094159362048928 0.028891549854525946 0 -0.00064698566520110328 0.028944945711790432 0 -0.00068535805564037702 0.029002386342196741 0 -0.00069573509762644789 0.028946482623801967 0 -0.00064698566520110328 0.028944945711790432 0 -0.00029522861217686652 0.029548334119312462 0 -0.00027391968928410556 0.029759058607464629 0 0.00016926198747997271 0.030325100984110238 0 0.00010008618269489449 0.030410265868382136 0 3.2554178963031623e-05 0.03030353508521055 0 0.00016926198747997271 0.030325100984110238 0 -9.7995448379529564e-07 0.030187015171893216 0 3.2554178963031623e-05 0.03030353508521055 0 0.00016926198747997271 0.030325100984110238 0 0.00018397474464323208 0.030378539780584326 0 0.00010008618269489449 0.030410265868382136 0 -0.00029522861217686652 0.029548334119312462 0 -0.00025831515711742412 0.029831557794261165 0 0.00016926198747997271 0.030325100984110238 0 0.00018397474464323208 0.030378539780584326 0 0.00021860300177490419 0.030386702817649162 0 -0.00069573509762644789 0.028946482623801967 0 -0.00069094159362048928 0.028891549854525946 0 -0.00072808265312135898 0.028900462075261105 0 -0.00069094159362048928 0.028891549854525946 0 -0.00072808265312135898 0.028900462075261105 0 -0.00072769447794926456 0.028815147024418276 0 0.00022023255911486977 0.030393151877272553 0 0.00018397474464323208 0.030378539780584326 0 0.00021860300177490419 0.030386702817649162 0 0.00022023255911486977 0.030393151877272553 0 0.00023369508741390691 0.030447957400211091 0 0.00029100074203532834 0.030463623864522858 0 0.00023369508741390691 0.030447957400211091 0 0.00020784698590040288 0.03043132210721387 0 0.00022608148077829241 0.030477585792936541 0 0.00022023255911486977 0.030393151877272553 0 0.00023369508741390691 0.030447957400211091 0 0.00020784698590040288 0.03043132210721387 0 0.00020784698590040288 0.03043132210721387 0 0.00018397474464323208 0.030378539780584326 0 0.00016057476399627775 0.030456047166280364 0 0.00020784698590040288 0.03043132210721387 0 0.00016057476399627775 0.030456047166280364 0 0.00022608148077829241 0.030477585792936541 0 0.00022023255911486977 0.030393151877272553 0 0.00020784698590040288 0.03043132210721387 0 0.00018397474464323208 0.030378539780584326 0 0.00016057476399627775 0.030456047166280364 0 0.00010008618269489449 0.030410265868382136 0 6.7718879922114235e-05 0.030570923728347878 0 0.00018397474464323208 0.030378539780584326 0 0.00016057476399627775 0.030456047166280364 0 0.00010008618269489449 0.030410265868382136 0 -0.00084315957036825925 0.02882289368535423 0 -0.0007620786025265237 0.028849907085876904 0 -0.00078775354160677362 0.028792595010801891 0 -0.00084315957036825925 0.02882289368535423 0 -0.00077132772686355603 0.028921841882148282 0 -0.0007620786025265237 0.028849907085876904 0 -0.00079410659932934065 0.029527300195947084 0 -0.00076985747965903296 0.028890566732317872 0 -0.00077132772686355603 0.028921841882148282 0 -0.00072808265312135898 0.028900462075261105 0 -0.0007620786025265237 0.028849907085876904 0 -0.00072808265312135898 0.028900462075261105 0 -0.0007620786025265237 0.028849907085876904 0 -0.00072769447794926456 0.028815147024418276 0 -0.0007620786025265237 0.028849907085876904 0 -0.00072769447794926456 0.028815147024418276 0 -0.00078775354160677362 0.028792595010801891 0 0.00021860300177490419 0.030386702817649162 0 1.857098270452829e-05 0.030217814493729071 0 0.00018176720614545292 0.03023906212261326 0 -0.00025831515711742412 0.029831557794261165 0 0.00030623668501799869 0.027360846617190106 0 -0.00072769447794926456 0.028815147024418276 0 -0.00078775354160677362 0.028792595010801891 0 -0.00078934100871731988 0.028716795640863792 0 0.00057826837574904576 0.030725968450654281 0 0.00018007792804467543 0.028360394157625281 0 0.00022023255911486977 0.030393151877272553 0 0.00021860300177490419 0.030386702817649162 0 0.00018176720614545292 0.03023906212261326 0 -0.00078775354160677362 0.028792595010801891 0 -0.00078934100871731988 0.028716795640863792 0 -0.00085575356860076988 0.028692903632466016 0 -0.00084315957036825925 0.02882289368535423 0 -0.00078775354160677362 0.028792595010801891 0 -0.00085575356860076988 0.028692903632466016 0 0.00030623668501799869 0.027360846617190106 0 0.00025970777634143268 0.024626952673260535 0 0.00073534250329380447 0.025956386423443525 0 0.00059847218111685476 0.024576638950030483 0 -0.0001088667775210516 0.025358711861553113 0 0.0011834603422942369 0.024388950403792482 0 0.0004312998960721909 0.024377608841988817 0 0.00055718549717692753 0.023930714230958189 0 0.00073534250329380447 0.025956386423443525 0 0.0017084093602855867 0.025954682175782735 0 0.00059847218111685476 0.024576638950030483 0 0.00030623668501799869 0.027360846617190106 0 -0.00039056611218116276 0.026478461624194299 0 0.00018007792804467543 0.028360394157625281 0 -0.0001896330768075398 0.026876737014067693 0 0.00030623668501799869 0.027360846617190106 0 0.00018007792804467543 0.028360394157625281 0 -0.001139055512737923 0.028540123111417806 0 -0.0010024117204234157 0.028548214961967345 0 -0.0011594366178099321 0.028693859498987295 0 -0.0011022625901626888 0.028442573382154897 0 -0.001139055512737923 0.028540123111417806 0 -0.0010024117204234157 0.028548214961967345 0 0.00039975970322332806 0.030555428226098167 0 0.00025583350839732865 0.030817091995104965 0 6.7718879922114235e-05 0.030570923728347878 0 0.00016057476399627775 0.030456047166280364 0 0.00022608148077829241 0.030477585792936541 0 6.7718879922114235e-05 0.030570923728347878 0 -3.7573897906037528e-05 0.029992547130726403 0 0.00022047257718518223 0.030680230059226325 0 -0.0011022625901626888 0.028442573382154897 0 -0.001139055512737923 0.028540123111417806 0 -0.0011730261704605578 0.028446898323568184 0 -3.7573897906037528e-05 0.029992547130726403 0 -0.00054709580307429895 0.029699071720415932 0 0.00023369508741390691 0.030447957400211091 0 0.00029100074203532834 0.030463623864522858 0 0.00021948768241604222 0.030469745208519285 0 0.00018007792804467543 0.028360394157625281 0 -3.7573897906037528e-05 0.029992547130726403 0 -3.5173391879648771e-05 0.030168719725376637 0 -3.7573897906037528e-05 0.029992547130726403 0 -0.001139055512737923 0.028540123111417806 0 -0.0011730261704605578 0.028446898323568184 0 -0.0012593414093110243 0.02857249601277843 0 -0.001139055512737923 0.028540123111417806 0 -0.0012593414093110243 0.02857249601277843 0 -0.0011594366178099321 0.028693859498987295 0 0.00025583350839732865 0.030817091995104965 0 6.7718879922114235e-05 0.030570923728347878 0 1.8391222234092373e-05 0.030852595930528106 0 0.00025583350839732865 0.030817091995104965 0 0.00012072384913548857 0.031071515468419072 0 1.8391222234092373e-05 0.030852595930528106 0 -0.0012593414093110243 0.02857249601277843 0 -0.0013464599202669637 0.028722167591251804 0 -0.0011594366178099321 0.028693859498987295 0 -0.00054709580307429895 0.029699071720415932 0 -0.00052295395720218898 0.029515735229704132 0 -0.0011594366178099321 0.028693859498987295 0 -0.0011105036765307083 0.02887261753107212 0 -0.0012597926416217898 0.028887144774675255 0 -0.0013464599202669637 0.028722167591251804 0 -0.0011594366178099321 0.028693859498987295 0 -0.0012597926416217898 0.028887144774675255 0 -0.0013464599202669637 0.028722167591251804 0 -0.0014291468774887909 0.028895046468006565 0 -0.0012597926416217898 0.028887144774675255 0 -0.0010024117204234157 0.028548214961967345 0 -0.001029495640393775 0.028725730922095339 0 -0.00089581334156916723 0.028647956603776708 0 -0.0010024117204234157 0.028548214961967345 0 -0.0011594366178099321 0.028693859498987295 0 -0.001029495640393775 0.028725730922095339 0 -0.0011594366178099321 0.028693859498987295 0 -0.001029495640393775 0.028725730922095339 0 -0.0011105036765307083 0.02887261753107212 0 -0.00016976534121225176 0.022903668436810541 0 -0.002438671108608364 0.028109195969502239 0 -0.001029495640393775 0.028725730922095339 0 -0.00089581334156916723 0.028647956603776708 0 -0.00095608866691221557 0.028860917948986313 0 -0.00016976534121225176 0.022903668436810541 0 0.00091898789912108207 0.020546507335886584 0 0.00059847218111685476 0.024576638950030483 0 -0.00051919926242192612 0.023211468600634753 0 -0.00024580343058256272 0.024475693512345222 0 -0.0001896330768075398 0.026876737014067693 0 -0.00016976534121225176 0.022903668436810541 0 0.0013220087154877363 0.017125787121514212 0 0.001177549491382379 0.017565555640200035 0 0.0016259827977392679 0.017904810132491795 0 0.0018335527235372223 0.017117498341592929 0 0.0013220087154877363 0.017125787121514212 0 0.0016259827977392679 0.017904810132491795 0 0.0013220087154877363 0.017125787121514212 0 0.0010502533732905533 0.017197544474243008 0 0.001177549491382379 0.017565555640200035 0 0.0018335527235372223 0.017117498341592929 0 0.0013220087154877363 0.017125787121514212 0 0.0012288142514711613 0.016386280497365294 0 -0.00016976534121225176 0.022903668436810541 0 0.00039363246305772865 0.018226988727554041 0 0.0012870457363217335 0.01613910522662065 0 0.00039363246305772865 0.018226988727554041 0 0.00087103634372644276 0.016891486842272013 0 0.00056674944961817339 0.016343918030045861 0 0.0012303893384006225 0.016215771812234357 0 0.0013220087154877363 0.017125787121514212 0 0.00087103634372644276 0.016891486842272013 0 0.0012288142514711613 0.016386280497365294 0 0.00046821549993501446 0.016864662688435759 0 0.00056674944961817339 0.016343918030045861 0 -3.69390100508081e-05 0.016562777165415536 0 0.00087103634372644276 0.016891486842272013 0 0.00046821549993501446 0.016864662688435759 0 0.00056674944961817339 0.016343918030045861 0 0.00025827973281415093 0.017495372774079386 0 0.00075661140364011354 0.017226682443473959 0 0.00091640731716516387 0.01765590921595046 0 0.00046821549993501446 0.016864662688435759 0 0.00025827973281415093 0.017495372774079386 0 -3.69390100508081e-05 0.016562777165415536 0 0.00046821549993501446 0.016864662688435759 0 0.00025827973281415093 0.017495372774079386 0 0.00075661140364011354 0.017226682443473959 0 0.0013220087154877363 0.017125787121514212 0 0.00087103634372644276 0.016891486842272013 0 0.0010502533732905533 0.017197544474243008 0 0.00087103634372644276 0.016891486842272013 0 0.00046821549993501446 0.016864662688435759 0 0.00075661140364011354 0.017226682443473959 0 0.00087103634372644276 0.016891486842272013 0 0.0010502533732905533 0.017197544474243008 0 0.00075661140364011354 0.017226682443473959 0 0.00075661140364011354 0.017226682443473959 0 0.00091640731716516387 0.01765590921595046 0 0.0013848901072031597 0.017655003812228974 0 0.0010502533732905533 0.017197544474243008 0 0.00075661140364011354 0.017226682443473959 0 0.001177549491382379 0.017565555640200035 0 0.00085152947374691698 0.017300919782586969 0 0.0011691873824537442 0.01754458195768125 0 0.00091640731716516387 0.01765590921595046 0 0.0012429024275115086 0.018131522520105373 0 0.0013848901072031597 0.017655003812228974 0 0.00091640731716516387 0.01765590921595046 0 0.0012429024275115086 0.018131522520105373 0 0.00067129262050191437 0.017975228242208242 0 0.0012429024275115086 0.018131522520105373 0 0.00067129262050191437 0.017975228242208242 0 0.00071153023750915344 0.018369664686223471 0 0.00025827973281415093 0.017495372774079386 0 0.00067129262050191437 0.017975228242208242 0 0.00013148972545384125 0.018228901333241034 0 0.00025827973281415093 0.017495372774079386 0 0.00091640731716516387 0.01765590921595046 0 0.00067129262050191437 0.017975228242208242 0 0.00067129262050191437 0.017975228242208242 0 0.00013148972545384125 0.018228901333241034 0 0.00071153023750915344 0.018369664686223471 0 0.00013148972545384125 0.018228901333241034 0 0.00032401475469385138 0.018882695365160289 0 0.00071153023750915344 0.018369664686223471 0 0.00032401475469385138 0.018882695365160289 0 0.0011962665208130514 0.018623297106747351 0 0.00071153023750915344 0.018369664686223471 0 0.00086903577983486432 0.019424404412646409 0 0.00095810627425145793 0.021381488458743412 0 0.00032401475469385138 0.018882695365160289 0 0.0011962665208130514 0.018623297106747351 0 0.0015151537591573886 0.018899204114422093 0 0.0012429024275115086 0.018131522520105373 0 0.0011962665208130514 0.018623297106747351 0 0.00071153023750915344 0.018369664686223471 0 0.0012429024275115086 0.018131522520105373 0 0.0011962665208130514 0.018623297106747351 0 0.0016044387311266485 0.018472387257468473 0 0.00062781835650021177 0.019349052039968104 0 0.00095810627425145793 0.021381488458743412 0 0.0016044387311266485 0.018472387257468473 0 0.0017668892643433322 0.018924840007008052 0 0.0019976065929885917 0.01809470598978322 0 0.00035320931565244114 0.023252836045391301 0 0.00091898789912108207 0.020546507335886584 0 0.0011962665208130514 0.018623297106747351 0 0.0015256288338174342 0.018923054622369147 0 0.0016044387311266485 0.018472387257468473 0 0.0015256288338174342 0.018923054622369147 0 0.0016044387311266485 0.018472387257468473 0 0.0017668892643433322 0.018924840007008052 0 -0.00092858696349485347 0.028683920639296055 0 -0.00092264648199593519 0.02866397430891892 0 -0.00085575356860076988 0.028692903632466016 0 0.00041561273981244323 0.022580501854268471 0 0.00066970420344926657 0.022781676317754646 0 0.00035576135340319848 0.022791805348974233 0 0.00095810627425145793 0.021381488458743412 0 0.00035320931565244114 0.023252836045391301 0 0.00032894761588238796 0.024926487738302788 0 0.00095810627425145793 0.021381488458743412 0 0.00032894761588238796 0.024926487738302788 0 0.00035320931565244114 0.023252836045391301 0 -0.00032403361770341819 0.024378209825919629 0 0.00055718549717692753 0.023930714230958189 0 -7.4525867057103655e-05 0.023478146984579201 0 -0.00032403361770341819 0.024378209825919629 0 0.0004312998960721909 0.024377608841988817 0 0.00055718549717692753 0.023930714230958189 0 0.00035320931565244114 0.023252836045391301 0 -0.00039056611218116276 0.026478461624194299 0 -0.00051919926242192612 0.023211468600634753 0 -0.00024580343058256272 0.024475693512345222 0 -0.00095258397708885677 0.024760381433519541 0 -0.0001088667775210516 0.025358711861553113 0 -0.00024580343058256272 0.024475693512345222 0 -0.00095258397708885677 0.024760381433519541 0 0.00025970777634143268 0.024626952673260535 0 0.00091898789912108207 0.020546507335886584 0 0.00059847218111685476 0.024576638950030483 0 -0.0001088667775210516 0.025358711861553113 0 -0.00024580343058256272 0.024475693512345222 0 0.0012429024275115086 0.018131522520105373 0 0.0016044387311266485 0.018472387257468473 0 0.0019976065929885917 0.01809470598978322 0 0.0012429024275115086 0.018131522520105373 0 0.0013848901072031597 0.017655003812228974 0 0.0019976065929885917 0.01809470598978322 0 0.0011691873824537442 0.01754458195768125 0 0.00091898789912108207 0.020546507335886584 0 -9.2145084672706833e-10 0.034999965244822726 0 -1.6024995546185479e-05 0.034968718404451697 0 -6.9923513614046355e-06 0.034989340220112609 0 -9.2145084672706833e-10 0.034999965244822726 0 -1.6024995546185479e-05 0.034968718404451697 0 -1.4710746090879058e-06 0.034969071297756386 0 -1.6024995546185479e-05 0.034968718404451697 0 -1.7389772490005739e-05 0.034950751826447864 0 -1.4710746090879058e-06 0.034969071297756386 0 -1.6024995546185479e-05 0.034968718404451697 0 -6.9923513614046355e-06 0.034989340220112609 0 -1.8057525061594511e-05 0.034983111568620509 0 -6.9923513614046355e-06 0.034989340220112609 0 -9.9656581386613029e-06 0.034989427230679777 0 -1.8057525061594511e-05 0.034983111568620509 0 1.3937795696457501e-05 0.034896870389772836 0 -0.00015298289990008009 0.035143822609948888 0 -9.2145084672706833e-10 0.034999965244822726 0 -6.9923513614046355e-06 0.034989340220112609 0 -5.6567533578386412e-09 0.034999988710763409 0 -6.9923513614046355e-06 0.034989340220112609 0 -5.6567533578386412e-09 0.034999988710763409 0 -9.9656581386613029e-06 0.034989427230679777 0 -5.6567533578386412e-09 0.034999988710763409 0 -5.2801707257817261e-06 0.034995056511421041 0 -9.9656581386613029e-06 0.034989427230679777 0 -4.1781635960851042e-09 0.034999992207418007 0 -5.6567533578386412e-09 0.034999988710763409 0 -5.2801707257817261e-06 0.034995056511421041 0 -1.2356930300378358e-05 0.034990338249065556 0 -9.9656581386613029e-06 0.034989427230679777 0 -1.9206942100747412e-05 0.034979394051646302 0 -5.2801707257817261e-06 0.034995056511421041 0 -1.2356930300378358e-05 0.034990338249065556 0 -9.9656581386613029e-06 0.034989427230679777 0 -9.9656581386613029e-06 0.034989427230679777 0 -1.9206942100747412e-05 0.034979394051646302 0 -1.8057525061594511e-05 0.034983111568620509 0 -0.00043243040474669474 0.033125098298148775 0 -0.00015298289990008009 0.035143822609948888 0 -0.00077732004036286265 0.030180856298114636 0 -0.00070199189937130509 0.030049715488037095 0 -0.00069019010349222025 0.030132106023984702 0 -0.00056441809499961377 0.033285349175747422 0 -0.00081363662181857348 0.032743514692111168 0 -0.0010021914475560666 0.033096922271675877 0 -0.00025286522060327768 0.034274565049499668 0 -0.00043243040474669474 0.033125098298148775 0 -0.00043243040474669474 0.033125098298148775 0 -0.00061853617629049321 0.030887631028449752 0 -0.00059005948356714855 0.029873927961413443 0 -0.00069496265832614775 0.030015885147024017 0 -0.00052410073933309919 0.030020698743023898 0 -0.00069496265832614775 0.030015885147024017 0 -0.00069019010349222025 0.030132106023984702 0 -0.00052410073933309919 0.030020698743023898 0 -0.00046829020536125481 0.029867809483740532 0 -0.00059005948356714855 0.029873927961413443 0 -0.00052410073933309919 0.030020698743023898 0 -0.00040727661553153328 0.02969119647254477 0 -0.00061853617629049321 0.030887631028449752 0 -0.00061853617629049321 0.030887631028449752 0 -0.00072646654429837844 0.030025190458368593 0 -0.00077732004036286265 0.030180856298114636 0 -0.00069019010349222025 0.030132106023984702 0 -0.00067571433366638088 0.030433226194530268 0 -0.0005678978337262168 0.030231687293189726 0 -0.00069019010349222025 0.030132106023984702 0 -0.00052410073933309919 0.030020698743023898 0 -0.0005678978337262168 0.030231687293189726 0 -0.00067571433366638088 0.030433226194530268 0 -0.00048904289600102573 0.030394298467114431 0 -0.0005678978337262168 0.030231687293189726 0 -0.00069019010349222025 0.030132106023984702 0 -0.00067571433366638088 0.030433226194530268 0 -3.2901456327504282e-05 0.034920707235520064 0 -2.0539598819630483e-05 0.03494903412247375 0 -1.6151298906904174e-05 0.034938340405769999 0 -2.1307349694448939e-05 0.034873496376799623 0 -3.2901456327504282e-05 0.034920707235520064 0 -1.6151298906904174e-05 0.034938340405769999 0 -0.00043243040474669474 0.033125098298148775 0 -0.00036816411969360429 0.032553312874124586 0 -1.6024995546185479e-05 0.034968718404451697 0 -3.2901456327504282e-05 0.034920707235520064 0 -2.0539598819630483e-05 0.03494903412247375 0 -2.0539598819630483e-05 0.03494903412247375 0 -1.6151298906904174e-05 0.034938340405769999 0 -1.7389772490005739e-05 0.034950751826447864 0 -1.6024995546185479e-05 0.034968718404451697 0 -2.0539598819630483e-05 0.03494903412247375 0 -1.7389772490005739e-05 0.034950751826447864 0 -1.6151298906904174e-05 0.034938340405769999 0 -5.7737523548034393e-05 0.034925836775937961 0 -1.7389772490005739e-05 0.034950751826447864 0 -0.00067571433366638088 0.030433226194530268 0 -0.00048904289600102573 0.030394298467114431 0 -0.00057141989020868258 0.030701925945727647 0 -0.00036816411969360429 0.032553312874124586 0 -0.00029184639852157664 0.032879321866891784 0 -0.00048904289600102573 0.030394298467114431 0 -0.00037202803139163245 0.030627125960406763 0 -0.00057141989020868258 0.030701925945727647 0 -0.00031098306282473297 0.0304098403780227 0 -0.00048904289600102573 0.030394298467114431 0 -0.00037202803139163245 0.030627125960406763 0 -0.00031098306282473297 0.0304098403780227 0 -0.00020847000856454815 0.030538039011098396 0 -0.00037202803139163245 0.030627125960406763 0 -0.00031098306282473297 0.0304098403780227 0 -0.00036476072681112365 0.030289670449461334 0 -0.00018974042527343017 0.030334704891254383 0 -0.00036476072681112365 0.030289670449461334 0 -0.00029247459805479122 0.030154564949428149 0 -0.00018974042527343017 0.030334704891254383 0 -0.00031098306282473297 0.0304098403780227 0 -0.00036476072681112365 0.030289670449461334 0 -0.00048904289600102573 0.030394298467114431 0 -0.0005678978337262168 0.030231687293189726 0 -0.00048904289600102573 0.030394298467114431 0 -0.00044881208106890055 0.03017915162334231 0 -0.00036476072681112365 0.030289670449461334 0 -0.00048904289600102573 0.030394298467114431 0 -0.00044881208106890055 0.03017915162334231 0 -0.0005678978337262168 0.030231687293189726 0 -0.00044881208106890055 0.03017915162334231 0 -0.00052410073933309919 0.030020698743023898 0 -0.00044881208106890055 0.03017915162334231 0 -0.00052410073933309919 0.030020698743023898 0 -0.0004149744505829237 0.030042238665170948 0 -0.00052410073933309919 0.030020698743023898 0 -0.0004071694318993806 0.029917720587402268 0 -0.0004149744505829237 0.030042238665170948 0 -0.00046829020536125481 0.029867809483740532 0 -0.00052410073933309919 0.030020698743023898 0 -0.0004071694318993806 0.029917720587402268 0 -0.00032299677832087903 0.029965645256541502 0 -0.0004149744505829237 0.030042238665170948 0 -0.00029247459805479122 0.030154564949428149 0 -0.0003542268729356114 0.029856578420889176 0 -0.00032299677832087903 0.029965645256541502 0 -0.0004071694318993806 0.029917720587402268 0 -0.00032299677832087903 0.029965645256541502 0 -0.0004071694318993806 0.029917720587402268 0 -0.0004149744505829237 0.030042238665170948 0 -0.00044881208106890055 0.03017915162334231 0 -0.0004149744505829237 0.030042238665170948 0 -0.00029247459805479122 0.030154564949428149 0 -0.00036476072681112365 0.030289670449461334 0 -0.00044881208106890055 0.03017915162334231 0 -0.00029247459805479122 0.030154564949428149 0 -0.00029247459805479122 0.030154564949428149 0 -0.00011728671755977812 0.030202842682103347 0 -0.00014639071015567237 0.030073921796374498 0 -0.00032299677832087903 0.029965645256541502 0 -0.00029247459805479122 0.030154564949428149 0 -0.00014639071015567237 0.030073921796374498 0 -0.00029247459805479122 0.030154564949428149 0 -0.00011728671755977812 0.030202842682103347 0 -0.00018974042527343017 0.030334704891254383 0 -0.00032299677832087903 0.029965645256541502 0 -0.00027303213012168115 0.029983310470576327 0 -0.00024755185142249294 0.029923514285272894 0 -0.0003542268729356114 0.029856578420889176 0 -0.00032299677832087903 0.029965645256541502 0 -0.00024755185142249294 0.029923514285272894 0 -0.00032050906735413823 0.02996239931930629 0 -0.00016784762341440229 0.030054280448499119 0 -0.00068535805564037702 0.029002386342196741 0 -0.00063014802291263411 0.029036971636081422 0 -0.00064698566520110328 0.028944945711790432 0 -0.00046517645658234532 0.029416666569937331 0 -0.00027391968928410556 0.029759058607464629 0 -0.00027303213012168115 0.029983310470576327 0 -0.00024755185142249294 0.029923514285272894 0 -0.00022210787020481812 0.030015678950601588 0 -0.00071505852977478673 0.029117339481349969 0 -0.00068535805564037702 0.029002386342196741 0 -0.00063014802291263411 0.029036971636081422 0 -0.00016784762341440229 0.030054280448499119 0 -0.00027391968928410556 0.029759058607464629 0 -0.00011728671755977812 0.030202842682103347 0 -0.00014639071015567237 0.030073921796374498 0 -3.5144456850893613e-06 0.030173788714566191 0 -0.00011728671755977812 0.030202842682103347 0 -3.5144456850893613e-06 0.030173788714566191 0 3.2554178963031623e-05 0.03030353508521055 0 3.2554178963031623e-05 0.03030353508521055 0 -0.00018974042527343017 0.030334704891254383 0 -4.3775419304930492e-05 0.0304330374123526 0 -0.00011728671755977812 0.030202842682103347 0 3.2554178963031623e-05 0.03030353508521055 0 -0.00018974042527343017 0.030334704891254383 0 -0.00027391968928410556 0.029759058607464629 0 2.5928589008207107e-05 0.030388434634298193 0 0.00010008618269489449 0.030410265868382136 0 3.2554178963031623e-05 0.03030353508521055 0 -4.3775419304930492e-05 0.0304330374123526 0 -0.00031098306282473297 0.0304098403780227 0 -0.00018974042527343017 0.030334704891254383 0 -0.00020847000856454815 0.030538039011098396 0 -0.00018974042527343017 0.030334704891254383 0 -0.00020847000856454815 0.030538039011098396 0 -4.3775419304930492e-05 0.0304330374123526 0 -0.00020847000856454815 0.030538039011098396 0 -4.3775419304930492e-05 0.0304330374123526 0 6.7718879922114235e-05 0.030570923728347878 0 0.00010008618269489449 0.030410265868382136 0 -4.3775419304930492e-05 0.0304330374123526 0 6.7718879922114235e-05 0.030570923728347878 0 6.7718879922114235e-05 0.030570923728347878 0 -0.00019396649258603365 0.030756844581700402 0 1.8391222234092373e-05 0.030852595930528106 0 -0.00020847000856454815 0.030538039011098396 0 6.7718879922114235e-05 0.030570923728347878 0 -0.00019396649258603365 0.030756844581700402 0 -0.00019396649258603365 0.030756844581700402 0 1.8391222234092373e-05 0.030852595930528106 0 -0.00014695157369899115 0.031043933391259118 0 0.00012072384913548857 0.031071515468419072 0 1.8391222234092373e-05 0.030852595930528106 0 -0.00014695157369899115 0.031043933391259118 0 0.00012072384913548857 0.031071515468419072 0 -0.00014695157369899115 0.031043933391259118 0 -1.6198448024295563e-05 0.031330998213968099 0 -0.00052295395720218898 0.029515735229704132 0 -0.00047693061725060526 0.032380861049977193 0 -0.00014695157369899115 0.031043933391259118 0 -0.00032729914721093596 0.031295373769912954 0 -1.6198448024295563e-05 0.031330998213968099 0 -6.3313344717094952e-05 0.033853385320451818 0 -0.00047693061725060526 0.032380861049977193 0 -0.00014695157369899115 0.031043933391259118 0 -0.00032729914721093596 0.031295373769912954 0 -0.0004580669529346758 0.030988886857545386 0 -6.3313344717094952e-05 0.033853385320451818 0 -0.00034895640638179517 0.032734919431242064 0 -0.00017912372299311964 0.034736183822696033 0 -8.436920387747746e-05 0.034763396306079858 0 -0.00011911246616811711 0.034855270872943378 0 -6.3313344717094952e-05 0.033853385320451818 0 5.0106238464757893e-05 0.034754873698582128 0 -8.436920387747746e-05 0.034763396306079858 0 -0.00011911246616811711 0.034855270872943378 0 -3.0959238532538251e-05 0.034890884488317023 0 -0.0004580669529346758 0.030988886857545386 0 -0.00037202803139163245 0.030627125960406763 0 -0.00057141989020868258 0.030701925945727647 0 -0.00034895640638179517 0.032734919431242064 0 -0.00029184639852157664 0.032879321866891784 0 -0.00011911246616811711 0.034855270872943378 0 -5.7737523548034393e-05 0.034925836775937961 0 -3.0959238532538251e-05 0.034890884488317023 0 -0.00019396649258603365 0.030756844581700402 0 -0.0004580669529346758 0.030988886857545386 0 -0.00037202803139163245 0.030627125960406763 0 -0.00019396649258603365 0.030756844581700402 0 -0.00014695157369899115 0.031043933391259118 0 -0.0004580669529346758 0.030988886857545386 0 -0.00020847000856454815 0.030538039011098396 0 -0.00019396649258603365 0.030756844581700402 0 -0.00037202803139163245 0.030627125960406763 0 -5.7737523548034393e-05 0.034925836775937961 0 -1.7389772490005739e-05 0.034950751826447864 0 -3.0959238532538251e-05 0.034890884488317023 0 -1.7389772490005739e-05 0.034950751826447864 0 -1.2873275749095133e-06 0.034933587480581244 0 -3.0959238532538251e-05 0.034890884488317023 0 -1.2873275749095133e-06 0.034933587480581244 0 -3.0959238532538251e-05 0.034890884488317023 0 9.6830272335018478e-06 0.034889377190712549 0 -8.436920387747746e-05 0.034763396306079858 0 -3.0959238532538251e-05 0.034890884488317023 0 1.4860197063254364e-05 0.034790110166563575 0 0.00011598100047265672 0.034631489683972769 0 1.4860197063254364e-05 0.034790110166563575 0 4.221518023755838e-05 0.034744671369266941 0 5.0106238464757893e-05 0.034754873698582128 0 1.5187092405596515e-05 0.034760297730211748 0 1.4860197063254364e-05 0.034790110166563575 0 1.5833475853963633e-05 0.034908150591779798 0 1.7002582548137818e-05 0.034846538073303152 0 1.4860197063254364e-05 0.034790110166563575 0 9.6830272335018478e-06 0.034889377190712549 0 1.5833475853963633e-05 0.034908150591779798 0 -3.0959238532538251e-05 0.034890884488317023 0 1.4860197063254364e-05 0.034790110166563575 0 9.6830272335018478e-06 0.034889377190712549 0 9.6830272335018478e-06 0.034889377190712549 0 1.5833475853963633e-05 0.034908150591779798 0 9.4385376766717287e-06 0.03495184641927411 0 1.5833475853963633e-05 0.034908150591779798 0 1.852113956396782e-08 0.034999896841433731 0 9.1195359840449492e-09 0.03499985597581258 0 1.5833475853963633e-05 0.034908150591779798 0 1.852113956396782e-08 0.034999896841433731 0 9.4385376766717287e-06 0.03495184641927411 0 1.852113956396782e-08 0.034999896841433731 0 7.4302853353235256e-09 0.034999940962490324 0 9.4385376766717287e-06 0.03495184641927411 0 7.4302853353235256e-09 0.034999940962490324 0 9.4385376766717287e-06 0.03495184641927411 0 -1.4710746090879058e-06 0.034969071297756386 0 -1.2873275749095133e-06 0.034933587480581244 0 9.4385376766717287e-06 0.03495184641927411 0 -1.4710746090879058e-06 0.034969071297756386 0 -1.2873275749095133e-06 0.034933587480581244 0 9.6830272335018478e-06 0.034889377190712549 0 9.4385376766717287e-06 0.03495184641927411 0 -1.7389772490005739e-05 0.034950751826447864 0 -1.2873275749095133e-06 0.034933587480581244 0 -1.4710746090879058e-06 0.034969071297756386 0 -9.2145084672706833e-10 0.034999965244822726 0 7.4302853353235256e-09 0.034999940962490324 0 -1.4710746090879058e-06 0.034969071297756386 0 -8.0925582011480475e-06 0.03493035985987529 0 -8.7634594412421033e-09 0.034999889842903295 0 -1.1132495198955291e-08 0.034999905838180294 0 -8.0925582011480475e-06 0.03493035985987529 0 -3.6490371321483406e-06 0.034874104985056137 0 -1.3614712033012672e-05 0.034922875957250743 0 -8.0925582011480475e-06 0.03493035985987529 0 8.2183314195277637e-06 0.034840531707485599 0 -3.6490371321483406e-06 0.034874104985056137 0 -8.0925582011480475e-06 0.03493035985987529 0 1.8553285738421361e-06 0.034927319751435128 0 8.2183314195277637e-06 0.034840531707485599 0 -8.0925582011480475e-06 0.03493035985987529 0 -8.7634594412421033e-09 0.034999889842903295 0 1.8553285738421361e-06 0.034927319751435128 0 -8.7634594412421033e-09 0.034999889842903295 0 9.1195359840449492e-09 0.03499985597581258 0 1.8553285738421361e-06 0.034927319751435128 0 9.1195359840449492e-09 0.03499985597581258 0 1.7002582548137818e-05 0.034846538073303152 0 1.8553285738421361e-06 0.034927319751435128 0 1.5833475853963633e-05 0.034908150591779798 0 9.1195359840449492e-09 0.03499985597581258 0 1.7002582548137818e-05 0.034846538073303152 0 1.7002582548137818e-05 0.034846538073303152 0 1.8553285738421361e-06 0.034927319751435128 0 8.2183314195277637e-06 0.034840531707485599 0 1.7002582548137818e-05 0.034846538073303152 0 3.7766583369118139e-05 0.034764315695324337 0 8.2183314195277637e-06 0.034840531707485599 0 3.7766583369118139e-05 0.034764315695324337 0 5.1430419412383371e-05 0.034727782058402802 0 8.2183314195277637e-06 0.034840531707485599 0 1.7002582548137818e-05 0.034846538073303152 0 3.7766583369118139e-05 0.034764315695324337 0 4.221518023755838e-05 0.034744671369266941 0 1.4860197063254364e-05 0.034790110166563575 0 1.7002582548137818e-05 0.034846538073303152 0 4.221518023755838e-05 0.034744671369266941 0 0.00011598100047265672 0.034631489683972769 0 4.221518023755838e-05 0.034744671369266941 0 8.6542422137707872e-05 0.034674229327376488 0 3.7766583369118139e-05 0.034764315695324337 0 4.221518023755838e-05 0.034744671369266941 0 8.6542422137707872e-05 0.034674229327376488 0 3.7766583369118139e-05 0.034764315695324337 0 8.6542422137707872e-05 0.034674229327376488 0 5.1430419412383371e-05 0.034727782058402802 0 8.6542422137707872e-05 0.034674229327376488 0 5.1430419412383371e-05 0.034727782058402802 0 0.00012313251846391698 0.034605195236042829 0 5.1430419412383371e-05 0.034727782058402802 0 2.0224670169849297e-05 0.034803859419164064 0 9.0617449087051078e-05 0.034681041783631593 0 5.1430419412383371e-05 0.034727782058402802 0 8.2183314195277637e-06 0.034840531707485599 0 2.0224670169849297e-05 0.034803859419164064 0 -3.6490371321483406e-06 0.034874104985056137 0 2.0224670169849297e-05 0.034803859419164064 0 -8.2105493226088146e-06 0.034873893600094866 0 8.2183314195277637e-06 0.034840531707485599 0 -3.6490371321483406e-06 0.034874104985056137 0 2.0224670169849297e-05 0.034803859419164064 0 2.0224670169849297e-05 0.034803859419164064 0 7.4162914387328847e-05 0.034783100733168072 0 2.60235145763139e-05 0.034831982228364214 0 2.0224670169849297e-05 0.034803859419164064 0 2.60235145763139e-05 0.034831982228364214 0 -8.2105493226088146e-06 0.034873893600094866 0 2.0224670169849297e-05 0.034803859419164064 0 7.4162914387328847e-05 0.034783100733168072 0 9.0617449087051078e-05 0.034681041783631593 0 0.00024448206223079725 0.034758254800503152 0 5.1108074486933642e-05 0.034649757422296194 0 7.4162914387328847e-05 0.034783100733168072 0 0.00012259679748398612 0.034754850951435816 0 9.0617449087051078e-05 0.034681041783631593 0 7.4162914387328847e-05 0.034783100733168072 0 0.00012259679748398612 0.034754850951435816 0 0.00010903019430807495 0.034806854430524892 0 0.00012259679748398612 0.034754850951435816 0 0.00015629624781321729 0.034776080634838495 0 0.00010903019430807495 0.034806854430524892 0 0.00015651460844720461 0.034620133815746877 0 0.00023487706145020057 0.034428681425845785 0 0.00041026841683260514 0.034809569789800349 0 0.00024448206223079725 0.034758254800503152 0 0.00022539931619039474 0.033542438226669039 0 0.00015651460844720461 0.034620133815746877 0 0.00016176833379923211 0.034550833587613558 0 0.00023487706145020057 0.034428681425845785 0 0.00023487706145020057 0.034428681425845785 0 0.00020016710307803424 0.034473404233989008 0 0.00029081875104135631 0.034331528740899696 0 0.00016176833379923211 0.034550833587613558 0 0.00023487706145020057 0.034428681425845785 0 0.00020016710307803424 0.034473404233989008 0 0.00016176833379923211 0.034550833587613558 0 0.00012313251846391698 0.034605195236042829 0 0.00020016710307803424 0.034473404233989008 0 0.00016176833379923211 0.034550833587613558 0 9.0617449087051078e-05 0.034681041783631593 0 0.00012313251846391698 0.034605195236042829 0 0.00015651460844720461 0.034620133815746877 0 0.00016176833379923211 0.034550833587613558 0 9.0617449087051078e-05 0.034681041783631593 0 5.1430419412383371e-05 0.034727782058402802 0 9.0617449087051078e-05 0.034681041783631593 0 0.00012313251846391698 0.034605195236042829 0 0.00012313251846391698 0.034605195236042829 0 0.00017371652508576404 0.034559681270072591 0 0.00020016710307803424 0.034473404233989008 0 8.6542422137707872e-05 0.034674229327376488 0 0.00012313251846391698 0.034605195236042829 0 0.00017371652508576404 0.034559681270072591 0 0.00017182381501748537 0.034553227210038374 0 0.00011598100047265672 0.034631489683972769 0 0.00017371652508576404 0.034559681270072591 0 0.00011598100047265672 0.034631489683972769 0 8.6542422137707872e-05 0.034674229327376488 0 0.00017371652508576404 0.034559681270072591 0 0.00017182381501748537 0.034553227210038374 0 0.00017371652508576404 0.034559681270072591 0 0.00020438321313863514 0.034500139500564776 0 0.00017371652508576404 0.034559681270072591 0 0.00022313005289060573 0.034466473601647167 0 0.00020438321313863514 0.034500139500564776 0 -6.3313344717094952e-05 0.033853385320451818 0 0.00038195592302484114 0.034745870666101956 0 0.00017371652508576404 0.034559681270072591 0 0.00022313005289060573 0.034466473601647167 0 0.00020016710307803424 0.034473404233989008 0 0.00022313005289060573 0.034466473601647167 0 0.00025426025042020852 0.034403553415293456 0 0.00020438321313863514 0.034500139500564776 0 0.00022313005289060573 0.034466473601647167 0 0.00020016710307803424 0.034473404233989008 0 0.00029081875104135631 0.034331528740899696 0 0.00022313005289060573 0.034466473601647167 0 0.00029081875104135631 0.034331528740899696 0 0.00025426025042020852 0.034403553415293456 0 0.00029081875104135631 0.034331528740899696 0 0.00029918520001429326 0.034315301926677963 0 0.00025426025042020852 0.034403553415293456 0 0.00029081875104135631 0.034331528740899696 0 0.00029918520001429326 0.034315301926677963 0 0.00041241039537280686 0.034095285172835693 0 -2.5786275351855798e-05 0.03416045825705756 0 0.00029918520001429326 0.034315301926677963 0 0.00017549165801791002 0.034595595723474759 0 -2.5786275351855798e-05 0.03416045825705756 0 0.00029918520001429326 0.034315301926677963 0 0.00041241039537280686 0.034095285172835693 0 -2.5786275351855798e-05 0.03416045825705756 0 0.00017549165801791002 0.034595595723474759 0 -0.00026996713148157213 0.034416602008082491 0 0.00029918520001429326 0.034315301926677963 0 0.00017549165801791002 0.034595595723474759 0 0.00039382706089743154 0.034735383956790163 0 0.00025447324145513802 0.034333487345109708 0 0.00038195592302484114 0.034745870666101956 0 0.00029918520001429326 0.034315301926677963 0 0.00025426025042020852 0.034403553415293456 0 0.00020438321313863514 0.034500139500564776 0 0.00051546405607548419 0.034990938761251277 0 0.00039382706089743154 0.034735383956790163 0 -6.3922814381628577e-06 0.034917157225209029 0 0.00017549165801791002 0.034595595723474759 0 0.00039382706089743154 0.034735383956790163 0 -6.3922814381628577e-06 0.034917157225209029 0 0.00017549165801791002 0.034595595723474759 0 -0.00039397168482712373 0.035673056447172162 0 -0.00062995024360679717 0.03483429374464523 0 -0.00039397168482712373 0.035673056447172162 0 -0.00062995024360679717 0.03483429374464523 0 -0.0020362239189083663 0.035456375021625318 0 -0.00018116053148631005 0.035481425236040802 0 -0.00047693061725060526 0.032380861049977193 0 0.00017549165801791002 0.034595595723474759 0 -0.00062995024360679717 0.03483429374464523 0 -0.00026996713148157213 0.034416602008082491 0 -0.00062995024360679717 0.03483429374464523 0 -0.00026996713148157213 0.034416602008082491 0 -0.00066754884864332251 0.033997106685823932 0 -2.5786275351855798e-05 0.03416045825705756 0 -0.00066754884864332251 0.033997106685823932 0 -0.0002883233497682049 0.033623796222264836 0 -2.5786275351855798e-05 0.03416045825705756 0 -0.00026996713148157213 0.034416602008082491 0 -0.00066754884864332251 0.033997106685823932 0 -0.00066754884864332251 0.033997106685823932 0 -0.0010081661071898182 0.033110107409721791 0 -0.0002883233497682049 0.033623796222264836 0 -0.0010081661071898182 0.033110107409721791 0 -0.0002883233497682049 0.033623796222264836 0 -0.00015403178061892335 0.032738610943398187 0 0.00023487706145020057 0.034428681425845785 0 0.00041241039537280686 0.034095285172835693 0 0.00041026841683260514 0.034809569789800349 0 -0.0002883233497682049 0.033623796222264836 0 0.00041241039537280686 0.034095285172835693 0 -0.00015403178061892335 0.032738610943398187 0 -2.5786275351855798e-05 0.03416045825705756 0 -0.0002883233497682049 0.033623796222264836 0 0.00041241039537280686 0.034095285172835693 0 0.00023487706145020057 0.034428681425845785 0 0.00029081875104135631 0.034331528740899696 0 0.00041241039537280686 0.034095285172835693 0 0.00041241039537280686 0.034095285172835693 0 0.0010602555692045281 0.031610121809941764 0 -0.00015403178061892335 0.032738610943398187 0 0.00059279930790551508 0.033894243540421642 0 0.00022539931619039474 0.033542438226669039 0 0.0010602555692045281 0.031610121809941764 0 -0.00013815668738648392 0.031735469109139464 0 -0.00015403178061892335 0.032738610943398187 0 -0.00078448408107710651 0.032127934394510595 0 -0.0006914151195938496 0.031238164661035388 0 -0.0013384724528348101 0.031679189193718357 0 -0.00013815668738648392 0.031735469109139464 0 -0.00078448408107710651 0.032127934394510595 0 -0.0006914151195938496 0.031238164661035388 0 -0.0010081661071898182 0.033110107409721791 0 -0.00078448408107710651 0.032127934394510595 0 -0.00015403178061892335 0.032738610943398187 0 -0.00013815668738648392 0.031735469109139464 0 -0.00078448408107710651 0.032127934394510595 0 -0.00015403178061892335 0.032738610943398187 0 -0.0006914151195938496 0.031238164661035388 0 -4.8732555863869291e-05 0.03090406794401299 0 -0.0018731312233457619 0.029553693716846876 0 -0.00048994997975861532 0.031110690003141116 0 -0.00059678488220124603 0.031140068532622991 0 -0.00013815668738648392 0.031735469109139464 0 -0.0006914151195938496 0.031238164661035388 0 -0.00011850039528601358 0.030927049948706754 0 -0.00038936402799359177 0.032542190009527829 0 -0.00056919235086860841 0.032428099332315177 0 -0.00035828091089193186 0.032320859666672572 0 0.0010602555692045281 0.031610121809941764 0 -0.00013815668738648392 0.031735469109139464 0 -0.00011850039528601358 0.030927049948706754 0 0.00022539931619039474 0.033542438226669039 0 -0.00088402053516442765 0.032625243655050137 0 -0.00076657412367503366 0.030618361382157504 0 -0.0010422903677101767 0.031072554507019456 0 -0.0014759385370220158 0.031018315534291956 0 -0.00059678488220124603 0.031140068532622991 0 -0.00088402053516442765 0.032625243655050137 0 0.00022539931619039474 0.033542438226669039 0 -0.00059678488220124603 0.031140068532622991 0 -0.0010422903677101767 0.031072554507019456 0 -0.00075386210216546923 0.031458201463958578 0 -0.0015615159619987672 0.031686887560779316 0 -0.0010422903677101767 0.031072554507019456 0 -0.0014759385370220158 0.031018315534291956 0 -0.0015615159619987672 0.031686887560779316 0 -0.00076657412367503366 0.030618361382157504 0 -0.00075386210216546923 0.031458201463958578 0 0.00029344224079790401 0.031158763989641639 0 -0.00076657412367503366 0.030618361382157504 0 -0.0010422903677101767 0.031072554507019456 0 -0.00075386210216546923 0.031458201463958578 0 -0.00075386210216546923 0.031458201463958578 0 -0.0004534008699437999 0.03218924542093695 0 -2.2257018655917503e-05 0.031788440449338227 0 -0.00075386210216546923 0.031458201463958578 0 -0.0004534008699437999 0.03218924542093695 0 -0.0011273593888579579 0.032066057583621729 0 -0.0004534008699437999 0.03218924542093695 0 -0.0011986197446574088 0.032581394739207216 0 -0.0011273593888579579 0.032066057583621729 0 2.4242258391561222e-05 0.033084700407558031 0 -0.0004534008699437999 0.03218924542093695 0 -0.0011986197446574088 0.032581394739207216 0 5.1742226469588766e-06 0.033123196129033347 0 -0.00076477488096461394 0.033167086160697391 0 -0.0011986197446574088 0.032581394739207216 0 -0.0011273593888579579 0.032066057583621729 0 -0.0015476217560540966 0.032341360502041325 0 -0.0011273593888579579 0.032066057583621729 0 -0.0015615159619987672 0.031686887560779316 0 -0.0015476217560540966 0.032341360502041325 0 -0.00075386210216546923 0.031458201463958578 0 -0.0011273593888579579 0.032066057583621729 0 -0.0015615159619987672 0.031686887560779316 0 -0.0015006912096651587 0.031738140206821676 0 -0.0015741252851234771 0.032327254731426759 0 -0.0015571092444731966 0.032111971634157931 0 -0.0017115100113173156 0.032210745540988441 0 -0.0015476217560540966 0.032341360502041325 0 -0.0015571092444731966 0.032111971634157931 0 -0.0017115100113173156 0.032210745540988441 0 -0.0018706009247550629 0.032092397862707282 0 -0.0017115100113173156 0.032210745540988441 0 -0.0015476217560540966 0.032341360502041325 0 -0.0018513331260249205 0.032334959560778635 0 -0.00076477488096461394 0.033167086160697391 0 -0.0012355548617700889 0.033244527739472354 0 -0.00049891038024013179 0.033968911312998278 0 -0.00048365527614385219 0.033731372260328969 0 -0.00048377608874952644 0.034238841036334157 0 -0.0011986197446574088 0.032581394739207216 0 -0.0015476217560540966 0.032341360502041325 0 -0.0018513331260249205 0.032334959560778635 0 -0.00049891038024013179 0.033968911312998278 0 -0.00042282223372595943 0.034176061702593512 0 -0.00048377608874952644 0.034238841036334157 0 -0.00042282223372595943 0.034176061702593512 0 -0.00048377608874952644 0.034238841036334157 0 -0.00034590520300844841 0.034386271029713207 0 -0.0018513331260249205 0.032334959560778635 0 -0.0018706009247550629 0.032092397862707282 0 -0.0021200587482100804 0.032266692246129366 0 -0.0017115100113173156 0.032210745540988441 0 -0.0018513331260249205 0.032334959560778635 0 -0.0018706009247550629 0.032092397862707282 0 6.7416015806215935e-05 0.034849081132037954 0 3.9647455309116996e-05 0.034889927319358277 0 1.0673860540865796e-06 0.034875331628916144 0 6.7416015806215935e-05 0.034849081132037954 0 4.8349635190968536e-05 0.034834843867903004 0 1.0673860540865796e-06 0.034875331628916144 0 -0.0015158198126136667 0.031894891487276963 0 -0.0015571092444731966 0.032111971634157931 0 -0.0018706009247550629 0.032092397862707282 0 -0.00088402053516442765 0.032625243655050137 0 -0.0015006912096651587 0.031738140206821676 0 -0.00088402053516442765 0.032625243655050137 0 -0.00095272199213568862 0.033572137799716482 0 0.00014226399283149248 0.034835164612899219 0 6.7416015806215935e-05 0.034849081132037954 0 3.9647455309116996e-05 0.034889927319358277 0 0.00014226399283149248 0.034835164612899219 0 6.7416015806215935e-05 0.034849081132037954 0 0.00010903019430807495 0.034806854430524892 0 0.00015629624781321729 0.034776080634838495 0 0.00014226399283149248 0.034835164612899219 0 0.00010903019430807495 0.034806854430524892 0 7.4162914387328847e-05 0.034783100733168072 0 0.00010903019430807495 0.034806854430524892 0 4.8349635190968536e-05 0.034834843867903004 0 6.7416015806215935e-05 0.034849081132037954 0 0.00010903019430807495 0.034806854430524892 0 4.8349635190968536e-05 0.034834843867903004 0 7.4162914387328847e-05 0.034783100733168072 0 4.8349635190968536e-05 0.034834843867903004 0 2.60235145763139e-05 0.034831982228364214 0 4.8349635190968536e-05 0.034834843867903004 0 4.5372077657929682e-06 0.034859976151668422 0 1.0673860540865796e-06 0.034875331628916144 0 4.5372077657929682e-06 0.034859976151668422 0 -8.2105493226088146e-06 0.034873893600094866 0 -2.8348925398178693e-05 0.034880906624884946 0 4.8349635190968536e-05 0.034834843867903004 0 4.5372077657929682e-06 0.034859976151668422 0 2.60235145763139e-05 0.034831982228364214 0 4.5372077657929682e-06 0.034859976151668422 0 2.60235145763139e-05 0.034831982228364214 0 -8.2105493226088146e-06 0.034873893600094866 0 -8.2105493226088146e-06 0.034873893600094866 0 -2.6511337913511396e-05 0.034903048565819009 0 -1.3614712033012672e-05 0.034922875957250743 0 -8.2105493226088146e-06 0.034873893600094866 0 -2.6511337913511396e-05 0.034903048565819009 0 -2.8348925398178693e-05 0.034880906624884946 0 -3.6490371321483406e-06 0.034874104985056137 0 -8.2105493226088146e-06 0.034873893600094866 0 -1.3614712033012672e-05 0.034922875957250743 0 -2.6511337913511396e-05 0.034903048565819009 0 -4.4643946478927255e-05 0.034886733776188485 0 -2.8348925398178693e-05 0.034880906624884946 0 -3.5435057412562391e-05 0.034899221315665432 0 -4.4643946478927255e-05 0.034886733776188485 0 -6.8953255866231836e-05 0.03486957892189229 0 -2.6511337913511396e-05 0.034903048565819009 0 -3.5435057412562391e-05 0.034899221315665432 0 -4.4643946478927255e-05 0.034886733776188485 0 -4.4643946478927255e-05 0.034886733776188485 0 -2.8348925398178693e-05 0.034880906624884946 0 -5.6560314306185578e-05 0.034870343013626751 0 -2.8348925398178693e-05 0.034880906624884946 0 1.0673860540865796e-06 0.034875331628916144 0 -5.6560314306185578e-05 0.034870343013626751 0 4.5372077657929682e-06 0.034859976151668422 0 -2.8348925398178693e-05 0.034880906624884946 0 1.0673860540865796e-06 0.034875331628916144 0 1.0673860540865796e-06 0.034875331628916144 0 -6.6775817633412321e-05 0.034874298087491623 0 -5.6560314306185578e-05 0.034870343013626751 0 -0.0012355548617700889 0.033244527739472354 0 -0.00078993829804539827 0.03375582282863903 0 -0.00095272199213568862 0.033572137799716482 0 -0.00078993829804539827 0.03375582282863903 0 3.9647455309116996e-05 0.034889927319358277 0 1.0673860540865796e-06 0.034875331628916144 0 -6.6775817633412321e-05 0.034874298087491623 0 -0.00048377608874952644 0.034238841036334157 0 -0.00034590520300844841 0.034386271029713207 0 -0.00022353468373521193 0.034689359610184552 0 -0.00042282223372595943 0.034176061702593512 0 -0.00034590520300844841 0.034386271029713207 0 -0.00026308130185245956 0.034406569218467319 0 -0.00034590520300844841 0.034386271029713207 0 -0.00024624320537896372 0.034534298309040139 0 -0.00022353468373521193 0.034689359610184552 0 -0.00024624320537896372 0.034534298309040139 0 -0.00026308130185245956 0.034406569218467319 0 -0.00016604920530921595 0.034598895283743859 0 -0.00034590520300844841 0.034386271029713207 0 -0.00024624320537896372 0.034534298309040139 0 -0.00026308130185245956 0.034406569218467319 0 -0.00026308130185245956 0.034406569218467319 0 -0.00010223942084342303 0.03459575907368425 0 -0.00016604920530921595 0.034598895283743859 0 -0.00024624320537896372 0.034534298309040139 0 -0.00019613800935714312 0.034635409852021869 0 -0.00022353468373521193 0.034689359610184552 0 -0.00024624320537896372 0.034534298309040139 0 -0.00016604920530921595 0.034598895283743859 0 -0.00019613800935714312 0.034635409852021869 0 -0.00016604920530921595 0.034598895283743859 0 -9.650348130739877e-05 0.03470730918965638 0 -0.00014057233068073117 0.034722100053127099 0 -0.00016604920530921595 0.034598895283743859 0 -0.00019613800935714312 0.034635409852021869 0 -0.00014057233068073117 0.034722100053127099 0 -0.00010223942084342303 0.03459575907368425 0 -9.650348130739877e-05 0.03470730918965638 0 -4.056255029576296e-05 0.034808642266124359 0 -0.00010223942084342303 0.03459575907368425 0 -0.00016604920530921595 0.034598895283743859 0 -9.650348130739877e-05 0.03470730918965638 0 -9.650348130739877e-05 0.03470730918965638 0 -0.00010050351248827791 0.0348283871971991 0 -4.056255029576296e-05 0.034808642266124359 0 -0.00010050351248827791 0.0348283871971991 0 -6.8953255866231836e-05 0.03486957892189229 0 -4.056255029576296e-05 0.034808642266124359 0 -0.00057579440091966446 0.034005395006695936 0 -0.00078993829804539827 0.03375582282863903 0 -0.00019613800935714312 0.034635409852021869 0 -0.00014057233068073117 0.034722100053127099 0 -0.00022353468373521193 0.034689359610184552 0 -0.00014057233068073117 0.034722100053127099 0 -0.00010050351248827791 0.0348283871971991 0 -0.00027071160555619045 0.034789925246311804 0 -9.650348130739877e-05 0.03470730918965638 0 -0.00014057233068073117 0.034722100053127099 0 -0.00010050351248827791 0.0348283871971991 0 -0.00010050351248827791 0.0348283871971991 0 -6.6775817633412321e-05 0.034874298087491623 0 -7.9634081320344071e-05 0.034857585649303503 0 -0.00020671585861274598 0.034157715073034944 0 -0.00078993829804539827 0.03375582282863903 0 -6.6775817633412321e-05 0.034874298087491623 0 -7.9634081320344071e-05 0.034857585649303503 0 -5.6560314306185578e-05 0.034870343013626751 0 -7.9634081320344071e-05 0.034857585649303503 0 -5.6560314306185578e-05 0.034870343013626751 0 -6.8953255866231836e-05 0.03486957892189229 0 -0.00010050351248827791 0.0348283871971991 0 -7.9634081320344071e-05 0.034857585649303503 0 -6.8953255866231836e-05 0.03486957892189229 0 -4.4643946478927255e-05 0.034886733776188485 0 -5.6560314306185578e-05 0.034870343013626751 0 -6.8953255866231836e-05 0.03486957892189229 0 -3.5435057412562391e-05 0.034899221315665432 0 -6.8953255866231836e-05 0.03486957892189229 0 -4.056255029576296e-05 0.034808642266124359 0 -3.5435057412562391e-05 0.034899221315665432 0 -8.4405252769621012e-06 0.034897854411662405 0 -4.056255029576296e-05 0.034808642266124359 0 -8.4405252769621012e-06 0.034897854411662405 0 -4.056255029576296e-05 0.034808642266124359 0 8.697170921150778e-06 0.034831859961961691 0 -0.00010223942084342303 0.03459575907368425 0 -4.056255029576296e-05 0.034808642266124359 0 8.697170921150778e-06 0.034831859961961691 0 -1.0535558614401899e-05 0.034566148520065169 0 -0.00010223942084342303 0.03459575907368425 0 8.697170921150778e-06 0.034831859961961691 0 1.4982819346567997e-07 0.034999408027589864 0 -1.0535558614401899e-05 0.034566148520065169 0 8.697170921150778e-06 0.034831859961961691 0 1.4982819346567997e-07 0.034999408027589864 0 8.697170921150778e-06 0.034831859961961691 0 2.3312351767943785e-09 0.034999944328460535 0 -8.4405252769621012e-06 0.034897854411662405 0 2.3312351767943785e-09 0.034999944328460535 0 -9.510618738282959e-06 0.03493831023543427 0 -8.4405252769621012e-06 0.034897854411662405 0 8.697170921150778e-06 0.034831859961961691 0 2.3312351767943785e-09 0.034999944328460535 0 2.3312351767943785e-09 0.034999944328460535 0 -9.510618738282959e-06 0.03493831023543427 0 -1.1132495198955291e-08 0.034999905838180294 0 -2.6511337913511396e-05 0.034903048565819009 0 -3.5435057412562391e-05 0.034899221315665432 0 -9.510618738282959e-06 0.03493831023543427 0 -2.6511337913511396e-05 0.034903048565819009 0 -9.510618738282959e-06 0.03493831023543427 0 -1.3614712033012672e-05 0.034922875957250743 0 -3.5435057412562391e-05 0.034899221315665432 0 -8.4405252769621012e-06 0.034897854411662405 0 -9.510618738282959e-06 0.03493831023543427 0 -8.0925582011480475e-06 0.03493035985987529 0 -1.3614712033012672e-05 0.034922875957250743 0 -1.1132495198955291e-08 0.034999905838180294 0 -9.510618738282959e-06 0.03493831023543427 0 -1.3614712033012672e-05 0.034922875957250743 0 -1.1132495198955291e-08 0.034999905838180294 0 -0.0034974610792855515 0.014180664283697412 0 -0.0044708250005745798 0.015620579525464112 0 -0.0031640815977138793 0.016289130228700582 0 -0.0034974610792855515 0.014180664283697412 0 -0.0020489453185713229 0.015268007641452433 0 -0.0031640815977138793 0.016289130228700582 0 -0.0034974610792855515 0.014180664283697412 0 -0.0020489453185713229 0.015268007641452433 0 -0.0019891946650395747 0.013954155327276138 0 -0.0030715163137026032 0.02442531376425662 0 -0.0032731674304053893 0.024425153452411481 0 -0.0032806854317396507 0.024686024490747863 0 -0.0034441937689997184 0.019288041453076908 0 -0.0037232322913249242 0.01951925394747505 0 -0.0020489453185713229 0.015268007641452433 0 -0.00083453459506062746 0.015572274100640498 0 -0.0012028415015786212 0.014664205105999629 0 -0.00083453459506062746 0.015572274100640498 0 -0.00020441749927628869 0.014601719441760122 0 -0.0012028415015786212 0.014664205105999629 0 -0.00083453459506062746 0.015572274100640498 0 -0.00020441749927628869 0.014601719441760122 0 0.00015140743451127377 0.015459530807110286 0 -0.00020441749927628869 0.014601719441760122 0 -0.00050458225228578986 0.014171413887928709 0 -2.4916844036610331e-05 0.013837945446872283 0 -0.00020441749927628869 0.014601719441760122 0 -0.0012028415015786212 0.014664205105999629 0 -0.00094963356138554826 0.0137783037164904 0 -0.00019412132355954177 0.014612735832923286 0 -0.00091190708362373695 0.013756867244223933 0 -0.0020489453185713229 0.015268007641452433 0 -0.0019891946650395747 0.013954155327276138 0 -0.0012028415015786212 0.014664205105999629 0 -0.0019891946650395747 0.013954155327276138 0 -0.0012028415015786212 0.014664205105999629 0 -0.00094963356138554826 0.0137783037164904 0 -0.0019891946650395747 0.013954155327276138 0 -0.0016664114119835649 0.012971594559972906 0 -0.0025899201502268526 0.012857147715431932 0 -0.0019891946650395747 0.013954155327276138 0 -0.0016664114119835649 0.012971594559972906 0 -0.00094963356138554826 0.0137783037164904 0 -0.00073027017448540506 0.015129253003173242 0 -0.00091190708362373695 0.013756867244223933 0 -0.00073027017448540506 0.015129253003173242 0 0.00021211062888912131 0.014804519956434012 0 -0.00088544545119769065 0.013728054428434987 0 -0.00050458225228578986 0.014171413887928709 0 -2.4916844036610331e-05 0.013837945446872283 0 0.00056674944961817339 0.016343918030045861 0 0.00012685005771900755 0.015804263256242054 0 -3.69390100508081e-05 0.016562777165415536 0 0.00090526558691495483 0.0158657720604958 0 0.00056674944961817339 0.016343918030045861 0 0.00012685005771900755 0.015804263256242054 0 0.00090526558691495483 0.0158657720604958 0 0.00056674944961817339 0.016343918030045861 0 0.0012303893384006225 0.016215771812234357 0 -0.00073027017448540506 0.015129253003173242 0 0.00039363246305772865 0.018226988727554041 0 -0.00077799546877541006 0.022925491055119689 0 -0.00087352278762023255 0.023075832524066895 0 -0.0012393403580096215 0.023062914362778623 0 0.00039363246305772865 0.018226988727554041 0 -0.0015802283828216374 0.019541883523828803 0 -0.00091294047207210699 0.01732014587166783 0 -0.0004968795185056684 0.017825516690209788 0 -0.00024780025767602104 0.017429265820731087 0 -0.00073027017448540506 0.015129253003173242 0 -0.0015802283828216374 0.019541883523828803 0 -0.0034441937689997184 0.019288041453076908 0 -0.0015802283828216374 0.019541883523828803 0 -0.0034974610792855515 0.014180664283697412 0 -0.0019891946650395747 0.013954155327276138 0 -0.0025899201502268526 0.012857147715431932 0 -0.0030715163137026032 0.02442531376425662 0 -0.003176889129748671 0.024117439971571453 0 -0.0032731674304053893 0.024425153452411481 0 -0.0030715163137026032 0.02442531376425662 0 -0.0028554762638599144 0.024108041270810867 0 -0.003176889129748671 0.024117439971571453 0 -0.001092765405786194 0.022573231549943239 0 -0.00077799546877541006 0.022925491055119689 0 -0.0012393403580096215 0.023062914362778623 0 -0.0015802283828216374 0.019541883523828803 0 -0.002438671108608364 0.028109195969502239 0 -0.001029495640393775 0.028725730922095339 0 -0.00095608866691221557 0.028860917948986313 0 -0.0011105036765307083 0.02887261753107212 0 -0.002438671108608364 0.028109195969502239 0 -0.0025172133678282912 0.032410368061839979 0 -0.0037615898522720802 0.035160345458267163 0 -0.0050648513561204556 0.03334670404406416 0 -0.0036040668323207492 0.033324897836968501 0 -0.0054361407671106154 0.034830702603298264 0 -0.0037615898522720802 0.035160345458267163 0 -0.0050648513561204556 0.03334670404406416 0 -0.002438671108608364 0.028109195969502239 0 -0.004373825855395125 0.029107019970054975 0 -0.00062995024360679717 0.03483429374464523 0 -0.0020362239189083663 0.035456375021625318 0 -0.0020062968266030476 0.034022179592571748 0 -0.00047693061725060526 0.032380861049977193 0 -0.0017297541867965396 0.032110659021289331 0 -0.0037615898522720802 0.035160345458267163 0 -0.0020362239189083663 0.035456375021625318 0 -0.0020062968266030476 0.034022179592571748 0 -0.0025172133678282912 0.032410368061839979 0 -0.0017297541867965396 0.032110659021289331 0 -0.0037615898522720802 0.035160345458267163 0 -0.0020062968266030476 0.034022179592571748 0 -0.0036040668323207492 0.033324897836968501 0 -0.00062995024360679717 0.03483429374464523 0 -0.00066754884864332251 0.033997106685823932 0 -0.0020062968266030476 0.034022179592571748 0 -0.00066754884864332251 0.033997106685823932 0 -0.0010081661071898182 0.033110107409721791 0 -0.0020062968266030476 0.034022179592571748 0 -0.0010081661071898182 0.033110107409721791 0 -0.0020062968266030476 0.034022179592571748 0 -0.0018432233881233058 0.032873102338239306 0 -0.0010081661071898182 0.033110107409721791 0 -0.0018432233881233058 0.032873102338239306 0 -0.001423047354318208 0.032322221945647156 0 -0.0020062968266030476 0.034022179592571748 0 -0.0026261071098499702 0.032879311089291124 0 -0.0036040668323207492 0.033324897836968501 0 -0.0026261071098499702 0.032879311089291124 0 -0.0036040668323207492 0.033324897836968501 0 -0.0032981212859334226 0.031940704911978951 0 -0.0020062968266030476 0.034022179592571748 0 -0.0018432233881233058 0.032873102338239306 0 -0.0026261071098499702 0.032879311089291124 0 -0.0018432233881233058 0.032873102338239306 0 -0.0026261071098499702 0.032879311089291124 0 -0.0021509977953721887 0.031960391321671597 0 -0.0026261071098499702 0.032879311089291124 0 -0.0021509977953721887 0.031960391321671597 0 -0.0032981212859334226 0.031940704911978951 0 -0.0021509977953721887 0.031960391321671597 0 -0.0032981212859334226 0.031940704911978951 0 -0.0027972152241153929 0.030866788543145229 0 -0.0018432233881233058 0.032873102338239306 0 -0.0021509977953721887 0.031960391321671597 0 -0.001423047354318208 0.032322221945647156 0 -0.0021509977953721887 0.031960391321671597 0 -0.0013384724528348101 0.031679189193718357 0 -0.001423047354318208 0.032322221945647156 0 -0.0021509977953721887 0.031960391321671597 0 -0.0013384724528348101 0.031679189193718357 0 -0.00178076355292394 0.031030155862029857 0 -0.00078448408107710651 0.032127934394510595 0 -0.0013384724528348101 0.031679189193718357 0 -0.001423047354318208 0.032322221945647156 0 -0.0010081661071898182 0.033110107409721791 0 -0.00078448408107710651 0.032127934394510595 0 -0.001423047354318208 0.032322221945647156 0 -0.0050648513561204556 0.03334670404406416 0 -0.0036040668323207492 0.033324897836968501 0 -0.0047328149653522635 0.031759267884513852 0 -0.004373825855395125 0.029107019970054975 0 -0.0040777288311795515 0.028684572167248398 0 -0.0036040668323207492 0.033324897836968501 0 -0.0032981212859334226 0.031940704911978951 0 -0.0047328149653522635 0.031759267884513852 0 -0.0032981212859334226 0.031940704911978951 0 -0.0047328149653522635 0.031759267884513852 0 -0.0037539056896725999 0.030930418952512639 0 -0.0032731674304053893 0.024425153452411481 0 -0.0032806854317396507 0.024686024490747863 0 -0.0033716418238718422 0.024682586130424074 0 -0.0044708250005745798 0.015620579525464112 0 -0.0054921909962657549 0.017254545345256125 0 -0.0042254057232600124 0.017034679347997971 0 -0.0040777288311795515 0.028684572167248398 0 -0.0042414132611513855 0.02466995674040879 0 -0.0037232322913249242 0.01951925394747505 0 -0.0042414132611513855 0.02466995674040879 0 -0.0032806854317396507 0.024686024490747863 0 -0.0033716418238718422 0.024682586130424074 0 -0.0034865445425015695 0.024923733566469597 0 -0.0047328149653522635 0.031759267884513852 0 -0.0037539056896725999 0.030930418952512639 0 -0.0043655470326362271 0.029936117927539453 0 -0.0032981212859334226 0.031940704911978951 0 -0.0037539056896725999 0.030930418952512639 0 -0.0027972152241153929 0.030866788543145229 0 -0.0037539056896725999 0.030930418952512639 0 -0.0033491030503986609 0.030121936180832292 0 -0.0043655470326362271 0.029936117927539453 0 -0.0037539056896725999 0.030930418952512639 0 -0.0033491030503986609 0.030121936180832292 0 -0.0027972152241153929 0.030866788543145229 0 -0.0054921909962657549 0.017254545345256125 0 -0.0049104494991843396 0.018216292627742759 0 -0.0059294833754992109 0.01895122100593457 0 -0.0033491030503986609 0.030121936180832292 0 -0.0043655470326362271 0.029936117927539453 0 -0.0040183783132302425 0.029329843070093748 0 -0.0042414132611513855 0.02466995674040879 0 -0.0028448204524097655 0.025279350276130878 0 -0.0040183783132302425 0.029329843070093748 0 -0.0018731312233457619 0.029553693716846876 0 -0.0038449666860855842 0.028061131646629364 0 -0.0043393785617135364 0.029819442846256847 0 -0.0040183783132302425 0.029329843070093748 0 -0.0038449666860855842 0.028061131646629364 0 -0.0042414132611513855 0.02466995674040879 0 -0.0052542953283835764 0.028358932144122519 0 -0.0054921909962657549 0.017254545345256125 0 -0.0049104494991843396 0.018216292627742759 0 -0.0042254057232600124 0.017034679347997971 0 -0.00059678488220124603 0.031140068532622991 0 -0.00028037158206443405 0.031095301480039136 0 -0.0006914151195938496 0.031238164661035388 0 -0.00178076355292394 0.031030155862029857 0 -0.0018731312233457619 0.029553693716846876 0 -0.0006914151195938496 0.031238164661035388 0 -0.0013384724528348101 0.031679189193718357 0 -0.00178076355292394 0.031030155862029857 0 -0.0033491030503986609 0.030121936180832292 0 -0.0027972152241153929 0.030866788543145229 0 -0.0018731312233457619 0.029553693716846876 0 -0.00178076355292394 0.031030155862029857 0 -0.0027972152241153929 0.030866788543145229 0 -0.0018731312233457619 0.029553693716846876 0 -0.0021509977953721887 0.031960391321671597 0 -0.00178076355292394 0.031030155862029857 0 -0.0027972152241153929 0.030866788543145229 0 -0.0033491030503986609 0.030121936180832292 0 -0.0040183783132302425 0.029329843070093748 0 -0.0018731312233457619 0.029553693716846876 0 -0.00028037158206443405 0.031095301480039136 0 -0.0028448204524097655 0.025279350276130878 0 -0.00075386210216546923 0.031458201463958578 0 0.00029344224079790401 0.031158763989641639 0 -2.2257018655917503e-05 0.031788440449338227 0 0.00029344224079790401 0.031158763989641639 0 -2.2257018655917503e-05 0.031788440449338227 0 0.00061100863768636239 0.032155829038306556 0 -0.0004534008699437999 0.03218924542093695 0 -2.2257018655917503e-05 0.031788440449338227 0 9.6853755959851591e-05 0.032377428363998574 0 -2.2257018655917503e-05 0.031788440449338227 0 0.00061100863768636239 0.032155829038306556 0 9.6853755959851591e-05 0.032377428363998574 0 0.00029344224079790401 0.031158763989641639 0 0.00061100863768636239 0.032155829038306556 0 0.0014854496044584315 0.031619872643326601 0 0.0011385684156946386 0.032985255530426118 0 0.00061100863768636239 0.032155829038306556 0 0.0014854496044584315 0.031619872643326601 0 0.0011385684156946386 0.032985255530426118 0 0.00054862515268321293 0.033112497725541971 0 0.00061100863768636239 0.032155829038306556 0 0.00054862515268321293 0.033112497725541971 0 0.00061100863768636239 0.032155829038306556 0 9.6853755959851591e-05 0.032377428363998574 0 2.4242258391561222e-05 0.033084700407558031 0 -0.0004534008699437999 0.03218924542093695 0 9.6853755959851591e-05 0.032377428363998574 0 0.00054862515268321293 0.033112497725541971 0 2.4242258391561222e-05 0.033084700407558031 0 9.6853755959851591e-05 0.032377428363998574 0 -0.0049104494991843396 0.018216292627742759 0 -0.0050697155235232185 0.019348357683868545 0 -0.0040043201876184932 0.018994913172693074 0 -0.0049104494991843396 0.018216292627742759 0 -0.0050697155235232185 0.019348357683868545 0 -0.0059294833754992109 0.01895122100593457 0 -0.006707441825191879 0.019523546751038113 0 -0.0028448204524097655 0.025279350276130878 0 -0.0060100249988658504 0.020678590134147044 0 -0.0056514465311512654 0.019159326262621804 0 -0.005318796685826176 0.02031454222462311 0 -0.0050697155235232185 0.019348357683868545 0 -0.0056514465311512654 0.019159326262621804 0 -0.005318796685826176 0.02031454222462311 0 -0.0025875254335084317 0.026652677818115523 0 -0.0028448204524097655 0.025279350276130878 0 -0.0050697155235232185 0.019348357683868545 0 -0.0045483852344132556 0.020134046305567067 0 -0.0040043201876184932 0.018994913172693074 0 -0.0050697155235232185 0.019348357683868545 0 -0.005318796685826176 0.02031454222462311 0 -0.0045483852344132556 0.020134046305567067 0 -0.0035449774960483373 0.02003783116415063 0 -0.0023607714078295017 0.019314297230533645 0 -0.0040043201876184932 0.018994913172693074 0 -0.0039684296395304493 0.020719113369232257 0 -0.0045483852344132556 0.020134046305567067 0 -0.0035449774960483373 0.02003783116415063 0 -0.0045483852344132556 0.020134046305567067 0 -0.0035449774960483373 0.02003783116415063 0 -0.0040043201876184932 0.018994913172693074 0 -0.0027979696379114112 0.020916473991553254 0 -0.0035449774960483373 0.02003783116415063 0 -0.0023607714078295017 0.019314297230533645 0 -0.0023607714078295017 0.019314297230533645 0 -0.003152875228701162 0.017783017663288703 0 -0.0017108099333000473 0.018044355120964608 0 -0.0023607714078295017 0.019314297230533645 0 -0.0040043201876184932 0.018994913172693074 0 -0.003152875228701162 0.017783017663288703 0 -0.0049104494991843396 0.018216292627742759 0 -0.0040043201876184932 0.018994913172693074 0 -0.003152875228701162 0.017783017663288703 0 -0.003152875228701162 0.017783017663288703 0 -0.0031640815977138793 0.016289130228700582 0 -0.0042254057232600124 0.017034679347997971 0 -0.0049104494991843396 0.018216292627742759 0 -0.003152875228701162 0.017783017663288703 0 -0.0042254057232600124 0.017034679347997971 0 -0.003152875228701162 0.017783017663288703 0 -0.0017511396420335328 0.016615248929327725 0 -0.0017108099333000473 0.018044355120964608 0 -0.0020489453185713229 0.015268007641452433 0 -0.0031640815977138793 0.016289130228700582 0 -0.0017511396420335328 0.016615248929327725 0 -0.003152875228701162 0.017783017663288703 0 -0.0031640815977138793 0.016289130228700582 0 -0.0017511396420335328 0.016615248929327725 0 -0.0044708250005745798 0.015620579525464112 0 -0.0031640815977138793 0.016289130228700582 0 -0.0042254057232600124 0.017034679347997971 0 -0.00083453459506062746 0.015572274100640498 0 -0.0017511396420335328 0.016615248929327725 0 -0.00019214891578903147 0.016929868854594542 0 -0.00083453459506062746 0.015572274100640498 0 -0.00019214891578903147 0.016929868854594542 0 0.00015140743451127377 0.015459530807110286 0 -0.0020489453185713229 0.015268007641452433 0 -0.00083453459506062746 0.015572274100640498 0 -0.0017511396420335328 0.016615248929327725 0 -0.0017511396420335328 0.016615248929327725 0 -0.00019214891578903147 0.016929868854594542 0 -0.0017108099333000473 0.018044355120964608 0 -0.00022629187936589062 0.017165550452765028 0 -0.0016590628196179165 0.017985227617405584 0 -0.00019156079620177542 0.017417402195909502 0 -0.00056952925524484483 0.018760036919673609 0 -0.0017108099333000473 0.018044355120964608 0 -0.0023607714078295017 0.019314297230533645 0 -0.00056952925524484483 0.018760036919673609 0 -0.0017108099333000473 0.018044355120964608 0 -0.0010049681428627038 0.020207507327230752 0 -0.0023607714078295017 0.019314297230533645 0 -0.00056952925524484483 0.018760036919673609 0 -0.0010049681428627038 0.020207507327230752 0 -0.00056952925524484483 0.018760036919673609 0 0.00064126003430814774 0.019510803665184737 0 -0.0011248931884941592 0.015516643018312341 0 9.791519043722414e-06 0.014949446794573442 0 9.791519043722414e-06 0.014949446794573442 0 0.0013278886172033676 0.014946376002342086 0 0.00064126003430814774 0.019510803665184737 0 0.00094930630860595678 0.018147407416865817 0 0.0021418434373408272 0.018907534519121097 0 -0.00016478749595665382 0.010657214174964765 0 -0.0005144982607966028 0.010475071546377019 0 5.8747130702909452e-05 0.010245894337149996 0 -0.00056952925524484483 0.018760036919673609 0 0.00064126003430814774 0.019510803665184737 0 0.00094930630860595678 0.018147407416865817 0 -0.00019156079620177542 0.017417402195909502 0 -0.00056952925524484483 0.018760036919673609 0 0.00094930630860595678 0.018147407416865817 0 0.00026917233911571747 0.010524828892602521 0 0.00036996328847464631 0.010290015236187024 0 5.8747130702909452e-05 0.010245894337149996 0 0.00036996328847464631 0.010290015236187024 0 5.8747130702909452e-05 0.010245894337149996 0 0.00045878128970048995 0.010140222588965636 0 0.0021418434373408272 0.018907534519121097 0 0.0030589628680523771 0.017347977417651598 0 0.0019857721116924017 0.017496970475563409 0 0.00094930630860595678 0.018147407416865817 0 0.0021418434373408272 0.018907534519121097 0 0.0019857721116924017 0.017496970475563409 0 0.0021418434373408272 0.018907534519121097 0 0.0030589628680523771 0.017347977417651598 0 0.0035572056449466182 0.018393614354270445 0 0.0013278886172033676 0.014946376002342086 0 0.00063496391127620196 0.011458093357448702 0 0.0030589628680523771 0.017347977417651598 0 0.0019857721116924017 0.017496970475563409 0 0.0025381596160782977 0.016251174461939973 0 0.0015655304664216748 0.014661398152392204 0 0.00088041242862590572 0.015801349052142963 0 0.00093692186430435623 0.014891559136670826 0 0.0019879027907183386 0.014175744554431931 0 0.00096927700682852499 0.016492098550038265 0 0.0019857721116924017 0.017496970475563409 0 0.0025381596160782977 0.016251174461939973 0 0.0012074438551146389 0.016825631580670509 0 0.0024596583890004495 0.013751744823666619 0 0.0019879027907183386 0.014175744554431931 0 0.0013517190490671229 0.0094965099500150894 0 0.0027345877403123164 0.012350988594341602 0 0.0011738106958674712 0.011474878059709395 0 0.0027345877403123164 0.012350988594341602 0 0.0011738106958674712 0.011474878059709395 0 0.00080793981099880102 0.013173893965878999 0 0.0013517190490671229 0.0094965099500150894 0 0.0011738106958674712 0.011474878059709395 0 -0.00015311112555178329 0.011018001430779254 0 -0.00019156079620177542 0.017417402195909502 0 0.00094930630860595678 0.018147407416865817 0 0.0012074438551146389 0.016825631580670509 0 -0.00022629187936589062 0.017165550452765028 0 0.00096927700682852499 0.016492098550038265 0 0.00094930630860595678 0.018147407416865817 0 0.0019857721116924017 0.017496970475563409 0 0.0012074438551146389 0.016825631580670509 0 0.00088041242862590572 0.015801349052142963 0 0.00015140743451127377 0.015459530807110286 0 0.00093692186430435623 0.014891559136670826 0 -0.00019214891578903147 0.016929868854594542 0 0.00088041242862590572 0.015801349052142963 0 0.00015140743451127377 0.015459530807110286 0 0.00015140743451127377 0.015459530807110286 0 0.00037776854422537836 0.014809327973661903 0 0.00093692186430435623 0.014891559136670826 0 -0.00020441749927628869 0.014601719441760122 0 0.00015140743451127377 0.015459530807110286 0 0.00037776854422537836 0.014809327973661903 0 -0.00020441749927628869 0.014601719441760122 0 0.00042643493480447737 0.01435444013573863 0 -2.4916844036610331e-05 0.013837945446872283 0 -0.00020441749927628869 0.014601719441760122 0 0.00037776854422537836 0.014809327973661903 0 0.00042643493480447737 0.01435444013573863 0 0.00037776854422537836 0.014809327973661903 0 0.00042643493480447737 0.01435444013573863 0 0.00080538049598321106 0.014607201145092502 0 0.00042643493480447737 0.01435444013573863 0 0.00080538049598321106 0.014607201145092502 0 0.00091111261674688073 0.014149723484540473 0 0.00080538049598321106 0.014607201145092502 0 0.0011866795682571431 0.014467008799733436 0 0.00091111261674688073 0.014149723484540473 0 0.00037776854422537836 0.014809327973661903 0 0.00080538049598321106 0.014607201145092502 0 0.00093692186430435623 0.014891559136670826 0 0.00080538049598321106 0.014607201145092502 0 0.00093692186430435623 0.014891559136670826 0 0.0011296194340965667 0.014524722976127816 0 0.0015655304664216748 0.014661398152392204 0 0.00093692186430435623 0.014891559136670826 0 0.0014070529011714185 0.014268018201839637 0 0.00093692186430435623 0.014891559136670826 0 0.0014070529011714185 0.014268018201839637 0 0.0011296194340965667 0.014524722976127816 0 0.0019879027907183386 0.014175744554431931 0 0.0016859503063968398 0.014081917010883668 0 0.0014070529011714185 0.014268018201839637 0 0.0012345361101225268 0.014334291012265512 0 0.0011840409466032204 0.014147163371374647 0 0.0014070529011714185 0.014268018201839637 0 0.0012345361101225268 0.014334291012265512 0 0.0011296194340965667 0.014524722976127816 0 0.0012345361101225268 0.014334291012265512 0 0.0011296194340965667 0.014524722976127816 0 0.0011866795682571431 0.014467008799733436 0 0.0019879027907183386 0.014175744554431931 0 0.0011676115720369758 0.013404690612391775 0 0.0012712942309055762 0.013635069543828175 0 0.00080793981099880102 0.013173893965878999 0 0.0011046031644785536 0.01374257677149862 0 0.0012712942309055762 0.013635069543828175 0 0.0014070529011714185 0.014268018201839637 0 0.0011046031644785536 0.01374257677149862 0 0.0014070529011714185 0.014268018201839637 0 0.0011046031644785536 0.01374257677149862 0 0.0011840409466032204 0.014147163371374647 0 0.0012345361101225268 0.014334291012265512 0 0.0011840409466032204 0.014147163371374647 0 0.00097243096656384202 0.014256121249079705 0 0.0011046031644785536 0.01374257677149862 0 0.0011840409466032204 0.014147163371374647 0 0.00097243096656384202 0.014256121249079705 0 0.00080793981099880102 0.013173893965878999 0 0.0011046031644785536 0.01374257677149862 0 0.00097243096656384202 0.014256121249079705 0 0.00080793981099880102 0.013173893965878999 0 0.00097243096656384202 0.014256121249079705 0 -0.00012897355583699549 0.013861591213854545 0 0.00097243096656384202 0.014256121249079705 0 0.0010791566107494987 0.014835078122436125 0 -0.00052187568511674663 0.015319695170657547 0 0.00097243096656384202 0.014256121249079705 0 0.0011866795682571431 0.014467008799733436 0 0.0010791566107494987 0.014835078122436125 0 0.0012345361101225268 0.014334291012265512 0 0.00097243096656384202 0.014256121249079705 0 0.0011866795682571431 0.014467008799733436 0 0.00080538049598321106 0.014607201145092502 0 0.0011296194340965667 0.014524722976127816 0 0.0011866795682571431 0.014467008799733436 0 0.0011866795682571431 0.014467008799733436 0 0.0010791566107494987 0.014835078122436125 0 0.00091111261674688073 0.014149723484540473 0 7.7517226321515751e-05 0.015238524445333215 0 0.00018444394029380247 0.014986141577863869 0 -0.00083775570566085151 0.015723210475574529 0 -0.0007359904313359695 0.016115087523800486 0 -0.00041871992980772388 0.015783450664485044 0 7.7517226321515751e-05 0.015238524445333215 0 -0.00098612102181334363 0.015768238879195269 0 -0.00083775570566085151 0.015723210475574529 0 -0.0007359904313359695 0.016115087523800486 0 -0.0011072662118430741 0.016041425615799052 0 -0.0007359904313359695 0.016115087523800486 0 -0.0003300103015881679 0.016180256886697976 0 -0.00041871992980772388 0.015783450664485044 0 -0.0003300103015881679 0.016180256886697976 0 0.00012685005771900755 0.015804263256242054 0 -3.69390100508081e-05 0.016562777165415536 0 -0.0003300103015881679 0.016180256886697976 0 0.00012685005771900755 0.015804263256242054 0 -0.00041871992980772388 0.015783450664485044 0 0.00021211062888912131 0.014804519956434012 0 0.00018444394029380247 0.014986141577863869 0 0.00042643493480447737 0.01435444013573863 0 -2.4916844036610331e-05 0.013837945446872283 0 0.00091111261674688073 0.014149723484540473 0 -0.0014359517748236828 0.0076751525150819009 0 -0.00113847498598477 0.0079414662728746876 0 -0.00089915236614958923 0.007663748568599171 0 -0.0014359517748236828 0.0076751525150819009 0 -0.00113847498598477 0.0079414662728746876 0 -0.0013737361017325349 0.0081540499569102802 0 -0.0015082056418816575 0.011686721784572807 0 -0.001987124081922754 0.012385021741546622 0 -0.00113847498598477 0.0079414662728746876 0 -0.0010938050679462411 0.0081061505033225949 0 -0.00087759838368459868 0.0080050642237332013 0 -0.0006622419090865216 0.0077651940403164485 0 -0.00089915236614958923 0.007663748568599171 0 -0.00087759838368459868 0.0080050642237332013 0 -0.00113847498598477 0.0079414662728746876 0 -0.00089915236614958923 0.007663748568599171 0 -0.00087759838368459868 0.0080050642237332013 0 -0.0006622419090865216 0.0077651940403164485 0 -0.000502041587308073 0.0079265973774420954 0 -0.00087759838368459868 0.0080050642237332013 0 -0.0006622419090865216 0.0077651940403164485 0 -0.000502041587308073 0.0079265973774420954 0 -0.00039289431810920258 0.0076210947762278616 0 -0.0006622419090865216 0.0077651940403164485 0 -0.0006128076237700811 0.0075363886914764193 0 -0.00089915236614958923 0.007663748568599171 0 -0.0006622419090865216 0.0077651940403164485 0 -0.0006128076237700811 0.0075363886914764193 0 -0.00039289431810920258 0.0076210947762278616 0 -0.0006128076237700811 0.0075363886914764193 0 -0.00089915236614958923 0.007663748568599171 0 -0.00081130537544819251 0.0071499335029848628 0 -0.0006128076237700811 0.0075363886914764193 0 -0.00081130537544819251 0.0071499335029848628 0 -0.00038325568897475641 0.0073855402284512522 0 -0.0014359517748236828 0.0076751525150819009 0 -0.00081130537544819251 0.0071499335029848628 0 -0.0015268542723825618 0.0072312039098885832 0 -0.0014359517748236828 0.0076751525150819009 0 -0.00089915236614958923 0.007663748568599171 0 -0.00081130537544819251 0.0071499335029848628 0 -0.00024542730955877346 0.0080767731969465621 0 -0.00046560597886733269 0.01131502482456105 0 -0.0015082056418816575 0.011686721784572807 0 -0.00046560597886733269 0.01131502482456105 0 -0.0015187015961562523 0.016062871429546405 0 -0.0013389223187241191 0.015915010957085578 0 -0.0012618164871672326 0.01625549120526219 0 -0.0016024353211984939 0.01579733055177494 0 -0.0015187015961562523 0.016062871429546405 0 -0.0013389223187241191 0.015915010957085578 0 -0.0013389223187241191 0.015915010957085578 0 -0.0011072662118430741 0.016041425615799052 0 -0.0012618164871672326 0.01625549120526219 0 -0.0013389223187241191 0.015915010957085578 0 -0.0011072662118430741 0.016041425615799052 0 -0.0012361677039907236 0.015632747738621562 0 -0.00083775570566085151 0.015723210475574529 0 -0.0011072662118430741 0.016041425615799052 0 -0.0012361677039907236 0.015632747738621562 0 -0.0016024353211984939 0.01579733055177494 0 -0.0013389223187241191 0.015915010957085578 0 -0.0012361677039907236 0.015632747738621562 0 -0.0016024353211984939 0.01579733055177494 0 -0.0012361677039907236 0.015632747738621562 0 -0.0016685876227294854 0.015520787017665696 0 -0.00052187568511674663 0.015319695170657547 0 -0.0022250339943545683 0.014398190698239215 0 -0.0015542293270093799 0.013664032631407679 0 -0.00052187568511674663 0.015319695170657547 0 -0.0022250339943545683 0.014398190698239215 0 -0.0033246386676139992 0.015246722820893541 0 -0.00098612102181334363 0.015768238879195269 0 -0.001987124081922754 0.012385021741546622 0 0.00097243096656384202 0.014256121249079705 0 -0.00052187568511674663 0.015319695170657547 0 -0.00012897355583699549 0.013861591213854545 0 -0.00052187568511674663 0.015319695170657547 0 -0.00012897355583699549 0.013861591213854545 0 -0.0015542293270093799 0.013664032631407679 0 -0.00012897355583699549 0.013861591213854545 0 -0.00080670492058223977 0.012524122334214604 0 -0.0015542293270093799 0.013664032631407679 0 0.00080793981099880102 0.013173893965878999 0 -0.00012897355583699549 0.013861591213854545 0 -0.00080670492058223977 0.012524122334214604 0 -0.0015542293270093799 0.013664032631407679 0 -0.0024909645897657076 0.012148151619157973 0 -0.0028896476311989897 0.013460332528624113 0 -0.0022250339943545683 0.014398190698239215 0 -0.0015542293270093799 0.013664032631407679 0 -0.0028896476311989897 0.013460332528624113 0 -0.00080670492058223977 0.012524122334214604 0 -0.0015542293270093799 0.013664032631407679 0 -0.0024909645897657076 0.012148151619157973 0 -0.0024909645897657076 0.012148151619157973 0 -0.0043294003369426775 0.012188450965265161 0 -0.0028896476311989897 0.013460332528624113 0 -0.004914948500894886 0.0081872816986669258 0 -0.00284101322027942 0.0079355019162240803 0 -0.0057710527350667336 0.0043012283278379042 0 -0.0061649067788319845 0.0022394025265297661 0 -0.0049741528248811225 0.0031213948220613573 0 -0.0043294003369426775 0.012188450965265161 0 -0.0028896476311989897 0.013460332528624113 0 -0.0037205031728797799 0.013978984988217976 0 -0.0028896476311989897 0.013460332528624113 0 -0.0037205031728797799 0.013978984988217976 0 -0.0033246386676139992 0.015246722820893541 0 -0.0022250339943545683 0.014398190698239215 0 -0.0028896476311989897 0.013460332528624113 0 -0.0033246386676139992 0.015246722820893541 0 -0.00284101322027942 0.0079355019162240803 0 -0.001987124081922754 0.012385021741546622 0 -0.001346123914871054 0.0086227211896650613 0 -0.0012333086888538566 0.0081742906525193431 0 -0.0014390775509047647 0.0081528649540915793 0 -0.001346123914871054 0.0086227211896650613 0 -0.0010938050679462411 0.0081061505033225949 0 -0.00087759838368459868 0.0080050642237332013 0 -0.001346123914871054 0.0086227211896650613 0 -0.0010938050679462411 0.0081061505033225949 0 -0.0012333086888538566 0.0081742906525193431 0 -0.00113847498598477 0.0079414662728746876 0 -0.0010938050679462411 0.0081061505033225949 0 -0.0012333086888538566 0.0081742906525193431 0 -0.0018011677748532861 0.011501524669742833 0 -0.001987124081922754 0.012385021741546622 0 -0.00113847498598477 0.0079414662728746876 0 -0.0012333086888538566 0.0081742906525193431 0 -0.0013737361017325349 0.0081540499569102802 0 -0.00284101322027942 0.0079355019162240803 0 -0.0016131682953140147 0.0036372782851107261 0 -0.000502041587308073 0.0079265973774420954 0 -0.001346123914871054 0.0086227211896650613 0 -0.00033918954660046172 0.0078953589736293628 0 -0.0061649067788319845 0.0022394025265297661 0 -0.0037222860505580157 0.0014561260751270733 0 -0.0040619173373926121 0.0023325397803218365 0 -0.000502041587308073 0.0079265973774420954 0 -0.001346123914871054 0.0086227211896650613 0 -0.00087759838368459868 0.0080050642237332013 0 -0.0061649067788319845 0.0022394025265297661 0 -0.0037222860505580157 0.0014561260751270733 0 -0.0026766211559745875 0.00017355898868229964 0 -0.0037222860505580157 0.0014561260751270733 0 -0.0028586894724251634 0.00096829143960437875 0 -0.0026766211559745875 0.00017355898868229964 0 -0.0040619173373926121 0.0023325397803218365 0 -0.002885108109886131 0.0015706252435280913 0 -0.0029552681295983191 0.0025565873928388772 0 -0.0037222860505580157 0.0014561260751270733 0 -0.0040619173373926121 0.0023325397803218365 0 -0.002885108109886131 0.0015706252435280913 0 -0.0037222860505580157 0.0014561260751270733 0 -0.0028586894724251634 0.00096829143960437875 0 -0.002885108109886131 0.0015706252435280913 0 -0.0061649067788319845 0.0022394025265297661 0 -0.0040619173373926121 0.0023325397803218365 0 -0.0049741528248811225 0.0031213948220613573 0 -0.0040619173373926121 0.0023325397803218365 0 -0.003929516365594638 0.0036379386323157413 0 -0.0029552681295983191 0.0025565873928388772 0 -0.0040619173373926121 0.0023325397803218365 0 -0.0049741528248811225 0.0031213948220613573 0 -0.003929516365594638 0.0036379386323157413 0 -0.0057710527350667336 0.0043012283278379042 0 -0.0049741528248811225 0.0031213948220613573 0 -0.003929516365594638 0.0036379386323157413 0 -0.003929516365594638 0.0036379386323157413 0 -0.0032387188056615559 0.0055693840054612757 0 -0.0022747278483892432 0.0035152221088852499 0 -0.0057710527350667336 0.0043012283278379042 0 -0.003929516365594638 0.0036379386323157413 0 -0.0032387188056615559 0.0055693840054612757 0 -0.0057710527350667336 0.0043012283278379042 0 -0.0045627113197374541 0.0084669671811033517 0 -0.003773241606648315 0.0070070454527017484 0 -0.0057710527350667336 0.0043012283278379042 0 -0.0032387188056615559 0.0055693840054612757 0 -0.003773241606648315 0.0070070454527017484 0 -0.0043294003369426775 0.012188450965265161 0 -0.0037097240805281924 0.010389250320346863 0 -0.0045627113197374541 0.0084669671811033517 0 -0.004914948500894886 0.0081872816986669258 0 -0.0046628993495476537 0.0085083089081576975 0 -0.0024909645897657076 0.012148151619157973 0 -0.0043294003369426775 0.012188450965265161 0 -0.0037097240805281924 0.010389250320346863 0 -0.0037097240805281924 0.010389250320346863 0 -0.003960174149797378 0.0092671757064659455 0 -0.0045627113197374541 0.0084669671811033517 0 -0.0044466979097176514 0.0086705828769808643 0 -0.0058414832888340597 0.0083392698619345704 0 -0.0029127410705843647 0.0077330134765120949 0 -0.0037097240805281924 0.010389250320346863 0 -0.003960174149797378 0.0092671757064659455 0 -0.002952432445154746 0.009206765870688657 0 -0.003960174149797378 0.0092671757064659455 0 -0.002952432445154746 0.009206765870688657 0 -0.0044466979097176514 0.0086705828769808643 0 -0.002952432445154746 0.009206765870688657 0 -0.0044466979097176514 0.0086705828769808643 0 -0.0029127410705843647 0.0077330134765120949 0 -0.003960174149797378 0.0092671757064659455 0 -0.0044466979097176514 0.0086705828769808643 0 -0.0045627113197374541 0.0084669671811033517 0 -0.0050764859439885873 0.0077813151139124207 0 -0.0014486317571854551 0.0060983857833265412 0 -0.0044466979097176514 0.0086705828769808643 0 -0.0045627113197374541 0.0084669671811033517 0 -0.0041588871871510143 0.0084591407102855842 0 -0.0045627113197374541 0.0084669671811033517 0 -0.0041588871871510143 0.0084591407102855842 0 -0.003773241606648315 0.0070070454527017484 0 0.00080793981099880102 0.013173893965878999 0 -0.00080670492058223977 0.012524122334214604 0 -0.00015311112555178329 0.011018001430779254 0 0.0011738106958674712 0.011474878059709395 0 0.00080793981099880102 0.013173893965878999 0 -0.00015311112555178329 0.011018001430779254 0 -0.00080670492058223977 0.012524122334214604 0 -0.00015311112555178329 0.011018001430779254 0 -0.0018626310680704033 0.010653054664890187 0 -0.0024909645897657076 0.012148151619157973 0 -0.0037097240805281924 0.010389250320346863 0 -0.0018626310680704033 0.010653054664890187 0 -0.00080670492058223977 0.012524122334214604 0 -0.0024909645897657076 0.012148151619157973 0 -0.0018626310680704033 0.010653054664890187 0 -0.002952432445154746 0.009206765870688657 0 -0.0010186276933048558 0.0089950082588535988 0 -0.0029127410705843647 0.0077330134765120949 0 -0.002952432445154746 0.009206765870688657 0 -0.0018626310680704033 0.010653054664890187 0 -0.0010186276933048558 0.0089950082588535988 0 -0.0037097240805281924 0.010389250320346863 0 -0.002952432445154746 0.009206765870688657 0 -0.0018626310680704033 0.010653054664890187 0 0.0013517190490671229 0.0094965099500150894 0 -0.0010186276933048558 0.0089950082588535988 0 0.0001487278634806031 0.0069908024623853001 0 0.0013517190490671229 0.0094965099500150894 0 -0.00015311112555178329 0.011018001430779254 0 -0.0010186276933048558 0.0089950082588535988 0 -0.00015311112555178329 0.011018001430779254 0 -0.0018626310680704033 0.010653054664890187 0 -0.0010186276933048558 0.0089950082588535988 0 0.0024596583890004495 0.013751744823666619 0 0.00063496391127620196 0.011458093357448702 0 0.00063496391127620196 0.011458093357448702 0 -0.0012195650198486684 0.0083597221177992877 0 -0.0010186276933048558 0.0089950082588535988 0 0.0001487278634806031 0.0069908024623853001 0 -0.0029127410705843647 0.0077330134765120949 0 0.00014697048220264612 0.0093475023819325261 0 0.00093105876828038843 0.0091267635461137562 0 0.00066614856156786749 0.0095958749974073519 0 0.00096597955065797761 0.009947799794073597 0 0.00058993740982713589 0.01020787377425266 0 0.00066614856156786749 0.0095958749974073519 0 0.00096597955065797761 0.009947799794073597 0 0.00093105876828038843 0.0091267635461137562 0 0.00066614856156786749 0.0095958749974073519 0 0.00035867358659953224 0.0094900842404851866 0 0.00063496391127620196 0.011458093357448702 0 0.00058993740982713589 0.01020787377425266 0 0.00052166132711173666 0.010295147621702307 0 0.00045878128970048995 0.010140222588965636 0 0.00052166132711173666 0.010295147621702307 0 0.00036996328847464631 0.010290015236187024 0 0.00045878128970048995 0.010140222588965636 0 0.00058993740982713589 0.01020787377425266 0 0.00014697048220264612 0.0093475023819325261 0 0.00066614856156786749 0.0095958749974073519 0 0.0015892491454510024 0.0088827209081875583 0 0.0014150467586277159 0.0098067043955924419 0 0.0020142305070613791 0.0095326333014048685 0 0.0015892491454510024 0.0088827209081875583 0 0.00093105876828038843 0.0091267635461137562 0 0.0014150467586277159 0.0098067043955924419 0 -0.0014486317571854551 0.0060983857833265412 0 -0.0012195650198486684 0.0083597221177992877 0 0.00096597955065797761 0.009947799794073597 0 0.00093105876828038843 0.0091267635461137562 0 0.0014150467586277159 0.0098067043955924419 0 0.0018899844645311047 0.010064260275269857 0 0.0014150467586277159 0.0098067043955924419 0 0.0020142305070613791 0.0095326333014048685 0 0.0015892491454510024 0.0088827209081875583 0 0.0020142305070613791 0.0095326333014048685 0 0.0023030815338091538 0.0089675201068754491 0 0.0023414997120780267 0.0099302231195213045 0 0.0020142305070613791 0.0095326333014048685 0 0.0026230371598938334 0.0095031972105967377 0 0.0020142305070613791 0.0095326333014048685 0 0.0023030815338091538 0.0089675201068754491 0 0.0026230371598938334 0.0095031972105967377 0 0.0026230371598938334 0.0095031972105967377 0 0.0032492653148364246 0.0095375273903986826 0 0.0029981693027891347 0.0090384699342713048 0 0.0037187183523697885 0.005184096544784144 0 0.0040077552468315162 0.0023981665047297109 0 0.0042409822044987954 -0.00013641265609307715 0 0.0042560049655096643 -0.00025239639312838472 0 0.0041784800984986763 -0.00023987463718272973 0 0.003837415228284975 -0.00013958915977556311 0 0.0037170683107677536 -0.00022533022186119585 0 0.0041669657042510914 -0.00045642487766162006 0 0.0040140894217773476 -2.3593892805283185e-06 0 0.0040077552468315162 0.0023981665047297109 0 0.0042560049655096643 -0.00025239639312838472 0 0.003837415228284975 -0.00013958915977556311 0 0.0041669657042510914 -0.00045642487766162006 0 0.0028305815955622414 0.0046190508411357084 0 0.0040077552468315162 0.0023981665047297109 0 0.0024999822015657667 8.5955989971285584e-05 0 0.003898886473831679 0.00012699685074060799 0 0.0037170683107677536 -0.00022533022186119585 0 0.0023030815338091538 0.0089675201068754491 0 0.0026230371598938334 0.0095031972105967377 0 0.0029981693027891347 0.0090384699342713048 0 0.0040077552468315162 0.0023981665047297109 0 0.0033731472760820114 0.00023450608500857404 0 0.0037170683107677536 -0.00022533022186119585 0 0.003098210537565585 -0.00040000342969843825 0 0.0035543654693344657 -0.00086513215394940347 0 0.0037170683107677536 -0.00022533022186119585 0 0.0039413495347502868 -0.00063628979655197754 0 0.0035543654693344657 -0.00086513215394940347 0 0.0024999822015657667 8.5955989971285584e-05 0 0.0037170683107677536 -0.00022533022186119585 0 0.003098210537565585 -0.00040000342969843825 0 0.0037170683107677536 -0.00022533022186119585 0 0.0039413495347502868 -0.00063628979655197754 0 0.0041669657042510914 -0.00045642487766162006 0 0.0039413495347502868 -0.00063628979655197754 0 0.0041669657042510914 -0.00045642487766162006 0 0.0042480275010348201 -0.00092660081590915466 0 0.0019040882534572755 0.005787856349118047 0 0.0044211664730702495 0.0045349160598963109 0 0.0023476378269202476 0.0034572907650205552 0 0.0039413495347502868 -0.00063628979655197754 0 0.0035543654693344657 -0.00086513215394940347 0 0.0042480275010348201 -0.00092660081590915466 0 0.0027230276913839326 0.0024527314125550328 0 0.0041435519535050194 0.0021925115741793138 0 0.0019040882534572755 0.005787856349118047 0 0.00029520446373612158 0.0045210911513790322 0 0.0023476378269202476 0.0034572907650205552 0 0.0019040882534572755 0.005787856349118047 0 0.00029520446373612158 0.0045210911513790322 0 -0.00088831929198322161 0.00715474258886641 0 0.00029520446373612158 0.0045210911513790322 0 -0.0014458440581837312 0.0048848971028619343 0 -0.00088831929198322161 0.00715474258886641 0 -0.0032387188056615559 0.0055693840054612757 0 -0.0014458440581837312 0.0048848971028619343 0 -0.00088831929198322161 0.00715474258886641 0 -0.0032387188056615559 0.0055693840054612757 0 -0.0014458440581837312 0.0048848971028619343 0 -0.0022747278483892432 0.0035152221088852499 0 -0.0032387188056615559 0.0055693840054612757 0 -0.003773241606648315 0.0070070454527017484 0 -0.00088831929198322161 0.00715474258886641 0 -0.0041588871871510143 0.0084591407102855842 0 -0.003773241606648315 0.0070070454527017484 0 -0.00088831929198322161 0.00715474258886641 0 0.00074597421344640524 -6.9270457182718135e-05 0 0.0024999822015657667 8.5955989971285584e-05 0 0.002280679053879743 -0.00060591238003924466 0 -0.0014486317571854551 0.0060983857833265412 0 0.0028305815955622414 0.0046190508411357084 0 -0.0014486317571854551 0.0060983857833265412 0 0.00065692518389028173 0.0030928356605412644 0 0.0027230276913839326 0.0024527314125550328 0 0.00065692518389028173 0.0030928356605412644 0 0.003098210537565585 -0.00040000342969843825 0 0.0035543654693344657 -0.00086513215394940347 0 0.002280679053879743 -0.00060591238003924466 0 0.0024999822015657667 8.5955989971285584e-05 0 0.003098210537565585 -0.00040000342969843825 0 0.002280679053879743 -0.00060591238003924466 0 0.005259498870602842 -0.010292682575519657 0 0.0060213314384990994 -0.01022437267011812 0 0.0057199798947352096 -0.0096648770765820555 0 0.005259498870602842 -0.010292682575519657 0 0.005791815823521472 -0.010909962633915693 0 0.0060213314384990994 -0.01022437267011812 0 0.0052207218754591724 -0.011409199673764015 0 0.005259498870602842 -0.010292682575519657 0 0.005791815823521472 -0.010909962633915693 0 0.005791815823521472 -0.010909962633915693 0 0.0060213314384990994 -0.01022437267011812 0 0.006685176088504231 -0.01110180110627774 0 0.0060213314384990994 -0.01022437267011812 0 0.0067052145633239345 -0.0098247457419340812 0 0.0061526040981799727 -0.0095288923001384963 0 0.0046588172048305362 -0.00048844983993936075 0 0.0045748607320266243 -0.00024083282803074097 0 0.0044402929745529203 -0.00034675912708082506 0 0.0060213314384990994 -0.01022437267011812 0 0.0067052145633239345 -0.0098247457419340812 0 0.006685176088504231 -0.01110180110627774 0 0.0056259195645440643 -0.0056755468395995852 0 0.0056092271109210948 -0.0056335443333263959 0 0.0046588172048305362 -0.00048844983993936075 0 0.0045748607320266243 -0.00024083282803074097 0 0.0044876746418219182 -0.00027696393325601172 0 0.0042409822044987954 -0.00013641265609307715 0 0.0042560049655096643 -0.00025239639312838472 0 0.0043976079954960064 -0.00021177308229155148 0 0.0045748607320266243 -0.00024083282803074097 0 0.0043976079954960064 -0.00021177308229155148 0 0.0044402929745529203 -0.00034675912708082506 0 0.0042560049655096643 -0.00025239639312838472 0 0.0043976079954960064 -0.00021177308229155148 0 0.0044402929745529203 -0.00034675912708082506 0 0.0042560049655096643 -0.00025239639312838472 0 0.0041669657042510914 -0.00045642487766162006 0 0.0044402929745529203 -0.00034675912708082506 0 0.0041669657042510914 -0.00045642487766162006 0 0.0044402929745529203 -0.00034675912708082506 0 0.0044706019910035043 -0.00067374457906159294 0 0.0041669657042510914 -0.00045642487766162006 0 0.0044706019910035043 -0.00067374457906159294 0 0.0042480275010348201 -0.00092660081590915466 0 0.0041435519535050194 0.0021925115741793138 0 0.0060931784343167851 -0.0022393063683507244 0 0.0044706019910035043 -0.00067374457906159294 0 0.0042480275010348201 -0.00092660081590915466 0 0.0047088867759224762 -0.0010429330364869174 0 0.0044211664730702495 0.0045349160598963109 0 0.0069082983311343693 0.0034618294146011213 0 0.005590150519780842 0.0025793253196149113 0 0.00654398790371866 -0.0079344797266073571 0 0.0068275727655826637 -0.0080178132251433453 0 0.0061526040981799727 -0.0095288923001384963 0 0.0066455079356382805 -0.0055311731765718764 0 0.0060931784343167851 -0.0022393063683507244 0 0.0046588172048305362 -0.00048844983993936075 0 0.0044706019910035043 -0.00067374457906159294 0 0.0047088867759224762 -0.0010429330364869174 0 0.0067052145633239345 -0.0098247457419340812 0 0.0068275727655826637 -0.0080178132251433453 0 0.0061526040981799727 -0.0095288923001384963 0 0.0056259195645440643 -0.0056755468395995852 0 0.0060931784343167851 -0.0022393063683507244 0 0.0046588172048305362 -0.00048844983993936075 0 0.0044402929745529203 -0.00034675912708082506 0 0.0044706019910035043 -0.00067374457906159294 0 0.0061526040981799727 -0.0095288923001384963 0 0.0058833934582717805 -0.0090690295661443477 0 0.0057199798947352096 -0.0096648770765820555 0 0.0060213314384990994 -0.01022437267011812 0 0.0061526040981799727 -0.0095288923001384963 0 0.0057199798947352096 -0.0096648770765820555 0 0.006330360458183304 -0.0087522942066974932 0 0.0058833934582717805 -0.0090690295661443477 0 0.005643148717074619 -0.0085800206459535656 0 0.0066455079356382805 -0.0055311731765718764 0 0.0059695919727803968 -0.010606445816982118 0 0.006330360458183304 -0.0087522942066974932 0 0.0061526040981799727 -0.0095288923001384963 0 0.0058833934582717805 -0.0090690295661443477 0 0.0048817464709586715 -0.0089858021465497318 0 0.0052808670565122513 -0.0093633832022198271 0 0.005643148717074619 -0.0085800206459535656 0 0.0058833934582717805 -0.0090690295661443477 0 0.0052808670565122513 -0.0093633832022198271 0 0.005643148717074619 -0.0085800206459535656 0 0.0058833934582717805 -0.0090690295661443477 0 0.0052808670565122513 -0.0093633832022198271 0 0.0057199798947352096 -0.0096648770765820555 0 0.005259498870602842 -0.010292682575519657 0 0.0052808670565122513 -0.0093633832022198271 0 0.0057199798947352096 -0.0096648770765820555 0 0.0085547635260815012 -0.010211488086221531 0 0.008554450963095702 -0.010311005895187972 0 0.008513869154674716 -0.010021717027045648 0 0.008554450963095702 -0.010311005895187972 0 0.008513869154674716 -0.010021717027045648 0 0.0084648727098315685 -0.010079967364724914 0 0.0085547635260815012 -0.010211488086221531 0 0.008513869154674716 -0.010021717027045648 0 0.0085147354774171898 -0.0097719079423905005 0 0.0064592040324160868 -0.0091503673612152517 0 0.0073416192255114712 -0.0094697242127603932 0 0.008513869154674716 -0.010021717027045648 0 0.0085147354774171898 -0.0097719079423905005 0 0.0083911087249924406 -0.0097434891432455588 0 0.0066455079356382805 -0.0055311731765718764 0 0.0073416192255114712 -0.0094697242127603932 0 0.0082923657259811323 -0.0092499639891813965 0 0.0085147354774171898 -0.0097719079423905005 0 0.0083911087249924406 -0.0097434891432455588 0 0.0083911087249924406 -0.0097434891432455588 0 0.0084648727098315685 -0.010079967364724914 0 0.0083111040996937374 -0.010009109750778431 0 0.008513869154674716 -0.010021717027045648 0 0.0083911087249924406 -0.0097434891432455588 0 0.0084648727098315685 -0.010079967364724914 0 0.0065942799027942098 0.0012207608788442157 0 0.0052061649918976709 0.00041194486374557162 0 0.0060851301290219487 -0.0010790373539071045 0 0.0083911087249924406 -0.0097434891432455588 0 0.0082168486296838542 -0.0097385812327681308 0 0.0083111040996937374 -0.010009109750778431 0 0.0065942799027942098 0.0012207608788442157 0 0.0066188217498733158 0.001368798446543068 0 0.0057354962204379471 0.001569731022947526 0 0.0066455079356382805 -0.0055311731765718764 0 0.0075407882188556407 -0.003938151420907178 0 0.0082923657259811323 -0.0092499639891813965 0 0.0083911087249924406 -0.0097434891432455588 0 0.0082168486296838542 -0.0097385812327681308 0 0.0066536000444127582 0.0014496085612288176 0 0.0065942799027942098 0.0012207608788442157 0 0.0066188217498733158 0.001368798446543068 0 0.0060931784343167851 -0.0022393063683507244 0 0.0066689763992130967 0.002908910548539 0 0.0066536000444127582 0.0014496085612288176 0 0.0066250197148781248 0.0014516205744563319 0 0.0066188217498733158 0.001368798446543068 0 0.0069082983311343693 0.0034618294146011213 0 0.0066188217498733158 0.001368798446543068 0 0.005590150519780842 0.0025793253196149113 0 0.0066188217498733158 0.001368798446543068 0 0.005590150519780842 0.0025793253196149113 0 0.0057354962204379471 0.001569731022947526 0 0.0044211664730702495 0.0045349160598963109 0 0.005590150519780842 0.0025793253196149113 0 0.0043017782166064984 0.0019780750816651262 0 0.005590150519780842 0.0025793253196149113 0 0.0057354962204379471 0.001569731022947526 0 0.0043017782166064984 0.0019780750816651262 0 0.0057354962204379471 0.001569731022947526 0 0.0052061649918976709 0.00041194486374557162 0 0.0043017782166064984 0.0019780750816651262 0 0.0065942799027942098 0.0012207608788442157 0 0.0057354962204379471 0.001569731022947526 0 0.0052061649918976709 0.00041194486374557162 0 0.0052061649918976709 0.00041194486374557162 0 0.0042982720838495659 -0.0015522224288219725 0 0.0060851301290219487 -0.0010790373539071045 0 0.0042982720838495659 -0.0015522224288219725 0 0.0060851301290219487 -0.0010790373539071045 0 0.0054645275322673147 -0.0034264782198053238 0 0.0071895851384147849 -0.0056488587465169729 0 0.0070858496007280176 -0.0062611077671646254 0 0.0042982720838495659 -0.0015522224288219725 0 0.0033593663443197879 -0.0032888246717281363 0 0.0054645275322673147 -0.0034264782198053238 0 0.0083857171445949081 -0.0097845706897193782 0 0.0081969306702875892 -0.0093546783171856666 0 0.0087080947281176092 -0.0095152889666746416 0 0.0083857171445949081 -0.0097845706897193782 0 0.0082056143420725057 -0.010068604830562523 0 0.00834908956120539 -0.01005881108323972 0 0.0083857171445949081 -0.0097845706897193782 0 0.00834908956120539 -0.01005881108323972 0 0.0087080947281176092 -0.0095152889666746416 0 0.0083857171445949081 -0.0097845706897193782 0 0.0082056143420725057 -0.010068604830562523 0 0.0081969306702875892 -0.0093546783171856666 0 0.0082056143420725057 -0.010068604830562523 0 0.00834908956120539 -0.01005881108323972 0 0.0083111040996937374 -0.010009109750778431 0 0.0075407882188556407 -0.003938151420907178 0 0.0071895851384147849 -0.0056488587465169729 0 0.0082168486296838542 -0.0097385812327681308 0 0.00834908956120539 -0.01005881108323972 0 0.0083111040996937374 -0.010009109750778431 0 0.0084648727098315685 -0.010079967364724914 0 0.0083111040996937374 -0.010009109750778431 0 0.0084586346069788296 -0.010174306678961272 0 0.0082056143420725057 -0.010068604830562523 0 0.0083111040996937374 -0.010009109750778431 0 0.0084586346069788296 -0.010174306678961272 0 0.0082056143420725057 -0.010068604830562523 0 0.0074731767468670576 -0.0096393605224675272 0 0.0081969306702875892 -0.0093546783171856666 0 0.0080698633059336465 -0.009998807810499645 0 0.0082390414499159646 -0.01019195439483655 0 0.0082056143420725057 -0.010068604830562523 0 0.0084586346069788296 -0.010174306678961272 0 0.0084416009972373626 -0.010299081826396746 0 0.0084586346069788296 -0.010174306678961272 0 0.0084416009972373626 -0.010299081826396746 0 0.0085679051203301736 -0.01028119663564896 0 0.0084586346069788296 -0.010174306678961272 0 0.0085679051203301736 -0.01028119663564896 0 0.0085694163218714026 -0.010309445183324871 0 0.0084416009972373626 -0.010299081826396746 0 0.0085679051203301736 -0.01028119663564896 0 0.0085912368169531773 -0.010299465785305014 0 0.0085903349290602001 -0.010309703432680685 0 0.008578140370251364 -0.010220195485622745 0 0.008630618102585504 -0.010261430596107134 0 0.0085903349290602001 -0.010309703432680685 0 0.0085679051203301736 -0.01028119663564896 0 0.008630618102585504 -0.010261430596107134 0 0.0085903349290602001 -0.010309703432680685 0 0.0085679051203301736 -0.01028119663564896 0 0.0085694163218714026 -0.010309445183324871 0 0.0085743690680884273 -0.010403727535770778 0 0.0085694163218714026 -0.010309445183324871 0 0.0085326163906007581 -0.010255608538362805 0 0.008554450963095702 -0.010311005895187972 0 0.0084648727098315685 -0.010079967364724914 0 0.0085326163906007581 -0.010255608538362805 0 0.0084586346069788296 -0.010174306678961272 0 0.0085694163218714026 -0.010309445183324871 0 0.0085326163906007581 -0.010255608538362805 0 0.0084648727098315685 -0.010079967364724914 0 0.0084586346069788296 -0.010174306678961272 0 0.0085326163906007581 -0.010255608538362805 0 0.008554450963095702 -0.010311005895187972 0 0.0085743690680884273 -0.010403727535770778 0 0.0085326163906007581 -0.010255608538362805 0 -0.00042453671330783184 0.0015238816329736151 0 -0.0016709854399852074 0.0017523882564016821 0 -0.00066309114208998202 0.0030152114991212312 0 -0.00042453671330783184 0.0015238816329736151 0 0.00073596471004187803 0.00084399111834718371 0 0.00075621831924353559 0.0024977132603649964 0 -0.00042453671330783184 0.0015238816329736151 0 0.00073596471004187803 0.00084399111834718371 0 -0.00035993445686568299 0.00015257711339563046 0 -0.001339256989800007 0.00090714020719472543 0 -0.00035993445686568299 0.00015257711339563046 0 -0.0012233035681221368 9.0783182261900994e-05 0 -0.00042453671330783184 0.0015238816329736151 0 -0.001339256989800007 0.00090714020719472543 0 -0.00035993445686568299 0.00015257711339563046 0 -0.001339256989800007 0.00090714020719472543 0 -0.0022516876595617672 0.00090034249175932406 0 -0.0012233035681221368 9.0783182261900994e-05 0 -0.0022516876595617672 0.00090034249175932406 0 -0.0026766211559745875 0.00017355898868229964 0 -0.0012233035681221368 9.0783182261900994e-05 0 -0.001339256989800007 0.00090714020719472543 0 -0.0022516876595617672 0.00090034249175932406 0 -0.0016709854399852074 0.0017523882564016821 0 -0.0022516876595617672 0.00090034249175932406 0 -0.0028586894724251634 0.00096829143960437875 0 -0.0026766211559745875 0.00017355898868229964 0 -0.0022516876595617672 0.00090034249175932406 0 -0.0028586894724251634 0.00096829143960437875 0 -0.002885108109886131 0.0015706252435280913 0 -0.002885108109886131 0.0015706252435280913 0 -0.0016709854399852074 0.0017523882564016821 0 -0.0029552681295983191 0.0025565873928388772 0 -0.0022516876595617672 0.00090034249175932406 0 -0.002885108109886131 0.0015706252435280913 0 -0.0016709854399852074 0.0017523882564016821 0 -0.00042453671330783184 0.0015238816329736151 0 -0.001339256989800007 0.00090714020719472543 0 -0.0016709854399852074 0.0017523882564016821 0 -0.0016709854399852074 0.0017523882564016821 0 -0.0022747278483892432 0.0035152221088852499 0 -0.00066309114208998202 0.0030152114991212312 0 -0.0016709854399852074 0.0017523882564016821 0 -0.0029552681295983191 0.0025565873928388772 0 -0.0022747278483892432 0.0035152221088852499 0 -0.003929516365594638 0.0036379386323157413 0 -0.0029552681295983191 0.0025565873928388772 0 -0.0022747278483892432 0.0035152221088852499 0 -0.0014458440581837312 0.0048848971028619343 0 -0.0022747278483892432 0.0035152221088852499 0 -0.00066309114208998202 0.0030152114991212312 0 0.00029520446373612158 0.0045210911513790322 0 -0.00066309114208998202 0.0030152114991212312 0 0.00075621831924353559 0.0024977132603649964 0 0.00029520446373612158 0.0045210911513790322 0 -0.0014458440581837312 0.0048848971028619343 0 -0.00066309114208998202 0.0030152114991212312 0 -0.00042453671330783184 0.0015238816329736151 0 -0.00066309114208998202 0.0030152114991212312 0 0.00075621831924353559 0.0024977132603649964 0 0.00029520446373612158 0.0045210911513790322 0 0.00075621831924353559 0.0024977132603649964 0 0.0023476378269202476 0.0034572907650205552 0 0.00075621831924353559 0.0024977132603649964 0 0.0023476378269202476 0.0034572907650205552 0 0.002167903709401852 0.0014422508637386758 0 0.0044211664730702495 0.0045349160598963109 0 0.0023476378269202476 0.0034572907650205552 0 0.0043017782166064984 0.0019780750816651262 0 0.0023476378269202476 0.0034572907650205552 0 0.0043017782166064984 0.0019780750816651262 0 0.002167903709401852 0.0014422508637386758 0 0.0052061649918976709 0.00041194486374557162 0 0.0043017782166064984 0.0019780750816651262 0 0.0032033276528938702 -0.00024856345630348435 0 0.0043017782166064984 0.0019780750816651262 0 0.002167903709401852 0.0014422508637386758 0 0.0032033276528938702 -0.00024856345630348435 0 0.00073596471004187803 0.00084399111834718371 0 0.00075621831924353559 0.0024977132603649964 0 0.002167903709401852 0.0014422508637386758 0 0.002167903709401852 0.0014422508637386758 0 0.0017341819412747921 7.0055479652833246e-05 0 0.0032033276528938702 -0.00024856345630348435 0 0.00073596471004187803 0.00084399111834718371 0 0.002167903709401852 0.0014422508637386758 0 0.0017341819412747921 7.0055479652833246e-05 0 0.0016420820497349852 -0.00091544006867900021 0 0.0024087914517315605 -0.0017299455299960298 0 0.0004955953292177011 -0.001613910870483049 0 0.00073596471004187803 0.00084399111834718371 0 0.00085546293183895428 -0.00029657649992498916 0 0.0017341819412747921 7.0055479652833246e-05 0 0.00085546293183895428 -0.00029657649992498916 0 0.0017341819412747921 7.0055479652833246e-05 0 0.0016420820497349852 -0.00091544006867900021 0 0.0017341819412747921 7.0055479652833246e-05 0 0.0016420820497349852 -0.00091544006867900021 0 0.0032033276528938702 -0.00024856345630348435 0 0.0016420820497349852 -0.00091544006867900021 0 0.0032033276528938702 -0.00024856345630348435 0 0.0024087914517315605 -0.0017299455299960298 0 0.00085546293183895428 -0.00029657649992498916 0 0.0016420820497349852 -0.00091544006867900021 0 0.0004955953292177011 -0.001613910870483049 0 0.0042982720838495659 -0.0015522224288219725 0 0.0032033276528938702 -0.00024856345630348435 0 0.0024087914517315605 -0.0017299455299960298 0 0.0052061649918976709 0.00041194486374557162 0 0.0042982720838495659 -0.0015522224288219725 0 0.0032033276528938702 -0.00024856345630348435 0 0.0042982720838495659 -0.0015522224288219725 0 0.0024087914517315605 -0.0017299455299960298 0 0.0033593663443197879 -0.0032888246717281363 0 0.0024087914517315605 -0.0017299455299960298 0 0.0004955953292177011 -0.001613910870483049 0 0.0033593663443197879 -0.0032888246717281363 0 0.0024601101639832846 0.0055940507174305322 0 0.0014109029333415287 0.0065005458215474836 0 0.0033878159332062447 0.0051777615778072468 0 0.0009489193963817576 0.0025463097487616686 0 0.0033304827095713249 0.00076182183812140711 0 0.0024601101639832846 0.0055940507174305322 0 0.0023186929655517326 0.0052836748814362759 0 0.0033878159332062447 0.0051777615778072468 0 0.0024601101639832846 0.0055940507174305322 0 0.0023148153774097801 0.0052964545092290529 0 0.0019982165507547987 0.0053218723146509564 0 0.0017293361838657745 0.0055620766653884822 0 0.0015231137279943115 0.0054173377275269297 0 0.0024601101639832846 0.0055940507174305322 0 0.0019982165507547987 0.0053218723146509564 0 0.0014109029333415287 0.0065005458215474836 0 0.0015231137279943115 0.0054173377275269297 0 0.00086007769839288963 0.0064070152161039423 0 0.00086007769839288963 0.0064070152161039423 0 0.00042088529612252637 0.0070110147752467933 0 0.00056972619034637972 0.0070541210963340015 0 8.535008585290853e-06 0.0075113586333901477 0 -0.00012112997023830151 0.0071040080351498294 0 0.0019982165507547987 0.0053218723146509564 0 0.00064875610014373088 0.006610614832203987 0 0.0014109029333415287 0.0065005458215474836 0 0.00086007769839288963 0.0064070152161039423 0 -0.00021870598398488739 0.0085042112826735419 0 0.00064875610014373088 0.006610614832203987 0 0.0014109029333415287 0.0065005458215474836 0 -0.00033918954660046172 0.0078953589736293628 0 0.0009489193963817576 0.0025463097487616686 0 -0.0016131682953140147 0.0036372782851107261 0 0.0004955953292177011 -0.001613910870483049 0 -0.00035993445686568299 0.00015257711339563046 0 -0.0012233035681221368 9.0783182261900994e-05 0 0.00085546293183895428 -0.00029657649992498916 0 0.0004955953292177011 -0.001613910870483049 0 -0.00035993445686568299 0.00015257711339563046 0 0.00073596471004187803 0.00084399111834718371 0 0.00085546293183895428 -0.00029657649992498916 0 -0.00035993445686568299 0.00015257711339563046 0 -0.000502041587308073 0.0079265973774420954 0 0.00064875610014373088 0.006610614832203987 0 -0.00033918954660046172 0.0078953589736293628 0 -0.00048183051985493778 0.0078672716008608215 0 0.00042088529612252637 0.0070110147752467933 0 0.0004955953292177011 -0.001613910870483049 0 -0.0026766211559745875 0.00017355898868229964 0 -0.0012233035681221368 9.0783182261900994e-05 0 -0.000502041587308073 0.0079265973774420954 0 8.535008585290853e-06 0.0075113586333901477 0 -0.00039289431810920258 0.0076210947762278616 0 -0.00024542730955877346 0.0080767731969465621 0 -0.00021870598398488739 0.0085042112826735419 0 -0.00081130537544819251 0.0071499335029848628 0 -0.00038325568897475641 0.0073855402284512522 0 -0.00012112997023830151 0.0071040080351498294 0 -0.0006128076237700811 0.0075363886914764193 0 -0.00039289431810920258 0.0076210947762278616 0 -0.00038325568897475641 0.0073855402284512522 0 8.535008585290853e-06 0.0075113586333901477 0 -0.00038325568897475641 0.0073855402284512522 0 -0.00012112997023830151 0.0071040080351498294 0 8.535008585290853e-06 0.0075113586333901477 0 -0.00039289431810920258 0.0076210947762278616 0 -0.00038325568897475641 0.0073855402284512522 0 0.00022542473873630406 0.0095229428313685655 0 -8.2996089766234227e-06 0.0095379366371694807 0 5.2553948856003646e-05 0.0097401640609461344 0 -8.2996089766234227e-06 0.0095379366371694807 0 5.2553948856003646e-05 0.0097401640609461344 0 -8.3433249648954882e-05 0.0096035457793429424 0 -0.00050615278540524112 0.010707408057878389 0 0.0007870671597036197 0.0073031411445692411 0 0.00067800251872214307 0.0068311036334101774 0 0.0007870671597036197 0.0073031411445692411 0 5.2553948856003646e-05 0.0097401640609461344 0 -0.00011738689049644556 0.0096820712189800828 0 -6.2234278505914038e-05 0.0097717315032262251 0 -0.00015645719578583821 0.0095285471473001773 0 -8.2996089766234227e-06 0.0095379366371694807 0 -8.3433249648954882e-05 0.0096035457793429424 0 5.2553948856003646e-05 0.0097401640609461344 0 -8.3433249648954882e-05 0.0096035457793429424 0 -0.00011738689049644556 0.0096820712189800828 0 0.0018651514773084575 0.0046851649235919324 0 0.0024837202941609348 0.0041600875293341007 0 0.0015152482589186344 0.0039087565102081737 0 -8.3433249648954882e-05 0.0096035457793429424 0 -0.00017645288677196362 0.0095425777253331442 0 -0.00011738689049644556 0.0096820712189800828 0 -0.00015645719578583821 0.0095285471473001773 0 -8.3433249648954882e-05 0.0096035457793429424 0 -0.00017645288677196362 0.0095425777253331442 0 0.0015072599175529552 0.0057155474038731993 0 0.00067800251872214307 0.0068311036334101774 0 0.0015384954729279214 0.0058931224308475787 0 0.0013284270324564775 0.0059072588929793592 0 0.0014859437799389875 0.0057773382866548022 0 0.00086007769839288963 0.0064070152161039423 0 0.0015072599175529552 0.0057155474038731993 0 0.001547427945919424 0.0025294458328737109 0 0.0014115780511678622 0.0022305391401344619 0 0.0033983541458747356 0.0023925285632693692 0 0.0015231137279943115 0.0054173377275269297 0 0.0015072599175529552 0.0057155474038731993 0 0.0015072599175529552 0.0057155474038731993 0 0.0030367003916368005 0.0022646555559168932 0 0.0033983541458747356 0.0023925285632693692 0 0.0032818535469280219 0.00067137996228477665 0 0.0056597777908848398 0.00098555011965310315 0 0.0033304827095713249 0.00076182183812140711 0 0.0063124708038577266 -0.0038075561761003033 0 0.0014115780511678622 0.0022305391401344619 0 0.0033983541458747356 0.0023925285632693692 0 0.0032818535469280219 0.00067137996228477665 0 0.0015231137279943115 0.0054173377275269297 0 0.0033304827095713249 0.00076182183812140711 0 0.0030367003916368005 0.0022646555559168932 0 0.0043487055908364904 0.0012170991417661127 0 0.0024837202941609348 0.0041600875293341007 0 0.0024225892511845811 0.0035313838429421886 0 0.0031080899324638978 0.0036352255330854219 0 0.0024225892511845811 0.0035313838429421886 0 0.0015152482589186344 0.0039087565102081737 0 0.0020120515389900661 0.0031309766828683601 0 0.0024837202941609348 0.0041600875293341007 0 0.0024225892511845811 0.0035313838429421886 0 0.0015152482589186344 0.0039087565102081737 0 0.0015152482589186344 0.0039087565102081737 0 0.0020120515389900661 0.0031309766828683601 0 0.001172669341680215 0.0031498436080198548 0 0.0020120515389900661 0.0031309766828683601 0 0.0020217666735940533 0.0022847242113931752 0 0.001172669341680215 0.0031498436080198548 0 0.0024225892511845811 0.0035313838429421886 0 0.0020120515389900661 0.0031309766828683601 0 0.0028403567623246128 0.0027718025687879038 0 0.0024225892511845811 0.0035313838429421886 0 0.0028403567623246128 0.0027718025687879038 0 0.0031080899324638978 0.0036352255330854219 0 0.0020120515389900661 0.0031309766828683601 0 0.0028403567623246128 0.0027718025687879038 0 0.0020217666735940533 0.0022847242113931752 0 0.0028403567623246128 0.0027718025687879038 0 0.0027497339579863676 0.0021871660661289356 0 0.0020217666735940533 0.0022847242113931752 0 0.0019795835047906806 0.0045304747820651952 0 0.0007870671597036197 0.0073031411445692411 0 0.0017974469164598013 0.006928444714738591 0 0.0015561781833388368 0.0071867734672570018 0 0.001591813267920329 0.0068555080748927983 0 0.0007870671597036197 0.0073031411445692411 0 0.00070884374914171699 0.0094555918136156793 0 0.0015561781833388368 0.0071867734672570018 0 0.0014097986446802312 0.0068719804562105986 0 0.001591813267920329 0.0068555080748927983 0 9.4818719008097377e-05 0.010134852616569882 0 -0.00023709742918944242 0.010030043833529378 0 -5.6917751675829305e-05 0.010433888375244586 0 5.2553948856003646e-05 0.0097401640609461344 0 9.4818719008097377e-05 0.010134852616569882 0 -0.00023709742918944242 0.010030043833529378 0 0.0011227435733376094 -0.0040070844993102582 0 0.0011698818186192204 -0.0031883444632956975 0 0.00089629927081819028 -0.0032588804438164623 0 0.0011227435733376094 -0.0040070844993102582 0 0.0014086930697895408 -0.0032346810446257763 0 0.0011698818186192204 -0.0031883444632956975 0 0.008578140370251364 -0.010220195485622745 0 0.008630618102585504 -0.010261430596107134 0 0.0086922287750576845 -0.010191434929572328 0 0.0085679051203301736 -0.01028119663564896 0 0.008630618102585504 -0.010261430596107134 0 0.0085912368169531773 -0.010299465785305014 0 0.0063344242605057289 -0.0087215796646988308 0 0.0055378326670047799 -0.0085285118597009345 0 0.0082390414499159646 -0.01019195439483655 0 0.0055378326670047799 -0.0085285118597009345 0 0.0074731767468670576 -0.0096393605224675272 0 0.0068164803655854523 -0.0091475852214159253 0 0.0077251150101948227 -0.0089164550490955369 0 0.0068164803655854523 -0.0091475852214159253 0 0.0077251150101948227 -0.0089164550490955369 0 0.0076968993328117626 -0.0079703553635832747 0 0.0074731767468670576 -0.0096393605224675272 0 0.0077251150101948227 -0.0089164550490955369 0 0.0081969306702875892 -0.0093546783171856666 0 0.0011227435733376094 -0.0040070844993102582 0 0.0015710739742898546 -0.003332929064490012 0 0.0014086930697895408 -0.0032346810446257763 0 0.0055378326670047799 -0.0085285118597009345 0 0.0038431222722949761 -0.0039130288591098916 0 0.0077251150101948227 -0.0089164550490955369 0 0.0076968993328117626 -0.0079703553635832747 0 0.0084486761600195137 -0.0084391695452569176 0 0.0038431222722949761 -0.0039130288591098916 0 0.002209161338974982 -0.0031595340064282692 0 0.0046840748862893196 -0.0025637845342547771 0 0.0056452755686379041 -0.0022678682907330975 0 0.0045026562995826649 -0.0013394234568477935 0 0.0039152500588530131 -0.0021025428792294165 0 0.0046840748862893196 -0.0025637845342547771 0 0.0045026562995826649 -0.0013394234568477935 0 0.0038431222722949761 -0.0039130288591098916 0 0.0071529410149351845 -0.0058442288821551136 0 0.0084486761600195137 -0.0084391695452569176 0 0.0081969306702875892 -0.0093546783171856666 0 0.0086543582467640996 -0.0090033584641244207 0 0.0089023058528214429 -0.0093734910401738064 0 0.0070858496007280176 -0.0062611077671646254 0 0.0077251150101948227 -0.0089164550490955369 0 0.0084486761600195137 -0.0084391695452569176 0 0.0081969306702875892 -0.0093546783171856666 0 0.0081969306702875892 -0.0093546783171856666 0 0.0086543582467640996 -0.0090033584641244207 0 0.009028264420026565 -0.009335121958716908 0 0.0084486761600195137 -0.0084391695452569176 0 0.0086543582467640996 -0.0090033584641244207 0 0.0091531225846494344 -0.0088836463314728564 0 0.0033304827095713249 0.00076182183812140711 0 0.0070858496007280176 -0.0062611077671646254 0 0.0033744296028603723 -0.00220582439529165 0 0.0065166627486804079 -0.0041471953986595119 0 0.0069872842093970169 -0.0024561458193937615 0 0.0071529410149351845 -0.0058442288821551136 0 0.0063124708038577266 -0.0038075561761003033 0 0.0063124708038577266 -0.0038075561761003033 0 0.0070858496007280176 -0.0062611077671646254 0 0.0086543582467640996 -0.0090033584641244207 0 0.0091531225846494344 -0.0088836463314728564 0 0.009028264420026565 -0.009335121958716908 0 0.0032818535469280219 0.00067137996228477665 0 0.0056597777908848398 0.00098555011965310315 0 0.0051378624036880005 -0.00086073666022255238 0 0.0046840748862893196 -0.0025637845342547771 0 0.0054472183960759066 -0.003025542682903891 0 0.0056452755686379041 -0.0022678682907330975 0 0.0063124708038577266 -0.0038075561761003033 0 0.0043487055908364904 0.0012170991417661127 0 0.0028403567623246128 0.0027718025687879038 0 0.0030342441571087207 0.003375755278139192 0 0.0037645662196071636 0.002768837286202387 0 0.0043487055908364904 0.0012170991417661127 0 0.003063761474306312 -0.0007722584406078827 0 0.002902800287589605 0.0035365940293808971 0 0.0043487055908364904 0.0012170991417661127 0 0.0028403567623246128 0.0027718025687879038 0 0.0027497339579863676 0.0021871660661289356 0 0.0033056690132367708 0.0021746707497276143 0 0.0028403567623246128 0.0027718025687879038 0 0.0033056690132367708 0.0021746707497276143 0 0.0037645662196071636 0.002768837286202387 0 0.0026195855412871932 -0.0021150169194361968 0 0.0016921799728299262 -0.0024560809702329853 0 0.0018012145439943905 -0.0030518836817441945 0 0.0028982734441597951 -0.00015092730551118593 0 0.003063761474306312 -0.0007722584406078827 0 0.0016921799728299262 -0.0024560809702329853 0 0.0018012145439943905 -0.0030518836817441945 0 0.0014576690005940775 -0.0026129887408863337 0 0.0015458208197342794 -0.0033247036273564103 0 0.0018626989128787388 -0.002896445655058521 0 0.0014918172624050513 -0.0029823043898406731 0 0.0038431222722949761 -0.0039130288591098916 0 0.003063761474306312 -0.0007722584406078827 0 0.0015458208197342794 -0.0033247036273564103 0 0.0014086930697895408 -0.0032346810446257763 0 0.0014918172624050513 -0.0029823043898406731 0 0.0014086930697895408 -0.0032346810446257763 0 0.0013118792764800649 -0.0030191699581398981 0 0.0011698818186192204 -0.0031883444632956975 0 0.0014086930697895408 -0.0032346810446257763 0 0.0013118792764800649 -0.0030191699581398981 0 0.0014918172624050513 -0.0029823043898406731 0 0.0013118792764800649 -0.0030191699581398981 0 0.0013262960628392583 -0.0028154373324303724 0 0.0014918172624050513 -0.0029823043898406731 0 0.0013118792764800649 -0.0030191699581398981 0 0.0013262960628392583 -0.0028154373324303724 0 0.0011241316622435007 -0.002895343518448086 0 0.0013262960628392583 -0.0028154373324303724 0 0.0014918172624050513 -0.0029823043898406731 0 0.0014576690005940775 -0.0026129887408863337 0 0.0018626989128787388 -0.002896445655058521 0 0.0014918172624050513 -0.0029823043898406731 0 0.0014576690005940775 -0.0026129887408863337 0 0.003063761474306312 -0.0007722584406078827 0 0.0018155307768412158 -0.0025230031099448169 0 0.0016921799728299262 -0.0024560809702329853 0 0.0014230728305203416 -0.0023640029357944992 0 0.001570198802256765 -0.0021475104556704125 0 0.0016921799728299262 -0.0024560809702329853 0 0.0014576690005940775 -0.0026129887408863337 0 0.0014230728305203416 -0.0023640029357944992 0 0.0014230728305203416 -0.0023640029357944992 0 0.0012530254364606687 -0.0025909090682799596 0 0.001124155345835004 -0.002351211799992258 0 0.0014576690005940775 -0.0026129887408863337 0 0.0014230728305203416 -0.0023640029357944992 0 0.0012530254364606687 -0.0025909090682799596 0 0.0013262960628392583 -0.0028154373324303724 0 0.0012530254364606687 -0.0025909090682799596 0 0.0011241316622435007 -0.002895343518448086 0 0.0013262960628392583 -0.0028154373324303724 0 0.0014576690005940775 -0.0026129887408863337 0 0.0012530254364606687 -0.0025909090682799596 0 0.00069847196498267644 -0.0022710925816230637 0 0.00076274066105473746 -0.0027773087290341295 0 0.0010305594193726266 -0.0026384280403693831 0 0.0012530254364606687 -0.0025909090682799596 0 0.0010305594193726266 -0.0026384280403693831 0 0.0011241316622435007 -0.002895343518448086 0 0.00069847196498267644 -0.0022710925816230637 0 0.0010305594193726266 -0.0026384280403693831 0 0.001124155345835004 -0.002351211799992258 0 0.0012530254364606687 -0.0025909090682799596 0 0.0010305594193726266 -0.0026384280403693831 0 0.001124155345835004 -0.002351211799992258 0 0.00076274066105473746 -0.0027773087290341295 0 0.0010305594193726266 -0.0026384280403693831 0 0.0011241316622435007 -0.002895343518448086 0 0.00076274066105473746 -0.0027773087290341295 0 0.0011241316622435007 -0.002895343518448086 0 0.00089629927081819028 -0.0032588804438164623 0 0.0011241316622435007 -0.002895343518448086 0 0.0011698818186192204 -0.0031883444632956975 0 0.00089629927081819028 -0.0032588804438164623 0 0.0013118792764800649 -0.0030191699581398981 0 0.0011241316622435007 -0.002895343518448086 0 0.0011698818186192204 -0.0031883444632956975 0 0.00082029832459428842 -0.001777546378448072 0 0.0011834500422893857 -0.0017923611497610099 0 0.0010006352681346043 -0.0014265794642841303 0 0.00082029832459428842 -0.001777546378448072 0 0.0010365119459285958 -0.0020589209733330037 0 0.0011834500422893857 -0.0017923611497610099 0 0.00069847196498267644 -0.0022710925816230637 0 0.00082029832459428842 -0.001777546378448072 0 0.0010365119459285958 -0.0020589209733330037 0 0.00069847196498267644 -0.0022710925816230637 0 0.001124155345835004 -0.002351211799992258 0 0.0010365119459285958 -0.0020589209733330037 0 0.001124155345835004 -0.002351211799992258 0 0.0010365119459285958 -0.0020589209733330037 0 0.0013402072317944761 -0.0020983552357274932 0 0.0014230728305203416 -0.0023640029357944992 0 0.001124155345835004 -0.002351211799992258 0 0.0013402072317944761 -0.0020983552357274932 0 0.0014230728305203416 -0.0023640029357944992 0 0.0013402072317944761 -0.0020983552357274932 0 0.001570198802256765 -0.0021475104556704125 0 0.0013402072317944761 -0.0020983552357274932 0 0.0015117130030997987 -0.0018606244963262561 0 0.001570198802256765 -0.0021475104556704125 0 0.0013402072317944761 -0.0020983552357274932 0 0.0015117130030997987 -0.0018606244963262561 0 0.0011834500422893857 -0.0017923611497610099 0 0.0010365119459285958 -0.0020589209733330037 0 0.0013402072317944761 -0.0020983552357274932 0 0.0011834500422893857 -0.0017923611497610099 0 0.0015117130030997987 -0.0018606244963262561 0 0.0011834500422893857 -0.0017923611497610099 0 0.0013818861294515557 -0.0015225999602833939 0 0.0018072265056486634 -0.0019504083026259948 0 0.002026265769356517 -0.0013548397615033186 0 0.0016633652104380064 -0.0015902885548062966 0 0.0015117130030997987 -0.0018606244963262561 0 0.0016633652104380064 -0.0015902885548062966 0 0.0013818861294515557 -0.0015225999602833939 0 0.0015117130030997987 -0.0018606244963262561 0 0.0018072265056486634 -0.0019504083026259948 0 0.0016633652104380064 -0.0015902885548062966 0 0.0016921799728299262 -0.0024560809702329853 0 0.0018072265056486634 -0.0019504083026259948 0 0.001570198802256765 -0.0021475104556704125 0 0.0026195855412871932 -0.0021150169194361968 0 0.0016921799728299262 -0.0024560809702329853 0 0.0021741452624529406 -0.00068626456231262822 0 0.0015117130030997987 -0.0018606244963262561 0 0.0018072265056486634 -0.0019504083026259948 0 0.001570198802256765 -0.0021475104556704125 0 0.0016964112883589924 -0.0023759890929665049 0 0.0019929304562977816 -0.001340947976086014 0 0.0026195855412871932 -0.0021150169194361968 0 0.0021741452624529406 -0.00068626456231262822 0 0.0027956220824049238 -0.00099099483599265968 0 0.0026195855412871932 -0.0021150169194361968 0 0.0027956220824049238 -0.00099099483599265968 0 0.0035148248028753393 -0.0008903262910131284 0 0.0027497339579863676 0.0021871660661289356 0 0.0033056690132367708 0.0021746707497276143 0 0.0028024044716641961 0.0015158577152775399 0 0.0028982734441597951 -0.00015092730551118593 0 0.0026593414232945708 0.0023289083217254121 0 0.0021741452624529406 -0.00068626456231262822 0 0.0028775980097351201 -0.00029490065790087631 0 0.0027536550047698835 0.00083936509936156684 0 0.0028775980097351201 -0.00029490065790087631 0 0.0033349650524325618 -0.00073704558433725401 0 0.0034027961486230236 -0.00019715184845191776 0 0.0027956220824049238 -0.00099099483599265968 0 0.0028775980097351201 -0.00029490065790087631 0 0.0035148248028753393 -0.0008903262910131284 0 0.0019929304562977816 -0.001340947976086014 0 0.0024304816027218897 -0.00024025458203696278 0 0.0036786564333841807 -0.00050464386863762433 0 0.0026593414232945708 0.0023289083217254121 0 0.0021741452624529406 -0.00068626456231262822 0 0.0027956220824049238 -0.00099099483599265968 0 0.0028775980097351201 -0.00029490065790087631 0 0.0028775980097351201 -0.00029490065790087631 0 0.0034027961486230236 -0.00019715184845191776 0 0.0033118776407530057 0.00039122458287144064 0 0.0028775980097351201 -0.00029490065790087631 0 0.0027536550047698835 0.00083936509936156684 0 0.0033118776407530057 0.00039122458287144064 0 0.0027536550047698835 0.00083936509936156684 0 0.0033118776407530057 0.00039122458287144064 0 0.0033787268106475069 0.0010983107020953718 0 0.0024598588668361056 0.00066713007063300351 0 0.0024304816027218897 -0.00024025458203696278 0 0.002277140690659337 -0.00070415639801172053 0 0.002026265769356517 -0.0013548397615033186 0 0.0017891070628155768 -0.00094094299366170387 0 0.0032567992898860981 0.0021097192501979179 0 0.0027536550047698835 0.00083936509936156684 0 0.0033787268106475069 0.0010983107020953718 0 0.002026265769356517 -0.0013548397615033186 0 0.0017891070628155768 -0.00094094299366170387 0 0.0015992093487745688 -0.0012414381886486623 0 0.0017891070628155768 -0.00094094299366170387 0 0.0015992093487745688 -0.0012414381886486623 0 0.0013685205418362276 -0.00085094719057669539 0 0.002026265769356517 -0.0013548397615033186 0 0.0015992093487745688 -0.0012414381886486623 0 0.0016633652104380064 -0.0015902885548062966 0 0.0015992093487745688 -0.0012414381886486623 0 0.0016633652104380064 -0.0015902885548062966 0 0.0013818861294515557 -0.0015225999602833939 0 0.0015992093487745688 -0.0012414381886486623 0 0.0013818861294515557 -0.0015225999602833939 0 0.0011355174233419884 -0.0011276887756549168 0 0.0013818861294515557 -0.0015225999602833939 0 0.0011355174233419884 -0.0011276887756549168 0 0.0010006352681346043 -0.0014265794642841303 0 0.0011834500422893857 -0.0017923611497610099 0 0.0013818861294515557 -0.0015225999602833939 0 0.0010006352681346043 -0.0014265794642841303 0 0.0015992093487745688 -0.0012414381886486623 0 0.0013685205418362276 -0.00085094719057669539 0 0.0011355174233419884 -0.0011276887756549168 0 0.0009693788999118897 -0.00072978945287855801 0 0.0013685205418362276 -0.00085094719057669539 0 0.0011355174233419884 -0.0011276887756549168 0 0.0011355174233419884 -0.0011276887756549168 0 0.0007952894888383638 -0.001001122964732869 0 0.0010006352681346043 -0.0014265794642841303 0 0.0009693788999118897 -0.00072978945287855801 0 0.0011355174233419884 -0.0011276887756549168 0 0.0007952894888383638 -0.001001122964732869 0 0.00066328488757262086 -0.0013247100447697402 0 0.0007952894888383638 -0.001001122964732869 0 0.0010006352681346043 -0.0014265794642841303 0 0.00066328488757262086 -0.0013247100447697402 0 0.00082029832459428842 -0.001777546378448072 0 0.0010006352681346043 -0.0014265794642841303 0 0.0016045023399980061 0.0065898666269129718 0 0.0015147229965230596 0.0067252735483685081 0 0.0017392525559261484 0.0067028176088051615 0 0.0016045023399980061 0.0065898666269129718 0 0.0015147229965230596 0.0067252735483685081 0 0.0014426706341253651 0.0065376518806352715 0 0.0013385153995278936 0.0066717003638088572 0 0.0015147229965230596 0.0067252735483685081 0 0.0014426706341253651 0.0065376518806352715 0 0.0013385153995278936 0.0066717003638088572 0 0.0014426706341253651 0.0065376518806352715 0 0.0012398277630146707 0.0064792700704106206 0 0.00096016363437419336 0.0091863166476902468 0 0.00070884374914171699 0.0094555918136156793 0 0.0013385153995278936 0.0066717003638088572 0 0.0014307521883637933 0.0068743471546322222 0 0.0015147229965230596 0.0067252735483685081 0 0.00070884374914171699 0.0094555918136156793 0 0.001779338754869251 0.007187446557578166 0 0.0014307521883637933 0.0068743471546322222 0 0.0015147229965230596 0.0067252735483685081 0 0.001591813267920329 0.0068555080748927983 0 0.0015147229965230596 0.0067252735483685081 0 0.001591813267920329 0.0068555080748927983 0 0.0017392525559261484 0.0067028176088051615 0 0.0017974469164598013 0.006928444714738591 0 0.001591813267920329 0.0068555080748927983 0 0.0017392525559261484 0.0067028176088051615 0 0.0027497339579863676 0.0021871660661289356 0 0.0020217666735940533 0.0022847242113931752 0 0.0028024044716641961 0.0015158577152775399 0 0.0019795835047906806 0.0045304747820651952 0 0.0026593414232945708 0.0023289083217254121 0 0.0017974469164598013 0.006928444714738591 0 0.0017392525559261484 0.0067028176088051615 0 0.0020226959474408035 0.0066630843634879634 0 0.0017392525559261484 0.0067028176088051615 0 0.0020226959474408035 0.0066630843634879634 0 0.0018294521047394592 0.0064681694321610779 0 0.0026593414232945708 0.0023289083217254121 0 0.0031471063833006649 0.0032817357080004231 0 0.0033349650524325618 -0.00073704558433725401 0 0.0034027961486230236 -0.00019715184845191776 0 0.0042069188682791461 0.00039411753492023233 0 0.0034027961486230236 -0.00019715184845191776 0 0.0042069188682791461 0.00039411753492023233 0 0.0036776532309480475 0.00031526891056361155 0 0.0034027961486230236 -0.00019715184845191776 0 0.0036776532309480475 0.00031526891056361155 0 0.0033118776407530057 0.00039122458287144064 0 0.0016045023399980061 0.0065898666269129718 0 0.0017392525559261484 0.0067028176088051615 0 0.0018294521047394592 0.0064681694321610779 0 0.0042069188682791461 0.00039411753492023233 0 0.0038011827307682616 0.00066889049646504497 0 0.0047530443501163791 0.001846852006291878 0 0.0016045023399980061 0.0065898666269129718 0 0.0018294521047394592 0.0064681694321610779 0 0.0015935245177608657 0.0064399357659637542 0 0.0018294521047394592 0.0064681694321610779 0 0.0016497450322135749 0.0062757321252865711 0 0.0015935245177608657 0.0064399357659637542 0 0.0031471063833006649 0.0032817357080004231 0 0.0020874511246559979 0.0059142911858486164 0 0.0036776532309480475 0.00031526891056361155 0 0.0033118776407530057 0.00039122458287144064 0 0.0038011827307682616 0.00066889049646504497 0 0.0042069188682791461 0.00039411753492023233 0 0.0036776532309480475 0.00031526891056361155 0 0.0038011827307682616 0.00066889049646504497 0 0.0038011827307682616 0.00066889049646504497 0 0.0033787268106475069 0.0010983107020953718 0 0.0037715938384478218 0.0014294430023873434 0 0.0033118776407530057 0.00039122458287144064 0 0.0038011827307682616 0.00066889049646504497 0 0.0033787268106475069 0.0010983107020953718 0 0.0024598588668361056 0.00066713007063300351 0 0.0034077716147688547 0.0031254518016187302 0 0.0032567992898860981 0.0021097192501979179 0 0.0037715938384478218 0.0014294430023873434 0 0.0046003702003132047 0.0015891380120158199 0 0.0038011827307682616 0.00066889049646504497 0 0.0037715938384478218 0.0014294430023873434 0 0.0046003702003132047 0.0015891380120158199 0 0.0032567992898860981 0.0021097192501979179 0 0.0033787268106475069 0.0010983107020953718 0 0.0037715938384478218 0.0014294430023873434 0 0.0040577426327302654 0.00045525392850279372 0 0.0034077716147688547 0.0031254518016187302 0 0.0042069188682791461 0.00039411753492023233 0 0.0047530443501163791 0.001846852006291878 0 0.0051533612229695243 0.0016975503588937703 0 0.0034077716147688547 0.0031254518016187302 0 0.0020874511246559979 0.0059142911858486164 0 0.0016184216109793488 0.0082472353691827004 0 0.0020874511246559979 0.0059142911858486164 0 0.0012473581221523113 0.010723320753445217 0 0.0008354141941596013 0.010910411317527327 0 0.00080916107615689392 0.010617540009001194 0 0.00096746554325078955 0.010395256184847594 0 0.0012473581221523113 0.010723320753445217 0 0.00080916107615689392 0.010617540009001194 0 0.0020874511246559979 0.0059142911858486164 0 0.00096911732624079927 0.0087499692213437383 0 0.0019490242213612739 0.0052251753523529249 0 0.0021173685042531146 0.0053826334740529674 0 0.0020428456987270508 0.0054171308111388931 0 0.0016497450322135749 0.0062757321252865711 0 0.0015935245177608657 0.0064399357659637542 0 0.0014413654549529215 0.0063747954410178264 0 0.0016045023399980061 0.0065898666269129718 0 0.0015935245177608657 0.0064399357659637542 0 0.0014426706341253651 0.0065376518806352715 0 0.0015935245177608657 0.0064399357659637542 0 0.0014426706341253651 0.0065376518806352715 0 0.0014413654549529215 0.0063747954410178264 0 0.0014426706341253651 0.0065376518806352715 0 0.0014413654549529215 0.0063747954410178264 0 0.0012398277630146707 0.0064792700704106206 0 0.0008354141941596013 0.010910411317527327 0 0.00063946664796742504 0.010793970248430091 0 0.00043877606769247477 0.011067830713493891 0 0.00096911732624079927 0.0087499692213437383 0 0.00080733462816869137 0.0099187758136982003 0 0.0008354141941596013 0.010910411317527327 0 0.00063946664796742504 0.010793970248430091 0 0.00080916107615689392 0.010617540009001194 0 0.00048242362335164867 0.010573188425026527 0 0.00063946664796742504 0.010793970248430091 0 0.00080916107615689392 0.010617540009001194 0 0.00048242362335164867 0.010573188425026527 0 0.00014863130002758175 0.010577513215265181 0 0.00043877606769247477 0.011067830713493891 0 0.00014863130002758175 0.010577513215265181 0 3.434151458648205e-05 0.011168387569001714 0 0.00052611531783973539 0.011424806858888255 0 0.00048242362335164867 0.010573188425026527 0 0.00063946664796742504 0.010793970248430091 0 0.00043877606769247477 0.011067830713493891 0 0.00015337545941152106 0.01111859640378666 0 0.00080733462816869137 0.0099187758136982003 0 0.00014863130002758175 0.010577513215265181 0 3.434151458648205e-05 0.011168387569001714 0 -0.00041202883961407189 0.010995794864828941 0 3.434151458648205e-05 0.011168387569001714 0 -0.00010773630429332653 0.011662342435842535 0 -0.00041202883961407189 0.010995794864828941 0 3.434151458648205e-05 0.011168387569001714 0 -0.00010773630429332653 0.011662342435842535 0 0.00052611531783973539 0.011424806858888255 0 -0.00031915103864589832 0.011906218796432508 0 0.00080733462816869137 0.0099187758136982003 0 -0.00010773630429332653 0.011662342435842535 0 0.00038752113972961882 0.011447172412573856 0 0.00012922426971806569 0.011916049914446059 0 0.00096016363437419336 0.0091863166476902468 0 0.00080733462816869137 0.0099187758136982003 0 0.00059781879831541135 0.011921522908813783 0 0.00038752113972961882 0.011447172412573856 0 0.00012922426971806569 0.011916049914446059 0 -0.00010773630429332653 0.011662342435842535 0 0.00012922426971806569 0.011916049914446059 0 -0.00031801481743896096 0.012108371614873948 0 0.00012922426971806569 0.011916049914446059 0 6.8724102558706022e-05 0.012443843407438459 0 -0.00031801481743896096 0.012108371614873948 0 0.00059781879831541135 0.011921522908813783 0 0.00080664619917105969 0.012376044686260428 0 6.8724102558706022e-05 0.012443843407438459 0 0.00059781879831541135 0.011921522908813783 0 0.00012922426971806569 0.011916049914446059 0 6.8724102558706022e-05 0.012443843407438459 0 0.00070884374914171699 0.0094555918136156793 0 0.00015554645025706574 0.011399786869460827 0 0.00032369269393954731 0.019005706706682814 0 0.00027837768588578849 0.019167267317993748 0 0.00067210644863838697 0.019393707200369599 0 6.4656636373941416e-05 0.016336550761453981 0 -6.1866404455408218e-05 0.01381808076319172 0 -0.00067284505038256177 0.016348168184556231 0 6.4656636373941416e-05 0.016336550761453981 0 0.00044029752897593253 0.015167181873964493 0 0.00022031841082203405 0.015909270521035961 0 5.172307469616108e-05 0.015173626157627584 0 -0.00067284505038256177 0.016348168184556231 0 -6.1866404455408218e-05 0.01381808076319172 0 6.8724102558706022e-05 0.012443843407438459 0 -0.00070979570929540967 0.012518149614120545 0 -0.00031801481743896096 0.012108371614873948 0 -0.00075543073123406209 0.012334141333034095 0 -0.00070979570929540967 0.012518149614120545 0 -0.00031801481743896096 0.012108371614873948 0 0.00015554645025706574 0.011399786869460827 0 -6.1866404455408218e-05 0.01381808076319172 0 -0.00075543073123406209 0.012334141333034095 0 -0.00031801481743896096 0.012108371614873948 0 -0.00059233313491281899 0.011708472777680307 0 -0.00010773630429332653 0.011662342435842535 0 -0.00031801481743896096 0.012108371614873948 0 -0.00059233313491281899 0.011708472777680307 0 6.4656636373941416e-05 0.016336550761453981 0 -0.00029858304366392767 0.014967487043860301 0 0.00027837768588578849 0.019167267317993748 0 0.0004511049293773132 0.019756383277223951 0 0.00067210644863838697 0.019393707200369599 0 0.0004511049293773132 0.019756383277223951 0 0.00067210644863838697 0.019393707200369599 0 0.00064581533781330022 0.019693957062344513 0 0.00025987122360268086 0.017674311800185163 0 -6.560804993206361e-05 0.018845340616660627 0 0.00052786744982308384 0.018959507166910836 0 6.4656636373941416e-05 0.016336550761453981 0 0.00056004817187103363 0.01982864841549772 0 -6.560804993206361e-05 0.018845340616660627 0 0.00052786744982308384 0.018959507166910836 0 0.00019882698231602172 0.019625205924073384 0 0.00056004817187103363 0.01982864841549772 0 0.00057572121888045799 0.019839564435879465 0 0.00052786744982308384 0.018959507166910836 0 0.00061800042768422403 0.020092770485044875 0 0.00019882698231602172 0.019625205924073384 0 0.0004511049293773132 0.019756383277223951 0 0.00061800042768422403 0.020092770485044875 0 0.00065860220104966443 0.01988988082536117 0 0.0004511049293773132 0.019756383277223951 0 0.00065860220104966443 0.01988988082536117 0 0.00064581533781330022 0.019693957062344513 0 -0.00029858304366392767 0.014967487043860301 0 -0.00040151330906472709 0.015638301757505392 0 -0.00010773630429332653 0.011662342435842535 0 -0.00059233313491281899 0.011708472777680307 0 -0.00041202883961407189 0.010995794864828941 0 -6.560804993206361e-05 0.018845340616660627 0 -0.00023218224100659632 0.019814378317189501 0 0.00019882698231602172 0.019625205924073384 0 0.00014964400752927632 0.020187985774608244 0 -0.00023218224100659632 0.019814378317189501 0 0.00019882698231602172 0.019625205924073384 0 0.00014964400752927632 0.020187985774608244 0 0.00061800042768422403 0.020092770485044875 0 0.00019882698231602172 0.019625205924073384 0 0.00061800042768422403 0.020092770485044875 0 0.00081200792298199488 0.020061008336661895 0 0.00065860220104966443 0.01988988082536117 0 0.00099833303442227093 0.020259168853260547 0 0.00061800042768422403 0.020092770485044875 0 0.00081200792298199488 0.020061008336661895 0 0.0010292384107069669 0.020253770498998507 0 0.0010447029359120933 0.020187366984609875 0 0.0010074318032685114 0.020331897623504232 0 0.0010292384107069669 0.020253770498998507 0 0.00099833303442227093 0.020259168853260547 0 0.0010447029359120933 0.020187366984609875 0 0.00099833303442227093 0.020259168853260547 0 0.00081200792298199488 0.020061008336661895 0 0.0010447029359120933 0.020187366984609875 0 0.0010348492440622403 0.020134964544371418 0 0.001221430147985368 0.020158544032676164 0 0.0010447029359120933 0.020187366984609875 0 0.0010074318032685114 0.020331897623504232 0 0.00099827630521122758 0.02048790801753456 0 0.0010447029359120933 0.020187366984609875 0 0.00082490734897521639 0.01979414014338076 0 0.0012601203238363546 0.019563922814196444 0 0.00082490734897521639 0.01979414014338076 0 0.00065860220104966443 0.01988988082536117 0 0.00064581533781330022 0.019693957062344513 0 0.00081200792298199488 0.020061008336661895 0 0.00082490734897521639 0.01979414014338076 0 0.00065860220104966443 0.01988988082536117 0 0.00081200792298199488 0.020061008336661895 0 0.0010447029359120933 0.020187366984609875 0 0.00082490734897521639 0.01979414014338076 0 0.0010505722128491156 0.02159069501861869 0 0.0012727677755508628 0.021160172192487343 0 0.00061828610668798745 0.021166325452182427 0 0.00066070873533470575 0.021632884890371955 0 0.0010505722128491156 0.02159069501861869 0 0.00061828610668798745 0.021166325452182427 0 0.0010292384107069669 0.020253770498998507 0 0.00097264484571628221 0.02036026137759275 0 0.0010074318032685114 0.020331897623504232 0 0.00066070873533470575 0.021632884890371955 0 0.00022964771907272102 0.021628144722911684 0 0.00061828610668798745 0.021166325452182427 0 0.00053680059664935518 0.021094791572992145 0 0.0008397400370055314 0.020735433596491003 0 0.00097264484571628221 0.02036026137759275 0 0.00099380499191290927 0.02049283597991566 0 0.0010074318032685114 0.020331897623504232 0 0.00099380499191290927 0.02049283597991566 0 0.0010074318032685114 0.020331897623504232 0 0.00099827630521122758 0.02048790801753456 0 0.0012727677755508628 0.021160172192487343 0 0.00061828610668798745 0.021166325452182427 0 0.0010491272348897949 0.020654884073197554 0 0.00097264484571628221 0.02036026137759275 0 0.00099380499191290927 0.02049283597991566 0 0.0010491272348897949 0.020654884073197554 0 0.0008397400370055314 0.020735433596491003 0 0.0010146728684131264 0.02064581815976075 0 0.00099380499191290927 0.02049283597991566 0 0.0010491272348897949 0.020654884073197554 0 0.0010322435877135393 0.020468110165319194 0 0.0012643463049855392 0.02048956836135752 0 0.0010491272348897949 0.020654884073197554 0 0.0010322435877135393 0.020468110165319194 0 0.00099380499191290927 0.02049283597991566 0 0.0010322435877135393 0.020468110165319194 0 0.00099827630521122758 0.02048790801753456 0 0.001221430147985368 0.020158544032676164 0 0.00026789033216592705 0.018898515808109671 0 0.0010322435877135393 0.020468110165319194 0 0.00099827630521122758 0.02048790801753456 0 0.00095317337812862463 0.020322939975068229 0 0.0012246582007317717 0.020255021549254782 0 0.0010322435877135393 0.020468110165319194 0 0.00095317337812862463 0.020322939975068229 0 0.00082490734897521639 0.01979414014338076 0 0.00067210644863838697 0.019393707200369599 0 0.00064581533781330022 0.019693957062344513 0 0.00082490734897521639 0.01979414014338076 0 0.0012601203238363546 0.019563922814196444 0 0.00067210644863838697 0.019393707200369599 0 0.0012601203238363546 0.019563922814196444 0 0.00088855448358884589 0.019017166319675833 0 0.0014312359173557789 0.019012601294370237 0 0.0012601203238363546 0.019563922814196444 0 0.00067210644863838697 0.019393707200369599 0 0.00088855448358884589 0.019017166319675833 0 0.00032369269393954731 0.019005706706682814 0 0.00067210644863838697 0.019393707200369599 0 0.00088855448358884589 0.019017166319675833 0 -0.001293127852629337 0.017375122755009423 0 -0.00080920083749998954 0.017373592597673269 0 -0.0010506044526158466 0.017190743031434585 0 -0.00067284505038256177 0.016348168184556231 0 0.00013340955059098328 0.01831852184817102 0 -0.00080920083749998954 0.017373592597673269 0 -0.0010506044526158466 0.017190743031434585 0 -0.00091640157330048658 0.017002292838437353 0 -0.00080920083749998954 0.017373592597673269 0 -0.00063177452137404343 0.01692587692676259 0 -0.00091640157330048658 0.017002292838437353 0 0.00013340955059098328 0.01831852184817102 0 0.00026789033216592705 0.018898515808109671 0 -0.00080920083749998954 0.017373592597673269 0 -0.00063177452137404343 0.01692587692676259 0 -0.00034286530975775095 0.017367654892152872 0 -0.00063177452137404343 0.01692587692676259 0 -0.00091640157330048658 0.017002292838437353 0 -0.0010490287548043967 0.016484465949393227 0 -0.00091640157330048658 0.017002292838437353 0 -0.0010490287548043967 0.016484465949393227 0 -0.0011818662608847517 0.016955064462390017 0 -0.0010506044526158466 0.017190743031434585 0 -0.00091640157330048658 0.017002292838437353 0 -0.0011818662608847517 0.016955064462390017 0 0.00013148972545384125 0.018228901333241034 0 -0.00088235136469333062 0.018899638739965471 0 -0.00051447167413377968 0.017762852802237931 0 0.00013148972545384125 0.018228901333241034 0 0.00032401475469385138 0.018882695365160289 0 -0.00088235136469333062 0.018899638739965471 0 0.00086903577983486432 0.019424404412646409 0 0.00026789033216592705 0.018898515808109671 0 0.00026789033216592705 0.018898515808109671 0 -0.00045111990034742979 0.017175322451498803 0 -0.00063177452137404343 0.01692587692676259 0 -0.00034286530975775095 0.017367654892152872 0 -0.00019838105700668125 0.016891091273170213 0 0.00025827973281415093 0.017495372774079386 0 0.00013148972545384125 0.018228901333241034 0 -0.00051447167413377968 0.017762852802237931 0 -0.00045111990034742979 0.017175322451498803 0 -3.943003975618308e-05 0.016654316141182787 0 0.00025827973281415093 0.017495372774079386 0 -0.00051447167413377968 0.017762852802237931 0 -3.69390100508081e-05 0.016562777165415536 0 -0.00019838105700668125 0.016891091273170213 0 -0.00049452504787464587 0.016527988244168061 0 -3.69390100508081e-05 0.016562777165415536 0 -0.00063177452137404343 0.01692587692676259 0 -0.00019838105700668125 0.016891091273170213 0 -0.00049452504787464587 0.016527988244168061 0 -0.0003300103015881679 0.016180256886697976 0 -0.00049452504787464587 0.016527988244168061 0 -3.69390100508081e-05 0.016562777165415536 0 -0.00063177452137404343 0.01692587692676259 0 -0.00049452504787464587 0.016527988244168061 0 -0.0010490287548043967 0.016484465949393227 0 -0.0007359904313359695 0.016115087523800486 0 -0.00049452504787464587 0.016527988244168061 0 -0.0010490287548043967 0.016484465949393227 0 -0.0007359904313359695 0.016115087523800486 0 -0.0003300103015881679 0.016180256886697976 0 -0.00049452504787464587 0.016527988244168061 0 -0.0007359904313359695 0.016115087523800486 0 -0.0011072662118430741 0.016041425615799052 0 -0.0010490287548043967 0.016484465949393227 0 -0.0011072662118430741 0.016041425615799052 0 -0.0010490287548043967 0.016484465949393227 0 -0.0012618164871672326 0.01625549120526219 0 -0.0010410645694607569 0.016433363835274082 0 -0.0012553306392778748 0.016891731770139858 0 -0.0010490287548043967 0.016484465949393227 0 -0.0012618164871672326 0.01625549120526219 0 -0.0012065760667696172 0.016495516618916087 0 -0.0010490287548043967 0.016484465949393227 0 -0.0012065760667696172 0.016495516618916087 0 -0.0011906650190447771 0.016552583139951903 0 0.00060896189695072906 0.0098258427015585834 0 0.00035020299672044406 0.0099967802595988028 0 0.00069115404855977743 0.010151815378318198 0 -0.0012065760667696172 0.016495516618916087 0 -0.0013690778145202327 0.016399198582651413 0 -0.0012311553549886908 0.016545905907152603 0 -0.0012618164871672326 0.01625549120526219 0 -0.0012065760667696172 0.016495516618916087 0 -0.0013690778145202327 0.016399198582651413 0 -0.00033905862814229164 0.01341773383882836 0 -0.00030959291311717527 0.013218040394803642 0 -0.0015187015961562523 0.016062871429546405 0 -0.0012618164871672326 0.01625549120526219 0 -0.0013690778145202327 0.016399198582651413 0 -0.00046560597886733269 0.01131502482456105 0 -0.00033905862814229164 0.01341773383882836 0 0.00022542473873630406 0.0095229428313685655 0 0.00052387658463532751 0.0095211069660844257 0 0.00034630352100703803 0.0097292966326398399 0 0.00052387658463532751 0.0095211069660844257 0 0.00060896189695072906 0.0098258427015585834 0 0.00034630352100703803 0.0097292966326398399 0 0.00022542473873630406 0.0095229428313685655 0 5.2553948856003646e-05 0.0097401640609461344 0 0.00034630352100703803 0.0097292966326398399 0 5.2553948856003646e-05 0.0097401640609461344 0 9.4818719008097377e-05 0.010134852616569882 0 0.00035020299672044406 0.0099967802595988028 0 5.2553948856003646e-05 0.0097401640609461344 0 0.00034630352100703803 0.0097292966326398399 0 0.00035020299672044406 0.0099967802595988028 0 0.00060896189695072906 0.0098258427015585834 0 0.00034630352100703803 0.0097292966326398399 0 0.00035020299672044406 0.0099967802595988028 0 9.4818719008097377e-05 0.010134852616569882 0 0.00035194051575762896 0.010455162156618935 0 0.00035020299672044406 0.0099967802595988028 0 0.00035194051575762896 0.010455162156618935 0 0.00035020299672044406 0.0099967802595988028 0 0.00069115404855977743 0.010151815378318198 0 9.4818719008097377e-05 0.010134852616569882 0 -5.6917751675829305e-05 0.010433888375244586 0 0.00035194051575762896 0.010455162156618935 0 0.00035194051575762896 0.010455162156618935 0 0.00076211298762894749 0.010489395987275442 0 0.00069115404855977743 0.010151815378318198 0 -6.1866404455408218e-05 0.01381808076319172 0 -0.00030959291311717527 0.013218040394803642 0 -0.001293127852629337 0.017375122755009423 0 -0.0010506044526158466 0.017190743031434585 0 -0.0011818662608847517 0.016955064462390017 0 -0.00067284505038256177 0.016348168184556231 0 -0.0012553306392778748 0.016891731770139858 0 -0.0012038716783648008 0.016535316797243158 0 -0.0011906650190447771 0.016552583139951903 0 -0.0012311553549886908 0.016545905907152603 0 -0.0012038716783648008 0.016535316797243158 0 -0.0012029037087275738 0.016531366028626666 0 -0.0012311553549886908 0.016545905907152603 0 -0.0012065760667696172 0.016495516618916087 0 -0.0011906650190447771 0.016552583139951903 0 -0.0012311553549886908 0.016545905907152603 0 
</DataArray>
</PointData>
<CellData Scalars="region_id,cross_section_updated," Vectors="" Tensors="stress,">
<DataArray type="Float64" Name="region_id" format="ascii">
5 5 5 5 5 5 5 6 5 5 6 5 5 6 5 5 6 5 6 6 5 6 5 5 5 5 5 5 5 5 5 5 5 5 5 5 6 5 6 5 5 5 5 5 5 5 5 5 6 5 5 6 5 5 5 5 5 5 5 5 6 5 5 5 6 5 5 5 6 5 5 6 5 5 6 5 5 5 5 6 5 5 5 5 5 5 5 5 5 5 5 6 5 5 6 5 5 5 5 5 5 6 5 5 5 5 5 5 5 5 6 5 5 5 5 5 5 6 5 5 5 5 5 5 5 5 5 5 6 5 5 5 5 5 5 5 5 5 5 5 5 5 5 5 5 5 5 5 5 5 5 5 5 5 5 6 5 5 6 6 5 5 5 5 5 5 5 5 5 5 5 5 5 5 5 5 5 5 5 5 5 5 5 5 5 5 5 5 5 5 5 6 5 5 6 5 5 5 5 5 5 5 6 5 5 5 6 5 5 5 5 5 5 6 5 5 5 5 5 5 5 5 5 5 5 5 5 5 5 5 5 5 5 5 5 5 5 5 6 5 5 5 5 5 5 5 5 5 5 6 5 5 6 5 5 5 5 5 5 5 6 5 5 6 5 5 5 5 5 5 5 5 5 5 5 5 5 5 5 5 5 5 5 5 5 5 5 5 5 5 5 5 5 5 5 6 5 5 5 6 5 5 5 5 5 5 5 5 5 5 5 5 5 5 5 5 5 5 5 5 5 5 5 5 5 5 5 5 6 6 5 5 5 5 5 5 5 5 5 5 6 5 5 5 6 5 5 5 5 6 5 5 5 6 5 5 5 5 5 5 5 5 6 5 5 5 5 6 5 5 5 5 6 6 5 5 6 5 5 5 5 5 5 5 5 5 5 5 6 5 5 6 6 5 5 5 5 6 6 5 5 5 5 5 5 5 5 5 5 5 5 6 6 5 5 5 5 5 6 5 5 5 6 5 5 5 5 5 6 5 5 5 5 5 5 5 5 5 5 5 6 5 5 6 5 5 5 5 5 5 6 5 6 5 5 6 5 5 5 5 5 5 5 5 5 6 5 5 5 5 5 5 5 5 5 5 5 5 5 5 5 5 5 5 5 6 5 5 5 5 5 5 5 5 5 5 5 5 5 5 5 5 5 6 5 5 5 5 5 5 5 6 5 6 5 5 5 6 5 5 5 5 6 6 6 5 5 5 5 6 5 5 5 5 5 5 5 5 5 5 5 5 6 5 5 6 5 5 6 5 5 5 5 5 5 5 5 5 5 5 5 5 5 5 5 5 5 5 5 5 5 5 5 5 5 5 5 6 5 5 5 6 5 5 5 6 5 5 5 5 6 5 5 6 5 5 5 5 5 5 5 5 6 6 5 5 5 6 6 6 5 5 5 5 5 6 5 5 5 5 5 5 5 5 5 5 5 5 5 5 5 5 5 5 5 5 5 5 5 5 5 5 5 5 5 5 5 5 5 5 5 5 5 5 5 5 5 5 5 5 5 5 5 5 5 5 5 5 5 5 5 5 5 5 5 5 5 5 5 5 5 5 5 5 5 5 5 5 5 5 5 5 5 5 5 5 5 5 5 5 6 5 5 5 5 5 6 5 5 5 5 5 6 5 5 5 5 5 5 6 5 6 6 5 5 5 6 5 6 5 6 5 5 6 5 5 5 5 5 5 5 5 5 5 6 5 5 5 6 6 5 5 6 5 5 5 6 5 5 5 6 5 5 5 5 5 6 5 5 5 5 6 5 5 6 6 6 5 6 5 6 5 5 6 6 5 5 5 5 5 5 5 6 5 6 5 5 5 5 5 5 5 5 6 5 5 6 5 5 5 5 5 5 5 5 5 5 6 5 5 6 5 5 5 6 5 6 5 5 5 5 5 5 6 5 5 5 5 6 5 5 5 6 5 6 6 5 5 5 5 6 5 5 5 5 5 5 5 5 5 5 5 6 5 5 5 6 5 5 5 6 5 5 5 5 5 5 5 5 5 5 5 5 5 6 5 5 5 5 6 5 5 5 5 5 6 5 5 6 5 5 6 5 5 5 6 5 5 6 6 5 5 6 5 5 5 5 5 5 5 5 5 5 6 5 6 5 5 6 5 5 6 5 5 5 5 5 5 5 6 5 5 6 5 5 5 5 5 5 5 5 5 5 5 5 5 5 5 5 5 5 5 5 5 5 5 5 6 5 5 5 5 5 5 5 5 5 5 5 6 5 5 5 5 5 5 6 5 5 5 5 5 5 5 5 5 5 5 5 6 5 5 5 5 6 5 5 5 6 5 5 6 5 5 6 5 5 5 6 5 5 5 5 5 5 5 5 5 5 5 5 5 5 5 5 5 5 5 5 5 5 5 5 5 6 5 5 5 6 5 5 5 5 6 5 5 5 5 5 5 5 5 5 5 5 6 5 5 6 5 5 5 5 6 5 5 6 5 5 5 5 5 5 5 5 5 6 5 6 5 5 5 6 5 5 5 5 5 6 5 5 5 6 5 5 5 6 5 5 6 5 5 5 5 6 5 5 6 5 5 5 5 5 5 5 5 5 5 6 6 5 5 5 5 6 5 5 5 6 5 5 5 5 5 5 5 5 5 5 5 5 5 6 5 5 6 6 5 5 5 5 6 5 5 5 5 5 5 5 5 5 5 5 5 5 5 5 5 6 5 5 6 5 5 5 6 5 6 5 6 6 5 5 5 5 6 5 5 5 5 6 5 5 5 6 6 6 5 6 5 5 6 5 6 5 5 5 5 5 6 5 6 5 5 5 6 5 5 5 5 5 5 5 5 6 5 5 6 5 6 5 5 5 5 5 5 5 5 6 6 5 6 5 5 5 5 5 5 5 5 5 5 5 5 6 6 5 5 5 5 5 5 5 5 5 5 5 5 5 5 5 6 5 6 5 5 5 6 5 5 5 5 5 5 5 5 5 5 5 5 5 5 5 5 6 5 5 5 5 5 6 5 5 5 6 5 6 5 5 5 5 5 5 5 5 5 5 5 5 5 5 5 5 5 5 5 5 5 5 5 5 5 5 5 5 5 5 5 5 5 5 5 5 5 6 5 5 5 6 5 5 5 5 5 5 5 5 5 5 6 5 5 5 5 5 5 5 5 5 5 5 5 5 5 5 5 5 5 5 5 5 5 5 6 5 5 6 5 5 5 5 5 6 5 5 6 5 5 6 5 5 6 5 5 5 5 5 6 5 5 5 5 6 5 6 5 5 5 5 6 5 6 5 5 6 6 5 5 5 5 6 5 5 5 5 5 5 5 5 5 5 6 5 5 5 5 6 5 6 6 5 6 6 5 5 5 6 5 6 5 6 5 5 5 5 5 6 6 5 5 6 5 5 6 5 5 6 5 5 5 6 5 5 6 5 5 5 6 5 5 5 5 5 5 5 5 5 6 5 5 5 5 5 6 5 5 5 6 5 5 5 5 6 5 5 5 5 6 5 5 6 6 6 5 6 6 5 6 5 5 5 6 5 5 5 5 5 6 5 5 5 5 5 5 5 5 6 5 5 5 5 5 5 5 5 6 5 5 6 6 5 5 5 5 6 5 5 5 5 5 6 5 5 5 5 5 5 6 5 5 5 6 5 5 5 5 5 5 5 5 5 5 5 5 5 5 6 5 5 5 5 6 5 5 5 5 5 5 5 5 5 6 5 5 5 6 5 5 5 5 5 6 5 5 6 5 5 5 5 5 5 6 5 5 5 5 5 5 6 5 5 5 6 5 5 5 5 5 5 5 5 5 5 6 5 5 6 5 5 5 6 5 6 5 5 5 5 5 5 5 5 5 5 5 5 6 5 6 6 5 5 6 5 5 5 6 6 5 6 5 5 5 5 5 6 5 6 6 6 5 5 5 5 5 5 6 5 5 5 5 5 6 5 5 5 5 5 5 5 5 5 5 5 6 5 5 5 5 5 5 5 5 5 5 5 5 5 5 5 5 5 5 5 5 5 5 5 5 5 5 5 5 5 6 5 5 5 5 5 5 5 5 6 5 5 5 5 5 6 5 5 5 5 5 6 5 5 5 5 5 5 5 5 5 5 5 5 5 6 5 6 5 6 5 5 5 5 5 5 5 6 5 5 5 5 5 5 5 5 5 5 5 5 5 5 5 5 5 5 5 5 5 5 5 5 5 5 5 5 5 5 5 5 5 5 5 5 5 5 5 5 5 5 5 5 5 5 5 6 5 5 5 5 5 5 5 5 5 5 5 5 6 5 5 5 5 5 5 5 5 6 5 5 5 5 5 5 6 5 5 5 5 5 5 5 5 5 6 5 5 5 5 5 5 5 5 5 5 5 6 5 5 5 6 5 5 5 5 5 5 5 5 5 5 5 5 5 5 5 5 6 5 5 5 5 5 5 5 5 6 5 5 5 5 5 5 5 5 5 5 5 5 5 5 5 5 5 5 5 5 5 6 5 5 5 6 5 5 5 5 5 5 5 5 6 5 5 5 5 5 5 5 5 5 5 6 5 5 5 6 5 6 5 5 5 5 5 5 5 5 5 6 5 5 6 5 6 5 6 5 5 5 5 5 5 6 5 5 6 6 5 5 5 5 5 5 6 5 6 5 5 6 5 5 6 5 5 5 5 5 5 5 5 5 5 5 5 5 5 5 6 5 5 6 5 5 5 6 5 5 5 5 5 5 5 5 5 5 5 6 5 5 5 5 5 5 5 5 5 5 5 5 5 6 5 6 5 5 5 5 6 5 6 5 6 5 5 5 5 6 5 5 6 5 6 5 5 5 5 6 5 5 5 5 6 5 5 6 5 6 5 6 6 5 5 5 5 5 5 6 5 5 5 6 5 5 5 5 6 6 5 6 5 5 5 5 5 5 5 5 5 5 5 6 5 5 5 5 5 6 5 5 5 6 5 5 5 5 5 5 5 5 5 5 5 5 5 5 5 6 5 5 5 5 5 5 5 5 5 5 5 5 5 5 5 5 5 5 5 5 5 6 5 5 6 5 5 5 5 5 5 5 5 6 5 5 5 5 5 5 5 5 5 5 6 6 5 5 5 5 6 5 6 5 5 5 5 5 6 5 5 5 5 5 6 5 5 5 5 5 5 5 5 6 5 5 6 6 5 6 5 6 5 5 5 5 6 6 5 5 6 5 6 5 5 5 5 5 6 5 5 5 5 6 6 5 5 6 6 5 5 5 5 6 5 5 5 6 5 5 6 5 6 5 5 5 5 5 5 5 5 5 5 5 5 5 5 5 6 5 5 5 5 5 6 5 5 5 5 5 6 5 5 5 5 6 5 5 5 5 5 5 5 5 5 5 5 5 5 5 5 5 5 5 5 5 5 5 5 5 5 5 5 5 5 5 5 5 5 5 5 5 5 5 5 5 5 5 5 5 5 5 5 5 5 5 5 5 5 5 5 5 5 5 5 5 5 6 5 5 5 5 5 6 5 5 6 5 5 5 5 5 5 5 5 5 5 5 6 5 5 5 5 5 5 5 6 5 6 6 5 5 5 5 5 5 5 5 6 5 5 5 5 5 5 6 5 5 5 6 5 5 5 5 5 5 5 6 5 5 6 5 5 5 5 5 5 5 5 5 6 6 5 5 5 5 6 6 6 6 5 6 5 5 5 5 5 5 5 5 5 5 5 5 5 5 5 6 5 5 6 5 5 5 5 5 5 5 5 5 6 5 5 5 5 5 5 5 5 6 5 5 5 5 5 5 5 5 5 5 5 5 5 5 5 5 5 5 5 5 5 5 5 5 6 5 5 5 5 5 6 5 5 6 6 6 5 5 6 5 5 6 5 5 6 6 5 5 6 5 6 5 5 5 5 5 5 5 5 5 5 5 5 5 5 5 6 5 5 5 5 5 5 5 5 6 5 5 5 5 6 5 6 5 5 6 5 5 5 5 5 5 5 5 6 5 5 6 5 5 5 6 5 5 5 5 5 6 5 5 6 5 5 5 5 5 5 5 5 5 5 5 5 5 5 5 5 5 5 5 5 5 5 5 5 5 5 5 5 6 6 5 5 5 5 5 6 5 5 5 5 5 5 5 5 5 5 5 5 6 5 5 5 5 5 5 5 5 5 5 5 5 5 5 5 5 5 6 5 5 6 5 5 5 5 5 6 5 5 5 5 5 6 5 5 5 5 5 6 5 5 5 5 5 5 5 5 5 5 5 5 5 5 5 5 5 5 5 5 5 6 5 5 6 5 5 5 5 5 5 5 6 5 5 5 5 5 5 5 5 5 5 5 5 5 5 5 5 5 5 5 5 5 5 5 5 5 5 5 5 5 5 5 5 5 5 5 5 5 6 5 5 6 5 5 5 6 5 5 5 5 6 5 5 5 5 5 5 6 5 5 5 5 5 5 5 5 5 5 6 5 5 5 5 6 5 6 5 5 5 5 6 5 5 5 5 5 5 5 5 5 5 5 6 5 5 5 5 5 5 5 5 6 5 5 5 5 5 5 5 5 5 5 5 5 5 5 5 5 5 5 5 6 5 5 5 5 5 5 5 5 5 6 5 5 5 5 5 6 5 5 5 5 5 6 6 6 5 6 5 5 5 5 5 5 5 5 5 6 5 5 5 6 5 5 5 5 5 5 5 5 5 5 5 5 5 5 5 5 5 5 5 5 5 5 5 6 5 5 5 5 5 5 5 6 5 5 6 5 5 5 6 5 5 6 5 5 5 5 6 5 5 6 5 5 5 5 5 5 5 5 6 6 5 5 5 5 5 5 5 6 5 5 5 6 5 5 5 5 5 5 5 5 5 5 5 5 6 5 5 5 5 6 5 5 5 6 6 5 6 5 6 5 5 5 5 6 5 6 5 5 5 5 5 5 5 5 5 6 5 6 6 5 5 5 5 6 6 6 5 5 5 5 6 5 6 5 5 6 5 5 6 5 5 5 5 5 5 6 5 6 5 5 6 5 5 5 5 5 5 5 5 5 5 5 5 5 5 5 5 5 5 6 5 5 5 5 5 5 5 6 6 6 5 6 5 5 5 6 5 6 5 5 6 5 5 6 5 5 6 6 5 6 5 6 5 5 5 6 6 5 5 5 6 5 5 5 5 6 5 5 6 5 5 5 5 5 5 6 5 5 5 5 5 5 5 5 5 5 5 5 5 5 5 5 5 6 5 5 5 5 6 5 5 5 5 5 5 5 6 5 5 5 5 5 5 5 5 5 5 5 5 5 5 5 5 5 6 5 5 5 6 6 5 6 5 6 5 5 5 5 5 5 5 5 5 6 5 5 5 5 6 5 6 5 5 5 6 5 5 6 6 5 5 5 5 6 5 5 6 5 5 5 5 5 6 5 6 5 5 5 6 5 5 6 6 5 5 6 5 5 5 5 5 6 5 5 5 5 5 5 5 5 5 5 5 6 5 6 5 5 5 5 5 5 5 5 6 5 6 6 5 6 5 5 5 5 5 6 5 5 5 6 5 5 5 6 5 5 5 5 5 5 5 5 5 5 5 5 5 5 5 6 5 5 6 5 5 5 5 5 5 5 5 5 6 5 5 5 5 5 5 5 5 5 6 5 5 5 5 5 5 5 5 5 5 5 6 5 5 5 5 5 5 6 5 6 6 5 5 5 5 5 6 5 5 5 5 5 5 5 5 5 5 5 5 5 5 5 5 6 5 5 5 5 5 5 6 5 5 5 5 5 5 5 5 5 5 5 6 5 5 5 5 5 5 6 5 5 5 5 5 5 5 5 5 5 5 5 5 5 5 5 5 5 5 5 6 5 5 5 5 5 5 5 5 6 5 5 5 6 5 5 5 5 6 5 6 5 5 5 5 6 5 5 5 6 5 5 5 5 5 6 5 5 5 5 5 5 5 5 6 5 5 6 6 5 5 6 5 5 5 5 5 5 5 5 6 5 5 5 5 5 5 5 5 5 5 6 6 5 5 5 5 5 5 5 5 6 5 5 6 5 5 5 5 5 5 6 5 5 5 5 5 6 5 5 5 5 5 5 6 5 5 5 6 6 5 5 5 5 5 5 5 6 5 5 6 5 5 5 5 5 6 5 5 5 5 5 5 5 5 5 5 5 6 5 5 5 5 5 5 5 5 5 5 5 6 5 5 5 5 5 5 5 5 5 5 5 5 6 5 5 5 6 6 5 6 5 5 5 6 6 5 5 5 5 6 6 5 5 6 5 5 6 5 5 5 5 5 5 6 5 6 5 5 6 6 6 5 5 6 5 6 5 5 6 6 5 5 5 6 6 5 5 6 5 6 5 5 5 5 5 5 6 6 5 5 5 5 6 6 5 5 5 5 5 6 5 5 5 5 5 5 5 5 5 6 6 5 5 5 5 5 5 6 5 5 5 5 5 6 5 5 5 6 5 5 5 5 5 6 5 6 5 5 5 6 5 5 5 5 6 5 5 5 6 5 5 5 5 5 6 5 6 5 5 6 5 5 5 6 5 5 6 5 5 5 5 6 5 5 5 5 5 5 5 5 6 5 5 5 5 5 5 6 6 6 6 5 5 6 5 5 5 6 6 5 5 5 5 5 5 5 5 5 6 5 5 5 5 5 5 6 5 5 6 5 6 6 5 5 5 6 5 6 5 5 5 6 6 5 6 5 5 5 5 6 5 5 5 5 6 5 5 5 5 5 5 6 5 5 5 5 5 5 5 5 5 5 5 5 5 5 5 5 5 5 5 5 5 5 5 5 5 6 5 5 6 5 5 6 6 6 5 5 5 6 5 6 6 5 6 5 5 5 5 5 5 6 5 5 5 6 5 6 5 5 5 5 6 5 5 5 5 6 5 6 5 5 6 6 5 5 5 5 5 5 5 5 6 6 5 6 5 5 5 5 6 5 6 5 5 5 6 5 5 5 5 5 5 5 6 5 5 5 5 5 6 5 5 5 6 6 5 6 6 5 5 5 5 5 5 6 5 5 6 5 6 5 5 5 6 6 5 5 6 5 6 5 6 5 5 5 5 5 5 6 6 5 5 6 5 5 6 5 5 6 6 5 5 5 5 5 5 6 5 5 5 5 6 5 6 5 5 6 5 5 5 5 5 5 5 5 5 5 5 5 5 5 5 5 5 5 5 5 5 6 5 5 5 5 5 5 5 5 5 5 5 5 5 6 5 6 5 5 5 5 5 5 5 6 5 6 5 6 5 5 5 5 5 5 6 5 5 5 5 5 5 5 5 5 5 5 6 5 6 5 5 5 6 5 5 6 5 5 5 5 6 5 5 6 5 6 5 5 5 5 5 6 5 5 5 5 6 5 6 5 5 6 5 5 6 5 6 5 5 6 5 5 6 5 6 5 5 5 5 5 5 5 5 5 5 5 5 5 5 5 5 5 5 5 5 5 5 5 5 5 5 5 5 5 5 5 5 5 5 5 5 5 5 6 5 5 6 6 5 5 5 6 6 6 6 5 5 5 5 6 5 5 5 5 6 5 5 5 5 5 6 5 5 5 5 6 5 5 5 5 5 5 5 5 5 5 5 5 5 5 6 5 5 5 5 5 5 5 6 5 5 5 5 5 5 6 5 5 5 5 5 5 5 5 5 5 5 5 5 5 5 5 5 5 5 5 5 5 5 5 5 5 5 5 6 5 5 5 5 6 5 5 5 5 5 6 5 5 5 6 5 6 5 5 6 5 5 5 5 5 6 5 5 5 6 5 5 6 5 6 5 5 5 5 5 5 6 5 5 5 5 5 5 6 5 5 5 5 5 5 5 5 5 5 5 5 5 6 5 5 5 6 5 5 5 5 5 5 5 5 5 6 5 6 5 5 5 5 5 5 5 5 5 6 5 5 5 5 5 5 5 5 6 5 5 5 5 5 5 5 5 5 5 5 5 5 5 5 5 5 5 5 5 5 5 5 5 5 5 5 5 5 5 6 5 6 5 5 5 5 5 5 5 5 6 6 5 5 5 5 5 5 5 5 5 5 5 5 5 5 5 5 5 5 5 5 6 5 5 5 6 5 6 5 5 5 5 5 5 5 5 5 6 5 5 6 6 5 6 5 5 5 6 5 5 5 5 5 5 5 5 6 5 5 5 5 5 5 5 5 5 5 5 5 6 5 5 5 6 5 5 5 5 5 5 5 5 5 6 5 6 5 5 6 5 5 6 5 5 5 5 5 6 5 5 5 5 5 5 5 5 5 5 6 6 5 5 5 5 6 5 5 5 5 5 5 5 5 5 5 5 6 5 5 5 5 5 5 5 5 5 5 5 6 5 5 6 5 5 6 5 5 6 5 5 6 5 5 5 6 5 5 5 5 5 5 6 5 5 5 5 5 6 5 5 5 5 5 5 5 5 5 6 5 5 5 5 5 5 5 5 6 5 5 5 5 5 5 5 5 5 5 5 5 5 6 5 5 5 5 5 5 6 5 5 5 5 5 5 5 5 6 5 5 5 5 5 6 6 6 5 5 5 5 5 5 5 5 5 5 5 5 5 5 5 5 5 5 5 5 6 5 5 5 6 5 5 5 5 5 6 5 5 5 6 5 5 5 5 5 5 5 5 5 5 6 5 5 5 5 6 6 5 6 5 6 6 5 5 5 5 5 5 5 5 5 5 5 5 5 5 5 5 5 5 5 5 5 5 6 5 6 5 5 6 6 5 5 5 5 5 6 5 6 6 5 5 6 6 5 5 5 5 5 5 5 5 6 6 5 5 5 6 5 6 5 5 6 5 5 5 6 6 5 5 6 5 5 5 5 5 5 5 5 5 5 5 5 5 5 5 5 5 5 6 5 5 6 5 5 5 6 5 5 6 5 5 5 5 5 5 6 5 5 5 5 5 5 5 5 6 5 6 5 5 5 5 5 5 5 5 5 6 5 5 5 5 5 5 5 5 5 5 5 5 5 5 5 5 5 5 5 6 5 5 5 5 5 5 5 5 5 5 5 5 5 5 6 5 5 5 5 5 5 6 5 5 5 6 5 6 5 6 6 5 5 5 5 5 5 5 5 5 5 5 5 5 6 5 5 5 5 6 5 5 5 6 5 6 5 5 5 5 5 6 5 5 5 5 5 5 5 5 5 5 6 6 5 5 6 6 5 5 5 5 5 5 5 5 5 5 5 5 5 5 5 5 6 5 5 5 5 5 5 5 6 5 5 5 5 5 6 6 5 5 5 6 5 5 5 5 5 6 5 5 5 5 5 6 6 5 5 5 5 6 5 5 6 5 5 5 5 5 5 5 5 5 5 5 5 5 5 5 6 5 5 5 5 6 5 5 5 5 5 5 5 5 5 5 5 5 5 5 5 5 5 5 5 5 5 5 5 5 5 5 5 5 5 5 5 5 5 5 5 5 6 5 5 5 5 6 5 5 5 6 5 5 5 5 5 5 5 5 5 5 5 5 5 5 5 6 5 6 5 5 5 5 6 6 5 5 5 5 5 5 5 5 5 5 5 5 5 6 5 5 5 5 6 5 6 5 5 5 5 6 5 5 6 6 5 5 5 5 6 5 5 6 5 5 5 5 6 5 5 5 5 5 5 5 5 5 5 6 6 6 5 5 6 5 5 5 5 5 5 6 6 5 6 5 5 6 5 5 5 5 6 5 5 5 5 5 5 5 5 5 6 6 5 5 5 5 5 5 5 5 5 5 5 6 5 6 5 5 5 5 5 5 5 5 5 5 5 5 5 5 5 5 5 6 5 5 5 5 5 6 5 6 5 5 5 5 6 5 6 5 5 5 6 6 5 5 5 5 5 5 6 5 5 5 5 5 5 5 6 5 5 5 5 5 5 5 5 5 6 5 6 5 5 5 5 5 6 5 5 5 5 5 6 5 6 5 6 5 5 5 6 5 5 5 5 6 5 5 5 5 5 5 5 5 5 5 5 6 5 5 6 5 5 5 5 5 5 5 5 5 5 5 6 5 5 5 5 5 6 5 6 6 5 5 6 5 6 5 5 5 5 5 5 5 5 5 5 5 5 5 5 5 5 5 5 5 5 5 5 6 5 5 5 5 5 5 5 5 5 5 5 5 5 5 5 5 5 5 5 5 5 5 5 5 5 5 5 5 5 5 6 5 5 5 5 5 5 6 5 5 5 5 5 5 5 5 5 5 5 5 5 5 5 5 6 5 5 5 5 5 5 5 5 5 5 5 5 5 5 5 5 5 5 5 5 5 5 6 5 5 5 5 5 5 5 5 5 6 5 5 5 5 5 5 5 5 6 5 5 5 5 5 5 5 6 6 5 5 5 5 5 6 5 6 5 5 6 5 5 5 5 5 5 5 5 5 5 5 5 5 5 5 5 5 5 6 5 5 5 5 5 5 5 5 5 5 6 5 6 5 6 5 5 5 5 5 5 5 5 5 5 5 5 5 5 5 5 5 5 5 5 5 5 5 5 5 5 5 5 5 5 5 5 5 5 5 5 5 5 5 5 5 5 5 5 5 5 5 5 5 5 6 5 5 5 6 5 5 5 5 6 5 6 5 5 5 5 6 5 5 5 5 5 5 5 5 5 5 5 6 6 5 5 5 5 6 6 5 5 5 5 5 5 5 5 5 5 5 5 5 5 5 5 5 6 5 5 5 5 5 5 5 5 5 5 5 5 5 5 5 5 5 5 5 5 5 5 5 5 5 5 5 5 5 5 5 5 5 5 5 5 5 5 5 6 5 5 6 5 5 5 5 5 5 5 5 5 5 5 5 5 5 5 5 5 5 5 5 5 5 5 5 5 5 5 5 5 5 5 5 5 5 5 5 5 5 5 5 5 5 5 5 5 5 5 5 5 5 5 5 5 6 5 5 5 6 5 5 5 5 5 6 5 5 5 6 5 5 5 5 5 6 6 5 6 5 5 5 5 5 6 5 5 5 5 6 5 5 5 5 6 5 5 5 5 5 5 5 5 5 5 5 5 5 5 5 5 5 5 5 5 6 6 5 5 5 5 5 5 5 6 6 5 5 5 6 5 6 5 5 5 6 5 5 5 5 5 5 5 5 5 5 5 5 5 5 5 5 6 5 5 5 5 6 5 5 5 5 5 6 5 5 5 5 5 5 6 5 5 5 6 6 6 5 5 5 6 5 5 5 5 6 5 6 5 5 6 5 5 5 5 5 5 5 6 5 5 5 5 5 6 5 5 5 5 6 5 5 5 5 5 5 5 5 6 5 5 6 6 5 5 5 6 5 6 5 5 5 5 6 6 5 5 5 5 5 6 5 5 5 5 5 5 5 5 5 6 6 5 5 5 5 5 6 5 6 5 5 5 5 5 5 5 5 5 5 5 5 5 5 5 5 5 6 5 5 6 5 6 5 6 5 6 5 5 6 6 5 5 6 5 6 5 6 5 5 5 6 6 5 5 5 6 5 5 5 6 6 5 5 5 5 5 6 5 5 5 6 5 5 6 5 5 6 5 5 5 6 5 5 5 5 6 5 5 6 6 5 5 5 5 6 6 5 6 5 5 5 6 5 5 6 5 5 6 6 5 5 6 5 6 6 5 6 6 5 5 5 5 6 5 5 5 5 5 5 5 6 5 5 6 5 5 5 5 5 5 5 6 5 6 5 5 5 5 5 5 6 6 5 6 5 6 6 5 6 5 5 5 6 5 5 5 5 6 5 5 6 5 5 6 5 5 5 6 5 5 5 5 5 6 5 5 5 5 5 5 5 5 5 5 5 5 5 6 6 5 5 5 6 5 5 5 6 6 5 5 5 5 5 5 5 5 6 5 5 5 5 6 5 5 5 5 5 5 5 5 5 5 5 5 5 5 5 5 5 5 5 5 5 5 5 5 5 5 5 5 5 5 5 6 5 5 5 5 5 5 5 5 5 5 5 5 5 5 5 5 5 5 5 6 5 5 5 6 5 5 6 5 6 5 5 5 5 5 5 5 5 5 5 5 6 5 5 5 5 5 5 6 5 6 5 5 6 6 5 5 5 5 6 5 6 5 5 5 5 6 5 5 5 5 6 6 5 5 6 5 5 6 5 5 5 5 6 5 5 5 6 5 5 5 5 5 5 5 5 5 5 5 5 5 5 5 5 5 6 5 5 6 5 6 5 5 6 5 6 5 6 5 5 6 5 5 5 5 5 5 5 5 5 5 5 5 5 5 5 5 6 5 6 5 5 5 5 5 5 5 5 5 5 6 5 6 5 5 5 6 5 5 5 5 6 6 5 5 5 5 5 5 5 6 5 6 5 5 5 5 5 5 5 5 6 5 5 5 5 6 5 5 6 5 5 5 5 5 5 5 5 5 5 5 6 5 5 5 5 5 6 5 5 5 5 5 5 5 5 6 5 5 5 6 5 5 5 5 5 5 5 6 5 5 5 5 5 5 5 5 5 5 6 5 5 6 5 6 5 5 5 5 5 6 6 5 5 5 6 5 6 5 5 5 5 5 5 5 5 6 6 5 5 6 5 5 6 6 5 5 5 6 5 5 5 5 5 5 6 5 5 5 5 5 5 5 5 5 5 5 5 5 5 5 6 5 5 5 5 5 5 5 5 6 5 5 5 5 5 5 5 5 6 5 5 5 5 5 5 5 5 5 6 5 5 5 6 6 6 6 5 5 5 5 5 5 6 5 5 5 5 5 5 5 5 5 5 5 5 5 6 6 6 5 5 5 5 5 5 5 6 6 5 5 5 6 6 5 5 5 5 5 5 5 5 5 5 5 5 5 5 5 5 6 5 6 5 5 5 5 5 6 6 6 5 5 6 6 5 6 5 6 6 6 5 6 5 5 5 5 5 5 6 5 6 5 5 5 5 5 5 5 5 5 5 5 6 5 5 5 6 5 5 5 5 5 6 5 5 6 5 5 6 5 5 5 6 5 5 5 5 5 5 5 5 6 5 5 5 6 5 5 5 5 6 5 5 5 5 5 5 5 5 5 5 5 5 5 5 5 5 5 5 5 5 5 5 5 5 5 5 6 5 5 5 5 6 5 5 5 5 5 5 6 5 5 5 5 5 5 5 5 5 6 5 5 5 5 5 5 5 5 5 5 5 5 5 5 5 5 5 5 5 5 5 5 5 6 5 5 5 5 6 5 5 5 5 5 5 5 5 5 5 5 5 5 6 5 5 6 6 5 5 5 6 6 5 6 5 6 5 5 5 5 5 6 5 5 6 5 6 5 5 6 6 5 5 5 5 5 5 5 5 6 5 6 5 5 5 5 5 6 5 5 5 5 5 5 5 5 5 5 5 5 5 6 5 5 6 5 5 5 5 5 5 5 5 5 5 5 5 5 5 6 5 5 5 5 6 5 5 5 5 5 6 5 5 6 5 5 5 6 5 5 5 6 5 5 5 5 5 5 5 5 5 5 5 5 5 5 5 5 5 5 5 5 5 5 5 6 5 5 5 5 5 5 5 5 5 5 5 5 6 5 5 6 5 5 5 5 5 5 5 5 5 5 5 5 5 5 5 5 5 6 5 5 5 5 5 5 5 5 5 5 6 5 5 5 6 5 5 6 5 5 5 5 5 5 5 5 5 5 5 5 5 5 5 5 5 5 5 5 5 5 5 5 5 5 5 5 5 5 5 5 5 5 5 5 5 5 5 5 5 5 5 5 5 5 5 5 5 5 5 5 5 5 5 5 5 6 5 5 6 5 6 5 5 5 5 5 5 5 5 6 5 5 6 5 6 5 5 5 5 5 5 5 5 5 6 5 5 5 6 5 6 5 5 5 5 6 5 5 5 5 6 5 5 5 5 5 5 5 6 6 5 5 5 5 5 5 5 5 5 5 5 5 5 5 5 5 5 5 6 5 5 5 6 5 5 6 5 5 5 5 5 5 5 5 5 5 5 5 5 5 5 5 5 5 5 5 5 5 5 5 5 6 5 5 5 5 5 5 5 5 5 5 5 6 5 5 6 5 5 6 5 5 5 5 5 5 5 5 5 5 5 5 5 5 5 5 5 5 5 5 6 5 5 5 5 5 5 5 5 5 5 5 5 5 5 6 5 5 5 5 6 5 5 5 5 5 6 5 5 5 5 5 5 5 5 5 5 5 5 5 5 5 5 5 5 5 5 5 5 5 5 6 5 5 5 5 5 5 5 5 5 5 5 5 5 5 5 6 5 5 5 5 6 5 5 5 5 5 5 5 5 5 5 5 5 5 5 5 5 5 5 5 5 5 5 5 5 5 5 5 5 5 6 5 5 5 5 5 6 5 5 5 5 5 5 5 5 5 5 5 5 5 5 5 5 5 5 5 5 5 5 5 5 5 5 5 5 5 5 5 5 5 5 5 5 5 5 5 5 5 5 5 5 5 5 5 5 5 5 5 5 5 5 5 5 5 5 5 5 5 5 5 5 5 5 5 5 5 5 5 5 5 5 5 6 5 5 5 5 5 6 5 5 5 5 5 5 5 5 5 5 5 5 5 5 5 5 5 5 5 5 5 5 6 5 5 5 5 5 5 5 5 5 5 5 5 5 5 5 5 5 6 5 5 6 5 5 6 5 6 5 5 5 5 6 5 5 6 5 5 5 5 5 5 5 5 5 5 5 5 6 5 5 5 5 5 5 5 5 5 5 5 5 5 5 5 5 5 5 5 5 5 6 5 5 5 5 5 5 5 5 5 5 5 6 5 5 5 5 5 5 5 5 5 5 5 5 5 5 5 5 5 5 5 5 6 5 5 5 5 5 5 5 5 5 5 5 5 6 5 6 5 5 5 6 5 5 6 5 5 6 5 5 6 5 5 5 5 5 5 6 6 5 5 5 5 6 5 5 5 5 5 5 5 5 5 5 5 5 6 5 5 5 5 6 5 5 5 5 5 5 5 5 5 6 5 5 5 5 5 5 5 5 5 5 5 5 5 5 5 6 5 5 5 5 6 6 5 5 5 5 5 5 5 5 6 5 5 5 5 5 5 5 5 5 5 5 5 5 5 5 5 5 5 5 6 5 5 5 5 5 5 5 5 5 5 5 5 5 5 5 5 5 5 5 5 5 5 5 6 5 5 5 6 5 5 5 6 5 6 5 5 6 5 5 5 5 6 5 5 5 5 5 5 5 5 5 5 5 5 5 5 5 5 6 5 5 5 5 5 5 5 5 5 5 5 5 5 5 5 5 5 5 6 5 5 5 5 5 5 5 5 5 5 5 6 5 6 5 5 5 6 5 5 5 6 6 5 5 5 5 5 6 5 6 5 5 5 6 5 5 5 5 5 6 5 5 5 5 5 5 5 5 5 5 5 5 5 5 5 5 5 5 5 5 5 6 5 5 5 5 5 5 5 6 5 5 5 5 6 6 5 5 6 6 5 5 5 5 5 5 5 5 5 5 5 5 5 5 5 5 5 5 5 5 5 5 5 5 5 5 5 5 5 5 5 6 5 6 5 5 5 5 5 5 5 5 5 5 5 5 6 5 5 6 5 6 5 5 6 6 5 5 6 6 5 5 5 5 6 6 5 6 5 5 5 6 6 5 5 5 5 6 5 5 5 5 5 5 6 5 5 5 5 5 5 5 5 5 5 5 5 5 5 5 5 5 6 5 5 5 6 5 5 5 6 5 5 5 6 5 5 5 5 6 5 5 6 5 5 5 5 6 5 5 6 5 5 5 5 5 5 5 5 5 5 5 5 6 5 5 5 5 6 5 5 6 5 5 5 6 5 5 5 6 5 5 5 5 6 5 6 5 5 5 5 5 5 5 5 5 6 5 5 5 5 5 5 5 5 5 5 5 6 5 5 6 5 5 6 5 5 5 5 5 5 5 5 5 5 5 6 5 5 5 5 5 5 6 5 5 6 5 5 5 5 5 5 5 5 5 5 5 5 6 5 5 5 5 5 5 5 6 5 5 5 6 5 5 5 5 5 5 5 5 5 6 5 5 5 5 5 5 5 5 5 5 5 6 5 5 5 6 5 5 5 5 6 5 6 6 6 5 5 5 5 5 5 6 5 5 5 5 6 6 5 5 5 5 5 5 5 6 5 5 5 5 5 5 5 5 5 5 6 5 5 5 5 5 5 5 5 5 5 5 5 6 5 5 5 5 5 5 6 5 6 5 5 5 5 5 5 5 5 5 5 6 5 5 5 5 5 5 5 5 6 5 5 5 5 5 5 5 5 6 5 5 6 5 5 5 5 5 6 5 5 5 6 5 5 5 5 5 5 5 5 5 5 5 5 5 5 5 6 5 5 5 6 6 5 6 5 5 5 5 5 5 6 5 5 5 5 5 5 5 5 5 5 5 5 5 5 5 5 5 5 5 5 5 5 5 5 5 5 5 5 5 5 5 5 5 5 5 5 5 6 6 5 5 5 5 5 6 5 6 5 6 5 5 6 5 6 5 5 6 5 5 6 5 6 5 5 5 5 5 5 6 5 5 5 5 5 5 5 5 5 5 5 5 5 5 5 5 5 5 5 5 5 5 5 5 5 5 5 5 5 5 5 5 5 5 5 5 5 5 5 5 5 5 5 5 5 5 5 5 5 5 5 5 5 5 5 5 5 5 5 5 5 5 5 5 5 5 5 5 5 5 5 5 5 5 5 5 5 5 5 5 6 5 5 5 5 5 6 5 5 5 6 5 5 5 5 6 5 6 5 6 5 5 5 6 5 5 5 5 5 5 5 5 5 5 5 5 5 5 5 5 5 5 5 5 5 5 5 5 6 5 5 5 5 6 5 6 5 5 6 5 5 5 5 5 5 5 6 5 5 6 6 5 5 5 5 5 5 5 5 6 5 6 6 6 5 5 5 5 5 6 5 5 5 5 5 5 5 5 5 5 5 5 5 5 6 5 5 5 5 5 5 6 6 5 5 6 6 5 5 5 5 6 5 5 5 5 5 5 5 6 5 5 5 6 5 5 5 5 5 5 5 5 5 5 5 6 5 5 5 5 5 5 5 5 5 5 5 5 5 5 5 5 5 5 5 5 6 5 5 5 5 5 5 5 5 5 5 5 5 5 5 5 5 5 5 5 5 5 5 5 5 5 5 6 5 5 5 5 5 5 5 5 5 5 5 5 5 5 5 5 5 5 5 5 5 5 5 5 5 5 5 5 6 5 5 5 6 5 5 5 5 5 5 5 5 5 5 5 5 5 5 6 5 5 6 5 5 5 5 5 5 5 5 5 5 5 6 5 5 6 5 5 5 5 5 5 5 5 5 5 5 5 5 5 5 5 5 5 5 5 5 5 5 6 5 5 6 5 5 6 5 6 5 5 6 6 5 5 5 5 5 5 6 6 5 5 5 5 5 6 6 5 5 5 5 5 5 5 5 5 5 5 5 5 5 5 6 5 5 6 5 5 5 5 5 6 5 5 5 5 5 5 5 5 5 5 5 5 5 6 6 5 5 5 5 5 5 6 5 5 5 5 5 5 5 5 6 5 5 5 5 5 5 5 5 6 5 6 5 5 5 5 5 6 6 5 5 5 6 5 6 5 6 5 5 5 5 5 5 6 6 5 5 5 5 5 6 5 5 5 6 5 5 6 5 5 5 5 6 6 5 5 5 5 5 5 5 5 5 5 6 6 5 5 6 5 6 5 6 5 5 5 5 5 5 5 5 5 5 6 5 5 5 5 6 5 5 5 5 5 6 5 5 5 5 5 5 5 5 5 5 5 6 5 5 5 5 5 6 6 5 5 5 5 5 5 5 5 5 5 5 5 5 6 5 5 5 5 5 5 5 5 5 6 5 5 5 5 5 5 5 5 6 5 5 5 5 5 5 5 6 5 5 6 5 5 5 5 6 5 5 5 5 5 5 5 5 6 5 5 5 5 5 6 5 5 6 6 5 5 5 5 5 5 5 5 6 5 5 5 5 5 5 5 5 5 5 5 5 6 5 5 5 5 6 5 5 5 5 5 5 5 5 5 5 5 5 5 5 5 5 5 5 6 5 5 5 5 5 5 5 5 5 5 5 5 5 5 6 5 5 5 5 5 5 5 5 5 5 5 5 5 6 5 5 5 5 5 5 6 5 5 5 5 5 5 5 6 5 5 5 5 5 6 5 5 5 5 5 5 5 5 5 5 5 5 5 5 5 5 5 5 5 5 5 6 5 5 5 5 5 5 5 6 5 5 5 5 5 5 5 6 6 5 5 5 5 5 5 5 5 5 6 5 5 5 5 5 5 5 6 5 5 5 6 5 5 5 5 5 5 6 5 5 5 5 5 5 6 5 5 5 5 5 5 6 5 6 5 6 5 5 6 5 5 6 6 5 6 5 6 5 5 5 5 5 5 5 5 5 5 5 5 5 5 5 5 5 5 5 5 5 5 5 5 5 5 5 6 5 5 5 6 5 5 5 5 5 5 5 5 5 6 5 5 5 5 5 5 5 5 6 6 5 6 5 5 5 5 5 5 5 5 5 5 5 5 5 5 5 5 5 5 5 5 5 5 5 5 5 5 5 5 5 5 5 5 5 5 5 6 5 6 5 5 5 5 5 5 5 5 5 5 5 5 5 5 5 5 5 5 5 5 5 5 5 5 5 5 5 5 5 5 5 5 5 5 5 5 5 5 5 5 5 5 5 5 5 5 5 5 5 6 5 5 5 5 6 5 6 5 5 5 5 5 5 5 5 5 5 6 5 5 5 5 5 5 5 5 5 5 5 5 5 5 6 5 5 5 6 5 5 5 5 5 5 5 5 5 5 5 5 5 5 5 5 5 5 5 5 5 5 5 5 6 5 5 5 5 5 5 6 5 5 5 5 5 5 5 5 5 5 5 5 5 5 6 5 6 5 6 5 5 5 5 5 6 5 5 5 5 5 5 6 5 5 5 5 5 5 5 5 5 5 5 6 5 6 5 6 5 5 5 5 5 6 5 5 5 5 5 5 5 5 5 5 5 5 5 5 5 5 5 5 5 6 5 5 5 5 5 5 5 6 5 5 5 5 5 5 5 5 5 5 5 5 5 5 5 5 5 5 5 6 5 5 5 5 5 6 6 5 5 5 6 5 5 5 6 5 5 5 5 5 5 5 6 5 5 5 6 5 6 5 5 5 5 5 5 5 6 5 5 5 5 5 5 5 5 5 5 5 5 6 5 5 5 5 5 5 5 5 5 5 5 5 5 5 5 5 6 5 5 5 5 5 5 5 5 5 5 5 5 5 5 5 5 5 5 5 5 5 5 5 5 5 5 5 5 5 5 5 5 6 5 5 5 5 5 5 5 5 5 5 5 5 5 5 5 5 5 5 5 5 5 5 5 6 5 5 5 5 5 6 5 5 5 5 5 6 5 5 5 5 5 5 5 5 6 5 5 5 5 5 5 5 5 5 6 5 5 6 5 5 5 5 5 5 5 5 5 5 5 5 5 5 6 5 5 5 5 6 5 5 5 6 5 5 5 5 5 5 5 5 5 5 5 5 5 5 6 5 5 5 5 6 5 6 5 5 5 6 5 5 5 6 6 6 5 5 5 5 6 5 6 5 6 6 5 5 5 5 5 6 5 5 5 5 5 5 6 5 6 5 6 5 5 5 5 6 6 5 5 5 5 5 5 5 5 5 5 5 5 6 5 5 5 5 5 5 5 5 6 5 5 5 6 5 6 5 5 5 5 6 6 6 5 5 6 5 5 6 5 5 5 6 5 5 5 5 5 6 5 5 5 5 5 5 5 6 5 5 6 6 5 5 5 6 6 5 5 5 5 5 5 6 5 5 5 5 5 6 5 5 5 5 5 5 5 5 5 5 5 5 5 5 5 5 5 5 5 5 5 5 6 5 6 5 5 6 5 5 5 5 6 5 5 5 5 5 5 5 5 5 5 6 5 6 5 6 5 6 5 5 6 5 5 5 5 5 5 5 5 5 6 5 5 5 5 5 5 5 5 5 5 5 5 5 5 5 5 5 5 5 5 5 5 5 5 5 5 5 5 5 5 5 5 5 5 5 5 6 5 5 5 5 6 5 5 5 5 5 5 5 5 5 5 5 5 5 6 5 5 5 5 5 5 5 5 5 5 6 5 5 5 5 5 6 5 5 5 5 5 5 5 5 5 5 5 6 5 5 5 5 5 5 6 5 5 5 6 5 6 6 5 5 5 5 5 5 5 5 6 5 5 5 6 5 5 5 6 5 5 5 5 5 5 5 5 5 6 6 5 5 5 5 5 5 5 5 5 5 5 5 5 5 5 5 5 5 5 5 6 6 5 5 5 5 5 5 5 5 5 5 5 5 5 5 5 6 5 5 5 5 6 5 5 5 5 5 5 5 5 5 5 5 5 5 5 5 5 5 5 5 5 5 5 5 6 5 5 5 5 5 6 5 5 5 5 6 6 5 5 5 5 6 5 6 5 6 6 5 5 5 5 6 5 6 5 5 6 5 6 5 6 5 5 5 5 5 5 5 5 5 5 5 5 5 5 5 5 5 6 5 5 5 5 6 6 5 5 5 5 5 5 5 6 5 5 6 5 6 5 5 5 5 5 5 6 5 5 5 5 5 5 5 5 5 5 5 5 6 5 5 6 5 5 5 5 5 5 5 5 5 5 5 5 5 5 5 5 5 5 5 6 5 5 5 5 6 6 5 5 5 5 5 5 5 5 5 6 5 5 6 5 6 5 5 5 5 6 5 5 5 5 5 5 5 5 5 5 5 5 5 5 6 5 5 5 6 5 5 5 5 5 5 5 5 5 5 5 5 6 5 6 5 5 5 5 6 5 5 5 6 5 5 5 5 5 5 5 5 5 5 5 6 6 5 5 5 5 5 5 5 5 5 6 5 5 5 5 5 5 5 5 6 5 5 5 5 6 5 5 5 5 6 5 6 5 5 5 5 5 5 5 5 5 5 5 5 5 5 5 5 5 6 5 5 5 5 5 5 5 6 5 5 5 5 5 5 5 5 5 5 5 5 5 6 6 5 5 5 5 6 5 5 5 5 5 6 5 5 5 5 5 5 6 5 5 6 5 6 5 5 6 5 5 5 5 5 5 5 6 5 5 5 5 5 5 5 5 6 6 6 5 5 5 5 5 5 5 5 5 6 5 5 5 5 5 5 5 6 5 5 5 6 5 5 6 5 5 5 5 6 5 5 5 5 5 5 5 5 6 5 6 5 5 5 5 5 5 6 5 5 6 5 5 5 5 5 5 5 5 5 6 5 5 5 5 5 5 6 5 5 5 5 6 5 5 5 5 5 5 5 5 5 5 5 5 5 5 5 5 5 5 5 5 5 5 5 5 5 5 5 5 5 5 5 5 5 5 5 5 5 5 5 5 5 5 5 5 5 5 5 5 5 5 5 5 6 5 5 6 5 6 6 5 5 6 5 6 5 5 5 5 6 5 5 6 5 5 5 5 5 5 6 6 5 5 5 5 5 5 6 5 6 5 6 6 5 6 5 6 6 5 5 5 5 5 5 5 5 5 6 5 6 5 5 5 5 5 5 5 6 6 5 5 5 5 6 5 6 5 5 6 5 6 5 5 5 6 5 6 6 5 5 5 6 5 6 6 5 5 5 6 5 5 6 5 5 5 5 5 5 5 6 5 5 5 5 5 5 5 5 5 5 5 5 5 5 5 5 5 5 5 5 5 5 5 5 5 5 5 5 5 5 5 6 5 5 5 6 5 5 5 6 6 5 5 5 5 6 5 5 5 5 5 5 5 5 5 5 5 5 5 5 5 5 5 5 5 6 5 6 5 5 5 5 6 5 5 6 5 5 5 5 5 5 5 6 5 5 5 5 6 5 5 5 6 5 6 6 5 5 6 5 5 5 5 5 5 6 5 5 5 5 5 6 5 5 5 6 5 6 5 5 5 5 5 6 5 6 6 5 6 5 5 6 5 5 6 5 5 5 6 5 6 5 5 5 6 5 5 5 5 5 5 5 5 5 6 5 5 5 5 5 5 5 5 5 6 5 5 5 5 6 5 5 5 6 5 5 5 5 5 5 5 5 6 5 5 6 5 5 5 5 5 5 6 6 5 5 6 5 5 5 5 5 5 5 5 5 6 5 5 5 5 5 6 5 6 5 5 5 5 5 5 5 5 5 5 6 5 6 5 5 5 
</DataArray>
<DataArray type="Float64" Name="stress" NumberOfComponents="9" format="ascii">
118.91597458771359 158.69744800515946 0 158.69744800515946 -2538.4956446321739 0 0 0 0 -1.3003562055220543 62.967517663782928 0 62.967517663782928 -1491.22670406416 0 0 0 0 -310.32058718538229 1640.3729349132991 0 1640.3729349132991 -3494.0247371321311 0 0 0 0 -212.38158334020164 153.73596657987218 0 153.73596657987218 -977.95709109486779 0 0 0 0 -221.25842919572631 240.74755494688179 0 240.74755494688179 -544.81625879203784 0 0 0 0 -154.29928081235946 131.77523650151306 0 131.77523650151306 -1273.4127113844297 0 0 0 0 369.70979101008197 -299.2171315432206 0 -299.2171315432206 -475.93334920592315 0 0 0 0 -22.057913423684258 -40.57436781028116 0 -40.57436781028116 -64.384532591628954 0 0 0 0 26.043633211840188 -167.56981387847918 0 -167.56981387847918 -431.20653627470892 0 0 0 0 1.5168292772559653 80.741136017932149 0 80.741136017932149 -8.9649913882676628 0 0 0 0 29.603627557285314 36.380409551294065 0 36.380409551294065 -18.094364002783948 0 0 0 0 76.469580609224522 -5.7464252769859741 0 -5.7464252769859741 -682.17808280250756 0 0 0 0 87.389682131214158 84.180349386660964 0 84.180349386660964 -1598.2886430812941 0 0 0 0 9.2938549771544672 3.238682070628812 0 3.238682070628812 -20.391888365885819 0 0 0 0 -361.53455947174444 -317.33260007915669 0 -317.33260007915669 -573.10152516304515 0 0 0 0 -464.158162870745 -331.20835785758391 0 -331.20835785758391 -300.62875161395641 0 0 0 0 -0.66052906250319554 -4.9115097323221732 0 -4.9115097323221732 -18.350389715979517 0 0 0 0 82.112500978116714 -462.33001575699018 0 -462.33001575699018 -856.34428506901986 0 0 0 0 -2.1251703389671794 2.474575503302674 0 2.474575503302674 -2.8083391234551982 0 0 0 0 -2.0608293030956233 3.8454825804857506 0 3.8454825804857506 -2.3196992193302322 0 0 0 0 -215.71971963014312 273.4007631399727 0 273.4007631399727 -19.517686670675175 0 0 0 0 21.943701747550854 37.670760685621332 0 37.670760685621332 -29.918246157296807 0 0 0 0 -7.0563904110877047 354.91311152331764 0 354.91311152331764 -413.01837379967037 0 0 0 0 15.87773590884899 20.453716080708546 0 20.453716080708546 26.420367973123575 0 0 0 0 -546.40636879473459 331.39147400838556 0 331.39147400838556 -905.62885533311419 0 0 0 0 -120.84695448671482 48.638918505603215 0 48.638918505603215 -610.01254902641813 0 0 0 0 -14.634663340013049 284.42472185704901 0 284.42472185704901 -660.10337838000851 0 0 0 0 439.21357145235925 -303.45451410950045 0 -303.45451410950045 -681.40859053853637 0 0 0 0 58.064033698908133 -228.37640386729618 0 -228.37640386729618 -693.56650548184916 0 0 0 0 856.28829197817868 241.9681851255009 0 241.9681851255009 -1312.9732229036745 0 0 0 0 -82.555593088891328 391.81455897501291 0 391.81455897501291 -124.89158455662255 0 0 0 0 57.875436492271547 -103.78942338086563 0 -103.78942338086563 -327.00018068918143 0 0 0 0 57.207820010693467 -48.399893681838876 0 -48.399893681838876 -524.09597054689948 0 0 0 0 -326.16083136383577 -244.33551102851197 0 -244.33551102851197 -93.000541906323633 0 0 0 0 -182.64370806903571 -353.60978005353536 0 -353.60978005353536 -344.86194429124635 0 0 0 0 -620.59695494139703 1244.3618860065617 0 1244.3618860065617 -1589.0542098107489 0 0 0 0 -22.20562904884585 -29.968328903302208 0 -29.968328903302208 -42.371046670412852 0 0 0 0 -186.34411768069003 -328.05818769660982 0 -328.05818769660982 202.38928884156485 0 0 0 0 -10.871444744839225 -10.047997738572633 0 -10.047997738572633 -16.737244336098883 0 0 0 0 -3085.2875184726163 -1423.4881851336831 0 -1423.4881851336831 -285.70868922489899 0 0 0 0 111.07327418742155 -1930.1738875906303 0 -1930.1738875906303 -3493.0594424431692 0 0 0 0 830.3286874312073 -754.52739509335515 0 -754.52739509335515 -2109.242701465555 0 0 0 0 -1535.7860020729854 -1202.2958309862734 0 -1202.2958309862734 -425.73961446175235 0 0 0 0 -802.71353663411242 -178.02071201965737 0 -178.02071201965737 -7.0869987384648994 0 0 0 0 1414.3602693800754 -162.14540693708841 0 -162.14540693708841 -3500.6079153963146 0 0 0 0 821.15013468833342 -804.64338723132096 0 -804.64338723132096 -2117.110195740257 0 0 0 0 432.54076049317166 54.570423614382889 0 54.570423614382889 -630.30150799790135 0 0 0 0 812.99096888694521 -226.02135927873678 0 -226.02135927873678 -1736.7646877189472 0 0 0 0 -14.331007002665473 -25.477968465911573 0 -25.477968465911573 -28.790465501811212 0 0 0 0 482.95023838655379 -637.66215906646084 0 -637.66215906646084 -901.09301550727832 0 0 0 0 806.42839425497345 -1368.1407815107232 0 -1368.1407815107232 -53.569924367347994 0 0 0 0 -18.859826465132898 -8.4658940398544473 0 -8.4658940398544473 0.92942231151521071 0 0 0 0 181.05557504366971 71.37476748282279 0 71.37476748282279 -2952.831693739703 0 0 0 0 -355.04388525996728 -578.03637437006182 0 -578.03637437006182 -904.52342331849559 0 0 0 0 19.428502525298882 -487.11313089241503 0 -487.11313089241503 -680.0865119110822 0 0 0 0 -1005.1659820503228 -503.50339657779841 0 -503.50339657779841 -175.31182868079486 0 0 0 0 -1027.2339611697682 -594.56160896477741 0 -594.56160896477741 509.26450968388235 0 0 0 0 -325.8437119471713 -573.50764718845312 0 -573.50764718845312 -175.2385901812122 0 0 0 0 42.837048100292208 19.421592205831985 0 19.421592205831985 778.21555658678699 0 0 0 0 -714.44701634198032 -1597.2909454323017 0 -1597.2909454323017 -169.1224623083508 0 0 0 0 -7.800649954879133 -10.372593673242903 0 -10.372593673242903 -11.897363306590648 0 0 0 0 -723.15912191993857 -1477.0018889836283 0 -1477.0018889836283 1301.4045163924493 0 0 0 0 2500.5003166692973 1446.8898366393696 0 1446.8898366393696 -3796.2728221914585 0 0 0 0 -175.56484026020598 -1301.2775344471847 0 -1301.2775344471847 -1968.76292497338 0 0 0 0 -26.460373781319589 -14.760586443875653 0 -14.760586443875653 -10.296056378328988 0 0 0 0 -3297.4602674124981 -1589.9418511381955 0 -1589.9418511381955 -1908.650364860936 0 0 0 0 -67.797270878542065 -324.78606721271535 0 -324.78606721271535 -383.11840028344886 0 0 0 0 -174.32421647068804 -30.669155276365927 0 -30.669155276365927 -530.66732521605445 0 0 0 0 32.54225084392327 45.568761316401392 0 45.568761316401392 -65.971606632773472 0 0 0 0 -46.441055145092832 -57.286150460698991 0 -57.286150460698991 -200.70110652925723 0 0 0 0 -35.940619955929833 96.319220381585183 0 96.319220381585183 -151.08534676530144 0 0 0 0 -5.2522203379535259 7.1829409288625925 0 7.1829409288625925 -3.761933844923675 0 0 0 0 -329.45231753767439 -230.59635722194798 0 -230.59635722194798 -164.13302717537681 0 0 0 0 -142.34602925402532 -161.75967233984193 0 -161.75967233984193 -566.90053626235749 0 0 0 0 33.424241712674771 42.382617651025924 0 42.382617651025924 -68.507070742076962 0 0 0 0 -17.309664815031283 -79.043264092491881 0 -79.043264092491881 -226.80639545211216 0 0 0 0 5.8601312186983705 -41.679971283641862 0 -41.679971283641862 -232.90519626047171 0 0 0 0 17.324274120412959 34.961133475673705 0 34.961133475673705 -445.04258913589001 0 0 0 0 -405.82026775675149 -286.44437372935499 0 -286.44437372935499 -517.0282057343411 0 0 0 0 -9.4359646471295573 -1.5082573600365947 0 -1.5082573600365947 -35.69043250934125 0 0 0 0 54.124493238395189 -585.93283931879705 0 -585.93283931879705 -1540.7711864198282 0 0 0 0 -74.20979081769201 -142.98940480428428 0 -142.98940480428428 -998.01505193006597 0 0 0 0 -63.371906782321503 -56.750519607026945 0 -56.750519607026945 -444.27431017439812 0 0 0 0 -102.9127924500981 -375.58319725611364 0 -375.58319725611364 -839.56664120386995 0 0 0 0 -258.51266246901355 -432.86397004934406 0 -432.86397004934406 -393.74427670039586 0 0 0 0 28.252346537622088 -61.97409440679985 0 -61.97409440679985 -252.86689495919563 0 0 0 0 -29.66943800172794 -97.379939137637848 0 -97.379939137637848 -163.44036623575084 0 0 0 0 -55.432644199765491 -50.236776690893748 0 -50.236776690893748 -117.80457993474374 0 0 0 0 -40.653221253807715 -43.258143135040882 0 -43.258143135040882 -223.93227134037443 0 0 0 0 -11.651570835888378 -26.804843951867952 0 -26.804843951867952 -184.73224935439066 0 0 0 0 -45.324793370748012 -69.132952278050652 0 -69.132952278050652 -188.51835830348 0 0 0 0 -2.3521009690696957 -11.48854256659385 0 -11.48854256659385 -40.044738127815549 0 0 0 0 -21.632521481113145 -72.787273656947946 0 -72.787273656947946 -268.67925961842411 0 0 0 0 25.514208933583177 -75.619942474339041 0 -75.619942474339041 -361.83193064589796 0 0 0 0 28.448449253753363 47.718865945842865 0 47.718865945842865 -75.534041334271549 0 0 0 0 -38.843677625540295 -54.276007617503637 0 -54.276007617503637 -353.08595863924711 0 0 0 0 -32.712946980159927 -13.690544053964459 0 -13.690544053964459 -278.16718547430355 0 0 0 0 -16.082152499030769 -204.27311105228 0 -204.27311105228 -510.22707231307868 0 0 0 0 -22.155326539674491 -171.17345358007697 0 -171.17345358007697 -589.23323176626582 0 0 0 0 -173.63730572675195 -111.31983910206327 0 -111.31983910206327 -344.0969355910056 0 0 0 0 72.22281407267451 -123.03629367506801 0 -123.03629367506801 -353.54617237731873 0 0 0 0 -3.11981024823044 0.76192441756930407 0 0.76192441756930407 -1.1244410272163066 0 0 0 0 -134.78843564107501 -29.931853685855458 0 -29.931853685855458 189.21901093591805 0 0 0 0 25.421352205866242 -68.987288431126217 0 -68.987288431126217 -42.266081921814475 0 0 0 0 -268.15863678752976 -344.57775019317342 0 -344.57775019317342 -240.36859122944588 0 0 0 0 -314.82629134988542 -209.468683743562 0 -209.468683743562 13.880799407546874 0 0 0 0 -186.2073943446137 -140.82672525529779 0 -140.82672525529779 -191.99647117241693 0 0 0 0 -43.831669903713191 -108.62100754283165 0 -108.62100754283165 -131.25357633893145 0 0 0 0 -45.932630457029632 -78.635505788652154 0 -78.635505788652154 -38.65663996632793 0 0 0 0 65.292236434254846 -102.57478747508867 0 -102.57478747508867 -87.229853075303254 0 0 0 0 7.9928023499688887 -8.9449919359214718 0 -8.9449919359214718 -33.325330598258802 0 0 0 0 100.95186601179466 -16.630742364315665 0 -16.630742364315665 -56.765138202321396 0 0 0 0 54.532350866715205 9.7270369640536956 0 9.7270369640536956 -43.457600965659367 0 0 0 0 -4.6017758478556061 -41.671196915925975 0 -41.671196915925975 9.288239844259806 0 0 0 0 26.557563770839806 -45.493296227781684 0 -45.493296227781684 -46.193046893182327 0 0 0 0 8.890141388076799 -13.456282561339322 0 -13.456282561339322 -32.154753136583167 0 0 0 0 3.2304189664646898 -17.285172711959603 0 -17.285172711959603 -32.026759659784148 0 0 0 0 7.0835834932357828 -11.358549753555593 0 -11.358549753555593 -21.704922306239609 0 0 0 0 3.3777807461733005 -15.362817822759098 0 -15.362817822759098 -30.547423072657693 0 0 0 0 -0.62776925308786247 -18.057212822692236 0 -18.057212822692236 -32.236967031472886 0 0 0 0 3.2734290656489762 -15.966629792936146 0 -15.966629792936146 -32.280984014039859 0 0 0 0 0.0028636502030022614 -17.395782167754078 0 -17.395782167754078 -31.672845459637756 0 0 0 0 0.26793910622999562 -15.817202527206973 0 -15.817202527206973 -28.147417208296247 0 0 0 0 0.60771036496884534 -12.351526984915836 0 -12.351526984915836 -34.581499487867404 0 0 0 0 -0.28353050245478784 -14.223493392200908 0 -14.223493392200908 -30.375674097871524 0 0 0 0 -7.0259635920460823 -420.88721985009761 0 -420.88721985009761 -906.91532959369943 0 0 0 0 0.28912100013315184 -205.32444043040596 0 -205.32444043040596 -1116.1944538302632 0 0 0 0 69.899195155558914 -345.46927509761008 0 -345.46927509761008 -838.77775799966184 0 0 0 0 1.7890969779288826 -0.18636820922807829 0 -0.18636820922807829 -0.13280536959648259 0 0 0 0 -0.00022233198062068284 -17.757742829126073 0 -17.757742829126073 -44.593800820104661 0 0 0 0 -77.555377268064603 -101.44165306999639 0 -101.44165306999639 -336.32688379901083 0 0 0 0 -278.40496402089343 -382.38170669880492 0 -382.38170669880492 -589.64173713361379 0 0 0 0 -29.273842073439027 -423.68022858725453 0 -423.68022858725453 -782.30748293519719 0 0 0 0 10.307802535682413 -449.66487039315325 0 -449.66487039315325 -810.23137023666641 0 0 0 0 -10.257677776276978 -525.66538997286989 0 -525.66538997286989 -1086.6407411255932 0 0 0 0 134.16564250656893 -326.1251797946461 0 -326.1251797946461 -951.0658070952195 0 0 0 0 188.3497417348126 -127.50082155305427 0 -127.50082155305427 -648.13502088468522 0 0 0 0 -200.56491629972516 -286.99373118662334 0 -286.99373118662334 -699.52183709290694 0 0 0 0 -380.69417767752475 -459.81820761706331 0 -459.81820761706331 -773.10954442976799 0 0 0 0 -13.481841373127452 -325.27053744483055 0 -325.27053744483055 -723.85428582676104 0 0 0 0 -448.16746277311813 -65.836738356898422 0 -65.836738356898422 -697.55371008240036 0 0 0 0 -213.58972217845621 -220.42914475509315 0 -220.42914475509315 -623.69668858786463 0 0 0 0 -144.12033085766711 -16.182009811604075 0 -16.182009811604075 -425.97483094964991 0 0 0 0 -101.67847462152895 133.14054128361749 0 133.14054128361749 -343.24391047413519 0 0 0 0 -197.97859243090079 17.715469284099527 0 17.715469284099527 -446.89449646836147 0 0 0 0 -212.51072980987828 117.40436293656239 0 117.40436293656239 -131.2924801055633 0 0 0 0 -269.99795101410837 7.4365344239486149 0 7.4365344239486149 124.24018365531811 0 0 0 0 -137.63630571320027 -158.0467630768253 0 -158.0467630768253 -354.92703334364342 0 0 0 0 -155.9096305868261 -219.95223420584807 0 -219.95223420584807 45.761631145454885 0 0 0 0 267.68201311141593 -313.59272356259316 0 -313.59272356259316 -471.95666199066909 0 0 0 0 -14.980892725931881 -122.97952581454592 0 -122.97952581454592 -567.78707966775255 0 0 0 0 -44.363724330615696 -337.42022844606254 0 -337.42022844606254 -749.06185108977661 0 0 0 0 -207.49765693681184 -47.650409281632164 0 -47.650409281632164 -429.51722798647825 0 0 0 0 -78.770310813202741 -433.99097967076523 0 -433.99097967076523 -969.80835318079335 0 0 0 0 -61.877432534859508 -114.77519557936466 0 -114.77519557936466 -1131.2929455413832 0 0 0 0 -13.246275226753303 -3.3115715669478334 0 -3.3115715669478334 -1.994181574064541 0 0 0 0 86.435756707078781 -319.25990411446037 0 -319.25990411446037 -824.10132874530973 0 0 0 0 -224.71956267340124 -381.99943937322314 0 -381.99943937322314 -797.5981619242084 0 0 0 0 5.9932531508165292 -3.2693771985919113 0 -3.2693771985919113 -4.0615492253885179 0 0 0 0 -1.237699590795776 -1.383439056388589 0 -1.383439056388589 -3.9003017420981223 0 0 0 0 -46.641312255816956 153.56767476176901 0 153.56767476176901 -564.76052331799292 0 0 0 0 -389.26977737470679 -682.77912740547617 0 -682.77912740547617 -1161.987821544928 0 0 0 0 -197.50660435203267 -230.9497077533706 0 -230.9497077533706 -967.75581028442321 0 0 0 0 -140.80659987898289 -393.90058836183562 0 -393.90058836183562 -711.19856375222298 0 0 0 0 -219.12172285965661 -352.34944641372931 0 -352.34944641372931 -1061.3826775030284 0 0 0 0 -237.80074566989163 -424.61152775638766 0 -424.61152775638766 -764.09431203964778 0 0 0 0 -238.29804862449419 -354.55978597138346 0 -354.55978597138346 -1178.9455049599528 0 0 0 0 -316.96219322239364 -271.97688067762647 0 -271.97688067762647 -1027.2071885684272 0 0 0 0 -117.86265605926634 -25.654464796400134 0 -25.654464796400134 -909.76566913966963 0 0 0 0 -18.497995087938847 153.95474297566761 0 153.95474297566761 -685.19495616050699 0 0 0 0 -192.06111923223222 741.16775025842071 0 741.16775025842071 -1628.7530279561324 0 0 0 0 166.51070053188906 702.161732421529 0 702.161732421529 -1742.9642565273098 0 0 0 0 360.31414350004485 53.741117930663677 0 53.741117930663677 -3498.6956810244083 0 0 0 0 -18.136756944099169 117.32473712288993 0 117.32473712288993 -1930.3987854766601 0 0 0 0 184.79889079052273 559.25256199953083 0 559.25256199953083 -1785.7111079682218 0 0 0 0 -229.44952571127484 -524.87606387992491 0 -524.87606387992491 -1779.3310617208735 0 0 0 0 346.46410847074787 -98.966794902480615 0 -98.966794902480615 -2356.013146080455 0 0 0 0 301.70982132472176 -643.12520522296472 0 -643.12520522296472 -3501.6071017997238 0 0 0 0 -224.20983611567243 -537.27186398358936 0 -537.27186398358936 -2049.9860168833475 0 0 0 0 -249.63625774508188 -234.50812719252281 0 -234.50812719252281 -1574.2226428696358 0 0 0 0 -448.63193178398177 -410.15855882997676 0 -410.15855882997676 -980.11427013536013 0 0 0 0 -550.97033612081486 -234.81071789620546 0 -234.81071789620546 -886.81703084946639 0 0 0 0 -468.67522435865914 -2.5699379249658705 0 -2.5699379249658705 -758.59662702678906 0 0 0 0 -368.44056071361365 -257.910881374577 0 -257.910881374577 -1229.0885883053384 0 0 0 0 -743.53538411946431 -668.23355737457678 0 -668.23355737457678 -1245.6766366641355 0 0 0 0 -41.363744727397084 -1035.9526142691575 0 -1035.9526142691575 -2170.2741638400694 0 0 0 0 -204.84346714813242 -1510.2286722776371 0 -1510.2286722776371 -3491.0376196784055 0 0 0 0 -1579.368548881152 -2056.0158114503647 0 -2056.0158114503647 -1383.1563324474264 0 0 0 0 -561.71788272874073 -384.40211252196059 0 -384.40211252196059 -1004.0587103206271 0 0 0 0 -33.955926597713187 378.58060786531496 0 378.58060786531496 -233.33624155949838 0 0 0 0 -1618.0048871100305 -1225.514035157199 0 -1225.514035157199 780.02543438077555 0 0 0 0 -7.8546546921667888 -9.0597225662889542 0 -9.0597225662889542 -12.991497039227738 0 0 0 0 445.20424936618554 473.66145425160357 0 473.66145425160357 -1893.5431561288151 0 0 0 0 -118.8354304357628 1447.0114298969456 0 1447.0114298969456 -3496.3896386775741 0 0 0 0 -14.360547410176162 -24.475118358449976 0 -24.475118358449976 -29.051752599391648 0 0 0 0 268.77399720663516 -719.27566265988935 0 -719.27566265988935 160.82257228451635 0 0 0 0 384.17539822731953 262.24949594103509 0 262.24949594103509 -951.28016637887049 0 0 0 0 -713.22875620231957 -332.0202806003108 0 -332.0202806003108 -888.4346449233708 0 0 0 0 -222.84301843846015 37.637406595014909 0 37.637406595014909 -894.90185311361711 0 0 0 0 32.825335475916745 -274.9185722649836 0 -274.9185722649836 -2223.8072577917337 0 0 0 0 -242.83515512217272 259.39749365491775 0 259.39749365491775 -940.1944316507288 0 0 0 0 -71.173023053765974 -0.89996275303928996 0 -0.89996275303928996 -81.291160979465531 0 0 0 0 -3.9050523859641721 -1.9155298251571367 0 -1.9155298251571367 -1.817390302347043 0 0 0 0 -219.14472895664676 -343.39422429704746 0 -343.39422429704746 -522.87043743410322 0 0 0 0 -170.37268642407753 -125.86202509411987 0 -125.86202509411987 -208.14771375105192 0 0 0 0 22.333681555930525 -91.213052844159392 0 -91.213052844159392 -323.58067111486162 0 0 0 0 29.350731675181393 46.403971353728551 0 46.403971353728551 -73.830577365331862 0 0 0 0 -76.120967893477427 28.91373589854993 0 28.91373589854993 -222.00288353722681 0 0 0 0 -43.525956250236959 -343.17050287603524 0 -343.17050287603524 -562.36780902621103 0 0 0 0 20.038919564707612 -63.876752673822921 0 -63.876752673822921 -466.66249627499928 0 0 0 0 -30.403553068419967 -48.969391426581751 0 -48.969391426581751 -388.13927659897308 0 0 0 0 -234.37431485251227 -193.31806800383856 0 -193.31806800383856 -279.7729871982192 0 0 0 0 -76.420221845339256 2.5857316463261668 0 2.5857316463261668 -199.0115530600815 0 0 0 0 28.479643711627144 44.795963445991603 0 44.795963445991603 -71.336092286626069 0 0 0 0 -107.65614052189335 -207.26623813775223 0 -207.26623813775223 -357.83777571823521 0 0 0 0 -120.45919488822847 -262.24312677538092 0 -262.24312677538092 -568.20589872463461 0 0 0 0 -330.54193286687791 -229.74255683413503 0 -229.74255683413503 -571.54348873221534 0 0 0 0 -236.86007698411163 -84.657596047181869 0 -84.657596047181869 -1050.9832273867978 0 0 0 0 -213.52869842026581 -284.01800206870121 0 -284.01800206870121 -888.85799670980487 0 0 0 0 -229.38627263605855 -386.96775834682194 0 -386.96775834682194 -782.67251795046832 0 0 0 0 -307.28040794867968 -263.02634423928612 0 -263.02634423928612 -890.96012315936241 0 0 0 0 -345.37972724304336 -434.90030808002575 0 -434.90030808002575 -784.89813000004506 0 0 0 0 -308.38362811748368 -384.95064748048571 0 -384.95064748048571 -582.75168802441476 0 0 0 0 -194.36470930298788 -175.46940968631316 0 -175.46940968631316 -367.17361379556314 0 0 0 0 -81.696095044731635 -183.43826677183461 0 -183.43826677183461 -391.07220896560284 0 0 0 0 -182.91304794112128 -330.37974242976134 0 -330.37974242976134 -482.72014935342304 0 0 0 0 -129.37234128868408 -302.96270911311512 0 -302.96270911311512 -564.58542671666874 0 0 0 0 -82.226820169497927 -436.71515525751238 0 -436.71515525751238 -664.83264597960806 0 0 0 0 -178.50036027085736 -393.94601110860094 0 -393.94601110860094 -568.97325030876527 0 0 0 0 -59.023179937702537 -295.34871815689621 0 -295.34871815689621 -523.38977009443806 0 0 0 0 -5.9857384280277159 -370.26345314271384 0 -370.26345314271384 -650.4381653597884 0 0 0 0 -75.537108175770243 -418.96194447675589 0 -418.96194447675589 -624.29176377849944 0 0 0 0 -94.713683397836135 -432.58447035019299 0 -432.58447035019299 -666.18382838114485 0 0 0 0 -104.60762824455253 -473.06679463420642 0 -473.06679463420642 -678.59475611179369 0 0 0 0 -198.27823446960269 -480.40828420260732 0 -480.40828420260732 -687.18145260407255 0 0 0 0 -182.42210783089416 -370.88512755463671 0 -370.88512755463671 -760.29462252793019 0 0 0 0 -95.975426485996437 -477.59390007390175 0 -477.59390007390175 -711.63900106756046 0 0 0 0 -111.43888843524728 -409.88360925943334 0 -409.88360925943334 -795.01265562746266 0 0 0 0 40.310001449952928 35.207215205726996 0 35.207215205726996 -63.901223344446208 0 0 0 0 -93.396196747537033 -108.20014258800256 0 -108.20014258800256 -253.37174089290784 0 0 0 0 -82.519617602077233 -128.67552731750038 0 -128.67552731750038 -220.65759021966369 0 0 0 0 34.847010719789843 27.811016686462608 0 27.811016686462608 -199.6215074043248 0 0 0 0 36.744069367259144 -236.73336867870512 0 -236.73336867870512 -579.4330727018023 0 0 0 0 20.974656193919763 -149.62386761635844 0 -149.62386761635844 -423.03011797118234 0 0 0 0 -59.599797928591101 -290.37454559158869 0 -290.37454559158869 -529.97662756650243 0 0 0 0 0.38604025215676074 -160.16821256470575 0 -160.16821256470575 -397.58428813847422 0 0 0 0 -32.572899491247853 -75.476863233849599 0 -75.476863233849599 -265.62347877421416 0 0 0 0 -72.832794625321981 -195.31110037484541 0 -195.31110037484541 -378.44759645019803 0 0 0 0 -104.02499736045121 -85.093427844932648 0 -85.093427844932648 -223.12170849391259 0 0 0 0 30.774136250327842 42.563105549557676 0 42.563105549557676 -69.225975831764956 0 0 0 0 -78.645019223324709 -106.58092756175711 0 -106.58092756175711 -287.24142770639446 0 0 0 0 -84.45586114616799 -149.89583961384051 0 -149.89583961384051 -298.82050841923774 0 0 0 0 35.366610668410679 39.148284605540084 0 39.148284605540084 -66.553875104287229 0 0 0 0 -61.19573693338134 -111.22839097166798 0 -111.22839097166798 -274.14278856032979 0 0 0 0 -81.837441535663402 -134.10944782617844 0 -134.10944782617844 -209.59139623452211 0 0 0 0 -49.205289377610825 -109.29854346847424 0 -109.29854346847424 -251.21786004968453 0 0 0 0 -85.227924086377243 -137.62993138802267 0 -137.62993138802267 -263.66030073530419 0 0 0 0 -93.168051244063463 -93.080719465971924 0 -93.080719465971924 -190.35986789461822 0 0 0 0 -76.11958945191509 -101.5129749139378 0 -101.5129749139378 -286.13100541800668 0 0 0 0 -60.254096485771242 -112.04842253011157 0 -112.04842253011157 -447.41509684824268 0 0 0 0 -1.0638240299971748 -0.13840589498138911 0 -0.13840589498138911 -4.1965289465899502 0 0 0 0 -79.578447755529396 -169.47640976420689 0 -169.47640976420689 -394.70384626099258 0 0 0 0 -75.607161728654319 -187.41530267125927 0 -187.41530267125927 -232.90943277772749 0 0 0 0 -1.7037951658797819 -1.5502675957951668 0 -1.5502675957951668 -0.23474942788857334 0 0 0 0 -66.012371228912343 -138.84615319722798 0 -138.84615319722798 -323.32192829216365 0 0 0 0 -86.322527819422248 -121.21431991558347 0 -121.21431991558347 -240.70781675743638 0 0 0 0 -81.690759313109083 -72.881483890414529 0 -72.881483890414529 -347.1199287759373 0 0 0 0 -73.225199586087683 -35.569147036319919 0 -35.569147036319919 -442.40083056980802 0 0 0 0 -79.776949375736876 -53.468651799586951 0 -53.468651799586951 -316.51326475859969 0 0 0 0 -126.28784935201111 -17.453783450007904 0 -17.453783450007904 -239.86774660881201 0 0 0 0 -105.49837402955563 -33.965942185895983 0 -33.965942185895983 -321.90204955305308 0 0 0 0 -98.082290295275016 -56.691792345958675 0 -56.691792345958675 -252.41077828055131 0 0 0 0 -90.180610350982533 -99.845524844437023 0 -99.845524844437023 -275.65596288689994 0 0 0 0 -108.7353949591843 -80.625277856910543 0 -80.625277856910543 -294.94653372936591 0 0 0 0 -66.182007911168512 -102.68598649297564 0 -102.68598649297564 -290.77754400513368 0 0 0 0 -75.762939427305355 -151.02039157840045 0 -151.02039157840045 -336.46739823003645 0 0 0 0 -92.375734977293178 -139.41686557292996 0 -139.41686557292996 -335.60215097811306 0 0 0 0 -43.457256006138778 -201.52545479570108 0 -201.52545479570108 -385.31193766814249 0 0 0 0 -129.35832611717706 -124.57967104711861 0 -124.57967104711861 -267.10835430014413 0 0 0 0 -200.77911337180194 -199.29543205955997 0 -199.29543205955997 -297.39462778577581 0 0 0 0 -112.3428175118388 -352.68186819460971 0 -352.68186819460971 -603.04919113218784 0 0 0 0 -175.82963947261305 -325.20379225069337 0 -325.20379225069337 -562.87345106411522 0 0 0 0 -234.4080275907163 -265.41212930809706 0 -265.41212930809706 -482.52285669359844 0 0 0 0 -483.5760286193472 -325.00840817313292 0 -325.00840817313292 -461.0370783050821 0 0 0 0 -270.03570369197132 -145.13718353421064 0 -145.13718353421064 -77.074651882750914 0 0 0 0 -315.95015345317006 -260.34490280132013 0 -260.34490280132013 -241.05361797939986 0 0 0 0 -191.88121404693629 -144.14891929655278 0 -144.14891929655278 -144.81022174088866 0 0 0 0 -148.9358171246131 -75.704952750151278 0 -75.704952750151278 -241.08513647640211 0 0 0 0 -182.27050124118705 -84.925939597733304 0 -84.925939597733304 -231.39007963894983 0 0 0 0 -171.1772051140772 -33.979214169679835 0 -33.979214169679835 -149.46969843527768 0 0 0 0 -102.7658690021608 -37.887490377819631 0 -37.887490377819631 -237.7752495611785 0 0 0 0 -146.67137658041065 5.1833417960733641 0 5.1833417960733641 -106.07507025127416 0 0 0 0 -78.349779429072441 1.4330673460062826 0 1.4330673460062826 -191.17157902393956 0 0 0 0 35.474062090705502 15.397697384520143 0 15.397697384520143 -143.82597013964551 0 0 0 0 -108.23836686149662 -74.424816531754914 0 -74.424816531754914 -199.96261500639957 0 0 0 0 -2.5352730103870194 0.68364287202868468 0 0.68364287202868468 -0.36766399395616922 0 0 0 0 -163.72727221573223 -315.13150698478421 0 -315.13150698478421 -556.70131766228587 0 0 0 0 -204.36113049076675 -17.362424943501537 0 -17.362424943501537 79.595404537707509 0 0 0 0 -22.954729204443424 -100.01501126746734 0 -100.01501126746734 -142.57764540892094 0 0 0 0 -4.6777672923176867 0.27907070913622078 0 0.27907070913622078 -0.28000924853125797 0 0 0 0 -133.98245052545758 -117.76502331176016 0 -117.76502331176016 -55.661640211859776 0 0 0 0 -4.3649349730742415 -88.326427298481576 0 -88.326427298481576 -218.57281098375097 0 0 0 0 12.905847356529534 -117.59906928420969 0 -117.59906928420969 -193.83341109759931 0 0 0 0 -38.160742120422128 -80.755685766314855 0 -80.755685766314855 -205.78165799233102 0 0 0 0 -12.244296853562219 -74.147175431899086 0 -74.147175431899086 -234.01248881664651 0 0 0 0 -54.162167289453009 -111.71621758679612 0 -111.71621758679612 -261.77378988580313 0 0 0 0 -151.12367120732506 -10.859770706272684 0 -10.859770706272684 -216.08776262380343 0 0 0 0 -113.90673701909918 19.54933536752651 0 19.54933536752651 -360.831612463895 0 0 0 0 -89.714347133618503 -2.218301100518147 0 -2.218301100518147 1.072712430061074 0 0 0 0 -105.9664537366516 64.54747320246679 0 64.54747320246679 -56.908065151772462 0 0 0 0 -32.196727694987658 15.710130240302533 0 15.710130240302533 -287.95457729027657 0 0 0 0 -32.764641235719466 16.353559810380375 0 16.353559810380375 -140.40843690969632 0 0 0 0 -45.623831372056429 -16.180401879319106 0 -16.180401879319106 -63.965262044439896 0 0 0 0 -86.05273310510961 4.8886996277615253 0 4.8886996277615253 8.6072929437359562 0 0 0 0 -47.318627921489224 11.801985775993671 0 11.801985775993671 4.8951419719087426 0 0 0 0 -73.410425072410135 29.840115551342024 0 29.840115551342024 -7.0832965522131417 0 0 0 0 -41.455733496259654 8.4398364438529825 0 8.4398364438529825 -62.914960906840861 0 0 0 0 -64.769494729034705 -2.5721793211050681 0 -2.5721793211050681 -37.708886638059994 0 0 0 0 -59.657839624652524 16.712901892271475 0 16.712901892271475 19.222446293744724 0 0 0 0 -63.971305597940955 -14.635997190693161 0 -14.635997190693161 21.267990621049194 0 0 0 0 -43.026403938259591 8.6643318323185667 0 8.6643318323185667 47.095997841635835 0 0 0 0 -64.235840632488845 -4.1973662223632573 0 -4.1973662223632573 -1.6498543350026011 0 0 0 0 -21.782351035669308 -29.890406941311085 0 -29.890406941311085 13.303376785159344 0 0 0 0 -57.039180859773296 4.8766085546812974 0 4.8766085546812974 8.3202859677658125 0 0 0 0 -10.786893507778586 47.556025278419838 0 47.556025278419838 -21.961675776197808 0 0 0 0 -60.977459343764508 21.820596510955511 0 21.820596510955511 18.723975409928244 0 0 0 0 -1.1009267399788882 -131.49585020388508 0 -131.49585020388508 11.611153166886652 0 0 0 0 -26.947537243383522 -7.4145720148080727 0 -7.4145720148080727 -82.78055168427818 0 0 0 0 -2.088206214830322 6.0645563165070939 0 6.0645563165070939 -6.09696176335639 0 0 0 0 -3.7995927498827293 -0.84625723686676224 0 -0.84625723686676224 -0.32760643960851876 0 0 0 0 -3.7679720150380263 4.0943276199759566 0 4.0943276199759566 -24.663959053308645 0 0 0 0 -61.651196715644801 -27.178512447833782 0 -27.178512447833782 67.662257386164129 0 0 0 0 39.709383433829316 -41.026927814062219 0 -41.026927814062219 -112.10027972825628 0 0 0 0 55.677052224409636 86.589145262239981 0 86.589145262239981 -244.20368453429546 0 0 0 0 25.535428897621387 74.353849215534865 0 74.353849215534865 -81.496783949460223 0 0 0 0 -60.023729443335469 -135.94049655553681 0 -135.94049655553681 83.942442710067553 0 0 0 0 -8.5454322234254505 -31.632788547576638 0 -31.632788547576638 -461.72712998848874 0 0 0 0 -93.202928118101227 49.153954878260265 0 49.153954878260265 -86.222085027231515 0 0 0 0 -81.385014149122526 86.078615894213726 0 86.078615894213726 -588.4803663904604 0 0 0 0 -31.057994922031412 -44.766071423931862 0 -44.766071423931862 -34.973869351117173 0 0 0 0 -1.3670906793737103 1.8060731476598448 0 1.8060731476598448 -2.2615595008585547 0 0 0 0 -49.934177492255458 -16.317886733326304 0 -16.317886733326304 30.941308193832811 0 0 0 0 -3.7441804526024498 44.361794827855192 0 44.361794827855192 -595.53017498576082 0 0 0 0 -130.84077946304751 -163.39695876828046 0 -163.39695876828046 -123.86818030959694 0 0 0 0 0.18554104218010181 0.029417920362021732 0 0.029417920362021732 -0.73221442869585474 0 0 0 0 -234.28490361905142 -84.824273294514569 0 -84.824273294514569 32.601268447644543 0 0 0 0 -148.43521629815859 -21.089087327782181 0 -21.089087327782181 66.311732295449474 0 0 0 0 -154.98500710218013 184.43607797820732 0 184.43607797820732 53.653446893942601 0 0 0 0 -22.722815905779498 -252.66151585174521 0 -252.66151585174521 -261.53609635966131 0 0 0 0 0.77437551625275902 -9.7674905609664542 0 -9.7674905609664542 -18.769768114900842 0 0 0 0 200.60022920317306 -11.071785368556448 0 -11.071785368556448 -78.47737746052735 0 0 0 0 -251.95081685709647 75.922012256422022 0 75.922012256422022 -50.089308669761522 0 0 0 0 -14.150654266998572 -6.1014997324891738 0 -6.1014997324891738 4.190217438939726 0 0 0 0 -2.1558368712868061 -4.4485728514122123 0 -4.4485728514122123 -2.5322991878750543 0 0 0 0 8.2555640550217504 -4.7440754958224716 0 -4.7440754958224716 -5.985702398174908 0 0 0 0 1.7462441653906353 -5.0418433772210847 0 -5.0418433772210847 -2.6965991108154412 0 0 0 0 -14.169017748222132 -9.0369050684457761 0 -9.0369050684457761 -1.8841753822489409 0 0 0 0 5.2547647435330873 -11.151956492591125 0 -11.151956492591125 -15.527425067848526 0 0 0 0 -12.201790459193944 -9.4858786414406495 0 -9.4858786414406495 -5.7401927254468319 0 0 0 0 3.9624950531842842 -2.0865348395673209 0 -2.0865348395673209 1.0967312298889738 0 0 0 0 1.3074372806809151 -8.1162130489974516 0 -8.1162130489974516 1.7817066084771795 0 0 0 0 10.416554900090432 -21.947464321150619 0 -21.947464321150619 -145.25305858148204 0 0 0 0 -0.68441170597949386 -1.9787418340416352 0 -1.9787418340416352 -0.68720948611408517 0 0 0 0 11.749319910017675 -3.9946206832901225 0 -3.9946206832901225 6.5382705797383096 0 0 0 0 -17.616666458572809 22.244100647507366 0 22.244100647507366 -33.084519461845048 0 0 0 0 38.610691393331763 8.0852595977557939 0 8.0852595977557939 -65.907927595559158 0 0 0 0 -31.25331474192717 -14.952988894714508 0 -14.952988894714508 19.506682236304187 0 0 0 0 1.5902309861467328 -6.9850660319565794 0 -6.9850660319565794 -17.627782313869318 0 0 0 0 136.40464295448771 86.869261894794363 0 86.869261894794363 -26.389910789846908 0 0 0 0 -22.022436723600549 -26.113079355032824 0 -26.113079355032824 -28.772137175634271 0 0 0 0 12.441669439213911 12.837936582091061 0 12.837936582091061 -0.21428383013699204 0 0 0 0 10.993488761376227 -29.834957604124611 0 -29.834957604124611 -21.384761043998878 0 0 0 0 0.15756823925331725 -7.6933793867450282 0 -7.6933793867450282 -14.27113668365422 0 0 0 0 -10.232384958584849 0.42306854667943128 0 0.42306854667943128 1.5084976602961717 0 0 0 0 -30.893619974999638 -19.963434063793102 0 -19.963434063793102 57.375164115452208 0 0 0 0 -83.923028399733084 -84.113610356478603 0 -84.113610356478603 14.611231132090325 0 0 0 0 -7.4734323439075503 0.20032733390196711 0 0.20032733390196711 2.2009549005497604 0 0 0 0 -38.518485738297386 -82.44507976485329 0 -82.44507976485329 -190.73690723444815 0 0 0 0 -33.850092258706354 -49.098815581062809 0 -49.098815581062809 -21.391458039202917 0 0 0 0 -4.6590435508589962 77.457065359506487 0 77.457065359506487 -45.757161910267314 0 0 0 0 -74.220124718081934 -20.994531284330151 0 -20.994531284330151 -1.9847257497604005 0 0 0 0 -20.873109386091755 -32.446080232463828 0 -32.446080232463828 -21.277534489199752 0 0 0 0 -26.258997878474474 -17.97161973688344 0 -17.97161973688344 -3.731227720491006 0 0 0 0 -20.579603614334701 -12.943892657625838 0 -12.943892657625838 -1.6880913851200603 0 0 0 0 -16.529680257476684 -15.906353193957329 0 -15.906353193957329 -9.7849084998306353 0 0 0 0 -13.393982742059052 -18.239885459457582 0 -18.239885459457582 -7.0629644156433642 0 0 0 0 -7.3614727947415304 -8.9616715876836679 0 -8.9616715876836679 -6.4807533287348633 0 0 0 0 -6.2713031187759043 -17.59964859761385 0 -17.59964859761385 -15.191394517663866 0 0 0 0 -5.1319211856560401 -8.2901679342007846 0 -8.2901679342007846 1.1842777893597827 0 0 0 0 -7.4247639064274153 -0.50041091231241808 0 -0.50041091231241808 2.6124635508531355 0 0 0 0 -4.3698479573549776 -34.461047992328531 0 -34.461047992328531 -24.745061640998756 0 0 0 0 -4.95247461507536 -6.2007879627725266 0 -6.2007879627725266 7.9453129223487338 0 0 0 0 -16.764595907012385 -13.942825063713883 0 -13.942825063713883 -1.2180930822388607 0 0 0 0 -5.2376332354742772 -17.260042605415947 0 -17.260042605415947 -15.537895468612987 0 0 0 0 -29.905487646970869 -23.695151841501456 0 -23.695151841501456 1.1878461871674517 0 0 0 0 -129.30258928956391 -48.023999114375329 0 -48.023999114375329 5.5193022330349777 0 0 0 0 -40.256364638595187 -20.404548751317634 0 -20.404548751317634 -37.8604051706061 0 0 0 0 -24.314154546508853 -24.779617363140233 0 -24.779617363140233 -6.906632906373412 0 0 0 0 -7.1066328985290248 -12.519379190086308 0 -12.519379190086308 -6.1057526795993908 0 0 0 0 -8.6903463199705584 -21.362095220247284 0 -21.362095220247284 -11.036410637680092 0 0 0 0 40.231877714100847 -49.803203920381748 0 -49.803203920381748 -44.584341514040716 0 0 0 0 7.5890421601907292 -160.64656196193391 0 -160.64656196193391 36.734639712725766 0 0 0 0 -161.60984652062643 -109.81412935139178 0 -109.81412935139178 59.705382245301735 0 0 0 0 -134.00705647484938 -170.38731367837681 0 -170.38731367837681 119.47813853359548 0 0 0 0 -136.62797776348452 15.136354015063262 0 15.136354015063262 -63.125569417905353 0 0 0 0 -106.15398978922167 -129.86429785301152 0 -129.86429785301152 8.4540294221078511 0 0 0 0 -163.31843107146415 -22.077572594571393 0 -22.077572594571393 130.19940836063415 0 0 0 0 92.79490954623725 -190.8671354514081 0 -190.8671354514081 -110.18737324984977 0 0 0 0 -91.369441907894725 -153.64817931907965 0 -153.64817931907965 -292.36635246063088 0 0 0 0 -43.564849666068767 -70.966281643071852 0 -70.966281643071852 -157.23391392770282 0 0 0 0 -456.19228035175183 -68.323971116631583 0 -68.323971116631583 -31.45550519873359 0 0 0 0 -0.1148935380785594 -2.205502979540011 0 -2.205502979540011 -1.3485425519008913 0 0 0 0 -3.5760906751924928 -0.79079524235510235 0 -0.79079524235510235 4.5140420606094835 0 0 0 0 -4.0869814286870678 10.973977792658843 0 10.973977792658843 -162.91682563144423 0 0 0 0 -74.814437135477874 -156.83731949191861 0 -156.83731949191861 -191.38575802386913 0 0 0 0 -136.02851828467828 -112.19131823366479 0 -112.19131823366479 -219.0654174816882 0 0 0 0 -33.696793324596001 -86.433095539814531 0 -86.433095539814531 -248.06628099635418 0 0 0 0 -116.01816062324883 -44.518844684736905 0 -44.518844684736905 -255.76801493600942 0 0 0 0 -1.8492993388260035 -7.5596344513477476 0 -7.5596344513477476 -18.435210555437436 0 0 0 0 0.21129215023916004 -3.4585601404178306 0 -3.4585601404178306 -30.126827375497669 0 0 0 0 0.24514191306934663 -6.8106369091183296 0 -6.8106369091183296 -21.88014711762662 0 0 0 0 10.381818379153401 -2.4558629826715332 0 -2.4558629826715332 -31.22907730510633 0 0 0 0 4.2454680460144507 8.0460248952790323 0 8.0460248952790323 -8.55862278150218 0 0 0 0 4.1017893876684184 -3.216294157817174 0 -3.216294157817174 -37.828694634619751 0 0 0 0 2.5967737246601246 -7.2652564462114242 0 -7.2652564462114242 -40.150864805524179 0 0 0 0 4.1231183570353664 46.968142674981209 0 46.968142674981209 44.558051988642546 0 0 0 0 1.5819166855376352 -0.63882020601158729 0 -0.63882020601158729 -31.037980632157996 0 0 0 0 -0.56517004539341542 -5.0725562028892455 0 -5.0725562028892455 -33.852380286421976 0 0 0 0 2.5558516568032843 7.3482552197730797 0 7.3482552197730797 -12.688907523163948 0 0 0 0 -8.4286365783697406 18.908500835881568 0 18.908500835881568 32.101648919855506 0 0 0 0 -4.3193213781940472 -7.1219068126665661 0 -7.1219068126665661 -31.21796925298986 0 0 0 0 48.416941259722208 15.095377818855923 0 15.095377818855923 11.396929852315225 0 0 0 0 34.916446862691259 17.416024840669706 0 17.416024840669706 13.650545988057274 0 0 0 0 18.933107023118126 -2.7935950668033911 0 -2.7935950668033911 27.735363055980997 0 0 0 0 -1.6225438107969694 -0.57097157166572288 0 -0.57097157166572288 28.614951443421887 0 0 0 0 -2.5727726785444531 4.3717731668730266 0 4.3717731668730266 19.940679711929988 0 0 0 0 -1.0394597871453453 -0.39366206058184616 0 -0.39366206058184616 -5.9565676331403665 0 0 0 0 -2.3457969824580402 6.6118269558014617 0 6.6118269558014617 -28.308955495464033 0 0 0 0 -6.2733779179224314 -5.0282011832168791 0 -5.0282011832168791 -6.7342366097436752 0 0 0 0 -0.66816787533500843 22.883697761433723 0 22.883697761433723 12.76284983727237 0 0 0 0 0.28204532330941584 0.93511861409690766 0 0.93511861409690766 -1.9511792639394798 0 0 0 0 -0.022183291477963916 1.9719705723549039 0 1.9719705723549039 -8.1070430153922644 0 0 0 0 -8.4501365943425242 -15.520545549370581 0 -15.520545549370581 -27.489978152007097 0 0 0 0 -0.01604740306443829 -0.64442003466729147 0 -0.64442003466729147 -2.0955444615256056 0 0 0 0 -0.65534287398697089 -9.1520928737954819 0 -9.1520928737954819 -11.545583217070089 0 0 0 0 0.63024927313089307 -10.522103105427959 0 -10.522103105427959 -20.031234694615705 0 0 0 0 1.1115562526261797 -11.675765056992532 0 -11.675765056992532 -19.688774974260014 0 0 0 0 -0.0063148087696977655 -15.876136438477261 0 -15.876136438477261 -18.906470707705012 0 0 0 0 2.7628077455887095 -12.068027873669052 0 -12.068027873669052 -26.986974357547297 0 0 0 0 2.8365602929657641 -10.294779905083487 0 -10.294779905083487 -34.974519978204626 0 0 0 0 3.2907060487409221 -8.2208330664338263 0 -8.2208330664338263 -21.286524734421562 0 0 0 0 171.12018096326733 30.222995409734722 0 30.222995409734722 -110.65612559110741 0 0 0 0 0.44414309780324235 -8.2453137033930091 0 -8.2453137033930091 -21.619283613728726 0 0 0 0 11.766078804888139 -6.6667932055861456 0 -6.6667932055861456 -21.931021772514214 0 0 0 0 142.59586082941587 -66.029433298353979 0 -66.029433298353979 -17.788188027014257 0 0 0 0 10.255887253514539 2.7285975196196119 0 2.7285975196196119 -10.460631549070996 0 0 0 0 37.422387850407176 13.511131735416711 0 13.511131735416711 -44.910326559900568 0 0 0 0 -12.427973049669902 -102.24906077335618 0 -102.24906077335618 -183.70679250718968 0 0 0 0 -203.76569560523194 -130.53846338249787 0 -130.53846338249787 -73.993234211055096 0 0 0 0 -77.130563565163357 51.815841174713569 0 51.815841174713569 -120.7810801091 0 0 0 0 -227.73165638314413 -24.247056173699093 0 -24.247056173699093 -52.358108020023792 0 0 0 0 -40.605467462995421 -37.467312566557666 0 -37.467312566557666 -117.28768532793038 0 0 0 0 61.912349880592501 14.062852484144969 0 14.062852484144969 -135.71995472988056 0 0 0 0 62.446444203368628 1.0819639435576391 0 1.0819639435576391 36.066060129218386 0 0 0 0 -172.7057015224176 -48.675010396629659 0 -48.675010396629659 95.047554088552715 0 0 0 0 -2.1033029969746524 1.1499789251584218 0 1.1499789251584218 -0.29981677235479598 0 0 0 0 -20.666692941034228 -139.7505508812319 0 -139.7505508812319 -466.4454902645366 0 0 0 0 -193.38091315185952 -203.45327479030084 0 -203.45327479030084 -187.15870720178646 0 0 0 0 -10.599482041019868 -109.33672053580449 0 -109.33672053580449 -214.43190248028259 0 0 0 0 -17.280244979632045 -81.270203800577292 0 -81.270203800577292 -198.7170910849236 0 0 0 0 -10.386260609572673 -54.444182385246677 0 -54.444182385246677 -141.43400847543671 0 0 0 0 -46.334719367322236 -113.83849450283742 0 -113.83849450283742 -196.57005624343583 0 0 0 0 -76.693646798913875 -75.018076102784107 0 -75.018076102784107 -107.85821060313901 0 0 0 0 -50.338544226951058 -58.264052658487344 0 -58.264052658487344 -145.31151076306742 0 0 0 0 -21.454549080537163 -7.4174433601510827 0 -7.4174433601510827 -76.337349096516846 0 0 0 0 -96.882290541063639 -48.939530024952546 0 -48.939530024952546 -49.581222971115494 0 0 0 0 -30.589112046975629 14.050011961626296 0 14.050011961626296 -20.221816507852054 0 0 0 0 -4.4525629623717577 10.904109547205735 0 10.904109547205735 -29.427404978880077 0 0 0 0 -1.4916434900697766 18.638996995956404 0 18.638996995956404 -39.554919107707974 0 0 0 0 -30.942215884334892 -30.236455339731776 0 -30.236455339731776 -55.348557175486349 0 0 0 0 -25.657306792401755 -14.176235044316854 0 -14.176235044316854 -94.855448952948791 0 0 0 0 -25.07658213031732 -11.417782110162079 0 -11.417782110162079 -52.297169561832561 0 0 0 0 -39.805549601792791 5.469924616831122 0 5.469924616831122 -65.98203223964083 0 0 0 0 -32.748314838395231 -52.802885424130181 0 -52.802885424130181 -132.75327274171286 0 0 0 0 159.52195842299079 86.498311895506049 0 86.498311895506049 -70.779398243328615 0 0 0 0 3.7149822449848893 -1.8225065404325278 0 -1.8225065404325278 -29.450636659151826 0 0 0 0 65.458836548789577 54.690295232889184 0 54.690295232889184 -51.638682785240235 0 0 0 0 86.252063423211894 12.479571812178619 0 12.479571812178619 -0.41794921940891072 0 0 0 0 -50.852367534763744 12.139196978139807 0 12.139196978139807 -10.118524450939731 0 0 0 0 -77.433296858212543 13.931850544919143 0 13.931850544919143 -32.036801590453251 0 0 0 0 -5.472188200959863 15.437386180783506 0 15.437386180783506 -54.848048835250665 0 0 0 0 -10.707376548889897 34.10004142827529 0 34.10004142827529 5.3012512352142949 0 0 0 0 40.117691046491018 51.693269520998001 0 51.693269520998001 -17.454035379341803 0 0 0 0 18.902822262347399 60.739195103611564 0 60.739195103611564 1.3186076392303221 0 0 0 0 10.150253785726818 36.252845169772627 0 36.252845169772627 -22.96994039506535 0 0 0 0 -36.319163409158591 18.964551298882725 0 18.964551298882725 -5.9700483007181901 0 0 0 0 -7.105115563860636 41.13810894251219 0 41.13810894251219 8.7546072664263193 0 0 0 0 2.7810965947855948 39.129384356907394 0 39.129384356907394 4.9265608470886946 0 0 0 0 43.147285046543402 54.395646135613788 0 54.395646135613788 -4.5520444679714274 0 0 0 0 31.765090474958924 42.174785538489232 0 42.174785538489232 -0.71031126503658015 0 0 0 0 23.06343663026837 51.230078712396789 0 51.230078712396789 8.957038787935744 0 0 0 0 30.009996984405461 54.496686850397964 0 54.496686850397964 2.9993903224240057 0 0 0 0 46.516234434149737 45.294607529562199 0 45.294607529562199 7.1158230664441362 0 0 0 0 0.86251031100921693 2.3878139054927061 0 2.3878139054927061 -20.551465165533415 0 0 0 0 51.369286431690853 58.563082634704188 0 58.563082634704188 -2.2455646301168599 0 0 0 0 59.412481228673641 57.12293530072202 0 57.12293530072202 -1.5078453488240484 0 0 0 0 42.229967267990105 57.078107053814165 0 57.078107053814165 -1.923921656969469 0 0 0 0 61.255934435738709 66.376325921097305 0 66.376325921097305 22.420351025095442 0 0 0 0 53.312923027118813 65.29448853249778 0 65.29448853249778 -5.0603104207839351 0 0 0 0 58.616162106527554 56.083238344275742 0 56.083238344275742 0.36839256438543089 0 0 0 0 41.475480469427566 44.2279363652342 0 44.2279363652342 13.870499170850962 0 0 0 0 3.8454354213334314 -1.5578587199160765 0 -1.5578587199160765 -35.949919062101173 0 0 0 0 148.51273619034691 68.59764213548624 0 68.59764213548624 1.3414218687976245 0 0 0 0 1.1707784708642781 3.60391601163834 0 3.60391601163834 -17.160609459845887 0 0 0 0 4.3943117088524559 1.6665376246637607 0 1.6665376246637607 -32.469247274973895 0 0 0 0 0.59564388962712655 -1.6269893004719052 0 -1.6269893004719052 -33.827807143738028 0 0 0 0 121.95807618297664 77.766719453371479 0 77.766719453371479 -20.976620387285948 0 0 0 0 3.8692703579327117 2.9484113138173882 0 2.9484113138173882 -19.675582320025512 0 0 0 0 19.894088740354306 47.073029832019529 0 47.073029832019529 23.883421713399002 0 0 0 0 6.2899793208816845 6.9457790826272685 0 6.9457790826272685 -13.40798354690196 0 0 0 0 -10.926634751058373 -1.7998413920213352 0 -1.7998413920213352 -20.315174065159226 0 0 0 0 -3.4440568594982324 -4.5183864785940386 0 -4.5183864785940386 -27.014927753654774 0 0 0 0 -4.6586668075767346 -2.9679888029787946 0 -2.9679888029787946 -21.613935557395109 0 0 0 0 -4.0260101280520679 5.4957092835965113 0 5.4957092835965113 -11.453282186901248 0 0 0 0 0.71288140572216463 -4.9570146534916262 0 -4.9570146534916262 -33.90726644249122 0 0 0 0 62.453381198214629 47.389645699127868 0 47.389645699127868 6.7050802325829864 0 0 0 0 40.602069357604705 48.810458433639724 0 48.810458433639724 10.845678311699885 0 0 0 0 27.305185775562677 34.659862361630076 0 34.659862361630076 58.473209643329028 0 0 0 0 -11.472750869745255 -28.788198989572265 0 -28.788198989572265 -71.469078464549966 0 0 0 0 -1.4227379762931536 1.780786903347007 0 1.780786903347007 -7.431061146746984 0 0 0 0 17.661389606857711 58.584341819019755 0 58.584341819019755 53.787510278998525 0 0 0 0 35.765630185694135 36.040597554747364 0 36.040597554747364 27.120763246261049 0 0 0 0 14.629664063237215 50.686683674299275 0 50.686683674299275 39.251321000221651 0 0 0 0 57.568620998345523 31.926318947938853 0 31.926318947938853 27.207534194807522 0 0 0 0 17.771127767074631 55.26662168346229 0 55.26662168346229 19.73155012857751 0 0 0 0 8.3621869684602643 34.428571242897306 0 34.428571242897306 10.160853756475262 0 0 0 0 15.756483431048764 47.114661960717058 0 47.114661960717058 31.105196726508439 0 0 0 0 16.528530981944186 51.059011545148678 0 51.059011545148678 30.620087234710809 0 0 0 0 7.7482207184489198 53.039421046953066 0 53.039421046953066 30.393224394501885 0 0 0 0 12.572914858305012 61.892327776964521 0 61.892327776964521 47.946468693371571 0 0 0 0 21.842142685792169 60.745988177979598 0 60.745988177979598 34.438557588655385 0 0 0 0 10.813663749090665 54.314526730537182 0 54.314526730537182 46.578423109836876 0 0 0 0 1.3335919631743325 2.6095382695298071 0 2.6095382695298071 -17.012235284284714 0 0 0 0 -14.573266287936804 -3.7219231689923618 0 -3.7219231689923618 -19.106638597877463 0 0 0 0 -9.2994040186017628 5.2202676202796283 0 5.2202676202796283 -34.011941166245379 0 0 0 0 -3.449671524507897 5.2947478029789465 0 5.2947478029789465 -10.359110863037884 0 0 0 0 -57.24138842949526 38.030343485035701 0 38.030343485035701 22.381322810979327 0 0 0 0 41.470857101788454 104.80764666653704 0 104.80764666653704 -3.5340875529072946 0 0 0 0 6.472933167936521 0.25713436256991429 0 0.25713436256991429 -32.232537567564691 0 0 0 0 -45.416826012593901 36.416166254217387 0 36.416166254217387 40.907744408206781 0 0 0 0 -32.955941745139171 10.959209876207751 0 10.959209876207751 2.8925356734034722 0 0 0 0 -44.514824015044184 12.80864556403867 0 12.80864556403867 2.9231590464769397 0 0 0 0 -33.454884732038693 0.91838757175355568 0 0.91838757175355568 3.0594146072107833 0 0 0 0 -0.18002736240234185 14.368969959279639 0 14.368969959279639 2.809544820105657 0 0 0 0 -35.508734100521103 14.506554425322975 0 14.506554425322975 52.602331919566495 0 0 0 0 -26.173794014810483 35.188877146458253 0 35.188877146458253 49.370569683043868 0 0 0 0 -25.921871057719841 15.931410553777823 0 15.931410553777823 100.88941632665228 0 0 0 0 18.955850743742531 10.895373138569994 0 10.895373138569994 50.019209020538256 0 0 0 0 46.898810447030655 -20.006672790943412 0 -20.006672790943412 83.806731831195066 0 0 0 0 97.52907212561604 21.788959355093539 0 21.788959355093539 35.915568811324192 0 0 0 0 29.427826127634034 34.477908905086224 0 34.477908905086224 20.652986327128019 0 0 0 0 -0.1852483422889577 5.5023476068890886 0 5.5023476068890886 49.94488632248067 0 0 0 0 -10.571762339524867 13.24379405064974 0 13.24379405064974 7.5533043813193217 0 0 0 0 23.001087853684112 17.458397675087326 0 17.458397675087326 3.4314904993734672 0 0 0 0 18.828526304045681 46.53292636371043 0 46.53292636371043 25.715443930093898 0 0 0 0 2.3264839702529798 39.234103368529759 0 39.234103368529759 4.1377942475082818 0 0 0 0 13.758681712232374 33.861260097313789 0 33.861260097313789 6.6196056430198951 0 0 0 0 34.595366692039988 45.737559614644852 0 45.737559614644852 24.695530086697545 0 0 0 0 29.494258967858059 62.273393564362777 0 62.273393564362777 45.474436957272701 0 0 0 0 17.145097652938148 55.540234259518911 0 55.540234259518911 37.961893363448326 0 0 0 0 51.13350000036462 52.304706442839233 0 52.304706442839233 27.232847106439294 0 0 0 0 58.994923269112405 52.43801522202557 0 52.43801522202557 42.550280027644476 0 0 0 0 38.499186496044331 19.918929522740655 0 19.918929522740655 39.682653301570099 0 0 0 0 34.834976139004084 61.008159404242178 0 61.008159404242178 39.64528490450175 0 0 0 0 -20.953918870284724 24.359050721192034 0 24.359050721192034 -104.31046374569996 0 0 0 0 -4.7846688513564004 -1.1738708102493547 0 -1.1738708102493547 110.00237234179804 0 0 0 0 8.0999091568710355 -88.2841427270032 0 -88.2841427270032 -50.468612370983465 0 0 0 0 0.31928844293491565 1.9961925200143753 0 1.9961925200143753 -0.82997472406852069 0 0 0 0 6.9865655290179447 103.66118007898814 0 103.66118007898814 -135.20342811680166 0 0 0 0 -41.628832667409824 56.781614817678928 0 56.781614817678928 110.17775800450181 0 0 0 0 -10.607052288843079 2.6236946559947683 0 2.6236946559947683 -16.963329632053501 0 0 0 0 -3.0084942899468325 7.3572429502904555 0 7.3572429502904555 -5.919168696026361 0 0 0 0 -22.749950767270548 82.299103815370472 0 82.299103815370472 57.661462431628024 0 0 0 0 -44.370111735641331 25.202984241732338 0 25.202984241732338 53.611712774669286 0 0 0 0 -6.3295320238757995 -0.95560825826396467 0 -0.95560825826396467 -28.88880357369635 0 0 0 0 -11.116384084436323 -0.57493293797298861 0 -0.57493293797298861 -2.9927294871996786 0 0 0 0 -9.093331147806623 -6.7034015465505945 0 -6.7034015465505945 -19.676267028262373 0 0 0 0 -8.7658196179720562 2.8891656928863085 0 2.8891656928863085 -23.313474450493231 0 0 0 0 -13.516686461284735 -7.0690152200550074 0 -7.0690152200550074 -21.644690838671522 0 0 0 0 -75.750595434130446 64.38589726225473 0 64.38589726225473 -106.96928770314253 0 0 0 0 2.1814902627774408 -3.7017905030120204 0 -3.7017905030120204 -4.8643951593491863 0 0 0 0 -8.5103529845164303 98.313586976117222 0 98.313586976117222 -206.07926133455476 0 0 0 0 -132.95542178661753 -22.546947548275057 0 -22.546947548275057 -29.672704028605949 0 0 0 0 -1.6214667419660387 -5.2130841000491728 0 -5.2130841000491728 -6.3874632364949093 0 0 0 0 -142.98244657528448 191.85814209740784 0 191.85814209740784 -168.11142127949279 0 0 0 0 -137.7256153868957 -3.278426352666429 0 -3.278426352666429 -52.204291644506156 0 0 0 0 -6.6240110155709999 42.906037348511745 0 42.906037348511745 -7.0925596460292581 0 0 0 0 35.540581332780675 68.111110400488542 0 68.111110400488542 -167.03454543814587 0 0 0 0 280.40941308598337 67.689803509395688 0 67.689803509395688 -191.20766715129139 0 0 0 0 23.491679666127823 62.200475390563952 0 62.200475390563952 -9.7655199737673684 0 0 0 0 31.303489730199374 -27.73012645263907 0 -27.73012645263907 -556.17339767492376 0 0 0 0 -11.015650152895432 -11.564925942497212 0 -11.564925942497212 -38.049557933496544 0 0 0 0 0.61918734108478091 -8.2124210143481235 0 -8.2124210143481235 -39.835245783978507 0 0 0 0 -0.87202990841206418 0.11613886798959072 0 0.11613886798959072 -22.988855298792544 0 0 0 0 -15.224019532393413 -15.768198925274191 0 -15.768198925274191 -26.464791896292809 0 0 0 0 94.991758912008208 -212.61729181361989 0 -212.61729181361989 -9.8226103023043834 0 0 0 0 282.32190705937415 -17.541223223295219 0 -17.541223223295219 -62.140734891814645 0 0 0 0 -21.587198626260808 -15.363679646399788 0 -15.363679646399788 -17.464978984268942 0 0 0 0 0.14103806256496787 -10.100610078760837 0 -10.100610078760837 -13.435728843589519 0 0 0 0 11.699567298915863 -13.420453466017051 0 -13.420453466017051 -70.096420140592329 0 0 0 0 -3.8302705285155128 149.10607783111482 0 149.10607783111482 -167.39243526024802 0 0 0 0 -41.829518720755004 7.0905555744102458 0 7.0905555744102458 -108.15998388337903 0 0 0 0 -95.16141768798343 55.283251306644161 0 55.283251306644161 -148.61984406293777 0 0 0 0 194.89210157105151 53.082573685798707 0 53.082573685798707 -221.13896942342399 0 0 0 0 188.61982693615391 96.531249176536221 0 96.531249176536221 147.5470822915413 0 0 0 0 0.11225124739204073 0.91154380064682528 0 0.91154380064682528 -5.3088920412802736 0 0 0 0 -304.62327133949691 -39.078760555043118 0 -39.078760555043118 -92.074094569121371 0 0 0 0 -260.49315499865497 -499.20539926274068 0 -499.20539926274068 -292.62620014051208 0 0 0 0 -381.29282535366787 -269.220722782542 0 -269.220722782542 8.908055871972465 0 0 0 0 255.12112914059753 -104.75617938241339 0 -104.75617938241339 -165.04352084168931 0 0 0 0 2.2738028654816844 -401.89618071886071 0 -401.89618071886071 -140.33939832956821 0 0 0 0 64.988206821833856 90.442140430845029 0 90.442140430845029 -10.838443075859686 0 0 0 0 41.643939263812399 15.136467694559542 0 15.136467694559542 -251.21592392681123 0 0 0 0 8.2485639321990476 25.458661332322663 0 25.458661332322663 -84.748520763758279 0 0 0 0 -127.52683852579739 -137.1314369931788 0 -137.1314369931788 -180.41774522081687 0 0 0 0 -354.37391315743815 104.19343875960476 0 104.19343875960476 -109.78519374803 0 0 0 0 -18.977730840903348 41.728230858338065 0 41.728230858338065 -98.326946151086304 0 0 0 0 -61.723424750013173 19.968059087572328 0 19.968059087572328 25.324853400146822 0 0 0 0 -22.595459616110077 4.7038369593356038 0 4.7038369593356038 -15.585387440859904 0 0 0 0 -163.3692570934009 -23.988259793382895 0 -23.988259793382895 -14.49526029091794 0 0 0 0 -23.553266063576899 -71.309767711762106 0 -71.309767711762106 -138.86076756288821 0 0 0 0 -12.946516620114153 -43.498374580478412 0 -43.498374580478412 -75.216940592290484 0 0 0 0 -14.020227164925473 -43.87648782110773 0 -43.87648782110773 -75.176582221670287 0 0 0 0 0.72764437908352875 8.9327384385105688 0 8.9327384385105688 -2.7272765950765461 0 0 0 0 -55.940627888329544 -12.136268067933997 0 -12.136268067933997 6.4854029987764079 0 0 0 0 -11.489062937389633 -25.546735572650505 0 -25.546735572650505 -28.307671559305163 0 0 0 0 -18.144659261247227 -11.836973035096889 0 -11.836973035096889 2.5849995613098145 0 0 0 0 -1.1907327669197301 -16.037987252493622 0 -16.037987252493622 -30.355520298355259 0 0 0 0 -7.4535454764490225 -14.24626587817329 0 -14.24626587817329 -5.819936182934498 0 0 0 0 17.482476701099287 3.882003844686551 0 3.882003844686551 -2.9510118496255018 0 0 0 0 -11.36888330754905 12.557035485766392 0 12.557035485766392 11.670991567254532 0 0 0 0 -1.6409150575354516 13.40101351289195 0 13.40101351289195 15.382455350765667 0 0 0 0 15.415927410684219 17.675701648287941 0 17.675701648287941 7.9977643869933672 0 0 0 0 -24.202299787365604 12.166908004219295 0 12.166908004219295 39.842262894722808 0 0 0 0 -12.212874366164471 34.688355396781844 0 34.688355396781844 48.082962992280954 0 0 0 0 26.746498538643092 37.5614030593606 0 37.5614030593606 17.888918881653808 0 0 0 0 -0.0076246497880483634 -6.0298934315724182 0 -6.0298934315724182 -63.980502220802009 0 0 0 0 -4.7432573840413355 -25.139744471031008 0 -25.139744471031008 -52.52737126032298 0 0 0 0 0.14802261700340757 -10.771116609335877 0 -10.771116609335877 -32.979239401582163 0 0 0 0 -4.1554511284954927 -20.377344571243157 0 -20.377344571243157 -54.031305340307881 0 0 0 0 -4.7691141644895225 -3.7973028772103135 0 -3.7973028772103135 -8.6012077886844054 0 0 0 0 -5.8919380354997344 -17.731394384391024 0 -17.731394384391024 -30.417500658339122 0 0 0 0 -10.323600444244754 -39.020828316861298 0 -39.020828316861298 -58.745040745852748 0 0 0 0 -4.3978827968410528 -18.821143854678667 0 -18.821143854678667 -29.631776345777325 0 0 0 0 -6.5040467586834465 -30.561571233103678 0 -30.561571233103678 -50.992763583548367 0 0 0 0 -4.1724047171083676 -24.533866448924528 0 -24.533866448924528 -62.22195735652349 0 0 0 0 5.8804941291944566 -27.238069898645335 0 -27.238069898645335 -83.262664781350395 0 0 0 0 2.2704904352738176 -36.288582833265536 0 -36.288582833265536 -80.69859696275671 0 0 0 0 6.0615505764012063 -27.211273670211085 0 -27.211273670211085 -88.959409061040787 0 0 0 0 -4.8248610477458573 -16.146119590564922 0 -16.146119590564922 -74.288279976230115 0 0 0 0 0.024598783478187176 -10.482760716175108 0 -10.482760716175108 -102.62907268950948 0 0 0 0 16.077752882566834 7.0270464347267989 0 7.0270464347267989 -147.88050097725136 0 0 0 0 6.6501898742832495 -47.346060730746103 0 -47.346060730746103 -134.74717140413122 0 0 0 0 3.3624562723986671 4.5907504970091395 0 4.5907504970091395 -91.10655141281768 0 0 0 0 10.379070351017903 0.32091414860951772 0 0.32091414860951772 -91.360879637875769 0 0 0 0 -0.008329987840368272 -3.8576228902820731 0 -3.8576228902820731 -74.47158595790097 0 0 0 0 -2.0351043662404944 2.9704273526622273 0 2.9704273526622273 -67.346930801228154 0 0 0 0 0.48482903812278044 -5.3098785349361606 0 -5.3098785349361606 -62.874633360086591 0 0 0 0 -0.36652319407755274 0.6486704590397494 0 0.6486704590397494 -69.506733473885106 0 0 0 0 17.578136155544485 -26.333177646185504 0 -26.333177646185504 11.588024555210723 0 0 0 0 7.4222731130873285 0.13296568516307161 0 0.13296568516307161 -51.771005913178669 0 0 0 0 1.4715063742441217 -1.2773243101109983 0 -1.2773243101109983 -64.694917129578243 0 0 0 0 7.1174621253424419 -3.9548900213558227 0 -3.9548900213558227 -67.815106779067719 0 0 0 0 4.7102134678955849 -0.1762343079171842 0 -0.1762343079171842 -69.762732821185637 0 0 0 0 13.887457703592638 -9.5711878048241488 0 -9.5711878048241488 -67.982598612528818 0 0 0 0 25.032001779222149 -27.679475604367326 0 -27.679475604367326 -59.170302406279006 0 0 0 0 27.495644426644791 -23.683123490183789 0 -23.683123490183789 -109.51985390076879 0 0 0 0 19.844036272664241 0.35832244640187128 0 0.35832244640187128 -82.034254618702107 0 0 0 0 13.87444031210693 -10.013652013694809 0 -10.013652013694809 -83.016715679725166 0 0 0 0 15.119708392229454 4.0658710574971337 0 4.0658710574971337 -67.224310160716414 0 0 0 0 27.952054278322894 13.689698078618676 0 13.689698078618676 -71.745276864414336 0 0 0 0 20.497397606463302 2.6291840674857667 0 2.6291840674857667 -76.524210591407609 0 0 0 0 0.0051511967330675895 -4.017725942449033 0 -4.017725942449033 -66.792739124808577 0 0 0 0 3.3910791000736848 -1.8079667471483845 0 -1.8079667471483845 -65.771769524857518 0 0 0 0 4.0350666269093898 -3.2376295477442909 0 -3.2376295477442909 -72.022819344216259 0 0 0 0 2.58704556195682 1.7480278348084539 0 1.7480278348084539 -63.783088871197833 0 0 0 0 1.669676836797032 -2.295055562077323 0 -2.295055562077323 -65.853567740730796 0 0 0 0 -0.011273111108517829 -1.7166570127046725 0 -1.7166570127046725 -65.65877242787974 0 0 0 0 0.0020569932878577966 -6.3597048669653304 0 -6.3597048669653304 -93.142111391556682 0 0 0 0 -6.8917093353732044 -13.433387460670929 0 -13.433387460670929 -74.461225994120468 0 0 0 0 -2.4400145954523067 -5.552908256817318 0 -5.552908256817318 -66.213410557284078 0 0 0 0 -8.3354224502803902 -33.639573026586731 0 -33.639573026586731 -91.27493249138206 0 0 0 0 -4.9534941492040403 -5.4973634213492915 0 -5.4973634213492915 -55.37033873143082 0 0 0 0 10.522812518160332 5.4037329632265028 0 5.4037329632265028 -62.232598894079274 0 0 0 0 9.8185325385481974 5.7641184157637326 0 5.7641184157637326 -43.345037659761147 0 0 0 0 21.754452448303709 -11.505145138768057 0 -11.505145138768057 -49.045632622146513 0 0 0 0 27.105497466276844 10.77224033314269 0 10.77224033314269 -1.9970553187295081 0 0 0 0 14.058583270478154 1.6546027537915506 0 1.6546027537915506 -58.479667069477728 0 0 0 0 -9.5785367339241407 -17.797994783366448 0 -17.797994783366448 -43.122805466518912 0 0 0 0 38.127866078302837 -69.19924210233512 0 -69.19924210233512 -138.96300409665855 0 0 0 0 -0.18739948750948809 -1.1943878472549443 0 -1.1943878472549443 -2.6382198147339295 0 0 0 0 -28.486020069654842 254.54209294897737 0 254.54209294897737 -370.09277568546531 0 0 0 0 35.605757423760551 -95.155468002130874 0 -95.155468002130874 15.566390477382811 0 0 0 0 123.25139090464097 69.916720440727659 0 69.916720440727659 -471.39195270146593 0 0 0 0 57.123451322147275 -80.149792390249786 0 -80.149792390249786 -161.64692711957468 0 0 0 0 35.21752520120333 -56.272443352136179 0 -56.272443352136179 -161.9515122883422 0 0 0 0 1.2341119189785119 -0.1699614787096948 0 -0.1699614787096948 -0.34282186309475549 0 0 0 0 -20.154662084152477 -22.673859462447581 0 -22.673859462447581 -101.26991918220301 0 0 0 0 4.5371798670498151 -35.116083048342261 0 -35.116083048342261 -127.19475629992667 0 0 0 0 72.147977331699323 121.35296714965261 0 121.35296714965261 -299.98787117080064 0 0 0 0 35.812766485623726 -99.429786434411653 0 -99.429786434411653 -375.61607264667691 0 0 0 0 -16.301159785279282 54.835652577632573 0 54.835652577632573 -239.33005866057647 0 0 0 0 -0.11290638792905049 0.21635139070437504 0 0.21635139070437504 -0.3048225624780514 0 0 0 0 -142.96966281397397 43.297104713597946 0 43.297104713597946 -145.2935671935702 0 0 0 0 8.2421456782290736 -8.5233664201368811 0 -8.5233664201368811 -128.11193865400492 0 0 0 0 0.32949597441711198 19.455620791224646 0 19.455620791224646 -138.4704736029089 0 0 0 0 0.017625656939645674 -0.99617653472887469 0 -0.99617653472887469 -114.89027932946192 0 0 0 0 6.8212211558974003 -9.794110743316196 0 -9.794110743316196 -107.41111143157468 0 0 0 0 6.8026032403716465 -8.8055154068961201 0 -8.8055154068961201 -127.19636002928019 0 0 0 0 5.1781035497823211 1.4988531537808569 0 1.4988531537808569 -14.094577703692352 0 0 0 0 17.6719688492351 -6.3035764953747275 0 -6.3035764953747275 -67.64449775772664 0 0 0 0 -2.8877679312283799 5.8690822351787801 0 5.8690822351787801 -38.947953315898523 0 0 0 0 5.3565587300807485 -1.0737688484892374 0 -1.0737688484892374 -14.940523589463993 0 0 0 0 5.319066209414359 11.027772588040534 0 11.027772588040534 -107.09516933011764 0 0 0 0 15.934270001875348 -5.8965566476690583 0 -5.8965566476690583 -98.73495189492678 0 0 0 0 -15.91494770614986 2.0781725871856906 0 2.0781725871856906 -58.546500562166329 0 0 0 0 2.000721750818979 8.8998337515162405 0 8.8998337515162405 -67.388510282754623 0 0 0 0 -14.799976495085502 -4.7394043499734835 0 -4.7394043499734835 -105.06594096671324 0 0 0 0 -0.1775303725383921 -1.4758279567139709 0 -1.4758279567139709 -16.56659998515476 0 0 0 0 -1.8348069534483784 4.2394869164636475 0 4.2394869164636475 -113.49095175495313 0 0 0 0 3.56315756640518 -0.075655381514991404 0 -0.075655381514991404 1.0977206202489462 0 0 0 0 8.5011887069481418 26.530728286699741 0 26.530728286699741 -197.3550137075872 0 0 0 0 21.178779130382679 -4.5167014085163828 0 -4.5167014085163828 -106.99975464589988 0 0 0 0 1.7286724239279534 -0.6866022672663803 0 -0.6866022672663803 1.5363328807134735 0 0 0 0 -0.64257886160226008 5.5476104345725616 0 5.5476104345725616 -223.79433572132257 0 0 0 0 -47.120517547730174 9.9742978085705545 0 9.9742978085705545 -118.65843536364264 0 0 0 0 -50.157476752084676 -45.294052469158487 0 -45.294052469158487 -0.76110623967542779 0 0 0 0 105.14404269224545 -47.552662492274976 0 -47.552662492274976 -202.32232930403552 0 0 0 0 -159.62052757313677 91.039853056005086 0 91.039853056005086 -125.1145905863923 0 0 0 0 38.690091349915974 -1.3925167341949418 0 -1.3925167341949418 -86.62586654315237 0 0 0 0 -11.840268897396072 49.386485056136735 0 49.386485056136735 -77.766856364803971 0 0 0 0 -32.346476484310642 38.577500249892182 0 38.577500249892182 -88.47151555888081 0 0 0 0 37.224825554792858 -29.556369840990556 0 -29.556369840990556 -19.809833689432708 0 0 0 0 -24.612581416926787 71.734518542281876 0 71.734518542281876 -138.48650253034248 0 0 0 0 -2.5194166708729235 -4.4303237942472862 0 -4.4303237942472862 -4.2710304606793841 0 0 0 0 9.0047666331636549 8.7114898619329324 0 8.7114898619329324 -33.640967499228282 0 0 0 0 9.5574355649425513 -2.344297756877495 0 -2.344297756877495 -63.182794268752332 0 0 0 0 -0.41978767627460911 36.471581069657987 0 36.471581069657987 -74.031507865500316 0 0 0 0 -4.7040756396554944 -2.7806036810288077 0 -2.7806036810288077 -18.083614544073043 0 0 0 0 -2.7981065788844806 5.0847287789468609 0 5.0847287789468609 -49.311139162567599 0 0 0 0 17.449293895734172 7.5806348138794419 0 7.5806348138794419 -80.776424397903611 0 0 0 0 4.4849681893360867 4.2958191799152701 0 4.2958191799152701 -60.791981542628491 0 0 0 0 1.3690737046213877 10.234271699127532 0 10.234271699127532 -62.346546350324445 0 0 0 0 -5.5572098367219027 6.0176146035587408 0 6.0176146035587408 -72.359640598180704 0 0 0 0 -3.4561452159255168 20.405830920877634 0 20.405830920877634 -46.989487103681313 0 0 0 0 -4.3942769673139992 -6.1009010036068503 0 -6.1009010036068503 -45.858734166366048 0 0 0 0 6.0111357634187375 7.3045762131940108 0 7.3045762131940108 -64.542620493137804 0 0 0 0 105.76498282947023 -8.5441098377013986 0 -8.5441098377013986 -277.6120677529907 0 0 0 0 14.516593032420587 -2.3869183504539251 0 -2.3869183504539251 -80.926004372020543 0 0 0 0 -427.12898934089571 -383.93012790229659 0 -383.93012790229659 -188.43184233162901 0 0 0 0 -3.3909032327568589 -6.8975134182261968 0 -6.8975134182261968 -25.071713809577943 0 0 0 0 -92.92709022068766 -21.041245658601838 0 -21.041245658601838 -179.33884991602099 0 0 0 0 -66.616427097847918 -122.3054786871071 0 -122.3054786871071 -122.50724501677905 0 0 0 0 396.78370700259484 -493.44637197805059 0 -493.44637197805059 -495.22511781760841 0 0 0 0 -181.11105726124697 -85.339738526145084 0 -85.339738526145084 -122.48451916449994 0 0 0 0 -103.16063253711945 -124.27143499153317 0 -124.27143499153317 -158.31824417834105 0 0 0 0 12.425694661828189 22.087857156066278 0 22.087857156066278 -80.530869068552789 0 0 0 0 26.570803430290653 15.906765086474479 0 15.906765086474479 -25.632624003686942 0 0 0 0 8.3071938776849379 -11.081591449168627 0 -11.081591449168627 -77.806929436545488 0 0 0 0 -14.716396580438555 7.1860975422096089 0 7.1860975422096089 -77.395490009279456 0 0 0 0 -27.605563338075399 -66.720400582653383 0 -66.720400582653383 -33.912578950170428 0 0 0 0 -8.8355411179108803 10.680503036178656 0 10.680503036178656 -43.903483263443661 0 0 0 0 25.27540339031475 -52.515613677271176 0 -52.515613677271176 -138.07035908164107 0 0 0 0 25.803410612474636 20.352505345334066 0 20.352505345334066 -18.601064910064451 0 0 0 0 0.21060410414992692 7.9563078313511824 0 7.9563078313511824 -50.236072221937832 0 0 0 0 6.5198625966398112 12.621653657123503 0 12.621653657123503 -50.417962476559751 0 0 0 0 8.0897776072522039 -30.589931606788895 0 -30.589931606788895 -109.53591467406494 0 0 0 0 46.66235643386608 25.386139855021611 0 25.386139855021611 -10.697952749673277 0 0 0 0 4.7320260727157395 -7.5427566796269616 0 -7.5427566796269616 -75.506702024185131 0 0 0 0 -71.887742014048854 -121.63330124317872 0 -121.63330124317872 -105.34244101913646 0 0 0 0 12.619831115737988 -5.7848291584725544 0 -5.7848291584725544 -75.70788820662284 0 0 0 0 -113.35345076478757 -85.664342474290606 0 -85.664342474290606 -80.173616771768138 0 0 0 0 -85.748580471566129 -75.421268958765722 0 -75.421268958765722 -138.47345241343282 0 0 0 0 -4.1051011557973052 -7.5922519230119576 0 -7.5922519230119576 -26.064082019596952 0 0 0 0 1.3471209082160662 0.89494407925042907 0 0.89494407925042907 -13.456508481300261 0 0 0 0 91.921285388577928 15.582531655187267 0 15.582531655187267 -61.150809978425968 0 0 0 0 -113.16295462862672 -88.587111474651465 0 -88.587111474651465 -123.37541937099559 0 0 0 0 12.197282427282076 -9.2758389306127356 0 -9.2758389306127356 -55.903258069112781 0 0 0 0 13.144607581130799 -1.953802029354847 0 -1.953802029354847 -64.381243913776416 0 0 0 0 -1.1856647084489396 -8.308216436082148 0 -8.308216436082148 -63.247094018335474 0 0 0 0 8.484586101069965 -11.626625662844162 0 -11.626625662844162 -76.242591103509767 0 0 0 0 37.907178524739123 28.372011485873372 0 28.372011485873372 -141.39567314861779 0 0 0 0 -7.7336616360431396 3.112577506149421 0 3.112577506149421 -32.972080579368821 0 0 0 0 83.50340247304473 -119.43469036733586 0 -119.43469036733586 -300.17234084953088 0 0 0 0 -1.6935350778626894 -0.24730792501560472 0 -0.24730792501560472 -0.63588755365748284 0 0 0 0 30.413416849538706 -46.07144158121082 0 -46.07144158121082 -158.98758331707359 0 0 0 0 -9.2485625424807409 17.054597488197032 0 17.054597488197032 -46.830102250853088 0 0 0 0 16.438438122040097 31.340790784481214 0 31.340790784481214 -127.20485046993417 0 0 0 0 67.149449147169008 100.77365350625041 0 100.77365350625041 11.701188303435629 0 0 0 0 -10.872331991304286 -27.954813833988737 0 -27.954813833988737 -17.72394753844128 0 0 0 0 -27.695791283641611 -76.845135700947139 0 -76.845135700947139 -101.89282437751535 0 0 0 0 -108.81951958503294 25.908979959986027 0 25.908979959986027 59.489531083760085 0 0 0 0 -31.843849602141518 54.952908496246891 0 54.952908496246891 -123.47626278561074 0 0 0 0 13.225156064385853 -13.593386521744137 0 -13.593386521744137 -76.324878877790525 0 0 0 0 -86.257379388423288 -221.61352690994045 0 -221.61352690994045 -129.32712647976587 0 0 0 0 -148.84127064259519 -57.66683654395456 0 -57.66683654395456 -28.050300919334404 0 0 0 0 -0.77080615156772425 6.4426366805045205 0 6.4426366805045205 -13.702185552863284 0 0 0 0 70.985732974165288 -6.2713893921900308 0 -6.2713893921900308 -32.73607961939706 0 0 0 0 21.575106941525064 -41.863562974447632 0 -41.863562974447632 -45.519265439354058 0 0 0 0 -142.48036479939037 -37.84892804233823 0 -37.84892804233823 -35.342161678505363 0 0 0 0 -99.138774005150481 -17.024977035303891 0 -17.024977035303891 -71.912867953414207 0 0 0 0 -70.841661932088755 -35.748749861406395 0 -35.748749861406395 -62.89537115355779 0 0 0 0 -96.777565269989282 -48.52540406495973 0 -48.52540406495973 -3.3787842449382879 0 0 0 0 -98.402425925301941 -64.16375695518218 0 -64.16375695518218 -29.067720784456469 0 0 0 0 -126.41790276561642 -25.893755832428724 0 -25.893755832428724 -21.292431131761987 0 0 0 0 -126.39013035101561 -21.401707672783232 0 -21.401707672783232 -66.45755960981478 0 0 0 0 -127.57213116144885 -24.958727805322269 0 -24.958727805322269 -6.6288471160223708 0 0 0 0 -0.079454421796807395 0.91184341237783428 0 0.91184341237783428 -2.0655930456799041 0 0 0 0 -99.105216263691545 -51.94071215428994 0 -51.94071215428994 -4.1729574303608388 0 0 0 0 72.628374225916559 -148.0165596872248 0 -148.0165596872248 -75.907868596725166 0 0 0 0 -1.5757092820811884 -7.0276588792591923 0 -7.0276588792591923 -3.2782098498001631 0 0 0 0 -42.515419029147779 -62.391806540719699 0 -62.391806540719699 111.83586568461033 0 0 0 0 20.426891718820116 -19.22407005813875 0 -19.22407005813875 -15.388722717267228 0 0 0 0 45.818595940043451 -12.084378355586523 0 -12.084378355586523 -32.944490698122536 0 0 0 0 1.6020508776395346 2.0496837216763737 0 2.0496837216763737 -20.649090096954552 0 0 0 0 -18.309888210863164 -41.928101161873201 0 -41.928101161873201 -22.172695674293209 0 0 0 0 -7.6851958732293113 -8.4417466221190409 0 -8.4417466221190409 -0.59345091066095179 0 0 0 0 -32.155080078232217 -21.611656988949107 0 -21.611656988949107 20.84662837102951 0 0 0 0 -50.194838862166364 -10.819359374283522 0 -10.819359374283522 14.416256621057983 0 0 0 0 -28.328871287685274 9.8996216660616483 0 9.8996216660616483 -12.514842275733827 0 0 0 0 -3.8764348974179939 -0.8015130681123992 0 -0.8015130681123992 -26.823833732167259 0 0 0 0 -0.38145893712720635 -3.1398015867343929 0 -3.1398015867343929 -6.6109395336534362 0 0 0 0 -62.146670709804312 82.332775428789319 0 82.332775428789319 141.26237809768645 0 0 0 0 -11.496177140398071 -9.8678079962032825 0 -9.8678079962032825 -2.8442266313616802 0 0 0 0 -10.556608016972859 -6.311262997049198 0 -6.311262997049198 12.924474228198051 0 0 0 0 -133.78576963334126 -107.3426188129306 0 -107.3426188129306 183.64556962365168 0 0 0 0 -7.233157210326226 -5.8911508879100438 0 -5.8911508879100438 -5.0761245135217905 0 0 0 0 -6.9554333951068656 3.4248053401388461 0 3.4248053401388461 0.013993070751894265 0 0 0 0 -6.6442140793260016 -7.7594007224522556 0 -7.7594007224522556 -5.2027236031265538 0 0 0 0 -0.71160015849636693 -8.4278182890629978 0 -8.4278182890629978 -7.7243462519254535 0 0 0 0 0.32438236697817047 -11.346609388423531 0 -11.346609388423531 -9.7858604853345241 0 0 0 0 -4.5196588799776691 -15.8024275733369 0 -15.8024275733369 -16.234200588645763 0 0 0 0 -2.3314939361794007 -10.396494837162283 0 -10.396494837162283 -14.113930452846461 0 0 0 0 1.3824173555635753 -19.999534272852543 0 -19.999534272852543 -20.42358307633549 0 0 0 0 -2.6235084430531286 -7.0309479828912043 0 -7.0309479828912043 -6.058995329828349 0 0 0 0 0.5293965062384558 -5.7212374955699659 0 -5.7212374955699659 -16.097827052277108 0 0 0 0 0.88092411523189185 -18.603477786877193 0 -18.603477786877193 -18.246680492855376 0 0 0 0 -5.1399741314371568 -19.294150960231491 0 -19.294150960231491 -15.299500745881232 0 0 0 0 4.8827594083547865 -20.435140242319903 0 -20.435140242319903 -29.383660063220304 0 0 0 0 8.7001048172051014 -8.4722667535606888 0 -8.4722667535606888 -8.1762954661244294 0 0 0 0 0.41904918614577524 -1.0483503623563166 0 -1.0483503623563166 -11.511095714440103 0 0 0 0 26.767318188327181 -19.065166010936082 0 -19.065166010936082 -18.08890241762856 0 0 0 0 16.632112332546598 -3.1901206213369733 0 -3.1901206213369733 -28.343515653727081 0 0 0 0 4.8156008009386824 -23.164918436425069 0 -23.164918436425069 -47.789530782989459 0 0 0 0 11.821682534104184 -7.4639644648850663 0 -7.4639644648850663 -16.060301939069177 0 0 0 0 -2.9430198355307766 -4.1227801407585503 0 -4.1227801407585503 -15.068720649345778 0 0 0 0 -3.001821772511903 -6.5957441957725678 0 -6.5957441957725678 -12.931362587783951 0 0 0 0 -3.0431205386958027 -5.0549777686246671 0 -5.0549777686246671 -13.36370587626152 0 0 0 0 -2.8604179969174766 -6.0305789682315663 0 -6.0305789682315663 -14.879276625229977 0 0 0 0 -1.9913909808296921 -4.8585462637565797 0 -4.8585462637565797 -16.439591141348501 0 0 0 0 -2.8679446828009532 -4.5705734551156638 0 -4.5705734551156638 -16.143652024868061 0 0 0 0 -1.9885908676799318 -4.2789088378340239 0 -4.2789088378340239 -18.703675971788471 0 0 0 0 -1.0327207736866768 1.2512492424828707 0 1.2512492424828707 -6.6976075575786211 0 0 0 0 -14.750121397034945 -23.371942439793202 0 -23.371942439793202 -76.894863892477588 0 0 0 0 -10.009831999141284 -17.592237324677626 0 -17.592237324677626 -104.48004040050728 0 0 0 0 18.334627669854626 -4.0326071717427112 0 -4.0326071717427112 -37.338120866319514 0 0 0 0 -0.92773722875638254 -6.8465256702741506 0 -6.8465256702741506 -19.935678911006818 0 0 0 0 16.738028373089037 -0.6898139334298321 0 -0.6898139334298321 -30.218367128341924 0 0 0 0 16.544467131384408 -5.7959896602624212 0 -5.7959896602624212 -37.497433173877653 0 0 0 0 -10.823005406506127 -13.11731044267799 0 -13.11731044267799 -71.98355828068452 0 0 0 0 4.6800823368850422 9.4922412710448754 0 9.4922412710448754 -7.9200804761908046 0 0 0 0 -3.1255659118819494 -12.811524042637757 0 -12.811524042637757 -70.435822822459158 0 0 0 0 -20.819781324978749 -34.591409649568959 0 -34.591409649568959 -86.725533948119846 0 0 0 0 -45.159171084950685 -97.621849177055992 0 -97.621849177055992 -147.44119307844085 0 0 0 0 -35.038746965839437 -50.943620673395344 0 -50.943620673395344 -31.07449055887264 0 0 0 0 -12.92781066739235 -43.696572877335711 0 -43.696572877335711 -105.44684939701642 0 0 0 0 -8.9191773745881164 -35.756464302012319 0 -35.756464302012319 -94.201328560680849 0 0 0 0 -6.3487139131694228 -31.92907504428149 0 -31.92907504428149 -166.56831732946739 0 0 0 0 -4.6297868858040943 -20.047235216992703 0 -20.047235216992703 -110.31057977495948 0 0 0 0 -12.830984168208033 13.124769487978483 0 13.124769487978483 -179.61325060023228 0 0 0 0 -22.477389783808576 -1.0371615976109752 0 -1.0371615976109752 -154.05838253317052 0 0 0 0 113.63840554487729 120.55332936831837 0 120.55332936831837 -100.22622816258809 0 0 0 0 50.702649734771057 -12.371971972257597 0 -12.371971972257597 -277.92186094091448 0 0 0 0 58.149427423978523 34.539347516401904 0 34.539347516401904 -226.53736832078721 0 0 0 0 1.381658165947508 -0.91810070528609344 0 -0.91810070528609344 -5.8175858163778003 0 0 0 0 -33.774305769853981 7.8817483619277482 0 7.8817483619277482 -89.858995480173689 0 0 0 0 -10.38439908147393 47.720456070790533 0 47.720456070790533 -85.628864362151944 0 0 0 0 -11.55666712139373 61.069949560042005 0 61.069949560042005 21.304692956888175 0 0 0 0 -58.434030425952869 -21.638454164844006 0 -21.638454164844006 13.341234452920617 0 0 0 0 -0.0025095680201325798 1.374835910339371 0 1.374835910339371 -1.5721124465911203 0 0 0 0 -57.952473430362147 -54.722782992476596 0 -54.722782992476596 -70.292834366875468 0 0 0 0 -37.518229838715229 -52.297973521548556 0 -52.297973521548556 -101.64352119728574 0 0 0 0 -41.758477948395239 -16.015357280797616 0 -16.015357280797616 -105.89159797217144 0 0 0 0 -19.597325198948965 -34.332517623613967 0 -34.332517623613967 -91.132725672301603 0 0 0 0 -41.716987737455156 -10.483662029793777 0 -10.483662029793777 -45.429001475771656 0 0 0 0 -3.680074114629698 -4.196914568591108 0 -4.196914568591108 -1.1912465975082398 0 0 0 0 -26.616111923475955 -22.91254527592173 0 -22.91254527592173 3.0058882892190013 0 0 0 0 64.420671577042981 -44.403838018364695 0 -44.403838018364695 -100.94446459440223 0 0 0 0 -19.538367306809821 -23.355943922030406 0 -23.355943922030406 -17.174614680934667 0 0 0 0 -14.370437641022249 -33.803335400570631 0 -33.803335400570631 -9.6672741633301484 0 0 0 0 -60.051992429780057 -53.435514861947013 0 -53.435514861947013 19.90316222729416 0 0 0 0 -13.82477696728572 -23.310455364594535 0 -23.310455364594535 -8.7825193062209053 0 0 0 0 -7.577636312681534 -20.709842092255712 0 -20.709842092255712 -22.104646144158323 0 0 0 0 -18.35081357308627 -26.449397257434612 0 -26.449397257434612 -13.685796843597018 0 0 0 0 -84.641777959987962 -48.057317531323861 0 -48.057317531323861 6.3166981271715485 0 0 0 0 -14.313920320388599 -19.889181080459281 0 -19.889181080459281 -22.291091856190377 0 0 0 0 -9.1014566413991815 -20.527326146968335 0 -20.527326146968335 -17.524046844642726 0 0 0 0 13.991863924829204 -34.651348123046773 0 -34.651348123046773 -31.711191868402238 0 0 0 0 -5.2538718525640693 -13.759512051598833 0 -13.759512051598833 -24.057398204192978 0 0 0 0 -4.0603790852407329 -12.110761943203169 0 -12.110761943203169 -14.056701883374757 0 0 0 0 -9.2967930919448918 -13.329576247083423 0 -13.329576247083423 -13.583143659605412 0 0 0 0 -12.816004957308905 -12.002866783903301 0 -12.002866783903301 -1.5214355382486247 0 0 0 0 -7.7668646763813953 -8.7802567428603737 0 -8.7802567428603737 -3.6695041369263208 0 0 0 0 -9.5881987702755396 -18.435430871169956 0 -18.435430871169956 -14.440399087689002 0 0 0 0 -8.4038929440966967 -12.83526129783786 0 -12.83526129783786 -11.833517721504904 0 0 0 0 -15.375839648889269 -22.310609883163124 0 -22.310609883163124 -18.443899990343198 0 0 0 0 -5.0091366160777397 -18.741054670233098 0 -18.741054670233098 -17.595092068513623 0 0 0 0 -10.914512406628091 -9.0206124543656188 0 -9.0206124543656188 -24.691560259510879 0 0 0 0 -18.08853991349315 -18.049921017598535 0 -18.049921017598535 -14.633480359982059 0 0 0 0 -29.164757549078786 -1.7330613327721949 0 -1.7330613327721949 -27.466184116135992 0 0 0 0 -13.342137475596246 -18.019912725416361 0 -18.019912725416361 -22.702523555562948 0 0 0 0 -35.752495185432963 -23.888641516539792 0 -23.888641516539792 -22.719295237620827 0 0 0 0 -33.750837601665353 9.9164845967789006 0 9.9164845967789006 -20.042940094455844 0 0 0 0 3.6370629281674791 8.9563906091846093 0 8.9563906091846093 -18.402301764953847 0 0 0 0 5.0085841306863585 -26.839551903503889 0 -26.839551903503889 -73.03472783799225 0 0 0 0 2.450049656180628 0.87470854503689566 0 0.87470854503689566 -10.125648622596827 0 0 0 0 5.5918273088127535 -10.71350517913379 0 -10.71350517913379 -64.100153554514691 0 0 0 0 -7.8984246487475502 -5.8936806235105905 0 -5.8936806235105905 -55.001884272627649 0 0 0 0 7.1516074583188143 -5.6140695961167211 0 -5.6140695961167211 -11.506298887326352 0 0 0 0 30.321073634730851 14.653041712372215 0 14.653041712372215 -36.665331407639314 0 0 0 0 -1.4559381652661614 -10.889249524469051 0 -10.889249524469051 -16.187404040174442 0 0 0 0 0.82912641755985805 -7.7555069397754863 0 -7.7555069397754863 -41.973512367071095 0 0 0 0 25.188439683337464 -13.100788980076686 0 -13.100788980076686 -82.025856015141471 0 0 0 0 22.210626056316869 -8.9062579630990513 0 -8.9062579630990513 -71.21572386859043 0 0 0 0 8.5370264487535508 -65.599202783289911 0 -65.599202783289911 -109.72772347642604 0 0 0 0 46.771756904930157 3.0587452842282801 0 3.0587452842282801 -111.04863265187305 0 0 0 0 115.20620972048414 110.53420492195437 0 110.53420492195437 23.783061484558857 0 0 0 0 144.06600382221083 -127.49531032156801 0 -127.49531032156801 -246.01669843467243 0 0 0 0 -10.911181037675533 -33.500575326848775 0 -33.500575326848775 -67.92731242913942 0 0 0 0 1.7165359419453381 -1.7103412852358417 0 -1.7103412852358417 1.6301153211724753 0 0 0 0 3.2853846340492794 -152.54693601606778 0 -152.54693601606778 -156.70448577642674 0 0 0 0 54.149813711520721 -59.357252057716323 0 -59.357252057716323 -115.09039439419576 0 0 0 0 -7.518587354955871 -10.883017441306663 0 -10.883017441306663 -13.343976876604444 0 0 0 0 -98.231866812625981 346.18295566369579 0 346.18295566369579 -554.62229429012223 0 0 0 0 22.478482109161774 239.2709596693644 0 239.2709596693644 -585.26304184432956 0 0 0 0 -187.0259709470879 206.03184000767214 0 206.03184000767214 -430.10160676865053 0 0 0 0 -65.244703785374895 221.51656774655567 0 221.51656774655567 -478.7947618104663 0 0 0 0 62.570618551141706 86.584705126011613 0 86.584705126011613 -404.0040944514185 0 0 0 0 121.97234146054464 60.541137844246805 0 60.541137844246805 -454.64738628277701 0 0 0 0 -9.6445030013469477 -45.704411762422751 0 -45.704411762422751 -124.57139860391908 0 0 0 0 13.725177632850318 41.300804650669306 0 41.300804650669306 -279.24319095685496 0 0 0 0 -28.602684417210639 23.592183075910725 0 23.592183075910725 -59.783868946746225 0 0 0 0 21.145389207501012 -22.509737537431647 0 -22.509737537431647 -124.38879782844015 0 0 0 0 -37.779841564949493 22.255170278995138 0 22.255170278995138 -119.96973253990291 0 0 0 0 -19.650253993817387 43.222772619548778 0 43.222772619548778 -208.37308773416225 0 0 0 0 0.33821053297128856 135.359721107734 0 135.359721107734 -352.70739350412623 0 0 0 0 -68.233834721398125 122.54572386256768 0 122.54572386256768 -149.59629403926374 0 0 0 0 -25.412303364020772 68.714360917023441 0 68.714360917023441 -261.59842888175626 0 0 0 0 1.8570995279806084 131.69813852592051 0 131.69813852592051 -364.60917118153884 0 0 0 0 -2.9019333163339525 110.1897096011453 0 110.1897096011453 -395.73514847802289 0 0 0 0 29.979187704575452 143.14451225988159 0 143.14451225988159 -415.37740926166589 0 0 0 0 30.148596554270625 146.14312237354898 0 146.14312237354898 -439.79427456554549 0 0 0 0 44.481078018388871 187.06787871863344 0 187.06787871863344 -374.54198113264283 0 0 0 0 -6.654955211165543 267.74130253231488 0 267.74130253231488 -462.11486502319167 0 0 0 0 -402.52696947339336 348.09163998865188 0 348.09163998865188 -272.86909982530051 0 0 0 0 -135.864299479279 235.96205554342305 0 235.96205554342305 -321.7853157929494 0 0 0 0 -138.35233896700902 117.88424762575596 0 117.88424762575596 -111.01435107438374 0 0 0 0 1.856388827813173 -1.199464718145606 0 -1.199464718145606 -50.037388427763432 0 0 0 0 -48.226912451304088 -42.440515755173692 0 -42.440515755173692 -48.688863138129818 0 0 0 0 58.531167675101415 -34.32763353420205 0 -34.32763353420205 -101.74317790651548 0 0 0 0 -76.289221514059136 -7.8332577174878679 0 -7.8332577174878679 77.780680400275742 0 0 0 0 126.26964647330249 113.00525873903825 0 113.00525873903825 0.71617339701333549 0 0 0 0 -202.11313185730887 141.39509121493757 0 141.39509121493757 382.05438023108582 0 0 0 0 -294.07218157893942 -188.71773164518709 0 -188.71773164518709 -49.638452614031848 0 0 0 0 -190.0152084635256 -233.76454263256892 0 -233.76454263256892 -30.29878987801203 0 0 0 0 -597.54405432023941 -526.68482448455325 0 -526.68482448455325 277.13021996373209 0 0 0 0 -256.12301738237284 -613.80457924085204 0 -613.80457924085204 -715.93197193813103 0 0 0 0 -43.930028414416483 44.232340414404462 0 44.232340414404462 -1095.5338222153368 0 0 0 0 282.10907382784717 -841.91625170622501 0 -841.91625170622501 -971.83928357249533 0 0 0 0 -0.6607170431155005 -1.9578983708089481 0 -1.9578983708089481 -5.988576648790314 0 0 0 0 38.800409480837061 -134.67601354761428 0 -134.67601354761428 -741.641824711347 0 0 0 0 -393.36681144403997 357.981339525777 0 357.981339525777 -464.69250423040648 0 0 0 0 -122.34067995357236 799.84322505144155 0 799.84322505144155 620.73403181255344 0 0 0 0 -945.4667208151327 -307.06437499235108 0 -307.06437499235108 273.6788783335287 0 0 0 0 567.12111136549265 310.86664797287085 0 310.86664797287085 -903.3740208635063 0 0 0 0 -473.75392976960131 466.91824221997103 0 466.91824221997103 -288.56678077293327 0 0 0 0 -0.7151800474457386 -1.3726005698987898 0 -1.3726005698987898 -19.088916505442342 0 0 0 0 -170.13285716043811 589.84468945473782 0 589.84468945473782 -673.38140193589061 0 0 0 0 210.06530908369496 162.6586615633953 0 162.6586615633953 -442.9015608299087 0 0 0 0 204.51202937636299 273.21955523546058 0 273.21955523546058 -455.29155993578024 0 0 0 0 166.65344225251192 -158.16773659924365 0 -158.16773659924365 -168.62282497053093 0 0 0 0 138.5760208920583 155.85069620270224 0 155.85069620270224 -423.4773103598709 0 0 0 0 109.70962957833581 226.55411149247084 0 226.55411149247084 -482.69778929586028 0 0 0 0 105.46595941037185 131.28062639043151 0 131.28062639043151 -439.61562274515745 0 0 0 0 -165.49386610235706 400.48138265000307 0 400.48138265000307 -32.682546785013983 0 0 0 0 53.564806001141051 66.005145957638888 0 66.005145957638888 -375.36581931020191 0 0 0 0 -153.87890129336756 114.6296565418088 0 114.6296565418088 -376.10991164423467 0 0 0 0 462.18249420953646 -112.3016286536722 0 -112.3016286536722 -546.87970317344298 0 0 0 0 120.16051879646511 151.07016529951943 0 151.07016529951943 -369.45721969169972 0 0 0 0 -3.8161063439748037 -5.3970579580851563 0 -5.3970579580851563 -8.6275177549160844 0 0 0 0 -15.016352963392819 25.88754325035552 0 25.88754325035552 8.9589542244111726 0 0 0 0 -5.4106997873246314 2.4121925869476399 0 2.4121925869476399 5.5809811774179252 0 0 0 0 3.791993209303655 65.593644302316534 0 65.593644302316534 -49.479240832195501 0 0 0 0 -2.9318532732327185 31.859536818450579 0 31.859536818450579 -42.280829144248855 0 0 0 0 0.83764319427668132 -0.061836214395633249 0 -0.061836214395633249 -22.300038540492494 0 0 0 0 3.0960382547067127 9.325611759286403 0 9.325611759286403 -15.932011090178548 0 0 0 0 3.2972931143325468 18.485176856476755 0 18.485176856476755 -16.943837583152344 0 0 0 0 11.793681069052127 4.2157911493341089 0 4.2157911493341089 -38.027778559961007 0 0 0 0 3.4831118823433997 5.8771719467683212 0 5.8771719467683212 -25.860583961207453 0 0 0 0 1.6125314852868087 -17.051529783082515 0 -17.051529783082515 -20.339172952655645 0 0 0 0 -153.91534058431625 121.44208455691842 0 121.44208455691842 -739.26073747011833 0 0 0 0 0.0020427210354920788 -2.8415301771883463 0 -2.8415301771883463 -3.3144744453047394 0 0 0 0 153.54898455949007 -29.084266712354292 0 -29.084266712354292 -300.88709468646994 0 0 0 0 -130.17783918611258 -60.267266502116399 0 -60.267266502116399 8.2314767689022119 0 0 0 0 5.5544409656905849 15.305101237350769 0 15.305101237350769 -60.278909785334662 0 0 0 0 55.626638383742829 126.24889017974056 0 126.24889017974056 -213.17093172967679 0 0 0 0 -503.90661956525264 96.681228923600429 0 96.681228923600429 -50.430320727300568 0 0 0 0 -97.755240017844926 -238.01309735199902 0 -238.01309735199902 -160.28255545940192 0 0 0 0 0.68035619038109996 2.5365668210437491 0 2.5365668210437491 -0.75838313038491378 0 0 0 0 -39.455933909629721 -83.23812537847698 0 -83.23812537847698 -262.59399121347906 0 0 0 0 -29.603251505431846 11.726271677390741 0 11.726271677390741 -244.87407791971054 0 0 0 0 28.323488764747282 -30.596397827684996 0 -30.596397827684996 -213.95877112904782 0 0 0 0 32.013601817465116 -50.617601763224229 0 -50.617601763224229 -162.17629055395446 0 0 0 0 42.357011182380347 -93.149627005703223 0 -93.149627005703223 -262.57481061446742 0 0 0 0 45.002542785616697 -115.74734228638044 0 -115.74734228638044 -147.64337940640689 0 0 0 0 -131.49701252307477 -117.10745121541549 0 -117.10745121541549 -72.848388936559786 0 0 0 0 -22.662385026836432 -161.57977820756787 0 -161.57977820756787 -158.20730213380739 0 0 0 0 -37.888258037582091 -204.45561902013287 0 -204.45561902013287 -169.45746024823165 0 0 0 0 -112.78267032192207 -315.23164171582175 0 -315.23164171582175 -328.08440899434208 0 0 0 0 0.40910490222677254 -72.847264193820592 0 -72.847264193820592 -433.41118931528035 0 0 0 0 199.41603519452417 -142.45763828432246 0 -142.45763828432246 -254.38620687215735 0 0 0 0 1.6724839229073041 -109.11762465081847 0 -109.11762465081847 -111.3295920462333 0 0 0 0 121.54005184252946 -221.45782265267553 0 -221.45782265267553 -241.22633597881941 0 0 0 0 -21.401420870203765 78.168869955858099 0 78.168869955858099 -151.58865599890123 0 0 0 0 118.70368435417575 73.423712765577875 0 73.423712765577875 -214.63049894936557 0 0 0 0 -54.864365638259613 -34.589364662564549 0 -34.589364662564549 -330.49767565495858 0 0 0 0 -49.657966238778044 178.78377845330397 0 178.78377845330397 -459.1938972279022 0 0 0 0 -302.27311185518352 156.99178599328297 0 156.99178599328297 -87.986185436937376 0 0 0 0 -127.0225088893967 57.939816964404599 0 57.939816964404599 -39.035760335267696 0 0 0 0 -131.02757704792174 98.254036630184146 0 98.254036630184146 -45.126522177743027 0 0 0 0 16.62072925209236 125.38284131891851 0 125.38284131891851 -171.64872138139617 0 0 0 0 73.430568535581926 39.624838286024897 0 39.624838286024897 -59.101683212145872 0 0 0 0 135.63994205164286 -44.270165142113001 0 -44.270165142113001 -73.258093386924884 0 0 0 0 79.590343531333872 19.037285497228368 0 19.037285497228368 -107.1314415018569 0 0 0 0 1.9371932356326591 3.8022629600165345 0 3.8022629600165345 -15.491121255788762 0 0 0 0 -4.0046351311566468 10.796199321295717 0 10.796199321295717 -88.65807250904254 0 0 0 0 -1.7463616880045265 20.600829712580889 0 20.600829712580889 -61.625087044929387 0 0 0 0 -14.355332440346046 -10.451957806391874 0 -10.451957806391874 -31.681387019023532 0 0 0 0 -0.63186445910604139 21.652060564584296 0 21.652060564584296 -62.270839867993317 0 0 0 0 -1.9364354030865343 34.740425727388356 0 34.740425727388356 -8.4313870420155581 0 0 0 0 -29.984545157694811 -21.919616387458518 0 -21.919616387458518 32.186768368657795 0 0 0 0 -23.188864913814427 -34.168591197561909 0 -34.168591197561909 -71.168861577403732 0 0 0 0 185.01973916696693 -114.17205189327797 0 -114.17205189327797 -163.45644682543207 0 0 0 0 2.8003850880176082 5.0965553658181264 0 5.0965553658181264 -73.513001280766787 0 0 0 0 205.03693049244021 -12.543204761546804 0 -12.543204761546804 -134.2865276253724 0 0 0 0 -2.4590736259833648 -5.4594103576528141 0 -5.4594103576528141 17.369417884554423 0 0 0 0 78.3977379606049 -67.695014375829487 0 -67.695014375829487 -63.355263100667798 0 0 0 0 -31.625518822210779 -139.64410474604665 0 -139.64410474604665 -90.898728077998385 0 0 0 0 -77.047939564783064 -73.272341787815094 0 -73.272341787815094 3.5267900858671055 0 0 0 0 28.632330508037967 -236.72739869161887 0 -236.72739869161887 -218.52273513464024 0 0 0 0 -61.48248368879058 312.20982789055415 0 312.20982789055415 -224.56995468090759 0 0 0 0 -321.10662706528728 -260.35832369206764 0 -260.35832369206764 -103.5746313668642 0 0 0 0 101.96966755703181 -258.809136485419 0 -258.809136485419 -359.51765422959579 0 0 0 0 -178.01810552948487 348.19904539222421 0 348.19904539222421 -1.5952182894397993 0 0 0 0 -197.627562940345 -162.98631856693464 0 -162.98631856693464 -16.488221106308629 0 0 0 0 -1.5069351047419892 22.006968821851601 0 22.006968821851601 -62.704269744708824 0 0 0 0 31.790745571140292 32.954341943681356 0 32.954341943681356 -54.966813085258764 0 0 0 0 93.619668898249301 118.237041303968 0 118.237041303968 -76.756278806256887 0 0 0 0 0.91767667257043106 -1.6463829950341093 0 -1.6463829950341093 -11.183847828577711 0 0 0 0 -47.641113676610416 22.791501491836243 0 22.791501491836243 -20.962540648295544 0 0 0 0 -137.04166424580535 67.158421616790292 0 67.158421616790292 -20.6765053243289 0 0 0 0 -126.34873830883748 44.117503684225085 0 44.117503684225085 -2.719998529079021 0 0 0 0 -47.271741072833265 89.889289953869593 0 89.889289953869593 -44.315890463163669 0 0 0 0 0.52858280993790618 8.1110024712326236 0 8.1110024712326236 -8.6211877481880492 0 0 0 0 114.20368089761018 61.069474822359552 0 61.069474822359552 -28.757669421000173 0 0 0 0 -12.232812243454418 79.466453534714674 0 79.466453534714674 -8.4462495185589432 0 0 0 0 0.47733586254213867 16.658927115666714 0 16.658927115666714 -63.915248848102436 0 0 0 0 299.49983843145156 56.719680855430852 0 56.719680855430852 -236.51545109027938 0 0 0 0 -37.4533020858089 -29.736630807528854 0 -29.736630807528854 -48.129565624913084 0 0 0 0 -58.211299276835007 -6.2025329842981591 0 -6.2025329842981591 -58.8301047996938 0 0 0 0 -31.459168850986146 -42.430115061826655 0 -42.430115061826655 -44.985207718302263 0 0 0 0 0.98348326301311317 -51.381912299490068 0 -51.381912299490068 -48.956052906054538 0 0 0 0 3.9629414709870616 -37.874542698584264 0 -37.874542698584264 -63.902333254911355 0 0 0 0 -32.374970616508207 -29.241476931500529 0 -29.241476931500529 -74.807746864738874 0 0 0 0 -17.204426054962596 44.16231143702862 0 44.16231143702862 -29.713701463173493 0 0 0 0 56.022153213928846 -14.495236381619179 0 -14.495236381619179 -78.565127323323395 0 0 0 0 -0.53519875088487368 20.309926096518609 0 20.309926096518609 -52.460691695934742 0 0 0 0 47.393785577081871 -47.254490703737247 0 -47.254490703737247 -63.885365154405008 0 0 0 0 -1.6617325854203111 -16.316554634092086 0 -16.316554634092086 -46.932171695142614 0 0 0 0 -3.5147294501809938 -8.5642537466192152 0 -8.5642537466192152 -75.443957141411374 0 0 0 0 -62.006592983107794 58.749815664772541 0 58.749815664772541 -145.11341227680532 0 0 0 0 -212.63874724385232 67.367625085604232 0 67.367625085604232 -77.563389068294782 0 0 0 0 4.9900943697770348 -7.1087101918691502 0 -7.1087101918691502 -11.529934116513601 0 0 0 0 36.725635451238304 -12.250465412449557 0 -12.250465412449557 -76.128038792245206 0 0 0 0 -9.2761328226354181 -29.011617900760029 0 -29.011617900760029 -66.311626427065221 0 0 0 0 -28.384289190736922 -11.40151633300411 0 -11.40151633300411 -34.628987407675595 0 0 0 0 -2.2550005424204755 -30.544795155386964 0 -30.544795155386964 -66.420196150284028 0 0 0 0 -121.42475957892725 30.324084006104385 0 30.324084006104385 22.638619728619233 0 0 0 0 -0.25034989099491356 2.7001022154941303 0 2.7001022154941303 -20.096845959007311 0 0 0 0 -60.120491068932779 -38.706625976399664 0 -38.706625976399664 -49.90691685796628 0 0 0 0 -6.4119857163980214 -2.2503430579054111 0 -2.2503430579054111 -56.006290948775131 0 0 0 0 41.944052373308068 85.242626589846623 0 85.242626589846623 -38.027464762883028 0 0 0 0 1.7571045062692265 7.6260342471482474 0 7.6260342471482474 -71.952907568171327 0 0 0 0 24.828383171845214 -7.0903957936861843 0 -7.0903957936861843 -72.669280652073212 0 0 0 0 69.021100303969405 38.815047761348978 0 38.815047761348978 -79.366548652687925 0 0 0 0 53.268837854041372 40.871776866442815 0 40.871776866442815 -117.91205421643099 0 0 0 0 1.8857862271395369 7.7183903778476406 0 7.7183903778476406 -74.379402271014271 0 0 0 0 284.59424321455924 162.67954243256463 0 162.67954243256463 -237.04472289266414 0 0 0 0 -362.71613886579257 53.901028095675429 0 53.901028095675429 35.751716885017231 0 0 0 0 -0.26437601894475316 -0.33555205765270202 0 -0.33555205765270202 -6.7075653600970213 0 0 0 0 -58.57195929071122 103.23978081601672 0 103.23978081601672 33.065971513438853 0 0 0 0 -93.259628146242221 -82.028654284935328 0 -82.028654284935328 -0.99340959826076869 0 0 0 0 -12.944793922620306 -19.67431698501241 0 -19.67431698501241 -10.99001169701296 0 0 0 0 -2.8745433259085758 -13.162679400506022 0 -13.162679400506022 -28.31539049163257 0 0 0 0 -0.84775994961290424 -11.578642700019216 0 -11.578642700019216 -14.800122237264375 0 0 0 0 14.609199670345561 -0.62990070930391084 0 -0.62990070930391084 -37.583803263667505 0 0 0 0 32.838555703211526 -5.1041227044279367 0 -5.1041227044279367 -83.22589187954145 0 0 0 0 0.23879061037875848 -0.20609746038765309 0 -0.20609746038765309 -8.6754282348813163 0 0 0 0 -5.6217673817900504 4.5654552258201875 0 4.5654552258201875 -59.559676785953343 0 0 0 0 8.5054183103292189 -0.54768530603723775 0 -0.54768530603723775 -35.920075349218678 0 0 0 0 21.485219762241812 2.0816167124139611 0 2.0816167124139611 -39.37437261397281 0 0 0 0 10.3245059408423 -31.040742644443526 0 -31.040742644443526 -111.44381307641743 0 0 0 0 30.491467173063825 7.5422677857650342 0 7.5422677857650342 -63.700139524560655 0 0 0 0 25.025786901440711 10.394368818624571 0 10.394368818624571 -63.226881582886563 0 0 0 0 18.224022580980659 30.904483968573913 0 30.904483968573913 -109.33962733701628 0 0 0 0 -25.857167895697103 6.5608200982751441 0 6.5608200982751441 -73.428140821444686 0 0 0 0 -54.680298995065414 -41.936869285338616 0 -41.936869285338616 12.475866267541278 0 0 0 0 -62.965929092099941 -65.223131450853543 0 -65.223131450853543 -23.696985921367741 0 0 0 0 -7.8820495077701338 -16.410024545694625 0 -16.410024545694625 -15.403021758740351 0 0 0 0 -3.2179210565042116 -2.6752656664995911 0 -2.6752656664995911 2.3732720980083002 0 0 0 0 -5.4403784576531962 -22.196873246004543 0 -22.196873246004543 -31.928703535946624 0 0 0 0 102.86625997257238 -77.700364590975369 0 -77.700364590975369 -170.63452340364165 0 0 0 0 -481.70261658765003 146.14886711162035 0 146.14886711162035 60.146224330528639 0 0 0 0 80.490743586783537 -142.63406590916566 0 -142.63406590916566 262.31207269925653 0 0 0 0 3.7495581868784642 -2.7037756613926121 0 -2.7037756613926121 -5.8730835713127192 0 0 0 0 90.952557496288136 38.600695766937861 0 38.600695766937861 -205.62274086951948 0 0 0 0 60.240745617469656 -50.938660854721093 0 -50.938660854721093 -146.41505705620511 0 0 0 0 68.739699252198989 12.204015111266926 0 12.204015111266926 -114.89254101853294 0 0 0 0 -3.7715756359183343 -3.3208713550188804 0 -3.3208713550188804 -2.292093432286137 0 0 0 0 1.8537593300097797 -11.188914375437889 0 -11.188914375437889 -89.443039414742088 0 0 0 0 -57.124071995691793 -52.254017132596346 0 -52.254017132596346 -167.33763773764804 0 0 0 0 -9.3716537707377938 -37.607277962029912 0 -37.607277962029912 -151.59033873413864 0 0 0 0 23.675403157836172 39.669519505088829 0 39.669519505088829 -115.58080540715309 0 0 0 0 -44.310218520838134 -11.490293186023337 0 -11.490293186023337 -132.8346412020619 0 0 0 0 -352.00786441232049 -13.045202804700239 0 -13.045202804700239 -128.5224900750909 0 0 0 0 -227.10000329802915 -158.9106971437468 0 -158.9106971437468 -201.21012775487907 0 0 0 0 156.8705579471366 -359.8775770314096 0 -359.8775770314096 -460.99888063922117 0 0 0 0 -405.41557252656548 -275.26130121992173 0 -275.26130121992173 -52.924239785948885 0 0 0 0 -529.16602002298441 60.889181469028699 0 60.889181469028699 304.6619203001901 0 0 0 0 -129.33078100350531 -79.602227062216116 0 -79.602227062216116 95.245994372497989 0 0 0 0 -90.886144524607516 198.57911864943162 0 198.57911864943162 176.97151576139368 0 0 0 0 -307.3537857554561 -118.67005859425262 0 -118.67005859425262 102.70403506905132 0 0 0 0 -1.2491718727045509 -0.94950216858308778 0 -0.94950216858308778 -0.41382957215125771 0 0 0 0 -208.5980897320313 96.459094024701244 0 96.459094024701244 -48.058991366473492 0 0 0 0 -208.48810925843054 96.852640389392036 0 96.852640389392036 -58.365034759699483 0 0 0 0 -2.1558993453987156 2.161480506239883 0 2.161480506239883 -10.589526629539648 0 0 0 0 -6.3505359042311031 -17.015310612190284 0 -17.015310612190284 -40.110209312048511 0 0 0 0 -60.47255775311578 -17.111063217747869 0 -17.111063217747869 -87.00550761159684 0 0 0 0 -211.83588623805736 85.207475705272373 0 85.207475705272373 -40.871703133168921 0 0 0 0 -9.7925836192309816 -8.3169834166601504 0 -8.3169834166601504 -47.570447322337714 0 0 0 0 -5.5640772536976328 -17.689530974008449 0 -17.689530974008449 -40.485614610144694 0 0 0 0 -6.734713173035904 -15.768550380762669 0 -15.768550380762669 -33.482418796668128 0 0 0 0 -58.917895390441117 13.18176166460762 0 13.18176166460762 -85.884663778979302 0 0 0 0 -70.629835382283318 2.6270429791366041 0 2.6270429791366041 -36.297237236623914 0 0 0 0 -7.584099054401122 -16.204238376103604 0 -16.204238376103604 -39.245313934578007 0 0 0 0 -2.8223651135434693 -14.893849055775718 0 -14.893849055775718 -52.201377642602893 0 0 0 0 -4.457312238707118 -13.711264695568389 0 -13.711264695568389 -49.955531629719189 0 0 0 0 -9.0053226510839863 -27.090633284260548 0 -27.090633284260548 -46.376349538597424 0 0 0 0 -5.7586782642597338 -5.8040471055810485 0 -5.8040471055810485 -47.555812416860135 0 0 0 0 -6.5970598980181876 -3.8947855898604757 0 -3.8947855898604757 -43.373796268548176 0 0 0 0 -7.5276742171918327 -6.2874013651127143 0 -6.2874013651127143 -47.687434492552711 0 0 0 0 -7.2476513057531093 -3.3598300686902576 0 -3.3598300686902576 -51.058308109852078 0 0 0 0 -6.7070085139546336 -5.8820689273998141 0 -5.8820689273998141 -55.547988369348786 0 0 0 0 -5.9855550413763012 -7.1044610911449126 0 -7.1044610911449126 -48.48219961383802 0 0 0 0 -7.2186904047715643 -5.005608289178781 0 -5.005608289178781 -49.61779820008087 0 0 0 0 -13.545938398571025 -9.4100641099194036 0 -9.4100641099194036 -49.96529151674622 0 0 0 0 -17.591161158744399 -8.0230482863626094 0 -8.0230482863626094 -49.267886441615701 0 0 0 0 -5.8905559662765654 -9.5333710630518453 0 -9.5333710630518453 -50.06425201127422 0 0 0 0 -14.989739880452568 -16.4641892580625 0 -16.4641892580625 -45.328644474432906 0 0 0 0 -18.632884906007803 -4.1685641502417639 0 -4.1685641502417639 -63.528618314754567 0 0 0 0 -17.315050532812165 -26.68480982105757 0 -26.68480982105757 -206.68158851678345 0 0 0 0 -16.049322989362338 -10.190390772963774 0 -10.190390772963774 -19.003493743057625 0 0 0 0 -30.271290422946549 -13.064959471658767 0 -13.064959471658767 -199.74814175730717 0 0 0 0 -62.597524697426707 79.926604275409773 0 79.926604275409773 -207.87519179221999 0 0 0 0 -25.420778135679939 16.80414127685799 0 16.80414127685799 -241.11179635296503 0 0 0 0 -6.8301050188939527 48.655839147621435 0 48.655839147621435 -32.464512081299816 0 0 0 0 -10.648262949762284 -10.051396553484665 0 -10.051396553484665 -59.401088693000929 0 0 0 0 -12.210037583980943 -9.2420367804141605 0 -9.2420367804141605 0.97463333781442429 0 0 0 0 30.716231479248563 -41.296215020580348 0 -41.296215020580348 -347.5685051068067 0 0 0 0 -7.4596505750833701 -11.883231511980867 0 -11.883231511980867 1.5698624495892759 0 0 0 0 -1.3419264300547251 0.93833050596779799 0 0.93833050596779799 -4.6837895983790609 0 0 0 0 -10.912572016345166 -8.918809451182824 0 -8.918809451182824 -32.571915375141543 0 0 0 0 -10.130925118074174 -13.151681810057198 0 -13.151681810057198 -47.49054035361587 0 0 0 0 36.273697196403191 -16.240762995490513 0 -16.240762995490513 -361.23184675211269 0 0 0 0 -87.130547407572976 -27.988309682070394 0 -27.988309682070394 -257.81104924798092 0 0 0 0 0.43615454887738991 48.559032152953407 0 48.559032152953407 -27.516716643405751 0 0 0 0 125.35138495266619 -29.584706224530237 0 -29.584706224530237 -491.38763640344041 0 0 0 0 -142.9439653698937 35.586300298699825 0 35.586300298699825 -156.4572363443549 0 0 0 0 -3.8302722816770256 -21.562088776248856 0 -21.562088776248856 -75.882250365837535 0 0 0 0 -24.309492572737327 -5.1554007827216992 0 -5.1554007827216992 -63.520376881024276 0 0 0 0 -6.3041207107307828 -21.45893292230997 0 -21.45893292230997 -86.441360688456541 0 0 0 0 -56.168505197070772 -64.220821166702081 0 -64.220821166702081 -46.208329297791352 0 0 0 0 -20.057245305432843 -5.5223048667103285 0 -5.5223048667103285 -65.056258933618665 0 0 0 0 -4.1783009526297974 -0.36048080671753269 0 -0.36048080671753269 -35.905940843280405 0 0 0 0 -19.157536138034047 4.0095490020148148 0 4.0095490020148148 -48.911290279318507 0 0 0 0 -38.152970398044289 -16.212585469588745 0 -16.212585469588745 -66.852977005721087 0 0 0 0 -14.413155489962204 -24.479157235185291 0 -24.479157235185291 -80.966826042079163 0 0 0 0 17.600858015565791 -8.279485519771697 0 -8.279485519771697 -46.098851639282657 0 0 0 0 -3.5158691847510282 -7.6045473228296601 0 -7.6045473228296601 -54.017011567161489 0 0 0 0 47.967246370029272 10.760631053999532 0 10.760631053999532 -64.59087058462319 0 0 0 0 20.578481261099341 57.151682648211136 0 57.151682648211136 -4.5305878125654999 0 0 0 0 -0.94457521507684195 -0.094956100209628858 0 -0.094956100209628858 -1.0658266600281081 0 0 0 0 -13.913221649076746 -8.4250134654866997 0 -8.4250134654866997 15.884691004263004 0 0 0 0 0.34368605586468282 -5.0363051271795598 0 -5.0363051271795598 -13.951138051743769 0 0 0 0 -84.224225493123583 132.12817642177833 0 132.12817642177833 -56.060638443894277 0 0 0 0 32.84448786282843 -0.81574002429988468 0 -0.81574002429988468 -255.83477141946787 0 0 0 0 7.3345650734506762 -123.82883966961526 0 -123.82883966961526 -109.29722435580334 0 0 0 0 -8.0773879059313796 18.447996991371156 0 18.447996991371156 -25.94512658106396 0 0 0 0 -27.221028620522247 -2.9698131232071319 0 -2.9698131232071319 -55.097518015434616 0 0 0 0 0.72744885873813958 4.2665626678764852 0 4.2665626678764852 -67.923557895744011 0 0 0 0 44.221589297685853 19.697688228159677 0 19.697688228159677 -219.86537316077738 0 0 0 0 -4.5430041611816572 -0.69783591046870086 0 -0.69783591046870086 -36.311839611653909 0 0 0 0 -28.049043174044982 -4.806347216523136 0 -4.806347216523136 -57.782641759491526 0 0 0 0 -23.75509752242715 -2.9443694694418809 0 -2.9443694694418809 -59.7984851753572 0 0 0 0 -21.845211744945203 -2.2060807476154878 0 -2.2060807476154878 -39.140439516457263 0 0 0 0 -4.0023686256656488 -4.6722518838715459 0 -4.6722518838715459 -44.637347785403449 0 0 0 0 -80.382827404335785 36.56284336571116 0 36.56284336571116 -68.896744280917119 0 0 0 0 -110.49986051947644 14.628811676968326 0 14.628811676968326 -31.626533926750199 0 0 0 0 -120.45320069904574 71.597986954991939 0 71.597986954991939 -84.2310618930278 0 0 0 0 -138.00706843027456 44.149564662882767 0 44.149564662882767 -44.342231473812717 0 0 0 0 -58.157463943827224 -1.230374041813775 0 -1.230374041813775 -63.281861600033153 0 0 0 0 -79.605259305884829 36.417756286951771 0 36.417756286951771 -83.41967079549795 0 0 0 0 -79.688346911822464 16.169672957425064 0 16.169672957425064 -76.869655632759532 0 0 0 0 -54.306540457941082 14.200865805731155 0 14.200865805731155 -81.284149643317505 0 0 0 0 -24.648995961641106 10.806755274598821 0 10.806755274598821 -56.022930334378032 0 0 0 0 -184.06035046864417 99.590252337795391 0 99.590252337795391 -156.30390810247627 0 0 0 0 -209.27205634593338 99.517132427878096 0 99.517132427878096 -45.428356741467724 0 0 0 0 -56.196317157856953 18.81668447833691 0 18.81668447833691 -25.543719037299155 0 0 0 0 -206.65730673937651 101.43183416154352 0 101.43183416154352 -53.699803010706091 0 0 0 0 -14.336616940913967 -4.225284719546643 0 -4.225284719546643 -6.1079134642225483 0 0 0 0 -98.980824579979526 28.089171360479668 0 28.089171360479668 -77.942080506851198 0 0 0 0 -165.29265046808723 127.53092769141222 0 127.53092769141222 -225.56506182218436 0 0 0 0 -102.2010271707768 57.396740681404481 0 57.396740681404481 -34.522704711613187 0 0 0 0 95.100559158920078 25.261200687091332 0 25.261200687091332 -81.088400556254783 0 0 0 0 -49.194705837322545 92.173995980811014 0 92.173995980811014 -154.50336590083316 0 0 0 0 -14.836300420925909 19.670466306604794 0 19.670466306604794 -33.395885215664748 0 0 0 0 136.20065897884706 -9.1225232699798653 0 -9.1225232699798653 -55.887286460452742 0 0 0 0 40.411417091192561 -15.741823428368662 0 -15.741823428368662 -78.523678857367486 0 0 0 0 -8.8669764245924156 -8.414783868866925 0 -8.414783868866925 -92.422691050925025 0 0 0 0 3.4529766343427042 4.654525408675056 0 4.654525408675056 -9.2580586660855317 0 0 0 0 20.124346205944676 50.32995615391701 0 50.32995615391701 -271.84341533263796 0 0 0 0 -2.6416598868566581 15.725971453452335 0 15.725971453452335 -12.260439046899279 0 0 0 0 95.272699694582116 -33.179488341498654 0 -33.179488341498654 -212.16842879194883 0 0 0 0 -54.628383541879884 74.791234100928705 0 74.791234100928705 -271.95642133647925 0 0 0 0 112.81047660644253 -72.292466246646654 0 -72.292466246646654 -168.78310765239439 0 0 0 0 -27.53397751081684 -43.215458376726019 0 -43.215458376726019 -309.89716045821842 0 0 0 0 -183.34256017869484 -157.66945769078302 0 -157.66945769078302 -344.91997480294958 0 0 0 0 -109.45842318067662 63.031491557405388 0 63.031491557405388 -272.4299162698444 0 0 0 0 -106.54830781917008 39.506212018583028 0 39.506212018583028 -601.31893532341928 0 0 0 0 -119.61955915453291 -44.696417341379856 0 -44.696417341379856 -205.24340441298682 0 0 0 0 -178.81541899456352 -281.3644706339619 0 -281.3644706339619 -501.10781304146803 0 0 0 0 -562.64601370731361 -248.08603187966582 0 -248.08603187966582 8.6500109544358565 0 0 0 0 -57.301839898982507 -90.987013559431944 0 -90.987013559431944 -613.93832141939492 0 0 0 0 101.12406759371288 72.572242395530338 0 72.572242395530338 -342.25287848543485 0 0 0 0 13.861234946786343 -24.638222143921027 0 -24.638222143921027 -116.71310327245621 0 0 0 0 9.0563040186947248 8.873473761750617 0 8.873473761750617 -14.366037415935637 0 0 0 0 95.307985326330595 72.384841355265962 0 72.384841355265962 -167.72412790812086 0 0 0 0 -240.66731219396934 -73.377644804962983 0 -73.377644804962983 -26.109151948039653 0 0 0 0 164.28309456651209 -42.725904451035603 0 -42.725904451035603 -78.878276083196397 0 0 0 0 146.88901249078293 50.781582008474288 0 50.781582008474288 -193.86256038826832 0 0 0 0 -188.75153884709894 -367.19336390715762 0 -367.19336390715762 -522.61800277614384 0 0 0 0 -54.124856294472806 120.94254759998876 0 120.94254759998876 -204.15390931166621 0 0 0 0 154.04373128417046 143.4853186584005 0 143.4853186584005 -485.89473782507412 0 0 0 0 177.14185261231887 -3.0458103090313671 0 -3.0458103090313671 -1351.3783152263641 0 0 0 0 -55.767862775298909 189.34215770135052 0 189.34215770135052 -845.69422291911178 0 0 0 0 -112.22182822651723 -151.77389953473175 0 -151.77389953473175 -480.61745563145814 0 0 0 0 -187.14906963084377 97.637150779009971 0 97.637150779009971 -474.3215905352663 0 0 0 0 -126.12229978906566 -30.209157103978214 0 -30.209157103978214 -510.04616919119871 0 0 0 0 30.261800605810549 121.66986045431258 0 121.66986045431258 -476.69919301381015 0 0 0 0 -169.31626061874067 92.754959329457051 0 92.754959329457051 -67.078840897658665 0 0 0 0 -40.123346211141879 -59.349090740193333 0 -59.349090740193333 34.600238089697086 0 0 0 0 -1.0523805055968496 0.63987023229253737 0 0.63987023229253737 -0.32873366388920999 0 0 0 0 -8.0597309729615247 -17.866243227166706 0 -17.866243227166706 -143.23013558149978 0 0 0 0 -2.5054591197452418 -4.2614234557182442 0 -4.2614234557182442 -1.1690489210097184 0 0 0 0 -1.0289925824037596 -0.64499390586570371 0 -0.64499390586570371 -4.4376131167737185 0 0 0 0 -0.80206438580788841 -0.5382877783740696 0 -0.5382877783740696 -4.7554244456550805 0 0 0 0 -12.102430245123415 12.834292660169012 0 12.834292660169012 -213.3070959423203 0 0 0 0 -0.34643474581831657 0.21063343889471753 0 0.21063343889471753 -0.21042698285478423 0 0 0 0 -12.75446742662335 -9.5530455406042165 0 -9.5530455406042165 -131.12369948910782 0 0 0 0 -13.768725756644407 -12.977308910236388 0 -12.977308910236388 -134.60000082891202 0 0 0 0 -13.782539141268217 -20.192724872220424 0 -20.192724872220424 -115.28501694489387 0 0 0 0 -6.2561730204286903 -14.357919992762618 0 -14.357919992762618 -132.38862501255062 0 0 0 0 -8.7105587286171833 -30.160592184755842 0 -30.160592184755842 -101.33045281728846 0 0 0 0 -15.224878723984194 -13.112028225026734 0 -13.112028225026734 -131.76155984206707 0 0 0 0 3.9595985785686878 -2.4098720345791662 0 -2.4098720345791662 -99.057801655209914 0 0 0 0 2.0738503910652923 2.9636950237400015 0 2.9636950237400015 -118.47407863784611 0 0 0 0 2.2749492586103104 17.677270004703701 0 17.677270004703701 -84.39791895954113 0 0 0 0 -41.830947015013145 24.081941888063739 0 24.081941888063739 -124.53540469799191 0 0 0 0 -30.39694888974595 -10.0247381535155 0 -10.0247381535155 -97.582018616267305 0 0 0 0 -39.324345173041856 45.755623500634101 0 45.755623500634101 -57.193789790311712 0 0 0 0 -11.713851985779058 -2.1485918501930428 0 -2.1485918501930428 -27.540335407175007 0 0 0 0 -10.463183254304534 28.017061796426788 0 28.017061796426788 -63.980293194632395 0 0 0 0 -47.827981720685102 -45.714978085881739 0 -45.714978085881739 -71.468018869862135 0 0 0 0 63.967601594565167 -9.2436633937304578 0 -9.2436633937304578 -513.67266676061263 0 0 0 0 -4.0258983226071035 -5.2226328569850295 0 -5.2226328569850295 -3.2828246940835442 0 0 0 0 -5.140261638028349 -47.696263173171246 0 -47.696263173171246 -298.20019989166758 0 0 0 0 44.281538281637268 44.383060062547884 0 44.383060062547884 -532.19930271457997 0 0 0 0 16.4772473475374 76.975459945075272 0 76.975459945075272 -491.12119029807218 0 0 0 0 24.084386866382211 46.507859784896027 0 46.507859784896027 -539.5951046996197 0 0 0 0 53.930012685604879 61.204086417776125 0 61.204086417776125 -570.41075855972304 0 0 0 0 -1.0366621014394852 -3.0888112958474778 0 -3.0888112958474778 -2.6037560284920573 0 0 0 0 -3.6353881086247952 13.273657856800128 0 13.273657856800128 -56.802477058954537 0 0 0 0 -0.14725557851213456 2.2161386789885 0 2.2161386789885 -43.084801173969026 0 0 0 0 -4.0318978232836749 6.7569941941474099 0 6.7569941941474099 -43.546245673260273 0 0 0 0 -3.089539766842726 -4.698314289303994 0 -4.698314289303994 -3.1129491026207177 0 0 0 0 -0.012608331005971089 -2.0775908946125128 0 -2.0775908946125128 -31.402958757593296 0 0 0 0 -0.0016110675646121425 -0.91501995275532977 0 -0.91501995275532977 -1.5125047934934059 0 0 0 0 -0.55044304258148546 9.1192582606672659 0 9.1192582606672659 -49.799011007940862 0 0 0 0 0.0088656670213843759 -1.811918396721012 0 -1.811918396721012 -54.699515610725939 0 0 0 0 3.9260375304056323 -0.088358528610115172 0 -0.088358528610115172 -66.280812356824754 0 0 0 0 3.0778377345794516 2.1899677077435626 0 2.1899677077435626 -65.616574560597655 0 0 0 0 0.77362881094598634 7.9576300025510136 0 7.9576300025510136 -71.016554167803406 0 0 0 0 1.5764432361083713 0.99216792825609446 0 0.99216792825609446 -59.799745977106795 0 0 0 0 4.0633910102053754 4.5248425426034373 0 4.5248425426034373 -64.332607989148528 0 0 0 0 5.8494387764415876 2.4064335418952396 0 2.4064335418952396 -73.187763247464318 0 0 0 0 4.7058623921599185 5.8609355738626618 0 5.8609355738626618 -83.026273392548319 0 0 0 0 5.2669414664974497 2.6460737600209541 0 2.6460737600209541 -79.510531069034187 0 0 0 0 4.258244880670695 -12.260495227194042 0 -12.260495227194042 -80.599132844858104 0 0 0 0 7.6906801451244924 -7.2528130141945439 0 -7.2528130141945439 -87.585619499572203 0 0 0 0 6.9006272462742508 -6.2325580536780762 0 -6.2325580536780762 -77.684799812588608 0 0 0 0 5.9551936483771195 -12.095997834598165 0 -12.095997834598165 -75.1229919019097 0 0 0 0 -0.39647205195075585 -9.6593961659527849 0 -9.6593961659527849 -70.320970266271615 0 0 0 0 4.717766750102129 -9.7647685629453917 0 -9.7647685629453917 -76.951162108511198 0 0 0 0 5.2390854919306804 -17.073337668218301 0 -17.073337668218301 -72.161906568762788 0 0 0 0 3.2480636246813619 -3.8842149711272214 0 -3.8842149711272214 -72.353217650692386 0 0 0 0 0.001679754898804182 -3.5443120724266919 0 -3.5443120724266919 -67.150547290457325 0 0 0 0 2.489522584063069 -4.8494462377930176 0 -4.8494462377930176 -72.95513793262694 0 0 0 0 0.61158314520799451 -7.8618830783307203 0 -7.8618830783307203 -70.213997301965719 0 0 0 0 -5.4150317086148938 -2.4327535089978483 0 -2.4327535089978483 -72.590378630942723 0 0 0 0 -0.012706836136136997 -2.9282906410116993 0 -2.9282906410116993 -76.292523134303337 0 0 0 0 -11.800611160851986 0.36215398810963961 0 0.36215398810963961 -67.164772039250238 0 0 0 0 -3.9328467649005883 5.4842537553849979 0 5.4842537553849979 -88.913317587488564 0 0 0 0 0.11348426735143044 10.464169588769437 0 10.464169588769437 -88.504083321880898 0 0 0 0 1.631165755083714 -15.721149974735454 0 -15.721149974735454 -50.660405068832915 0 0 0 0 6.5435654566829626 -9.4161881083600747 0 -9.4161881083600747 -63.448132468649419 0 0 0 0 -4.2321225617419316 -2.6768528008688008 0 -2.6768528008688008 -54.975340036013222 0 0 0 0 3.1674512415611016 -15.225043730672041 0 -15.225043730672041 -62.871719037531875 0 0 0 0 -21.38601664749865 34.514888414079905 0 34.514888414079905 -62.771245740485028 0 0 0 0 -5.1037174952069222 -5.5244149977734196 0 -5.5244149977734196 -63.679141494474607 0 0 0 0 -17.939527845214336 20.041879521182636 0 20.041879521182636 -5.9280968393577496 0 0 0 0 2.1799169153940099 -17.024904707679525 0 -17.024904707679525 -32.557651352180983 0 0 0 0 13.755957976032057 -7.5429379046363465 0 -7.5429379046363465 -48.4750168187893 0 0 0 0 -1.7153809481532249 2.1895737486192957 0 2.1895737486192957 -80.997890631697373 0 0 0 0 -0.45652298671824099 0.81778279344143812 0 0.81778279344143812 -28.813986222681706 0 0 0 0 -0.32514641160727342 0.62920189754206035 0 0.62920189754206035 -0.6033341646480892 0 0 0 0 -8.0165675891481101 -17.691743897346896 0 -17.691743897346896 -38.517993781999394 0 0 0 0 6.9135128670084356 -13.471818411868298 0 -13.471818411868298 -64.143657247623196 0 0 0 0 -15.284327174758605 -16.107833942623984 0 -16.107833942623984 -61.525557761389791 0 0 0 0 -0.48796810897935072 0.67381999807935244 0 0.67381999807935244 -0.57129168979403744 0 0 0 0 -2.9431868874281917 -9.5853673240617354 0 -9.5853673240617354 -59.103927551012021 0 0 0 0 7.0859363129728905 -23.160620109953015 0 -23.160620109953015 -74.469639377784915 0 0 0 0 0.31550505741566326 22.944258323790564 0 22.944258323790564 -19.500656198113575 0 0 0 0 -7.3714063065079642 -11.044496469243313 0 -11.044496469243313 -32.399890314845834 0 0 0 0 2.6913561325339117 18.628805400177953 0 18.628805400177953 -70.87828126687964 0 0 0 0 -4.5387968306845998 -18.777767237806074 0 -18.777767237806074 -69.591658174962504 0 0 0 0 1.4184491900586238 14.38915570678364 0 14.38915570678364 -45.068708987731952 0 0 0 0 7.5116604363215487 8.5387534417095594 0 8.5387534417095594 -80.352395879941469 0 0 0 0 -2.1311744000380841 6.6078811213446897 0 6.6078811213446897 -34.753882092860295 0 0 0 0 -14.247785763562391 31.859087702621764 0 31.859087702621764 22.468866602648632 0 0 0 0 -0.25313429816944677 0.28683747920808855 0 0.28683747920808855 -0.27314687184249919 0 0 0 0 0.92418621782580601 33.103106221737107 0 33.103106221737107 -43.820623937062919 0 0 0 0 -4.4305108019047417 -1.1969749862910248 0 -1.1969749862910248 -145.68858175944479 0 0 0 0 13.585237869067555 -20.933622384327464 0 -20.933622384327464 -11.235236410517246 0 0 0 0 -2.2541631080379716 -13.130108791196108 0 -13.130108791196108 -97.662777538978844 0 0 0 0 -25.038527148692094 19.436784331264789 0 19.436784331264789 -85.3253819263482 0 0 0 0 -29.841222238695032 12.296511290278431 0 12.296511290278431 -94.136595660733292 0 0 0 0 -20.630907737929157 28.169954061246244 0 28.169954061246244 -48.609227177948924 0 0 0 0 -16.131788541083154 30.88289575077215 0 30.88289575077215 -112.91656890089507 0 0 0 0 -18.818154780128033 3.1134380698713358 0 3.1134380698713358 -105.62583847614587 0 0 0 0 -22.225119834773068 5.8418008474254748 0 5.8418008474254748 -62.356152691398165 0 0 0 0 -24.15940449047141 3.8586455271797604 0 3.8586455271797604 -90.255359166359995 0 0 0 0 -25.269479171827626 15.850023717430304 0 15.850023717430304 -134.08508710977139 0 0 0 0 -13.757282014608457 2.7547429779588128 0 2.7547429779588128 -96.048584893345833 0 0 0 0 -20.778858772509924 -3.5260073701028887 0 -3.5260073701028887 -82.497828845065669 0 0 0 0 -42.015026592105841 2.0483614675613353 0 2.0483614675613353 -92.675971751203178 0 0 0 0 -6.9781424488326564 3.9687393317872193 0 3.9687393317872193 -97.333255179109983 0 0 0 0 -3.5058521295608926 -13.500380034267437 0 -13.500380034267437 -96.409950509161263 0 0 0 0 2.3509448023801465 -5.4380557707008848 0 -5.4380557707008848 -85.504020549444249 0 0 0 0 -0.21703472051531492 -18.177130271229544 0 -18.177130271229544 -77.89996547618648 0 0 0 0 2.8063883800565979 -9.5442062771708152 0 -9.5442062771708152 -65.09832639603701 0 0 0 0 -1.0501397906154093 -5.1514730072585735 0 -5.1514730072585735 -84.704094447224634 0 0 0 0 -66.797665703310486 109.11626510693895 0 109.11626510693895 -54.007659294313271 0 0 0 0 -63.660014523018731 -15.105275639374241 0 -15.105275639374241 -54.223028505857656 0 0 0 0 5.6185035329044624 -6.3179093018562815 0 -6.3179093018562815 -18.974472264292434 0 0 0 0 6.5770490714457992 6.7584260542835182 0 6.7584260542835182 -71.104127277989392 0 0 0 0 -3.5789523812745756 6.6497765577441896 0 6.6497765577441896 -57.987036623544554 0 0 0 0 7.5909703585364952 0.55854529158905564 0 0.55854529158905564 -100.57281275504988 0 0 0 0 98.024807180474454 61.141095459623102 0 61.141095459623102 -91.935381943503671 0 0 0 0 215.92399320972891 511.35938799514679 0 511.35938799514679 -2072.8010892583407 0 0 0 0 73.276481066350243 81.610868205292718 0 81.610868205292718 53.242611805249908 0 0 0 0 -3.9855458065940184 -183.07976372930989 0 -183.07976372930989 -421.19108792094175 0 0 0 0 163.49230352635118 -40.764766366259323 0 -40.764766366259323 184.21310502688357 0 0 0 0 -8.074095859257703 3.8717458433274956 0 3.8717458433274956 0.12617388304661858 0 0 0 0 55.362223207714123 117.40013201894453 0 117.40013201894453 6.420370319243375 0 0 0 0 52.30505827716479 40.505396716488121 0 40.505396716488121 -114.05343288408858 0 0 0 0 -2.6594188764983953 27.887856291493421 0 27.887856291493421 4.2324480461312248 0 0 0 0 -146.08350043382961 -156.94835296057136 0 -156.94835296057136 -224.4172698632392 0 0 0 0 -49.161052703551832 -53.395769967497472 0 -53.395769967497472 -195.44455295818443 0 0 0 0 5.0194022704019119 16.478417062153397 0 16.478417062153397 -52.045470739591437 0 0 0 0 -19.486214466814999 31.852796002214745 0 31.852796002214745 -122.85434056713711 0 0 0 0 122.83973058761876 -58.590626534171292 0 -58.590626534171292 -170.04402362987821 0 0 0 0 0.73462545703471971 22.210931753441553 0 22.210931753441553 -78.090137175711931 0 0 0 0 -84.426064496015897 -89.624167892870901 0 -89.624167892870901 -178.39176932108967 0 0 0 0 -23.693144658176607 -72.337510340425069 0 -72.337510340425069 -289.30805422215053 0 0 0 0 -83.263168294248317 -105.31523826566081 0 -105.31523826566081 -200.2548594750333 0 0 0 0 -90.19864617463827 -89.943788293880971 0 -89.943788293880971 -208.60049965353392 0 0 0 0 -111.40917539265138 -155.06663207514066 0 -155.06663207514066 -255.67652769554843 0 0 0 0 -1.134306728992172 1.3390708036739483 0 1.3390708036739483 -4.872119460413451 0 0 0 0 -39.531099399908271 -94.218452040644479 0 -94.218452040644479 -376.98372316491805 0 0 0 0 -155.14950552986284 -198.1902171841275 0 -198.1902171841275 -290.59499799067999 0 0 0 0 18.764366809744388 7.4401487955474295 0 7.4401487955474295 -336.82593765381898 0 0 0 0 -15.337855752062751 -61.104628427365242 0 -61.104628427365242 -29.878778259368119 0 0 0 0 -0.55545080210252351 -9.7618205664082325 0 -9.7618205664082325 -62.708112756913671 0 0 0 0 -39.170094331668224 -99.565602980481344 0 -99.565602980481344 -79.707645795540884 0 0 0 0 1.9198822323211786 4.9801127942835777 0 4.9801127942835777 -9.1682339040048504 0 0 0 0 -31.527144776373461 -173.82031525355706 0 -173.82031525355706 -272.72370009287988 0 0 0 0 8.6366878206317779 8.8299553562901565 0 8.8299553562901565 -221.29287140374072 0 0 0 0 21.98693821458437 99.267521773072076 0 99.267521773072076 -8.0292728578206152 0 0 0 0 -2.2675896978980745 24.095424025566899 0 24.095424025566899 -319.65685932083579 0 0 0 0 6.6093833354106337 -3.0751616271608206 0 -3.0751616271608206 -14.37623633146093 0 0 0 0 1.5798149621668927 -10.15490539935945 0 -10.15490539935945 -69.016689198935637 0 0 0 0 8.616005144503049 -6.6363091729762314 0 -6.6363091729762314 -51.168168114359084 0 0 0 0 -1582.9617532524571 -308.48317627908546 0 -308.48317627908546 360.5087429281557 0 0 0 0 6.8919036247825716 -1.3828509249724448 0 -1.3828509249724448 -30.779560300954472 0 0 0 0 4.2329084294480666 -11.700555759514806 0 -11.700555759514806 -32.190998494105109 0 0 0 0 5.0134693177119445 -7.6646464263541674 0 -7.6646464263541674 -38.150968033837501 0 0 0 0 62.394253995742474 -236.6604856090853 0 -236.6604856090853 -217.94994357436372 0 0 0 0 76.571754013875193 -60.13388190897922 0 -60.13388190897922 -99.004964665640728 0 0 0 0 -81.280637495645351 -105.47946641372437 0 -105.47946641372437 -49.644479019232676 0 0 0 0 9.3383439777135209 -76.941034129584295 0 -76.941034129584295 -77.281672561606683 0 0 0 0 7.7030219924124488 -6.2510874612636123 0 -6.2510874612636123 -5.4034474061672029 0 0 0 0 9.4458287906534224 -63.916270148447552 0 -63.916270148447552 -36.355236927920487 0 0 0 0 7.562007890548557 -15.806300191876289 0 -15.806300191876289 -18.177232471253774 0 0 0 0 -27.639336087255288 -173.65662369275014 0 -173.65662369275014 -197.08043611257017 0 0 0 0 -36.066813179555538 -50.15968708525179 0 -50.15968708525179 -39.020352397667011 0 0 0 0 -52.776256005842697 -87.876866054508355 0 -87.876866054508355 -92.508701657428901 0 0 0 0 11.033508060758322 -47.374178087091423 0 -47.374178087091423 -68.035335304358341 0 0 0 0 27.343982440055697 -59.052250848108088 0 -59.052250848108088 -48.262035678249958 0 0 0 0 10.384085020138627 -45.643532897328441 0 -45.643532897328441 -31.376437556420569 0 0 0 0 45.321520773257362 -62.012828054610509 0 -62.012828054610509 -30.337742562485801 0 0 0 0 89.783301712683169 -32.33188998496189 0 -32.33188998496189 -56.360594181231136 0 0 0 0 0.069549797943081693 -10.645886802792532 0 -10.645886802792532 -20.54327085003645 0 0 0 0 -44.46526234626981 -21.298808592187925 0 -21.298808592187925 14.863047647475469 0 0 0 0 30.811774262992571 -11.638475820805297 0 -11.638475820805297 -38.209106167727441 0 0 0 0 -41.070635138939906 -25.59233490184215 0 -25.59233490184215 -34.499496918644581 0 0 0 0 2.9390275568657671 -32.523666837750682 0 -32.523666837750682 -114.78645687522874 0 0 0 0 0.57583630074741876 -15.17361897011801 0 -15.17361897011801 -106.30894210048582 0 0 0 0 18.207831471787358 -36.989945200975853 0 -36.989945200975853 -45.090340443719469 0 0 0 0 1.039629629369121 -32.549853932021833 0 -32.549853932021833 -58.425455323366187 0 0 0 0 -2.1100490966927659 4.0663177993000161 0 4.0663177993000161 -16.761316183941489 0 0 0 0 245.13684956558427 320.84832948896474 0 320.84832948896474 -383.84552053901098 0 0 0 0 10.027479499561601 2.2569261599814965 0 2.2569261599814965 -57.906203618856068 0 0 0 0 1.1933219119029594 -18.559133988978161 0 -18.559133988978161 -40.909459073628284 0 0 0 0 -557.81957564689128 709.06013458353891 0 709.06013458353891 444.49946259920944 0 0 0 0 5.5166281565022928 -17.955463290585453 0 -17.955463290585453 -93.829406210114144 0 0 0 0 32.419965805822358 -26.136344363374718 0 -26.136344363374718 -142.86153574661125 0 0 0 0 11.436601961762491 -29.646321274051324 0 -29.646321274051324 -31.149824059414975 0 0 0 0 -14.882185632952314 -91.210635245381127 0 -91.210635245381127 -22.822787956145476 0 0 0 0 -4.7854743025814344 -15.101533360697726 0 -15.101533360697726 -49.33943290606085 0 0 0 0 -16.973218228515179 -12.351056905521546 0 -12.351056905521546 -1.9121104348887457 0 0 0 0 -6.653294366900969 -18.279054461005664 0 -18.279054461005664 -29.193607668487545 0 0 0 0 26.002988494696183 -54.079403805926404 0 -54.079403805926404 -105.92517970856522 0 0 0 0 -21.769008918960026 -23.413933036220499 0 -23.413933036220499 -91.008534770539967 0 0 0 0 40.779151417256799 0.066139186898567459 0 0.066139186898567459 -82.194461205058133 0 0 0 0 -13.929214994754147 -64.577081658116981 0 -64.577081658116981 -27.625664575518726 0 0 0 0 -47.837246171689912 -34.79395294944311 0 -34.79395294944311 -90.357624573700946 0 0 0 0 1.8226606525025721 -26.699210842777571 0 -26.699210842777571 -76.00374327205158 0 0 0 0 2.03938209553381 -34.184327947569741 0 -34.184327947569741 -35.148528931034434 0 0 0 0 496.14308257253288 -754.1291352218359 0 -754.1291352218359 -1199.8471831021598 0 0 0 0 25.134118106589085 -5.9159764681204337 0 -5.9159764681204337 -173.14394100696774 0 0 0 0 4.1805430108105091 -8.204392560378281 0 -8.204392560378281 -99.552609643097099 0 0 0 0 18.381167954075863 4.5920935572576127 0 4.5920935572576127 -149.69209003925516 0 0 0 0 70.684782132135297 -61.505430589430034 0 -61.505430589430034 356.35944312915672 0 0 0 0 -6.1292685361382553 -46.528815068609497 0 -46.528815068609497 -54.56911611382602 0 0 0 0 224.95660741183019 -373.22803268006828 0 -373.22803268006828 471.24424965048092 0 0 0 0 312.08046986651607 -417.23811489099171 0 -417.23811489099171 319.76315808482468 0 0 0 0 -9.9421494639428474 -8.0542322480570903 0 -8.0542322480570903 12.894085721188503 0 0 0 0 1.4674051845067879 -31.034841343813241 0 -31.034841343813241 -68.84351620873349 0 0 0 0 33.386889770076777 -27.319160276113507 0 -27.319160276113507 -68.013246157524918 0 0 0 0 13.325465261023055 -37.949324596938823 0 -37.949324596938823 -70.534785168171766 0 0 0 0 16.028612113429588 -34.377592293842163 0 -34.377592293842163 -47.519030175995923 0 0 0 0 -7.7237403207618627 -56.650342423563416 0 -56.650342423563416 144.97698887470324 0 0 0 0 201.16290788386686 49.927648092478194 0 49.927648092478194 39.081375264846429 0 0 0 0 -0.5320549727958479 -2.6612030178686723 0 -2.6612030178686723 -3.4675874356004783 0 0 0 0 342.11114246959187 -584.21563596574106 0 -584.21563596574106 -735.71628661008435 0 0 0 0 416.60677582185599 -561.01017816400417 0 -561.01017816400417 246.82298292094492 0 0 0 0 -210.43525858742942 -560.72801047286339 0 -560.72801047286339 354.43169207189203 0 0 0 0 -8.3055245511012572 -11.299783531035636 0 -11.299783531035636 7.246748916033539 0 0 0 0 422.00492751650381 -100.9560229234703 0 -100.9560229234703 -173.30129746877719 0 0 0 0 -90.8021401965525 106.21104227394881 0 106.21104227394881 128.58328612188052 0 0 0 0 -569.57046422917483 424.15871279208977 0 424.15871279208977 -265.13809360137384 0 0 0 0 -692.42118504951031 -841.01247181623489 0 -841.01247181623489 -662.10917807085207 0 0 0 0 291.98430464358535 118.0069884569748 0 118.0069884569748 -1351.858971877049 0 0 0 0 279.99188435611359 11.774281417699967 0 11.774281417699967 -31.913330172697897 0 0 0 0 -257.12440325784701 -1034.293722177681 0 -1034.293722177681 -329.5676571401782 0 0 0 0 609.79564227193987 235.06596629666456 0 235.06596629666456 -32.739879972039489 0 0 0 0 524.89674031231516 338.11699326394228 0 338.11699326394228 -150.75165546308563 0 0 0 0 1.1704568424624036 17.597651988567616 0 17.597651988567616 -15.721814338368461 0 0 0 0 209.81824121166574 40.127990308305016 0 40.127990308305016 -4.8342807753069792 0 0 0 0 925.54810343413192 -60.913292239110888 0 -60.913292239110888 -164.17554077696695 0 0 0 0 109.50269565263807 382.40225966151047 0 382.40225966151047 -65.127614344746689 0 0 0 0 826.27339323866863 377.46349560937324 0 377.46349560937324 -398.48986662024981 0 0 0 0 -473.33241984221058 335.37445672363901 0 335.37445672363901 -61.823900005358155 0 0 0 0 -1.3108821144138432 2.9400324491998973 0 2.9400324491998973 -12.490406784246659 0 0 0 0 16.635787773662742 114.00335956346316 0 114.00335956346316 -15.276632114866516 0 0 0 0 15.956915261211179 13.251710251229269 0 13.251710251229269 -210.41826871941521 0 0 0 0 9.2433016516661155 2.1674964425328653 0 2.1674964425328653 -142.77952723688577 0 0 0 0 -0.20883861222479272 5.9994257970496569 0 5.9994257970496569 -100.54364361478113 0 0 0 0 4.0441409663490049 -72.772376478591468 0 -72.772376478591468 -216.64940105068263 0 0 0 0 37.411623141986638 -20.983584753032119 0 -20.983584753032119 -217.257566062146 0 0 0 0 -53.895245759449608 -25.105614896237967 0 -25.105614896237967 -86.768447334274242 0 0 0 0 16.905133359914089 44.843235481769625 0 44.843235481769625 -44.709667554741827 0 0 0 0 -16.079102152239628 10.126112739684789 0 10.126112739684789 -18.498036575399794 0 0 0 0 17.932674153109474 32.159475026963264 0 32.159475026963264 30.607456406033634 0 0 0 0 28.96866448133369 39.535548290738461 0 39.535548290738461 -74.800541131933642 0 0 0 0 30.875308645890982 65.046166388437996 0 65.046166388437996 -27.471225253039847 0 0 0 0 25.39668864568921 43.257144869369313 0 43.257144869369313 -44.540642346990239 0 0 0 0 12.966814715786125 13.842168818769418 0 13.842168818769418 -43.58763213151353 0 0 0 0 -30.464662413949554 35.471734097201988 0 35.471734097201988 -53.866267985003105 0 0 0 0 41.746315191754547 15.354618394805584 0 15.354618394805584 -41.456066543498309 0 0 0 0 6.4809984047320164 11.457440198258418 0 11.457440198258418 -56.406228561916919 0 0 0 0 -14.964500549476213 25.554545505359826 0 25.554545505359826 -63.765274821327807 0 0 0 0 19.806850380304098 -3.1986422427787247 0 -3.1986422427787247 -91.497280577297289 0 0 0 0 39.824490188060736 78.810463356471701 0 78.810463356471701 -79.287417091774842 0 0 0 0 -1.4776696683515813 17.49182410501815 0 17.49182410501815 -78.822955276678726 0 0 0 0 -1.5342012252871768 -4.2253978962551955 0 -4.2253978962551955 -16.231137179349279 0 0 0 0 -51.654410578583338 -49.53818374286675 0 -49.53818374286675 -123.76483273179724 0 0 0 0 23.545192073495912 15.553270043524938 0 15.553270043524938 -72.791338326409402 0 0 0 0 274.04557661129365 185.03984759135346 0 185.03984759135346 -8.1817331354509406 0 0 0 0 164.34073561759214 204.11068607238849 0 204.11068607238849 262.32040433053771 0 0 0 0 245.40191843940011 267.8791042733319 0 267.8791042733319 52.152281611744911 0 0 0 0 -0.82479883668491993 0.14847156545428675 0 0.14847156545428675 -16.944475699972458 0 0 0 0 450.78801121947254 201.05450396788729 0 201.05450396788729 -6.0524369702325203 0 0 0 0 3.8670047500872897 42.209976889147583 0 42.209976889147583 -211.23246885034496 0 0 0 0 -16.356193268545212 81.614351121570508 0 81.614351121570508 -132.98731065431639 0 0 0 0 523.426413340203 513.12090535909374 0 513.12090535909374 175.93321595059024 0 0 0 0 523.67467057641807 -316.74233945937158 0 -316.74233945937158 -902.98883241957083 0 0 0 0 -4.2912631460331809 0.83383176868291287 0 0.83383176868291287 2.9812131047439152 0 0 0 0 -34.526607397139742 46.194525833412627 0 46.194525833412627 -75.276324163402023 0 0 0 0 5.6867033599228307 -28.816911084719322 0 -28.816911084719322 -33.134419367706869 0 0 0 0 11.171250248907882 15.773844458185295 0 15.773844458185295 -128.07052946479234 0 0 0 0 53.823795621185582 40.442993162516814 0 40.442993162516814 -217.13689569699636 0 0 0 0 -125.30432762947385 55.488467586250408 0 55.488467586250408 -54.673373746863945 0 0 0 0 312.58467600160714 242.30746471588395 0 242.30746471588395 16.167842394468607 0 0 0 0 329.36312944679412 16.161727758950292 0 16.161727758950292 -154.59441581133797 0 0 0 0 50.075166039714532 39.670799175972206 0 39.670799175972206 -77.510749156470411 0 0 0 0 -7.1655618575852102 -19.024898799552417 0 -19.024898799552417 -83.968148919527579 0 0 0 0 -41.459552880474803 -33.048666867044631 0 -33.048666867044631 -121.40367759597575 0 0 0 0 11.883854165276716 -10.764387040914926 0 -10.764387040914926 -169.30641679028849 0 0 0 0 62.814207883651761 65.81313808228515 0 65.81313808228515 -102.60901208745327 0 0 0 0 -1022.345977850302 7.3152596434447332 0 7.3152596434447332 537.12407946915482 0 0 0 0 -420.49433485275586 -804.41831872546982 0 -804.41831872546982 -357.64302917866962 0 0 0 0 -230.02351374761565 -60.340979666541955 0 -60.340979666541955 -62.23087449583727 0 0 0 0 334.03120996685357 133.44186607846672 0 133.44186607846672 -230.29623547713004 0 0 0 0 -686.94752023788169 1424.947239292283 0 1424.947239292283 1052.0038443349586 0 0 0 0 1.7124057049118959 13.928184456340826 0 13.928184456340826 -101.10228247371215 0 0 0 0 -22.914199858852953 -16.153880350951653 0 -16.153880350951653 -308.14907757162422 0 0 0 0 -20.433569392744175 -43.596612800092714 0 -43.596612800092714 -84.831632852042048 0 0 0 0 -9.773945338092183 0.020024193624156084 0 0.020024193624156084 -21.865532812917788 0 0 0 0 -3.6266212689658239 -12.643359844250455 0 -12.643359844250455 -90.870179209422943 0 0 0 0 -17.684548082264882 20.485246822596309 0 20.485246822596309 -111.92462515221405 0 0 0 0 12.635318167637706 -5.7463009056882584 0 -5.7463009056882584 -135.93097137131008 0 0 0 0 17.186321267725816 3.8278763048219844 0 3.8278763048219844 -116.01808569533387 0 0 0 0 14.120759669348672 8.9369565641686677 0 8.9369565641686677 -88.891925537333009 0 0 0 0 -24.1959301475842 25.847807324220049 0 25.847807324220049 -47.883705241776354 0 0 0 0 -50.591173477814664 -17.426979353919705 0 -17.426979353919705 -93.075406419367937 0 0 0 0 22.177138927733722 23.27818911547547 0 23.27818911547547 -111.82849612490827 0 0 0 0 -51.702027033302599 -44.191896244488234 0 -44.191896244488234 -142.9334497639029 0 0 0 0 -77.290954875476018 -52.974948227529239 0 -52.974948227529239 -99.20379645486355 0 0 0 0 -71.725703429192436 -48.796235850183621 0 -48.796235850183621 -137.15411030061659 0 0 0 0 -19.598616299008654 25.82586215309049 0 25.82586215309049 -28.518154653483634 0 0 0 0 -87.252576091343144 -22.137431691629899 0 -22.137431691629899 -127.74479244222675 0 0 0 0 -104.43499576264912 -31.744121010674462 0 -31.744121010674462 -146.04098245646674 0 0 0 0 -75.404606895317556 -90.813889637984175 0 -90.813889637984175 -183.93523669339993 0 0 0 0 -92.079151489232572 -55.515554229789814 0 -55.515554229789814 -122.31757971171828 0 0 0 0 -89.048674721059797 -42.038625929595582 0 -42.038625929595582 -242.89539076849906 0 0 0 0 -38.194127992878066 -29.437650326774246 0 -29.437650326774246 -227.73862905853093 0 0 0 0 8.5554985914699628 36.307788237809348 0 36.307788237809348 -80.582490511912852 0 0 0 0 -85.706280057249387 -67.122775497773546 0 -67.122775497773546 -154.21509199020875 0 0 0 0 90.763269937754671 154.44920426311046 0 154.44920426311046 20.814661914864701 0 0 0 0 45.609161574529253 6.0895158973153229 0 6.0895158973153229 -21.217360069611459 0 0 0 0 -12.841769687711171 18.684267318837847 0 18.684267318837847 -24.017117171749447 0 0 0 0 67.580540694401861 85.543035281081757 0 85.543035281081757 -56.818015527338503 0 0 0 0 23.766403879898462 13.978485857471242 0 13.978485857471242 -35.714334032435545 0 0 0 0 28.527530570980161 61.813238965134587 0 61.813238965134587 -157.64063975148747 0 0 0 0 -22.021246938521472 -31.238108094138624 0 -31.238108094138624 -153.72438487916588 0 0 0 0 33.38904666137023 25.911961662815884 0 25.911961662815884 -121.66324164283651 0 0 0 0 41.629665925903055 0.70969522703671828 0 0.70969522703671828 -162.95383137332101 0 0 0 0 -6.3088044746164087 -28.878902667467628 0 -28.878902667467628 -151.71763221859237 0 0 0 0 -82.828718745678998 -2.987180255227031 0 -2.987180255227031 -139.68389230186222 0 0 0 0 -68.622863013288907 85.89751123266069 0 85.89751123266069 -186.54326766990198 0 0 0 0 -42.016331586633214 53.134793135369364 0 53.134793135369364 -242.80549416887516 0 0 0 0 -70.151247163819335 65.55570830438046 0 65.55570830438046 -223.3242231817203 0 0 0 0 -14.215636177323631 174.24926859559855 0 174.24926859559855 -606.65740121378258 0 0 0 0 -235.16893359133496 149.06370097729814 0 149.06370097729814 -185.85083911626134 0 0 0 0 -23.524535889230492 78.611000762421099 0 78.611000762421099 -251.53467968154291 0 0 0 0 -0.5736667162133402 -4.2000440098741834 0 -4.2000440098741834 -4.2611912611526179 0 0 0 0 -112.06174801515408 -244.25335210895355 0 -244.25335210895355 -484.94064912260001 0 0 0 0 92.770175696512638 55.676505961560906 0 55.676505961560906 -185.07667113665957 0 0 0 0 13.322740111407256 -38.886977569767623 0 -38.886977569767623 -618.84410973501508 0 0 0 0 67.037749765740045 -66.89395179550047 0 -66.89395179550047 -576.68309953854077 0 0 0 0 0.97241438231342414 -1.4368666312333858 0 -1.4368666312333858 -6.8418004250660855 0 0 0 0 60.268654897222405 -122.9176829128628 0 -122.9176829128628 126.71169260369788 0 0 0 0 53.874693266041049 39.422861167746305 0 39.422861167746305 11.211061091102181 0 0 0 0 98.777104443693588 -28.958412105406751 0 -28.958412105406751 -87.29655048670611 0 0 0 0 -76.060416903365422 112.81477053203707 0 112.81477053203707 -247.14630125976919 0 0 0 0 61.659226683141696 160.6059197419163 0 160.6059197419163 -185.97794536027232 0 0 0 0 -117.64599271940278 53.002724148882407 0 53.002724148882407 65.949503487627226 0 0 0 0 14.223771379692607 -34.331477738894705 0 -34.331477738894705 -67.791809793958237 0 0 0 0 -44.414167937536149 -44.445935723899311 0 -44.445935723899311 -52.729474175930591 0 0 0 0 49.09574182872457 21.498689488974378 0 21.498689488974378 -46.009581387668732 0 0 0 0 3.8375034109598154 -1.0183155679409808 0 -1.0183155679409808 -32.751832553568121 0 0 0 0 17.329537540675631 3.7160616618159565 0 3.7160616618159565 -13.159161641764513 0 0 0 0 -4.4099039588247706 -58.234503625601064 0 -58.234503625601064 -64.435232545639792 0 0 0 0 -20.434007042706867 -34.129854969141888 0 -34.129854969141888 -39.768554641485025 0 0 0 0 0.46974403938345155 2.4442007081899391 0 2.4442007081899391 -3.2237144094878829 0 0 0 0 85.005728796506517 96.027311469784991 0 96.027311469784991 -40.222964497821522 0 0 0 0 62.945011840588506 -21.862504749673462 0 -21.862504749673462 -152.8550286610116 0 0 0 0 68.050352565949652 1.7482850459018664 0 1.7482850459018664 -101.29257837183832 0 0 0 0 -125.22927156704509 3.6659926737766 0 3.6659926737766 -38.747668820480612 0 0 0 0 -44.068406280219278 -47.72407831446435 0 -47.72407831446435 -190.85451336344374 0 0 0 0 0.43549015738548036 0.98814574313544767 0 0.98814574313544767 -2.320243126219097 0 0 0 0 -151.78152998538098 55.760779499536511 0 55.760779499536511 86.941869067031803 0 0 0 0 -16.808556435205389 -8.9296316116578964 0 -8.9296316116578964 -28.406351653121249 0 0 0 0 -6.3580178032672565 -12.96756474947346 0 -12.96756474947346 -0.81827220741301865 0 0 0 0 -43.320843048808683 82.362506897457934 0 82.362506897457934 -326.5737704642379 0 0 0 0 50.395313932289582 2.444462375711737 0 2.444462375711737 -344.92666938212096 0 0 0 0 30.670267877186006 36.36258054235077 0 36.36258054235077 -363.22985595754653 0 0 0 0 -25.964970662209225 -15.15272192431803 0 -15.15272192431803 -289.57684930966479 0 0 0 0 46.877058204572222 -65.847972921117616 0 -65.847972921117616 -277.02618435120439 0 0 0 0 72.81365109132517 -32.647600879381571 0 -32.647600879381571 -382.90698965637421 0 0 0 0 -5.5220634225312537 -13.667554939121842 0 -13.667554939121842 -0.35862878143688515 0 0 0 0 -7.8332018831609957 -19.478227860810875 0 -19.478227860810875 -34.840612137840935 0 0 0 0 -11.9340369860804 -45.799434009257311 0 -45.799434009257311 -308.63560801486165 0 0 0 0 94.965749895087697 -11.721112131503105 0 -11.721112131503105 -306.07071572132986 0 0 0 0 33.991345877549747 28.24549929765999 0 28.24549929765999 -423.6366437958286 0 0 0 0 -97.808980338987453 -200.68821041120191 0 -200.68821041120191 -380.02172163641808 0 0 0 0 10.681844241823455 -15.527785447113274 0 -15.527785447113274 -47.888162563769981 0 0 0 0 -5.4320176314470823 -14.438475497419233 0 -14.438475497419233 -3.7276384924033175 0 0 0 0 -9.3645327453423306 -84.162224468378554 0 -84.162224468378554 -230.90461743032057 0 0 0 0 12.657123120147276 12.707510233849462 0 12.707510233849462 -39.783396626837202 0 0 0 0 48.104128413270018 -8.4613947218895191 0 -8.4613947218895191 -41.912108779294158 0 0 0 0 3.5822140864812044 -0.41295466336653064 0 -0.41295466336653064 -29.491278947665421 0 0 0 0 -16.575308341020104 -43.786499937294138 0 -43.786499937294138 -38.634794426194276 0 0 0 0 -5.4572973820449988 -22.565405565126639 0 -22.565405565126639 -39.385876330306928 0 0 0 0 -9.9826432489667809 -20.868649890115194 0 -20.868649890115194 -34.409229386554216 0 0 0 0 -43.941460399130733 -0.27149958480185887 0 -0.27149958480185887 -39.347459921566951 0 0 0 0 -14.91132992105149 6.6717936359268606 0 6.6717936359268606 -84.190016226093576 0 0 0 0 -14.931062391281266 5.0464288011316967 0 5.0464288011316967 -60.32438217804156 0 0 0 0 -38.472784877488493 -49.068517920764862 0 -49.068517920764862 -62.420227954291477 0 0 0 0 -16.839282778926005 -15.097110730636814 0 -15.097110730636814 -19.420819610721082 0 0 0 0 -5.7322440928541596 -13.504042850105179 0 -13.504042850105179 -97.270932618856023 0 0 0 0 -5.3913932109787446 -19.944463731473661 0 -19.944463731473661 -70.6374222086597 0 0 0 0 0.12070319474338609 0.34350053539620973 0 0.34350053539620973 -1.2490208670674292 0 0 0 0 -36.614540267857478 -3.6582407359346689 0 -3.6582407359346689 11.478160877304617 0 0 0 0 54.151810109926373 -0.17893469421687769 0 -0.17893469421687769 -12.887730844358884 0 0 0 0 -1.5173918005100022 -1.2707697128435242 0 -1.2707697128435242 -7.337709767581245 0 0 0 0 -23.692878322635067 60.416013443310931 0 60.416013443310931 21.166612197717768 0 0 0 0 37.663865538800792 80.70862650228446 0 80.70862650228446 16.504871870113675 0 0 0 0 88.759951092061556 33.938708009276525 0 33.938708009276525 -89.052912711718818 0 0 0 0 -0.41289693230825025 -0.098062161860781316 0 -0.098062161860781316 -8.1459206599979979 0 0 0 0 35.248223074755515 10.107264804148144 0 10.107264804148144 -28.041233656156692 0 0 0 0 3.6362559958689737 -0.89349745827791338 0 -0.89349745827791338 -26.099903593137213 0 0 0 0 -2.9698461315413169 -29.454476533167508 0 -29.454476533167508 -52.901976855391695 0 0 0 0 14.076359951921859 2.3431978358203196 0 2.3431978358203196 -24.06361233475036 0 0 0 0 2.7627997195775151 -4.5029159698715375 0 -4.5029159698715375 -27.864339483006916 0 0 0 0 12.656758503241576 -8.0805215019317984 0 -8.0805215019317984 -27.780855019613227 0 0 0 0 3.9003002796675332 -7.1872076833510619 0 -7.1872076833510619 -26.29457325450494 0 0 0 0 3.6528091785834249 -8.1835879443315207 0 -8.1835879443315207 -25.922097918650252 0 0 0 0 4.756288830977951 -2.9020026270372909 0 -2.9020026270372909 -14.176649921442731 0 0 0 0 1.5890560308653221 -12.01064446748569 0 -12.01064446748569 -22.202257548622583 0 0 0 0 -2.584764355635798 -1.3256992446222284 0 -1.3256992446222284 -0.35320791242702398 0 0 0 0 3.3181478319658595 -7.4067289234944838 0 -7.4067289234944838 -19.488015683207777 0 0 0 0 -3.0089621160980187 -8.4521438815027068 0 -8.4521438815027068 -15.725298957455379 0 0 0 0 -7.1827832326418957 -6.5249461204439285 0 -6.5249461204439285 -16.562790339496132 0 0 0 0 -1.7278431835334156 0.21737210021413489 0 0.21737210021413489 -3.814762760217679 0 0 0 0 -3.1212021614167043 -3.7852001362771261 0 -3.7852001362771261 -21.447221899838041 0 0 0 0 5.2868856961327868 -2.7611393735509182 0 -2.7611393735509182 -21.631269974233021 0 0 0 0 4.1104466153943857 -0.27807508691171279 0 -0.27807508691171279 -15.532426998683277 0 0 0 0 -0.53344572559171866 -7.6091995209662855 0 -7.6091995209662855 -25.218363929510815 0 0 0 0 -1.3174056560765166 -34.595778529042946 0 -34.595778529042946 -38.666929609804356 0 0 0 0 3.9940131837509676 -2.1575916263890278 0 -2.1575916263890278 -24.10322448173072 0 0 0 0 4.4777798303574059 -57.361699219411094 0 -57.361699219411094 -96.454030802939087 0 0 0 0 -62.395089661449674 -24.018391947640339 0 -24.018391947640339 -29.673507105027966 0 0 0 0 27.221715472410494 61.388677871256732 0 61.388677871256732 72.179485287964781 0 0 0 0 0.25483270470104769 0.90297473618461055 0 0.90297473618461055 -0.60124661323582984 0 0 0 0 2.9970116387009824 -0.28702390271904221 0 -0.28702390271904221 -5.5609749562284989 0 0 0 0 1.4250404095291742 3.6254116072523175 0 3.6254116072523175 -25.465015168878381 0 0 0 0 6.334946059074019 2.7248807054107544 0 2.7248807054107544 -6.1588900706823466 0 0 0 0 19.903563464742547 -5.7525909467185556 0 -5.7525909467185556 -58.092789597933006 0 0 0 0 -12.937756245772277 -14.960096619481192 0 -14.960096619481192 -50.499747616951936 0 0 0 0 92.385578131500552 23.831383632961661 0 23.831383632961661 -174.67365318827797 0 0 0 0 -73.883195738904305 -72.39429859718075 0 -72.39429859718075 -2.7310368571779691 0 0 0 0 2.4312870113906229 2.1467795621138066 0 2.1467795621138066 -24.137964748275408 0 0 0 0 6.1013041040189995 7.5154779613329765 0 7.5154779613329765 -13.486848321954785 0 0 0 0 10.451396544146974 7.9417618563238648 0 7.9417618563238648 -30.302230253846574 0 0 0 0 3.3616369744353807 -3.0007886225107256 0 -3.0007886225107256 -11.943114334585751 0 0 0 0 8.6852673063071446 0.027690909423554899 0 0.027690909423554899 -29.588726714592582 0 0 0 0 0.16237957629906985 -0.55372604264618985 0 -0.55372604264618985 -5.6767488073463994 0 0 0 0 49.966424823914679 32.151481476514164 0 32.151481476514164 -4.1663285240065306 0 0 0 0 -7.7632660594204026 -13.200530946814979 0 -13.200530946814979 -20.520768239811332 0 0 0 0 192.08330267480142 178.82004238342779 0 178.82004238342779 188.80308542419516 0 0 0 0 59.869784174391498 92.557836431018586 0 92.557836431018586 24.69051554102407 0 0 0 0 193.11508715448872 149.9741971446856 0 149.9741971446856 41.316021645496221 0 0 0 0 -50.059888602776482 -120.47574322897344 0 -120.47574322897344 -308.19455578570705 0 0 0 0 -6.781544752752394 11.032285899016266 0 11.032285899016266 -14.912137299214976 0 0 0 0 -153.51892587581619 -206.33153674427876 0 -206.33153674427876 -256.09244965149628 0 0 0 0 3.4418223118445894 61.891419897709056 0 61.891419897709056 140.32438569892838 0 0 0 0 26.065721404934266 200.58195619306207 0 200.58195619306207 120.24574802289862 0 0 0 0 8.7878286657169156 128.31654901721049 0 128.31654901721049 -78.759723796571052 0 0 0 0 -105.82799907002391 -128.96328890418044 0 -128.96328890418044 -110.35656375329381 0 0 0 0 0.38965322709357064 -0.019689475591139427 0 -0.019689475591139427 -2.8332518588433686 0 0 0 0 -71.898138962177654 90.777871363903614 0 90.777871363903614 65.559690088521165 0 0 0 0 -22.928520036364375 -19.406161526188953 0 -19.406161526188953 2.1166975908745371 0 0 0 0 -33.615072666987544 -1.9423635684679539 0 -1.9423635684679539 -24.665414207374852 0 0 0 0 -16.580157936004071 -16.516732960248191 0 -16.516732960248191 -25.677534705035214 0 0 0 0 18.173862046001432 -34.770515139589406 0 -34.770515139589406 -16.261860446560604 0 0 0 0 47.644612045388499 -14.787780977712828 0 -14.787780977712828 -37.869138215057319 0 0 0 0 14.055367089914625 -27.991205509870724 0 -27.991205509870724 -41.408099047577707 0 0 0 0 10.933154380934866 -12.935724310031219 0 -12.935724310031219 -34.815110321378597 0 0 0 0 6.0556539345589044 -16.446542173682246 0 -16.446542173682246 -35.066962874410819 0 0 0 0 25.690296536944629 -11.614587016314545 0 -11.614587016314545 -40.147352626889187 0 0 0 0 -68.393333750820148 -46.407953312846075 0 -46.407953312846075 -28.670754303893773 0 0 0 0 0.54359182222333313 1.1410633602291753 0 1.1410633602291753 -7.777953086782361 0 0 0 0 -30.802967698643442 -46.8082816865317 0 -46.8082816865317 -53.336515277140279 0 0 0 0 -15.742367652470421 -22.047368240291689 0 -22.047368240291689 -55.213160080478701 0 0 0 0 -8.0797125300950938 -29.54396645595989 0 -29.54396645595989 -41.703313001013157 0 0 0 0 -16.931632623273799 -21.499952557489451 0 -21.499952557489451 -36.938733774790308 0 0 0 0 -47.224757475918523 -9.1969637010242877 0 -9.1969637010242877 -24.406524807229289 0 0 0 0 -39.643589780683214 -23.652567281438678 0 -23.652567281438678 -30.342536508527701 0 0 0 0 -31.810468695397503 -7.4009892638059682 0 -7.4009892638059682 -29.602679330215324 0 0 0 0 -11.692450334939167 -23.080084400586202 0 -23.080084400586202 -32.432376125289011 0 0 0 0 -10.502340393741179 -13.27492953944602 0 -13.27492953944602 -28.955673562348238 0 0 0 0 -5.5503096361708231 -26.54061812494183 0 -26.54061812494183 -26.131776643884223 0 0 0 0 -8.3923772029322663 -19.093509586855362 0 -19.093509586855362 -29.406254348345101 0 0 0 0 -37.412651722877854 -118.7127184182682 0 -118.7127184182682 882.83159451565007 0 0 0 0 8.6696615832743191 -16.116808548544213 0 -16.116808548544213 -35.522983554037637 0 0 0 0 -1.3964284014045916 -23.998782539390959 0 -23.998782539390959 -37.392502803786101 0 0 0 0 5.6802969569271227 -15.398606904374901 0 -15.398606904374901 -37.924553525430383 0 0 0 0 -5.8969356267457442 -21.504554060829832 0 -21.504554060829832 -12.772013281573891 0 0 0 0 2.7202568828430458 -16.889886628276145 0 -16.889886628276145 -25.117705794233188 0 0 0 0 -3.1908580364379304 -21.239505926925631 0 -21.239505926925631 -24.999918303867616 0 0 0 0 -15.098754498550989 -3.2791079595044721 0 -3.2791079595044721 4.0392459251997934 0 0 0 0 -19.350542744800805 2.3429932513899985 0 2.3429932513899985 2.640876813484283 0 0 0 0 1.1741565590514256 -12.765527923140326 0 -12.765527923140326 -11.635093837976456 0 0 0 0 -15.57860460164693 -13.518879174887843 0 -13.518879174887843 -10.289080428476154 0 0 0 0 -5.7465076884659538 -27.150888736898196 0 -27.150888736898196 -11.79778021578386 0 0 0 0 -11.776919625790924 -22.454627484810771 0 -22.454627484810771 9.6171642654662719 0 0 0 0 -18.862763650874513 -32.744082707529742 0 -32.744082707529742 36.954690313170431 0 0 0 0 -71.73206050079898 8.4681692802696489 0 8.4681692802696489 52.514310391099571 0 0 0 0 -30.516278780791708 -13.317580288261524 0 -13.317580288261524 8.2179115462640766 0 0 0 0 241.50262468389985 96.059212340481281 0 96.059212340481281 -960.07170041501377 0 0 0 0 -3.9165732159808613 -24.347269338901242 0 -24.347269338901242 -14.135313944803784 0 0 0 0 1.1904660047460012 0.82378777218773891 0 0.82378777218773891 -9.8611962524764465 0 0 0 0 -4.9752355272980822 -34.559741168279288 0 -34.559741168279288 9.7208933394431369 0 0 0 0 -131.94107768837966 -136.12628576421412 0 -136.12628576421412 169.78379495838453 0 0 0 0 -151.51874264983962 30.93419657189952 0 30.93419657189952 68.195137116039405 0 0 0 0 -117.17845471285273 -71.00457719285987 0 -71.00457719285987 29.114355186851753 0 0 0 0 -27.136158000382238 57.473304968651064 0 57.473304968651064 -360.16443544106005 0 0 0 0 -64.829319570757661 -106.37326537603258 0 -106.37326537603258 -2.0000155266461661 0 0 0 0 -73.779092592310917 -35.895509494683211 0 -35.895509494683211 -235.1027500784985 0 0 0 0 -140.58330264430322 100.68151531310787 0 100.68151531310787 -181.63993789290544 0 0 0 0 -0.97851990930159261 3.3515750734857193 0 3.3515750734857193 -6.0550513171147884 0 0 0 0 69.228721406545446 -59.21480028743099 0 -59.21480028743099 220.53038100636331 0 0 0 0 -156.08549465401029 -309.91814117173999 0 -309.91814117173999 -384.92437652672015 0 0 0 0 -175.28839207417968 -84.148899028419692 0 -84.148899028419692 -144.90384764266128 0 0 0 0 -142.68079243832653 -149.31140605213841 0 -149.31140605213841 -44.61251665735108 0 0 0 0 12.738924596894321 96.916251859700424 0 96.916251859700424 -41.060752991718601 0 0 0 0 5.0454279555891688 -1.3137351137205009 0 -1.3137351137205009 -1.6885830435228968 0 0 0 0 -52.058590081319835 -54.445059319365555 0 -54.445059319365555 -102.70427905295946 0 0 0 0 8.8284045583741317 -82.798450546353706 0 -82.798450546353706 -170.26117246961257 0 0 0 0 -66.237221772008468 -112.51327167776162 0 -112.51327167776162 -180.33654957777617 0 0 0 0 -55.472814743000527 44.0705823487624 0 44.0705823487624 66.321756264806027 0 0 0 0 9.6916862508701342 -64.349863611048931 0 -64.349863611048931 10.340054709202377 0 0 0 0 3.0821030443553994 -0.50701575307777347 0 -0.50701575307777347 -2.6686551013748812 0 0 0 0 -125.3160507896755 -48.017925566655322 0 -48.017925566655322 54.514691163352836 0 0 0 0 -92.017346387741782 -144.90459877713147 0 -144.90459877713147 37.263892325223424 0 0 0 0 -128.45668826724676 -121.78383869936579 0 -121.78383869936579 120.34154835194931 0 0 0 0 -86.941602165872609 -173.051531990488 0 -173.051531990488 122.02747202500177 0 0 0 0 -56.020223897257438 -154.4693861019332 0 -154.4693861019332 48.244139047514182 0 0 0 0 -78.192540320996613 -120.30714912817348 0 -120.30714912817348 -54.190199809512706 0 0 0 0 -112.50934200554639 -103.55180824689887 0 -103.55180824689887 10.384399677364854 0 0 0 0 -93.467498886101566 -105.5218873181002 0 -105.5218873181002 -52.524436318242806 0 0 0 0 -81.726843375668068 -125.6586468302412 0 -125.6586468302412 35.854196928277361 0 0 0 0 19.455019049030852 4.1009810759715037 0 4.1009810759715037 -81.250980223068836 0 0 0 0 -25.307989574813746 35.481341690610861 0 35.481341690610861 -60.694063293893123 0 0 0 0 -7.9813422236016649 -29.297893831084366 0 -29.297893831084366 3.6383367995294975 0 0 0 0 -82.948104005514097 -76.152873195142092 0 -76.152873195142092 -7.1805116560717579 0 0 0 0 1.8753999392867262 -2.2688137613518471 0 -2.2688137613518471 -7.4124478385103885 0 0 0 0 11.409731978271338 -25.6592126513533 0 -25.6592126513533 -48.711688165138185 0 0 0 0 -0.92025954172119206 1.4486172842033369 0 1.4486172842033369 0.65145687050984691 0 0 0 0 -164.62942549662512 -5.8288429495296441 0 -5.8288429495296441 -36.522588948719203 0 0 0 0 0.23584912563562099 -0.1462249299616829 0 -0.1462249299616829 -2.2750818081886592 0 0 0 0 -260.46879598096893 30.462659316079225 0 30.462659316079225 -26.964321739127627 0 0 0 0 -218.81251982503068 -128.62683702743925 0 -128.62683702743925 -78.807746353151742 0 0 0 0 -377.99859239929901 11.034447560901754 0 11.034447560901754 -14.603774120078015 0 0 0 0 -338.73139552198995 -156.64812124684249 0 -156.64812124684249 -75.81999306002399 0 0 0 0 -239.652028574616 -184.49498693113128 0 -184.49498693113128 -127.50752644110617 0 0 0 0 -229.05166991727992 -157.04673847627419 0 -157.04673847627419 -154.80860047489114 0 0 0 0 -255.71993895945934 -143.17634717378678 0 -143.17634717378678 -170.13476355982129 0 0 0 0 1.5181725577366585 1.1649807814277082 0 1.1649807814277082 -14.181898946075478 0 0 0 0 71.956178982354658 0.60931234951749502 0 0.60931234951749502 -33.869015201285947 0 0 0 0 -19.677407304633789 -138.82603027686673 0 -138.82603027686673 -98.611694104300113 0 0 0 0 -88.859348377545757 -161.5403392853259 0 -161.5403392853259 -105.46338881127667 0 0 0 0 -132.29518348847432 -128.75363355023001 0 -128.75363355023001 -191.89510925271316 0 0 0 0 -118.6096447868058 -97.263125112491252 0 -97.263125112491252 -121.09153835799589 0 0 0 0 -126.86845548408928 -161.86636394833477 0 -161.86636394833477 -87.671523785960744 0 0 0 0 -146.35733028200957 -86.888978057002532 0 -86.888978057002532 -58.804631010643789 0 0 0 0 -28.215623092940405 -79.217539260353078 0 -79.217539260353078 -177.12419680527455 0 0 0 0 -114.58103151787873 -165.79412906241851 0 -165.79412906241851 -263.20186659918545 0 0 0 0 -122.88028412544242 -133.8168961719839 0 -133.8168961719839 -206.95239581394708 0 0 0 0 3.7477794956193975 -117.94328070351548 0 -117.94328070351548 -366.49744011133589 0 0 0 0 23.111686889474186 -54.705704065672762 0 -54.705704065672762 -318.5145444931768 0 0 0 0 -234.71344757907355 -169.80198490558541 0 -169.80198490558541 -139.13733820976631 0 0 0 0 -232.09946105349945 -251.74346395695466 0 -251.74346395695466 -334.25292270840146 0 0 0 0 -121.56907376617073 -150.26208361534373 0 -150.26208361534373 -344.31295042550391 0 0 0 0 -615.25030168596959 -491.75474179922458 0 -491.75474179922458 -391.42595776917005 0 0 0 0 -1.6360649010964607 49.362013376867253 0 49.362013376867253 -817.89503648255311 0 0 0 0 -51.15812553781393 124.86566067230524 0 124.86566067230524 -372.94957436670848 0 0 0 0 -160.23695452696958 -369.11192308817908 0 -369.11192308817908 -808.10240674985835 0 0 0 0 12.090355351043399 86.984422214754886 0 86.984422214754886 -300.28526701028886 0 0 0 0 -18.970591171770138 -154.04480059134221 0 -154.04480059134221 -532.27999952143728 0 0 0 0 49.836373866514805 -22.001882343192847 0 -22.001882343192847 -253.45779554629007 0 0 0 0 57.09198378754445 -29.361619424758828 0 -29.361619424758828 -296.33850844335393 0 0 0 0 30.807895684314644 -57.841619094604539 0 -57.841619094604539 -324.72408913366235 0 0 0 0 40.597669297296306 58.942130346204067 0 58.942130346204067 -221.99595698222583 0 0 0 0 44.076937598921631 -0.3797382482807734 0 -0.3797382482807734 -198.63904111215379 0 0 0 0 54.385769886372145 -9.0175221258605234 0 -9.0175221258605234 -222.27349698733451 0 0 0 0 31.251184062012271 -9.7395775697796125 0 -9.7395775697796125 -189.06699159224809 0 0 0 0 11.304137168224997 -52.136192138447768 0 -52.136192138447768 -239.61782197400316 0 0 0 0 2.2069697898587037 -116.51434560162033 0 -116.51434560162033 -272.14268310920306 0 0 0 0 10.784659532318528 -83.575421731087772 0 -83.575421731087772 -244.84359426670562 0 0 0 0 36.865848886440062 -37.175062419792084 0 -37.175062419792084 -15.560817864211458 0 0 0 0 65.523177671131634 -15.864872479349287 0 -15.864872479349287 -45.896512622554837 0 0 0 0 22.210630248013331 4.9367951354361139 0 4.9367951354361139 -45.093586300431525 0 0 0 0 17.164894326600916 3.6264179203571985 0 3.6264179203571985 -34.305155958274554 0 0 0 0 24.456951388470316 0.08055129009517259 0 0.08055129009517259 -39.20811608931399 0 0 0 0 11.333890548177806 7.9902188426458451 0 7.9902188426458451 -36.887908664124552 0 0 0 0 8.2910496369420343 18.189664500954677 0 18.189664500954677 -41.227360125252744 0 0 0 0 12.984154852861906 15.146308992852482 0 15.146308992852482 -43.117998075656942 0 0 0 0 6.2875047259731218 14.480553900393716 0 14.480553900393716 -38.555423683312256 0 0 0 0 13.440909742977055 10.357035988396092 0 10.357035988396092 -38.490523502835572 0 0 0 0 20.063302840297638 6.6435153251150041 0 6.6435153251150041 -40.448581005432061 0 0 0 0 14.530454529254257 9.8205266137447325 0 9.8205266137447325 -41.433454599042307 0 0 0 0 23.672152385717027 15.877533224453146 0 15.877533224453146 -44.134525925590424 0 0 0 0 4.9227317516501898 17.517314118646027 0 17.517314118646027 -42.371891421371402 0 0 0 0 1.0914218256025379 15.971543208281219 0 15.971543208281219 -36.725000282924157 0 0 0 0 -26.915347091152398 24.489128044107929 0 24.489128044107929 -39.110844170296332 0 0 0 0 0.89781608009059655 -3.3174150155917843 0 -3.3174150155917843 -2.3509257963313246 0 0 0 0 4.9262117345966772 17.267182745813443 0 17.267182745813443 -45.968810963997385 0 0 0 0 -18.81206119747867 16.179387726115237 0 16.179387726115237 -35.001372062790324 0 0 0 0 -14.767343568137449 37.261704394681146 0 37.261704394681146 -37.199969163120841 0 0 0 0 3.040727683683599 25.581485157148563 0 25.581485157148563 -30.982453726479434 0 0 0 0 4.6191598421141862 25.926248907617264 0 25.926248907617264 -39.90083697681257 0 0 0 0 8.9088371726970763 27.119014316573157 0 27.119014316573157 -39.866996855885532 0 0 0 0 14.628973167775712 38.26441206580057 0 38.26441206580057 -39.726854952103167 0 0 0 0 -11.793016363973948 57.510541706575168 0 57.510541706575168 -35.335968650018913 0 0 0 0 -66.058803365026506 21.845075443539827 0 21.845075443539827 -30.037878492719756 0 0 0 0 -42.214656825669465 31.562970107384899 0 31.562970107384899 -2.8058824801410083 0 0 0 0 -20.692748639092542 35.352294483229343 0 35.352294483229343 -26.678534902828687 0 0 0 0 -20.618846802687699 32.201077979123511 0 32.201077979123511 -20.272813400632003 0 0 0 0 -1.3073056302426558 -6.6245341057129821 0 -6.6245341057129821 -6.6620045224026256 0 0 0 0 -11.66236320250573 26.418168537871679 0 26.418168537871679 -23.068524095553585 0 0 0 0 -3.1160629222027119 -3.2713446511743314 0 -3.2713446511743314 -19.876274751237361 0 0 0 0 10.583966545861131 -11.895188167178276 0 -11.895188167178276 -43.119722587272008 0 0 0 0 -17.089005322753735 25.129194318319605 0 25.129194318319605 -16.425857785128755 0 0 0 0 -31.592040084181349 18.381216574382051 0 18.381216574382051 8.3844108673656592 0 0 0 0 -13.959138150488997 -4.8920026948744635 0 -4.8920026948744635 8.7735442890261766 0 0 0 0 16.127000222576044 11.613981061018421 0 11.613981061018421 -48.75428716884926 0 0 0 0 -14.127740338267344 23.532117414251843 0 23.532117414251843 -18.964163834098144 0 0 0 0 1.1195400223337368 -5.2203712078187579 0 -5.2203712078187579 -7.009498243893546 0 0 0 0 -11.948356254537785 -33.598122057694127 0 -33.598122057694127 1.0072286160211661 0 0 0 0 -0.76094258919448521 -24.230154324632167 0 -24.230154324632167 -16.954797012833296 0 0 0 0 -109.4354651570369 7.5017634801042732 0 7.5017634801042732 -21.871341674580435 0 0 0 0 2.7814713049293118 164.98751232864379 0 164.98751232864379 -494.24974993549404 0 0 0 0 -10.660144071370524 -65.128767064728891 0 -65.128767064728891 -67.261971223029832 0 0 0 0 -108.0970959758705 168.13260973769138 0 168.13260973769138 -77.609250585659538 0 0 0 0 0.22190068865657941 0.14005405294176754 0 0.14005405294176754 -5.3518768574563182 0 0 0 0 -21.135641533300657 -152.94592166500297 0 -152.94592166500297 -759.96778120896124 0 0 0 0 121.46127332991091 -132.4359585884813 0 -132.4359585884813 -780.14267130411645 0 0 0 0 42.193115736050572 -137.68108712706453 0 -137.68108712706453 -317.72990299175581 0 0 0 0 -49.832079316437444 45.007469364558347 0 45.007469364558347 -87.131849405181129 0 0 0 0 -79.599586507019012 -51.799794676713645 0 -51.799794676713645 -139.68935412995779 0 0 0 0 -62.017607090708225 7.2842844982706083 0 7.2842844982706083 -33.809302807407221 0 0 0 0 51.548752243538274 25.390671107958042 0 25.390671107958042 -75.246088773252268 0 0 0 0 14.236638934871849 -124.56065575984212 0 -124.56065575984212 62.821301552474324 0 0 0 0 -30.008425673764464 404.40222042602909 0 404.40222042602909 -1172.8960095389812 0 0 0 0 -2.47055849633553 -3.125326394066029 0 -3.125326394066029 -4.2916219871594024 0 0 0 0 -181.62231702713689 -258.64530636383279 0 -258.64530636383279 -678.54023549151316 0 0 0 0 -244.24019969952093 334.96377910562296 0 334.96377910562296 -535.53425102135952 0 0 0 0 -227.85464518461598 177.98182274662759 0 177.98182274662759 -150.18085945236817 0 0 0 0 -162.30395003208974 -136.58424662261314 0 -136.58424662261314 -84.182133969210554 0 0 0 0 -96.243301185904713 -57.960008035532155 0 -57.960008035532155 -51.303789987599885 0 0 0 0 -79.53124956288066 -135.19886143549957 0 -135.19886143549957 -132.51364666072914 0 0 0 0 -118.27665855988153 -139.58437260505161 0 -139.58437260505161 -349.99239316350577 0 0 0 0 -106.38077875413114 -85.6455476607116 0 -85.6455476607116 -168.14902717311634 0 0 0 0 -173.89179541683063 -164.79933729811819 0 -164.79933729811819 -130.11340180123807 0 0 0 0 -47.40824505777374 44.537889898268986 0 44.537889898268986 -435.50818226744013 0 0 0 0 -238.39671603055558 -115.95305600424763 0 -115.95305600424763 -14.131096297387558 0 0 0 0 1.3033833857243109 0.11691331917702286 0 0.11691331917702286 3.1148438334109585 0 0 0 0 -161.98593300927516 -123.83084534207956 0 -123.83084534207956 -137.00701155768638 0 0 0 0 -72.400708042355518 -213.81960736410292 0 -213.81960736410292 -134.07591558541753 0 0 0 0 8.4631041473105029 32.238131556299777 0 32.238131556299777 -98.948131211785949 0 0 0 0 -1.4846504498316686 1.0650908908492198 0 1.0650908908492198 0.91681050379482087 0 0 0 0 -165.41472022147269 188.28438084045592 0 188.28438084045592 -207.12294080720312 0 0 0 0 -113.57538838485661 129.43913581664674 0 129.43913581664674 -190.01877875897844 0 0 0 0 -154.99329176943149 7.2924579426253331 0 7.2924579426253331 -33.997253609019026 0 0 0 0 -319.95994723114063 111.8951955213015 0 111.8951955213015 -72.500876036194313 0 0 0 0 -405.19396016009875 -4.3247821116774503 0 -4.3247821116774503 -195.74228785753803 0 0 0 0 -229.24060154216272 114.94914651018081 0 114.94914651018081 -170.67142066811357 0 0 0 0 -274.77961529867633 -276.81812250715302 0 -276.81812250715302 247.82709766478365 0 0 0 0 -378.22031047301778 -26.916650713088529 0 -26.916650713088529 -255.22370049490564 0 0 0 0 166.72548223912173 19.563888908278386 0 19.563888908278386 -257.35429138262407 0 0 0 0 -49.316578739538784 57.873901980731262 0 57.873901980731262 -92.61730126497423 0 0 0 0 -48.425395944952015 53.056781616992794 0 53.056781616992794 -106.43982987986237 0 0 0 0 -17.6190855008889 41.986513984757039 0 41.986513984757039 -76.653968930946576 0 0 0 0 -37.438791753209557 5.7579893534675648 0 5.7579893534675648 -24.784190056758234 0 0 0 0 -41.370615659626651 19.154015703366895 0 19.154015703366895 -51.098704719122225 0 0 0 0 -77.887981545794787 -7.9858465153665747 0 -7.9858465153665747 -17.484008091210853 0 0 0 0 -2.6750899027227319 -15.890553217926936 0 -15.890553217926936 -20.765766664733746 0 0 0 0 -8.2487972334525228 -3.4735729412937104 0 -3.4735729412937104 3.5100294343783105 0 0 0 0 -56.537591074481441 -17.448768123143964 0 -17.448768123143964 -27.940001541544916 0 0 0 0 -110.05471004402737 -5.8475463546183164 0 -5.8475463546183164 -6.8778965175297344 0 0 0 0 -104.61747870047685 17.191611785052373 0 17.191611785052373 -40.300425317953341 0 0 0 0 -107.40056654060713 55.341101182701095 0 55.341101182701095 -51.988516852814541 0 0 0 0 -118.97245196864253 -21.093998257454587 0 -21.093998257454587 42.951827280405269 0 0 0 0 -38.466618698876118 -62.026703078547143 0 -62.026703078547143 -4.2260579486901406 0 0 0 0 -72.915354144565299 -37.013276663243232 0 -37.013276663243232 -15.367511845659465 0 0 0 0 -29.752875175715417 -33.974903301015729 0 -33.974903301015729 -15.161432825131669 0 0 0 0 -6.1965502089283326 -10.631785287960298 0 -10.631785287960298 3.0174967191063615 0 0 0 0 -29.526015126963443 -48.090012979729181 0 -48.090012979729181 -26.441068467160221 0 0 0 0 -65.765617442352607 -69.503622690604971 0 -69.503622690604971 -3.5283028816265869 0 0 0 0 -52.458988035264611 -35.990769746531441 0 -35.990769746531441 -32.803498983979807 0 0 0 0 -31.499935895943803 -47.916012151240921 0 -47.916012151240921 -52.600518665582058 0 0 0 0 -33.019579255047802 49.700209817496216 0 49.700209817496216 96.278231426425918 0 0 0 0 24.830894867749976 58.447691805367867 0 58.447691805367867 -63.352457027634955 0 0 0 0 17.928152495496761 35.269442838955001 0 35.269442838955001 -52.934947697816824 0 0 0 0 4.2214072913684504 28.126676468331425 0 28.126676468331425 0.8240806641006202 0 0 0 0 12.046848771427904 25.297619415669033 0 25.297619415669033 -56.775081522791879 0 0 0 0 2.6508515464738593 43.647356062392646 0 43.647356062392646 -2.2476605114807171 0 0 0 0 39.376035852025637 36.640528287026882 0 36.640528287026882 -144.74549900615239 0 0 0 0 39.716087510443174 43.543009672977973 0 43.543009672977973 -129.22448773047654 0 0 0 0 32.837347634006392 26.019212068752495 0 26.019212068752495 -130.78334582758544 0 0 0 0 34.210620009048966 20.107149487294919 0 20.107149487294919 -147.2578406870598 0 0 0 0 16.975105568124491 62.71999260278244 0 62.71999260278244 -63.240660730437867 0 0 0 0 45.755909019066621 56.995764663883165 0 56.995764663883165 -178.21044697424804 0 0 0 0 25.382024278486711 24.612467408539487 0 24.612467408539487 -169.5852647116044 0 0 0 0 18.012794720140619 100.43680357071571 0 100.43680357071571 -166.18081233905468 0 0 0 0 -0.11600572047224489 5.3400192128724484 0 5.3400192128724484 -202.91643621105322 0 0 0 0 -139.23987451736252 -16.923888031973547 0 -16.923888031973547 245.47859370637889 0 0 0 0 -34.063657988275281 58.159459541780961 0 58.159459541780961 -127.46414600252319 0 0 0 0 -1.1656115389335269 3.1679924054180475 0 3.1679924054180475 2.3923165455281463 0 0 0 0 -12.717024584016826 120.61755220674604 0 120.61755220674604 -6.5655502856388921 0 0 0 0 -13.871885669094013 37.996707454425632 0 37.996707454425632 -120.99827060142707 0 0 0 0 3.9765245963817506 35.938511553300486 0 35.938511553300486 -143.15303679913632 0 0 0 0 3.5121085672690722 5.5420776673942811 0 5.5420776673942811 2.6062792801112664 0 0 0 0 -16.347444288707493 32.2247349097197 0 32.2247349097197 -98.434824574018421 0 0 0 0 -51.238738414764953 35.689618390997566 0 35.689618390997566 -87.880907620565267 0 0 0 0 -49.717094615157976 40.769756391418923 0 40.769756391418923 -71.87660926253011 0 0 0 0 -8.9364956193346643 16.700437193265316 0 16.700437193265316 -84.060773605750001 0 0 0 0 -1.9084757377186179 0.83729361581936246 0 0.83729361581936246 -96.820226758660283 0 0 0 0 -22.221637684424877 -1.3058546306856442 0 -1.3058546306856442 -48.848692495586874 0 0 0 0 -124.97440699780464 31.046594839128375 0 31.046594839128375 -24.812755210838077 0 0 0 0 34.421442303763797 101.11393071591738 0 101.11393071591738 -12.293142374973286 0 0 0 0 4.9990907650489547 38.538844461295874 0 38.538844461295874 -52.748390603689927 0 0 0 0 116.10717896763526 -19.375647889664833 0 -19.375647889664833 -75.858495910713827 0 0 0 0 8.1987040838650955 67.713841477079768 0 67.713841477079768 -87.102893868839601 0 0 0 0 34.908145391976177 10.344839584351575 0 10.344839584351575 -138.23063439875841 0 0 0 0 -9.3904666329726751 6.5464372209244175 0 6.5464372209244175 -136.21700071822124 0 0 0 0 -4.7101948500785511 -17.053496499473113 0 -17.053496499473113 107.75087948806595 0 0 0 0 -14.437507888200344 55.664023552497383 0 55.664023552497383 -124.92523708677618 0 0 0 0 -14.385580873955405 48.762602173665073 0 48.762602173665073 -151.93707997597812 0 0 0 0 17.110394787239784 50.600834783472237 0 50.600834783472237 -189.78053704857302 0 0 0 0 19.761883608442076 14.080056822669576 0 14.080056822669576 -194.86444889869017 0 0 0 0 -19.873574437817297 17.641153769225639 0 17.641153769225639 -112.68952248929418 0 0 0 0 0.82562941082941954 -1.0039112260129883 0 -1.0039112260129883 -2.0113621405729845 0 0 0 0 12.957334862096104 73.375896432637091 0 73.375896432637091 -275.69969197569299 0 0 0 0 -18.13930823917508 36.744368229046813 0 36.744368229046813 -194.90211033436208 0 0 0 0 6.2725722294289881 61.697335773613304 0 61.697335773613304 -274.55050636539818 0 0 0 0 -0.40688524023672379 1.9329892952784036 0 1.9329892952784036 1.4074139494031268 0 0 0 0 10.933856414687625 39.803686418456891 0 39.803686418456891 21.710357683812617 0 0 0 0 8.7977844350101613 7.8774043005447396 0 7.8774043005447396 1.8426171265473936 0 0 0 0 -3.8695604493077553 25.85126472407137 0 25.85126472407137 47.256474510591943 0 0 0 0 14.539609031002328 7.1092330683895852 0 7.1092330683895852 -172.95817598859139 0 0 0 0 15.773827075539884 12.169562703616975 0 12.169562703616975 -4.4792873048331785 0 0 0 0 3.1121726567735095 17.862123335038632 0 17.862123335038632 36.211460029036971 0 0 0 0 13.318815157555946 27.243102662992897 0 27.243102662992897 0.1912495300421142 0 0 0 0 15.367974752802184 50.364013828097086 0 50.364013828097086 -175.83005696221244 0 0 0 0 -32.831221379467024 27.381270239362493 0 27.381270239362493 -24.773107565502869 0 0 0 0 45.347386987413302 7.9468997532821959 0 7.9468997532821959 -129.75665279482928 0 0 0 0 -82.514429095757805 149.64947488344114 0 149.64947488344114 107.14828345761271 0 0 0 0 2.1717338755592905 43.670704581831302 0 43.670704581831302 -48.555201796772877 0 0 0 0 -16.480364532492331 -34.945151827041627 0 -34.945151827041627 -37.706209911986662 0 0 0 0 9.3697288432322239 1.0092334398814273 0 1.0092334398814273 12.146777224372272 0 0 0 0 4.6224256903533316 22.173173060429228 0 22.173173060429228 -23.414364286440705 0 0 0 0 -5.3081742832746386 53.573125471855747 0 53.573125471855747 44.456335376300558 0 0 0 0 9.1438877260849623 29.476167244958674 0 29.476167244958674 -31.242232590559887 0 0 0 0 8.4538424017409852 19.889263352808484 0 19.889263352808484 -61.359035110380773 0 0 0 0 12.48408533234932 8.7989254353559403 0 8.7989254353559403 -23.053149594802981 0 0 0 0 14.696757848625339 58.516743415873862 0 58.516743415873862 -96.995858119807963 0 0 0 0 6.0999121633535651 30.006330331146273 0 30.006330331146273 6.9584213750276831 0 0 0 0 4.1134794994468393 22.990768304705853 0 22.990768304705853 -2.6739545074742637 0 0 0 0 116.38723836458485 -372.37539957056106 0 -372.37539957056106 -931.74989627180912 0 0 0 0 -8.2830629814561689 -96.968437481209548 0 -96.968437481209548 -351.92413557268628 0 0 0 0 -26.668167535537577 -132.217388401672 0 -132.217388401672 -419.11309681066086 0 0 0 0 1.2019263734246231 2.431063144468971 0 2.431063144468971 -12.790426630199534 0 0 0 0 -111.78394017051869 -185.18789645706056 0 -185.18789645706056 -349.29147805687353 0 0 0 0 -81.159210733583677 -130.01830873479594 0 -130.01830873479594 -250.45254599179134 0 0 0 0 0.9879494325689322 3.1872847208763488 0 3.1872847208763488 -7.0319812720738746 0 0 0 0 2.5090631345638066 18.630849918556422 0 18.630849918556422 -47.083812581942695 0 0 0 0 7.6930124806231106 24.59155861457657 0 24.59155861457657 -38.201773086759204 0 0 0 0 21.779781370461933 0.014763173575374822 0 0.014763173575374822 -51.97464651717064 0 0 0 0 33.37585342956254 -11.503183862693731 0 -11.503183862693731 -190.3679036801168 0 0 0 0 37.486424505386822 26.194926821908666 0 26.194926821908666 -100.87998104341568 0 0 0 0 36.733367508630636 17.395889069853638 0 17.395889069853638 -38.71441762546965 0 0 0 0 54.696821274865215 74.810069014004512 0 74.810069014004512 -45.336038297125924 0 0 0 0 -1.1016360578581299 9.2953223084990029 0 9.2953223084990029 -50.036411368019841 0 0 0 0 0.53712720174371498 11.092604433433735 0 11.092604433433735 -53.66554332326632 0 0 0 0 11.0011523741004 19.252526852891819 0 19.252526852891819 -52.912689300218112 0 0 0 0 -22.099169098126367 107.66026444920863 0 107.66026444920863 15.17579318973003 0 0 0 0 124.04020777112419 149.51127195992376 0 149.51127195992376 -17.833224272988446 0 0 0 0 9.3106995615311838 14.332861035278018 0 14.332861035278018 -69.486707786291745 0 0 0 0 0.53438178326177876 14.440249005856458 0 14.440249005856458 -61.800841224408941 0 0 0 0 0.73754358903534012 12.881365463101247 0 12.881365463101247 -54.251404819099662 0 0 0 0 1.6668617146274869 1.7526593713903651 0 1.7526593713903651 -10.187696414263872 0 0 0 0 13.369784387795335 30.732709072066427 0 30.732709072066427 -29.424807329953182 0 0 0 0 8.2534135222504119 8.7493985913170036 0 8.7493985913170036 -28.716333685608788 0 0 0 0 -25.021670097828974 -3.538481643256091 0 -3.538481643256091 -31.540857148585928 0 0 0 0 24.579501664456984 6.8242348466847034 0 6.8242348466847034 -114.5432551287995 0 0 0 0 8.4123885080880427 -4.6025516713343677 0 -4.6025516713343677 -105.49202190899814 0 0 0 0 20.539439923313694 -0.71015014801378129 0 -0.71015014801378129 -115.49483825011339 0 0 0 0 21.886501914570545 26.836468550576683 0 26.836468550576683 -107.70018557502772 0 0 0 0 45.117797229196185 8.5729330904378003 0 8.5729330904378003 -200.99090207630798 0 0 0 0 59.220406748044297 -1.8253961162445194 0 -1.8253961162445194 -214.71558890663073 0 0 0 0 59.282204909642175 4.7308516719529337 0 4.7308516719529337 -277.72177608047059 0 0 0 0 32.057429893506196 59.151374150125775 0 59.151374150125775 -188.54609588134554 0 0 0 0 -12.96474305639731 -144.7986190596821 0 -144.7986190596821 -387.48026298992772 0 0 0 0 30.083124003589546 -37.814725906082458 0 -37.814725906082458 -170.07028505508424 0 0 0 0 -278.13073986289055 88.993253040752279 0 88.993253040752279 29.535035463846725 0 0 0 0 336.0315949101805 128.10978456785961 0 128.10978456785961 -307.32044429112648 0 0 0 0 9.6683620305292344 4.9320234889031882 0 4.9320234889031882 -69.667968339000993 0 0 0 0 -260.33454750691556 -218.56205822549578 0 -218.56205822549578 -123.03453523021381 0 0 0 0 80.376762087162206 129.94480768848916 0 129.94480768848916 -251.14999693198843 0 0 0 0 0.38390983398950507 -3.1212252300172345 0 -3.1212252300172345 -4.6957396107668217 0 0 0 0 -162.99554051867744 -117.7523434951363 0 -117.7523434951363 -52.384944758048732 0 0 0 0 67.340479952032183 -93.767410230948371 0 -93.767410230948371 -96.788983175187241 0 0 0 0 16.769136067752243 -10.770465512371175 0 -10.770465512371175 -32.398547376709757 0 0 0 0 0.47713930445699315 -2.0624152952115153 0 -2.0624152952115153 -12.255725849705584 0 0 0 0 45.588709830743028 -12.268085553798301 0 -12.268085553798301 -3.575262741147526 0 0 0 0 148.79071122087134 1.7444694265386715 0 1.7444694265386715 -59.460495000246738 0 0 0 0 9.9498831160835834 -2.9269177631176717 0 -2.9269177631176717 -36.596817781486607 0 0 0 0 30.340802570055985 -51.485229276041537 0 -51.485229276041537 -70.172120279508817 0 0 0 0 -34.8422820072592 -31.624002302840381 0 -31.624002302840381 -74.252590344141936 0 0 0 0 -7.6235786431370798 -38.769051827748626 0 -38.769051827748626 -107.33556789878639 0 0 0 0 -0.61633483380137477 -7.9145139599968388 0 -7.9145139599968388 -182.18869253751473 0 0 0 0 4.1723378345168385 16.42710384284419 0 16.42710384284419 -75.355462317864294 0 0 0 0 67.177300347129858 -42.893067967670504 0 -42.893067967670504 -52.308398121393111 0 0 0 0 28.846149183578746 54.953040835260254 0 54.953040835260254 -33.759040611199453 0 0 0 0 -7.7772723565867636 -22.041859612591907 0 -22.041859612591907 -48.494776832530988 0 0 0 0 -1.056136296402888 -13.499277774689805 0 -13.499277774689805 -57.220124269797488 0 0 0 0 -14.447464402770493 -33.518053917106499 0 -33.518053917106499 -51.313104085684699 0 0 0 0 1.4602261077407093 -33.210332795620388 0 -33.210332795620388 -50.600842119842127 0 0 0 0 -10.481738781771128 -29.300419684574081 0 -29.300419684574081 -48.972382736692452 0 0 0 0 -7.9229648620894295 -43.714053818826869 0 -43.714053818826869 -61.674359128502147 0 0 0 0 15.748345921752843 -24.767680444292637 0 -24.767680444292637 -57.892385079852829 0 0 0 0 1.8097572036890597 -30.965419606703108 0 -30.965419606703108 -60.506933439988643 0 0 0 0 31.959146539848007 -40.033153414914068 0 -40.033153414914068 -83.315910542198594 0 0 0 0 14.22077060949232 0.022400991279027949 0 0.022400991279027949 -72.745541523717975 0 0 0 0 12.791963152099925 -25.923106232188047 0 -25.923106232188047 -12.315487869810113 0 0 0 0 8.4946990266580542 -77.611366426702716 0 -77.611366426702716 2.9277758065700255 0 0 0 0 62.436009130447928 -102.26887674236104 0 -102.26887674236104 -10.514462827803982 0 0 0 0 16.41611034224843 -88.110849023004448 0 -88.110849023004448 16.827553099562465 0 0 0 0 14.739325259106408 -69.633007951069885 0 -69.633007951069885 -39.636874396285293 0 0 0 0 -3.4002617099639352 -16.763075259965451 0 -16.763075259965451 -35.209011791117589 0 0 0 0 40.072541004767118 -76.296195527248756 0 -76.296195527248756 -33.156930968615484 0 0 0 0 -6.3902952326041103 -22.726921902634928 0 -22.726921902634928 -55.095234188468616 0 0 0 0 18.459033479510254 -37.985450969039903 0 -37.985450969039903 -67.445131134441908 0 0 0 0 10.16881825096425 -21.917734096508866 0 -21.917734096508866 -37.640260891064827 0 0 0 0 44.929916649793086 -77.908168614625993 0 -77.908168614625993 -101.80053065534594 0 0 0 0 19.503929961312679 -52.618838561769735 0 -52.618838561769735 9.7602765162819196 0 0 0 0 3.2595783972190091 -7.8500298745171406 0 -7.8500298745171406 -7.4461183572247789 0 0 0 0 119.7874492204719 -26.382659014252567 0 -26.382659014252567 -94.302026213933914 0 0 0 0 2.8838522396977204 -20.323366088505761 0 -20.323366088505761 -65.702334665119125 0 0 0 0 -56.031490815989855 115.5182985286898 0 115.5182985286898 -142.75176912150937 0 0 0 0 -0.50121626319901225 0.89063736892005707 0 0.89063736892005707 -7.7091393834577016 0 0 0 0 15.811715322902955 -75.80649496721864 0 -75.80649496721864 -18.336958240378408 0 0 0 0 187.4730387400341 94.419246523550555 0 94.419246523550555 -253.26611456001319 0 0 0 0 -16.1868589649348 3.1928379271375888 0 3.1928379271375888 23.017852266726777 0 0 0 0 32.946834410548036 -80.756286766201356 0 -80.756286766201356 -19.239738578430888 0 0 0 0 4.7058331204430353 -6.9185165243747129 0 -6.9185165243747129 -52.720898274214264 0 0 0 0 -35.551371783520153 46.524020099353493 0 46.524020099353493 368.70910396669933 0 0 0 0 -33.975862842160495 -283.54945521882291 0 -283.54945521882291 -1.0396512275090117 0 0 0 0 5.5526222020930192 -9.8936481339148621 0 -9.8936481339148621 -54.987594427275397 0 0 0 0 -1.3951358545336916 -2.5325101913379058 0 -2.5325101913379058 -99.535028706832236 0 0 0 0 8.9605143651695833 -5.8351376080891022 0 -5.8351376080891022 -66.998207830937702 0 0 0 0 21.512216968915709 4.0716930727121508 0 4.0716930727121508 -61.466211002338241 0 0 0 0 -4.1733224228628387 8.0826081336435891 0 8.0826081336435891 -61.397279826125668 0 0 0 0 -8.1945260788761516 -18.99510748778448 0 -18.99510748778448 -80.149599005711934 0 0 0 0 14.597272888903717 5.1114080840611678 0 5.1114080840611678 -75.405450349790044 0 0 0 0 0.74146984631277491 10.837122473246179 0 10.837122473246179 -32.362447430147498 0 0 0 0 -8.7950940492315794 -7.276662680371885 0 -7.276662680371885 -54.990913817524415 0 0 0 0 1.1947616609286342 -22.163305474558001 0 -22.163305474558001 -107.753609841664 0 0 0 0 -32.08837045749533 -10.146932082716376 0 -10.146932082716376 -100.73855148623261 0 0 0 0 -129.19511707877245 42.070492742841324 0 42.070492742841324 -77.644912492610288 0 0 0 0 -4.0392267931235359 -4.4877435775131644 0 -4.4877435775131644 -43.82504785126541 0 0 0 0 97.432075560973317 41.286224972989473 0 41.286224972989473 -185.9568549394487 0 0 0 0 -57.050001196788799 -42.530825080646991 0 -42.530825080646991 -65.569685237439444 0 0 0 0 3.3647788273435886 4.3544031247386172 0 4.3544031247386172 -9.6163557540007236 0 0 0 0 -22.772794634249294 51.279784784248477 0 51.279784784248477 -8.8472920715648797 0 0 0 0 4.9058980501053266 -53.089408273067249 0 -53.089408273067249 -78.993475366458455 0 0 0 0 -10.164256197596842 -34.811043420604491 0 -34.811043420604491 -58.151130604906029 0 0 0 0 0.61416964505679061 -2.1072273961400256 0 -2.1072273961400256 -10.818337290453849 0 0 0 0 -2.0037080294929845 -18.378587484810435 0 -18.378587484810435 -36.16395247544115 0 0 0 0 45.978716737205104 -9.8629418046368755 0 -9.8629418046368755 -472.72637839071103 0 0 0 0 -18.263484706636518 -43.649754343955919 0 -43.649754343955919 -65.6844391091945 0 0 0 0 -15.798402793163859 -27.424267225781989 0 -27.424267225781989 -58.98975753859213 0 0 0 0 -1.130596914628768 -19.607632428745148 0 -19.607632428745148 -65.587333901519742 0 0 0 0 24.198161630614777 -59.671911315248508 0 -59.671911315248508 -78.768221682546027 0 0 0 0 -80.101722233336659 -217.35805575827789 0 -217.35805575827789 -216.38796180981103 0 0 0 0 -10.912324466635376 0.53000981789885948 0 0.53000981789885948 -9.0627420424420162 0 0 0 0 -142.89498883846318 74.302517346785635 0 74.302517346785635 85.958139058588586 0 0 0 0 136.06763101390038 51.950642188031523 0 51.950642188031523 -136.70068739309454 0 0 0 0 -495.07087604741537 195.17856358506879 0 195.17856358506879 23.123577006424057 0 0 0 0 -2.303495924094098 -4.6109519170729065 0 -4.6109519170729065 -28.784857131601477 0 0 0 0 -596.08195363748086 -572.68986478187799 0 -572.68986478187799 -313.09405799077922 0 0 0 0 -89.129102426468307 67.655275540804723 0 67.655275540804723 57.305759846404726 0 0 0 0 -13.552044491578272 -20.672135359383901 0 -20.672135359383901 -72.334930313354562 0 0 0 0 -0.12877463578729476 -7.0967831750476478 0 -7.0967831750476478 -77.266420570525952 0 0 0 0 3.4234658831911418 13.688325660257942 0 13.688325660257942 -17.869015022048476 0 0 0 0 -6.3381399450051958 4.8069795952801471 0 4.8069795952801471 -11.360763080179995 0 0 0 0 -12.476514092148136 -5.027006320640794 0 -5.027006320640794 -54.481242866948833 0 0 0 0 -5.1591543501049344 3.3848932255007984 0 3.3848932255007984 -12.227015430460551 0 0 0 0 27.783326290444109 -42.353644881575661 0 -42.353644881575661 -5.1303907528563286 0 0 0 0 -47.41643015817499 -66.641807836585031 0 -66.641807836585031 30.290342209080336 0 0 0 0 -97.693325526094668 97.988765522181666 0 97.988765522181666 -0.24809997102784109 0 0 0 0 -21.042161536541244 105.4021308305164 0 105.4021308305164 -154.37121426807562 0 0 0 0 22.313193033483913 159.08479537519179 0 159.08479537519179 -480.95895211740935 0 0 0 0 -319.57420920923323 112.70127716816023 0 112.70127716816023 56.405092010145154 0 0 0 0 -106.75871393410671 360.89187817298898 0 360.89187817298898 -720.71090339667353 0 0 0 0 183.45850298263576 32.996550214670151 0 32.996550214670151 -1671.3691524939168 0 0 0 0 -92.337375942866856 -156.96180368804744 0 -156.96180368804744 -465.20904878934414 0 0 0 0 -192.01810143793955 -525.88533621533497 0 -525.88533621533497 -2272.7651615378036 0 0 0 0 -660.60997125554786 -869.37128362576323 0 -869.37128362576323 -765.01627448545833 0 0 0 0 -0.43762290665679737 -3.7104585479576855 0 -3.7104585479576855 -12.627934740968591 0 0 0 0 -635.91613354510446 -806.97489073204611 0 -806.97489073204611 -2199.4838474604676 0 0 0 0 -1355.3583372975918 -1265.9640515418746 0 -1265.9640515418746 -934.04865444876532 0 0 0 0 -337.50625863946152 -131.73998158281847 0 -131.73998158281847 -429.73986070486262 0 0 0 0 -810.88864251290124 -759.74682948444706 0 -759.74682948444706 -755.26020442493973 0 0 0 0 -662.87240576781369 -568.10164635321826 0 -568.10164635321826 -289.22064818220315 0 0 0 0 3.0990089912638723 3.4000325108430545 0 3.4000325108430545 -54.187447732364305 0 0 0 0 206.7971268692163 49.637740268324706 0 49.637740268324706 -471.11517341467697 0 0 0 0 -200.1616877884062 -52.435089231978964 0 -52.435089231978964 -25.973630144526396 0 0 0 0 802.76143989573302 111.14826000002699 0 111.14826000002699 -131.21135702287575 0 0 0 0 3.5122094722420414 6.0060582429823306 0 6.0060582429823306 -70.453416913281387 0 0 0 0 -211.8446610671017 -390.54974673185461 0 -390.54974673185461 -649.77313645292452 0 0 0 0 -171.99218210240724 -235.99200251223192 0 -235.99200251223192 -639.96480687391158 0 0 0 0 -531.08016826400171 -358.56288741985736 0 -358.56288741985736 -575.24923549838059 0 0 0 0 -470.34366965295158 -475.84327418628345 0 -475.84327418628345 -424.48552633022416 0 0 0 0 -407.78082009787067 -567.78617971209314 0 -567.78617971209314 -495.15157394634844 0 0 0 0 -257.05841063122898 -622.64256585732346 0 -622.64256585732346 -888.32209922962647 0 0 0 0 -445.9012899088284 -684.08628946507997 0 -684.08628946507997 -806.20246673746806 0 0 0 0 -260.65981456566624 -941.51180261310583 0 -941.51180261310583 -1520.0490914200511 0 0 0 0 -23.220704645168553 -546.45878233452231 0 -546.45878233452231 -917.97143577849965 0 0 0 0 20.541595856293497 -454.63333662523746 0 -454.63333662523746 -941.81930521821596 0 0 0 0 -80.587614987887719 -526.73125894121767 0 -526.73125894121767 -821.12278222516306 0 0 0 0 -283.39369973715657 -487.09668961297575 0 -487.09668961297575 -594.79435924161589 0 0 0 0 -153.88007733734594 -373.53100381018339 0 -373.53100381018339 -1027.5314565876083 0 0 0 0 -158.70114651624499 -443.88382137976987 0 -443.88382137976987 -912.45635293420128 0 0 0 0 59.377823684269515 62.242953490473155 0 62.242953490473155 -675.02840703614129 0 0 0 0 1.3859701240358397 -0.95966402804612994 0 -0.95966402804612994 -6.7773169791525163 0 0 0 0 -121.12965937079116 147.70055258662433 0 147.70055258662433 -80.09077758921876 0 0 0 0 -407.99902060777185 -709.17003524751453 0 -709.17003524751453 -985.25736707293254 0 0 0 0 -378.88092964587167 -350.19272259394575 0 -350.19272259394575 -839.71773123016828 0 0 0 0 -361.89296073855303 -482.42873230715122 0 -482.42873230715122 -652.91310523439279 0 0 0 0 -460.86654718257728 -509.85943679482807 0 -509.85943679482807 -552.7265077289012 0 0 0 0 -369.4537967217384 -494.35931051567968 0 -494.35931051567968 -702.46416377397691 0 0 0 0 -422.66863656094029 -416.60494290884981 0 -416.60494290884981 -659.59542435899857 0 0 0 0 -365.10430983478886 -509.26007874392462 0 -509.26007874392462 -721.15955501879944 0 0 0 0 -374.95136903171533 -572.27959539145377 0 -572.27959539145377 -896.53095467014646 0 0 0 0 -631.85944715908226 -886.73973987806312 0 -886.73973987806312 -914.19643137471269 0 0 0 0 -123.84498207394699 -485.29824944129996 0 -485.29824944129996 -879.56473443611321 0 0 0 0 -131.96223915186965 -485.36984412925904 0 -485.36984412925904 -782.37261383729856 0 0 0 0 -218.78559211786887 -479.54081395548201 0 -479.54081395548201 -737.87077422261427 0 0 0 0 -220.03419373557517 -444.41137997216174 0 -444.41137997216174 -789.39562839347491 0 0 0 0 -179.86562092155691 -495.65943742269155 0 -495.65943742269155 -776.05060629842774 0 0 0 0 -173.50595486833481 -564.87412236850651 0 -564.87412236850651 -709.26028864665568 0 0 0 0 -99.091911248291581 -401.24112848941695 0 -401.24112848941695 -762.09882817408425 0 0 0 0 -113.58561399120117 -477.31519907422626 0 -477.31519907422626 -784.70855426046546 0 0 0 0 -75.318201367555957 -254.83058904217887 0 -254.83058904217887 -545.9717488146598 0 0 0 0 -38.922665091908129 -594.04060643174853 0 -594.04060643174853 -1023.2512294935441 0 0 0 0 143.35073515749082 -374.99991920642788 0 -374.99991920642788 -813.22050063352071 0 0 0 0 -4.3296570873765674 -4.308448526297731 0 -4.308448526297731 -2.6517006109021963 0 0 0 0 236.92245593688494 -191.54384575321819 0 -191.54384575321819 -881.03669127570538 0 0 0 0 207.4722544085995 166.84162391440475 0 166.84162391440475 -321.53696336603753 0 0 0 0 4.1408508420249248 -1.4941523494995295 0 -1.4941523494995295 -5.0603049715118971 0 0 0 0 -79.547440232441659 -73.821339522151902 0 -73.821339522151902 -699.56668934486515 0 0 0 0 -246.88816254262747 -642.90125499387432 0 -642.90125499387432 -772.35127937185098 0 0 0 0 -207.16729272750763 -569.87325477335435 0 -569.87325477335435 -641.63891868498172 0 0 0 0 -197.19227222841891 -696.99993811173226 0 -696.99993811173226 -62.770922738836816 0 0 0 0 -360.17175432704448 -694.10625511407761 0 -694.10625511407761 -580.91986778824867 0 0 0 0 -259.48298511103144 -260.38562608796747 0 -260.38562608796747 -512.16008986146699 0 0 0 0 -180.95552706146373 -310.42797345216695 0 -310.42797345216695 -535.36122337974666 0 0 0 0 -61.715040506842342 98.558553100352583 0 98.558553100352583 -368.28815958001906 0 0 0 0 -5.8033836686779665 -7.0079147338271639 0 -7.0079147338271639 -6.7025766053134674 0 0 0 0 52.169412892772925 48.193550135756595 0 48.193550135756595 14.84625163760802 0 0 0 0 377.06292386409132 -203.16294810237923 0 -203.16294810237923 -197.34565766376181 0 0 0 0 255.2009384090079 -187.69376472621843 0 -187.69376472621843 30.241236497295176 0 0 0 0 -177.04770982105401 -63.547496526829491 0 -63.547496526829491 108.59566409090257 0 0 0 0 -237.2268914402357 -43.599612617961611 0 -43.599612617961611 12.63571050351311 0 0 0 0 -104.56036219720045 92.454513691289321 0 92.454513691289321 -59.599261897226825 0 0 0 0 -149.74184874973798 29.52952004949293 0 29.52952004949293 64.857840432614466 0 0 0 0 49.71994024228843 124.00553023490011 0 124.00553023490011 -10.688582354679966 0 0 0 0 -21.034926313492178 -67.945817514886585 0 -67.945817514886585 36.820106880212734 0 0 0 0 401.15044626935742 -106.02654401684617 0 -106.02654401684617 -86.108251355866742 0 0 0 0 4.6077848838853264 6.5481802042422856 0 6.5481802042422856 -28.603940219441164 0 0 0 0 4.4949769071669188 -0.38615909517005065 0 -0.38615909517005065 -75.10229776080439 0 0 0 0 520.38443301288498 -139.16953955258259 0 -139.16953955258259 -123.09917869876517 0 0 0 0 466.3860084339176 -204.7148861524247 0 -204.7148861524247 47.58769416727273 0 0 0 0 408.53131532835687 78.638066200016965 0 78.638066200016965 -139.52467325244464 0 0 0 0 488.39006342114953 -105.40092034991176 0 -105.40092034991176 -157.89322913722845 0 0 0 0 0.90837629441511325 4.2616016188673882 0 4.2616016188673882 -14.159685762373712 0 0 0 0 80.39173503814709 145.89219615299862 0 145.89219615299862 -75.677043194045837 0 0 0 0 3.5378318116460221 4.6121650277513524 0 4.6121650277513524 -78.997895380709721 0 0 0 0 528.39687676553694 29.636588550042688 0 29.636588550042688 -133.33448615562293 0 0 0 0 418.51076613744226 75.08797486193339 0 75.08797486193339 -6.3229445364440835 0 0 0 0 -72.88096142818722 -64.33775202383913 0 -64.33775202383913 130.978848033541 0 0 0 0 -137.50848114119253 121.90325434240367 0 121.90325434240367 -405.52832627549935 0 0 0 0 -491.7616679495477 -314.41170855587916 0 -314.41170855587916 -342.38063500072894 0 0 0 0 -3.5341438555808757 -5.2326650055447814 0 -5.2326650055447814 -0.17611030094090552 0 0 0 0 -58.632261000437211 -245.72110092043113 0 -245.72110092043113 -565.60928375310505 0 0 0 0 -54.13817400629523 10.314034427881779 0 10.314034427881779 -106.20116480394063 0 0 0 0 -245.01643057024103 -93.211153792662117 0 -93.211153792662117 -158.41679531069531 0 0 0 0 -162.98935776521466 28.803109740521904 0 28.803109740521904 -63.985803704206774 0 0 0 0 -172.44322908327013 46.794858084142106 0 46.794858084142106 -89.494957440292637 0 0 0 0 47.159806409274587 31.811776223551774 0 31.811776223551774 -57.357399655923416 0 0 0 0 -33.479663397938566 -89.27530815215141 0 -89.27530815215141 -244.26644134419257 0 0 0 0 -35.212820038716018 -92.779100204505085 0 -92.779100204505085 -142.73835950731882 0 0 0 0 -28.131716509527905 -133.76814540011401 0 -133.76814540011401 -103.55637427989859 0 0 0 0 -4.4358231318365142 -68.632145145871618 0 -68.632145145871618 -234.13584720422659 0 0 0 0 -55.688633055964601 -83.881602579538594 0 -83.881602579538594 47.47260917636595 0 0 0 0 -53.783494628245535 -78.776262521358149 0 -78.776262521358149 -87.985250463369084 0 0 0 0 -76.677255884933402 -53.243402240485011 0 -53.243402240485011 10.689480413857382 0 0 0 0 -47.572060821818013 -66.654524224186389 0 -66.654524224186389 -4.6049312379618641 0 0 0 0 -22.686557567122989 -25.274591460991871 0 -25.274591460991871 -26.553197604300326 0 0 0 0 -7.8836562367505394 -21.627072072937153 0 -21.627072072937153 3.1995902043709066 0 0 0 0 -69.796576470811488 -27.009747903732205 0 -27.009747903732205 12.985416173934937 0 0 0 0 -34.399638183662603 -33.447956588360029 0 -33.447956588360029 8.7663712051335381 0 0 0 0 -45.076254113025854 -68.227250141566515 0 -68.227250141566515 -33.764511933373257 0 0 0 0 -28.615765889073373 -28.451306003094942 0 -28.451306003094942 -8.8066179444831505 0 0 0 0 -29.909541299444122 -28.807733257745511 0 -28.807733257745511 -16.089270166666353 0 0 0 0 -35.18166198393385 -44.333195826853625 0 -44.333195826853625 -32.369016937198467 0 0 0 0 -29.311752948245868 -24.216652815563037 0 -24.216652815563037 -17.239711217299924 0 0 0 0 -23.497334648983269 -25.466646912575015 0 -25.466646912575015 -32.491126725057256 0 0 0 0 7.9787375196319772 -50.161059145731997 0 -50.161059145731997 -135.54002961373772 0 0 0 0 -55.376718021614579 -47.161247090742108 0 -47.161247090742108 -6.1085508594769635 0 0 0 0 -10.703059406907869 -31.367516627269652 0 -31.367516627269652 -56.793526764318813 0 0 0 0 -23.323161051741785 -30.598695639887339 0 -30.598695639887339 -41.410521654181935 0 0 0 0 -17.332673259118572 -21.891940765875091 0 -21.891940765875091 -31.521417536836282 0 0 0 0 -26.299715416298568 -28.69095387667403 0 -28.69095387667403 -24.43020327603881 0 0 0 0 -16.602115919602511 -84.728759220139182 0 -84.728759220139182 -116.64835626843706 0 0 0 0 -30.314660085142634 -19.189931397075981 0 -19.189931397075981 -9.2339810789680072 0 0 0 0 -63.927495006378912 -28.559007064595789 0 -28.559007064595789 3.8758882648326107 0 0 0 0 -5.7088943155737555 -2.2696506343227014 0 -2.2696506343227014 -4.1530537395661273 0 0 0 0 -5.82603446795747 -41.459108629911498 0 -41.459108629911498 -76.612181533621879 0 0 0 0 -42.373939547443456 8.8148749808769935 0 8.8148749808769935 -16.084006444172701 0 0 0 0 -19.686986928378701 -46.437760042594164 0 -46.437760042594164 -55.079826962435618 0 0 0 0 -16.58725018790642 -26.397813752046204 0 -26.397813752046204 -25.391370112512959 0 0 0 0 24.902719528711259 -18.596475736871071 0 -18.596475736871071 -56.441417428046407 0 0 0 0 19.631160396451005 -6.5276627935362228 0 -6.5276627935362228 -66.870632460944947 0 0 0 0 64.612995399979809 -46.67937889993118 0 -46.67937889993118 -122.91340755024248 0 0 0 0 -91.932980553285574 7.3939666754631617 0 7.3939666754631617 -1.0810211995512873 0 0 0 0 23.123878447243442 1.9469561991518276 0 1.9469561991518276 -6.4979657364638115 0 0 0 0 30.175222062180183 -7.9577741596149281 0 -7.9577741596149281 -81.38465758410166 0 0 0 0 12.821478242225432 -24.079832575735296 0 -24.079832575735296 -97.141982240461317 0 0 0 0 14.205235593516729 -7.5557996412203039 0 -7.5557996412203039 -86.902828114985127 0 0 0 0 -12.088095064600566 -9.948067978146355 0 -9.948067978146355 -174.52886905707419 0 0 0 0 -5.5426798180997139 -112.34567929908371 0 -112.34567929908371 -221.50825554549374 0 0 0 0 48.779118024981969 15.54277911950274 0 15.54277911950274 -69.888574030991251 0 0 0 0 1.7804745240833031 -15.987913870974227 0 -15.987913870974227 -67.465593034457029 0 0 0 0 -219.3417051093295 -104.2097389748451 0 -104.2097389748451 -84.210572259498804 0 0 0 0 -219.78513094952314 -318.05464375096926 0 -318.05464375096926 -277.79740909978455 0 0 0 0 -3.211396376015216 -124.4287610427557 0 -124.4287610427557 -265.2726439722137 0 0 0 0 -51.796897046693857 -73.877742979988398 0 -73.877742979988398 -316.21301011330434 0 0 0 0 1.5580316269189538 2.8959299523981414 0 2.8959299523981414 -12.717253722118969 0 0 0 0 88.234072259865911 73.46565202379702 0 73.46565202379702 -274.66181196309117 0 0 0 0 24.158689972762886 -26.868710226948679 0 -26.868710226948679 -72.822352424474957 0 0 0 0 8.3471533513643976 34.031480178372476 0 34.031480178372476 1.7475611527988804 0 0 0 0 22.885724043935063 26.778813207216373 0 26.778813207216373 -45.853580426552867 0 0 0 0 126.78490408202651 -74.563033298811206 0 -74.563033298811206 -193.96831035093783 0 0 0 0 -62.740801191638184 72.1223297827637 0 72.1223297827637 -89.575789595517563 0 0 0 0 -2.0451806035450693 0.71722506980553646 0 0.71722506980553646 0.13369976503714476 0 0 0 0 -33.709203837970392 -6.7663085442309239 0 -6.7663085442309239 4.8329440708912443 0 0 0 0 12.080847714674377 34.079808371429571 0 34.079808371429571 -48.82022289101414 0 0 0 0 -102.40919551989714 251.06197981764126 0 251.06197981764126 -53.418620030504826 0 0 0 0 -40.276306192966786 -43.944013975586131 0 -43.944013975586131 12.749841537450266 0 0 0 0 29.547665581347474 117.37944039995637 0 117.37944039995637 -53.037647687102435 0 0 0 0 16.794780019278861 -134.59371819618457 0 -134.59371819618457 -331.16859154821577 0 0 0 0 1.7227931428519696 173.86288618264734 0 173.86288618264734 -27.741514310506318 0 0 0 0 -61.053843640108425 -94.071884207563926 0 -94.071884207563926 -153.99336021434101 0 0 0 0 -172.89889301754965 -114.08429798835641 0 -114.08429798835641 -304.26876512559102 0 0 0 0 -99.176827413058163 -293.86041288407068 0 -293.86041288407068 -604.93513719000111 0 0 0 0 -102.84186058716477 -290.68618627009346 0 -290.68618627009346 -518.68913519146736 0 0 0 0 -238.29796782066427 -254.79659841864577 0 -254.79659841864577 -388.07764760859209 0 0 0 0 -360.57339595738881 -405.988157713693 0 -405.988157713693 -349.8537013686273 0 0 0 0 -251.19766976227197 -475.78630109613459 0 -475.78630109613459 -755.28208838149294 0 0 0 0 -336.45932715101253 -650.03268520440906 0 -650.03268520440906 -709.33987912166049 0 0 0 0 -560.19152417363262 -549.06413005833952 0 -549.06413005833952 -616.23860719703589 0 0 0 0 -337.04978819140172 -664.78621145179159 0 -664.78621145179159 -809.25251225188913 0 0 0 0 6.2625495488363363 -2.3171210753229374 0 -2.3171210753229374 -7.2370392602801843 0 0 0 0 -547.78502622278302 -570.52079517881793 0 -570.52079517881793 -836.2397234173477 0 0 0 0 -254.31371828367082 3.2266589107894106 0 3.2266589107894106 -723.26955252462812 0 0 0 0 -288.32644080164073 -297.30055033941244 0 -297.30055033941244 -1281.6362527986655 0 0 0 0 -547.6299916747364 -842.43198412561912 0 -842.43198412561912 -1306.8099872336752 0 0 0 0 -20.844280813481106 -237.24403695557157 0 -237.24403695557157 -614.09713514145551 0 0 0 0 4.0220909315201103 -1.5131201181372091 0 -1.5131201181372091 -5.1612980040770964 0 0 0 0 -175.18886011095066 -720.29859887446037 0 -720.29859887446037 -2100.8805100661593 0 0 0 0 -1018.0094196546711 200.7092883478399 0 200.7092883478399 -1170.6306897422146 0 0 0 0 -1353.7164978995688 -766.35080808147586 0 -766.35080808147586 -987.54518583193567 0 0 0 0 -68.400477714069211 534.61863798952527 0 534.61863798952527 -1522.9050765001957 0 0 0 0 -1526.0769611775404 -965.23141384358405 0 -965.23141384358405 -388.46853955600818 0 0 0 0 -3.5915472300306925 -6.6871503720333436 0 -6.6871503720333436 -16.253003932285907 0 0 0 0 -670.3168396296079 -647.80337122589663 0 -647.80337122589663 -360.31384134070686 0 0 0 0 -364.0101711975874 -211.96143100221525 0 -211.96143100221525 -59.609911928220754 0 0 0 0 -33.763341542432158 -263.23423149251903 0 -263.23423149251903 -222.15237766695645 0 0 0 0 -12.28285505747759 -45.816097158729463 0 -45.816097158729463 -187.88553573723402 0 0 0 0 -8.8042987191904434 -19.114821834936095 0 -19.114821834936095 -41.092597118405621 0 0 0 0 108.81196968808902 -66.406183755862003 0 -66.406183755862003 -227.54414694540174 0 0 0 0 -60.008110552688549 253.44313569383303 0 253.44313569383303 -628.27370576370959 0 0 0 0 -178.98731416245244 60.607377692060254 0 60.607377692060254 -122.92507596760515 0 0 0 0 -43.470795215330384 -662.70806584364254 0 -662.70806584364254 -2074.4572168796149 0 0 0 0 9.8030729913993255 -254.95255387160842 0 -254.95255387160842 -978.01514546524413 0 0 0 0 -125.38129742480999 -620.18409554296522 0 -620.18409554296522 -1024.296074296125 0 0 0 0 70.712397987969013 -303.66546068354728 0 -303.66546068354728 -1090.2104401758625 0 0 0 0 72.828428178496381 -147.20590943309799 0 -147.20590943309799 -1078.8646195549736 0 0 0 0 26.444804368552987 -317.58140964707218 0 -317.58140964707218 -772.79999708387913 0 0 0 0 114.59258391187468 -13.617958439635913 0 -13.617958439635913 -719.38558652294159 0 0 0 0 83.397837058840636 -310.2067832380817 0 -310.2067832380817 -828.91636604708765 0 0 0 0 73.275738938543043 -236.18043972469604 0 -236.18043972469604 -610.99780843068584 0 0 0 0 91.19006228187871 -62.467017677921831 0 -62.467017677921831 -407.94270427933225 0 0 0 0 49.508497042441498 98.830282264896596 0 98.830282264896596 -358.90720379211416 0 0 0 0 62.484834473826034 -36.454111534909316 0 -36.454111534909316 -430.24540847440767 0 0 0 0 71.31092180696335 -149.15203458593896 0 -149.15203458593896 -478.00042208325613 0 0 0 0 0.48697871320527497 81.203174452015446 0 81.203174452015446 -0.38515648572501959 0 0 0 0 -26.706920676487613 -431.26369218795298 0 -431.26369218795298 -707.50710525541035 0 0 0 0 -38.012969713166143 -412.74835428321057 0 -412.74835428321057 -625.70241777315823 0 0 0 0 -67.643768577615162 -392.53740094970635 0 -392.53740094970635 -587.0052152267308 0 0 0 0 20.772925055699091 -383.75303683080347 0 -383.75303683080347 -692.16659760019684 0 0 0 0 -18.186047742050775 -396.05707611337129 0 -396.05707611337129 -623.83768884044548 0 0 0 0 -3.8213115687394748 -317.59239845725097 0 -317.59239845725097 -517.22962263037334 0 0 0 0 -58.909646962091699 -476.07152093931745 0 -476.07152093931745 -635.62142981219222 0 0 0 0 -66.005457014791062 -500.5799401802542 0 -500.5799401802542 -681.17915829332742 0 0 0 0 -38.982347756007655 -468.7421115064808 0 -468.7421115064808 -725.81631786990329 0 0 0 0 -30.045618704797278 -446.88031063267044 0 -446.88031063267044 -676.84362033773073 0 0 0 0 -47.857374009916214 -486.81414858466451 0 -486.81414858466451 -699.81161192496802 0 0 0 0 -18.990216867323056 -391.86667966346795 0 -391.86667966346795 -686.0492217537012 0 0 0 0 16.161470059152421 -414.91222381788248 0 -414.91222381788248 -687.85427277511917 0 0 0 0 -10.901351214998897 -459.87590905444085 0 -459.87590905444085 -746.15603267339611 0 0 0 0 10.441875611417515 -466.05155304863729 0 -466.05155304863729 -858.69347459910932 0 0 0 0 -61.295189027278006 -492.42046679483974 0 -492.42046679483974 -683.41764340866303 0 0 0 0 -189.58131409760938 -546.25355762888648 0 -546.25355762888648 -697.43949076727131 0 0 0 0 -408.80512920091496 -556.24205845025972 0 -556.24205845025972 -765.04440516005343 0 0 0 0 -246.28880472301131 -518.90681559938821 0 -518.90681559938821 -642.5315880345006 0 0 0 0 -178.59224025545794 -449.21848593840332 0 -449.21848593840332 -716.8986650108709 0 0 0 0 -77.012565711020954 -375.40896902850363 0 -375.40896902850363 -514.84561224117351 0 0 0 0 -200.45904271821686 -420.62498345253334 0 -420.62498345253334 -489.85851280179122 0 0 0 0 -74.987403056525054 -310.02503040722149 0 -310.02503040722149 -399.94094949711871 0 0 0 0 -212.64160297009272 -303.2782304333814 0 -303.2782304333814 -242.65863081454881 0 0 0 0 -30.29379379498846 -99.06692925668176 0 -99.06692925668176 -204.49934264815602 0 0 0 0 -113.06679215043459 -162.43536344154199 0 -162.43536344154199 -111.85325237771758 0 0 0 0 -175.49394048526034 -48.142352626563934 0 -48.142352626563934 -244.51454714535066 0 0 0 0 -357.14733403305104 -244.10380494515084 0 -244.10380494515084 -369.00419977816637 0 0 0 0 -96.687248379069047 -292.98156115589518 0 -292.98156115589518 -417.41095620152919 0 0 0 0 -244.43649449839609 -226.68123332261712 0 -226.68123332261712 -559.72485020356544 0 0 0 0 -409.7742517949012 -298.55985389389389 0 -298.55985389389389 -400.95672231198114 0 0 0 0 -324.13012748937325 -491.90287010628526 0 -491.90287010628526 -915.19636788243588 0 0 0 0 -860.7839707155772 -291.30967092619176 0 -291.30967092619176 -561.55003175069942 0 0 0 0 -340.80995501838993 -161.87731617148347 0 -161.87731617148347 -982.22550525605402 0 0 0 0 -213.38086815113684 -135.94796907092314 0 -135.94796907092314 -672.23356605330991 0 0 0 0 -253.56397156993012 66.127410894914647 0 66.127410894914647 -456.97000760107403 0 0 0 0 -380.90988581025516 -52.261660896698686 0 -52.261660896698686 -713.97430990417342 0 0 0 0 -312.52106179667931 -10.3954875384552 0 -10.3954875384552 -417.10969490592106 0 0 0 0 -61.913841485587909 65.254754469093314 0 65.254754469093314 -460.26250213654384 0 0 0 0 -250.94282439478843 -16.091288749208616 0 -16.091288749208616 -244.50767321985768 0 0 0 0 -34.651845142973798 13.069976747952751 0 13.069976747952751 -253.93964719520045 0 0 0 0 -165.28248240745415 61.002867366307328 0 61.002867366307328 -38.997511796915205 0 0 0 0 44.290222050942248 45.187012280832278 0 45.187012280832278 -33.402398185387938 0 0 0 0 -118.59143179165721 115.76195676928364 0 115.76195676928364 -57.954242330102716 0 0 0 0 17.327240094501427 40.535569202410315 0 40.535569202410315 -14.890500429191711 0 0 0 0 0.93975717585772145 66.069443390890228 0 66.069443390890228 41.367885967456459 0 0 0 0 -59.890293824384798 127.7977944479162 0 127.7977944479162 173.61694563645869 0 0 0 0 35.013014554210827 -7.8517455579367379 0 -7.8517455579367379 -15.896607572241919 0 0 0 0 -80.745042160350749 30.408795976705733 0 30.408795976705733 170.66949900410145 0 0 0 0 133.6378055450615 45.192974278197653 0 45.192974278197653 -90.986719478863961 0 0 0 0 7.1809453784469088 41.745864565999419 0 41.745864565999419 -18.061350527642084 0 0 0 0 -26.428163065091866 123.79708660439064 0 123.79708660439064 2.4032941172554274 0 0 0 0 -39.357457578679657 110.16698177698163 0 110.16698177698163 149.99557338891464 0 0 0 0 -0.29445574666641527 -1.0553030330700182 0 -1.0553030330700182 0.72125837481545574 0 0 0 0 -33.145184089057054 128.25335368681772 0 128.25335368681772 84.158649757075182 0 0 0 0 -204.1563107330619 79.531667523893702 0 79.531667523893702 -98.016458483085444 0 0 0 0 -228.31597590102291 -22.953332875033993 0 -22.953332875033993 14.502583111108834 0 0 0 0 -269.93687124063496 124.92401847494105 0 124.92401847494105 4.3923562713425781 0 0 0 0 -274.70544951455605 -197.41941553319114 0 -197.41941553319114 -308.13068704166653 0 0 0 0 -780.90787395298707 995.02805582247674 0 995.02805582247674 -3493.3576324432561 0 0 0 0 -177.52319827760994 369.89346285123247 0 369.89346285123247 -1172.4573866835781 0 0 0 0 556.16963272378257 306.79627097126831 0 306.79627097126831 -3447.3921061485162 0 0 0 0 -306.72088066994615 933.16723717223795 0 933.16723717223795 -911.01321012189328 0 0 0 0 -685.53695749878489 1838.6030797783678 0 1838.6030797783678 -3493.3456089951214 0 0 0 0 451.15320607594344 -585.66904146110483 0 -585.66904146110483 -933.25889472722702 0 0 0 0 0.55096935012282622 -1.2392107791266405 0 -1.2392107791266405 -13.05521968509332 0 0 0 0 154.14094619003436 186.87973484516806 0 186.87973484516806 23.224708075038507 0 0 0 0 -6.37135942492651 266.18202034454407 0 266.18202034454407 -11.061479825762945 0 0 0 0 43.291446617243722 151.08205978451042 0 151.08205978451042 -1160.0330665552228 0 0 0 0 -171.28311195241491 755.28800866371239 0 755.28800866371239 -1227.9738629370004 0 0 0 0 501.93919238858842 486.24029379587773 0 486.24029379587773 -3500.3889603246607 0 0 0 0 -29.730776591548874 -9.8006338557097479 0 -9.8006338557097479 -97.26205371605829 0 0 0 0 -196.36302533151587 139.09843562462356 0 139.09843562462356 -379.77015886401568 0 0 0 0 2.5389668095466078 25.067408397623467 0 25.067408397623467 -12.982625923866568 0 0 0 0 205.26470645564433 78.516700030597349 0 78.516700030597349 -75.495901630871231 0 0 0 0 4.4231194882336728 2.1149211924374214 0 2.1149211924374214 -34.796475248368282 0 0 0 0 1.191574013001512 8.2463047101165046 0 8.2463047101165046 -7.8249273419930319 0 0 0 0 55.636248653894881 -30.046602759312009 0 -30.046602759312009 -65.988137942818867 0 0 0 0 -90.915990359540046 -102.13749019931311 0 -102.13749019931311 -166.67084540062206 0 0 0 0 -0.031500703973506461 -100.029383324636 0 -100.029383324636 -293.64755734301434 0 0 0 0 -108.95022044031973 -157.1359007724277 0 -157.1359007724277 -231.40355986011127 0 0 0 0 -57.06348698670223 -232.21261304748987 0 -232.21261304748987 -450.55406499039236 0 0 0 0 -13.670644262317275 -166.34568278705774 0 -166.34568278705774 -352.88362670515198 0 0 0 0 -64.978685140330413 -95.832129102484032 0 -95.832129102484032 -246.63306955792359 0 0 0 0 -2.8143642272665375 24.535908208767069 0 24.535908208767069 -247.69129515028908 0 0 0 0 0.18459044964954519 24.493011806643011 0 24.493011806643011 -13.714176681754189 0 0 0 0 3.7497565808364044 -58.275779260286072 0 -58.275779260286072 -351.26237399014644 0 0 0 0 339.26103130132992 -113.7110134100767 0 -113.7110134100767 -1745.2697960500336 0 0 0 0 483.13073606745763 108.94390629491136 0 108.94390629491136 -1776.614357354134 0 0 0 0 441.10974705279619 -760.34493292288244 0 -760.34493292288244 -3499.9718943444409 0 0 0 0 177.44911373005564 -558.1402382226961 0 -558.1402382226961 -1373.2118592445768 0 0 0 0 -172.3045694415716 -84.202028252719174 0 -84.202028252719174 -541.25004157605508 0 0 0 0 -0.2941413326357849 14.070688340353335 0 14.070688340353335 -38.181091119441987 0 0 0 0 -33.626818941696229 -475.35788108817724 0 -475.35788108817724 -1385.9372218045028 0 0 0 0 94.99773336459748 -31.03805912590542 0 -31.03805912590542 -33.52127021135675 0 0 0 0 -818.4520976255717 -2131.2120958112009 0 -2131.2120958112009 -3493.7671717718076 0 0 0 0 -3.0104069296737981 3.1587870814040926 0 3.1587870814040926 -16.693642645157382 0 0 0 0 220.984552995716 1522.8355306085068 0 1522.8355306085068 -3494.8395562542642 0 0 0 0 -1455.8245326693818 1388.7961826198625 0 1388.7961826198625 -626.94166096328263 0 0 0 0 358.1252313953147 -55.585219175794919 0 -55.585219175794919 -566.09217460886771 0 0 0 0 -446.96531297649165 579.24768027155733 0 579.24768027155733 -197.05777001951355 0 0 0 0 128.58867208934998 -394.03060033641668 0 -394.03060033641668 -413.21640287818445 0 0 0 0 176.64601146686061 -222.15483879575186 0 -222.15483879575186 -674.88916285858431 0 0 0 0 498.22504283570981 14.136895778654434 0 14.136895778654434 -543.85924196717679 0 0 0 0 5.6843770023203017 -0.33128631793405816 0 -0.33128631793405816 -8.7122025710774835 0 0 0 0 83.470625618006764 61.384574387935572 0 61.384574387935572 -158.66220333937963 0 0 0 0 -8.4974354118715638 -130.8935565881402 0 -130.8935565881402 -390.38926329086826 0 0 0 0 -3.3062387730723581 6.6314179722708531 0 6.6314179722708531 5.1760562779624024 0 0 0 0 3.4325765118195477 -62.389788866006711 0 -62.389788866006711 -399.17150673315336 0 0 0 0 88.708013229780818 -5.3818139844806865 0 -5.3818139844806865 -370.70864987267123 0 0 0 0 235.44695851917479 -31.2687474481354 0 -31.2687474481354 -487.58707728650188 0 0 0 0 55.247612043556359 -204.61473359174124 0 -204.61473359174124 -516.86585646986669 0 0 0 0 149.19776920382878 -82.229837569102529 0 -82.229837569102529 -510.84659656292934 0 0 0 0 24.760272088785889 -240.3379127091639 0 -240.3379127091639 -558.49113218240382 0 0 0 0 74.699173098211929 -284.04464075634132 0 -284.04464075634132 -653.99377727006504 0 0 0 0 59.192455208127285 -322.73451665341054 0 -322.73451665341054 -786.18735576323525 0 0 0 0 40.512466980287854 -288.26112726950669 0 -288.26112726950669 -603.50807717582211 0 0 0 0 6.4266290607146956 13.388357486464345 0 13.388357486464345 -101.0787226969574 0 0 0 0 0.25003875313934998 -0.50704862685412166 0 -0.50704862685412166 -18.574816242955713 0 0 0 0 39.93318142706994 33.679428112531241 0 33.679428112531241 -359.29600423872034 0 0 0 0 -86.23454112733134 -13.888795384295918 0 -13.888795384295918 -365.72195512456528 0 0 0 0 3.9776172757883614 14.175796686096874 0 14.175796686096874 -66.194846388241785 0 0 0 0 22.5030825361805 16.27445547689149 0 16.27445547689149 -66.257779249714076 0 0 0 0 18.696154085754145 25.160713115470962 0 25.160713115470962 -52.235032876519753 0 0 0 0 20.578527659626864 16.247502061365886 0 16.247502061365886 -20.207704703745321 0 0 0 0 9.3664416737633704 24.618407844221771 0 24.618407844221771 -43.609926261187354 0 0 0 0 52.862809409423065 11.867397720469862 0 11.867397720469862 -20.38324764175437 0 0 0 0 105.23870356707994 1.4509495924971816 0 1.4509495924971816 -69.151378200436739 0 0 0 0 48.401061964382819 14.336678056194533 0 14.336678056194533 -5.4147128133424722 0 0 0 0 5.957454813298682 31.482756014043844 0 31.482756014043844 -89.114958812337136 0 0 0 0 50.399140789742887 -12.493532752161627 0 -12.493532752161627 -58.639633632967161 0 0 0 0 73.991871578628889 -15.901253054364588 0 -15.901253054364588 -102.12506747911766 0 0 0 0 89.90441116209513 -253.37174384930313 0 -253.37174384930313 -470.53083131213862 0 0 0 0 101.893764063665 396.22496880535255 0 396.22496880535255 -894.30985378584592 0 0 0 0 -209.2286697829868 363.51760855148677 0 363.51760855148677 -574.01887478151184 0 0 0 0 232.30617069037908 -15.474465628709368 0 -15.474465628709368 -1143.3989418249148 0 0 0 0 119.99708483651921 272.06599794184513 0 272.06599794184513 -48.052628352229021 0 0 0 0 -295.66958246948525 386.04891349251966 0 386.04891349251966 -323.42567944559414 0 0 0 0 -386.28308711935188 207.7914565867618 0 207.7914565867618 -87.059566527219431 0 0 0 0 -264.51377499810405 69.226011620989084 0 69.226011620989084 -2.4765719824117696 0 0 0 0 -86.016152722597326 196.62872993235214 0 196.62872993235214 -159.04885918994114 0 0 0 0 -85.543302414913342 209.1959561774438 0 209.1959561774438 -232.29161567300798 0 0 0 0 665.59042737250638 -388.3063686837022 0 -388.3063686837022 -367.62722735601346 0 0 0 0 -422.26702176343133 410.14944727616603 0 410.14944727616603 -674.46474253233828 0 0 0 0 0.53791886381804943 -0.42822587431613357 0 -0.42822587431613357 -6.5138621900144358 0 0 0 0 392.29967463491994 -322.1474133996453 0 -322.1474133996453 47.253906158172413 0 0 0 0 662.86640383598933 -113.96369601066181 0 -113.96369601066181 0.53784598714628373 0 0 0 0 0.27667077899866754 -3.0840625641158681 0 -3.0840625641158681 -14.474618409444133 0 0 0 0 568.61660786095854 -47.381492766850442 0 -47.381492766850442 136.39733238321605 0 0 0 0 685.79325968895137 -55.106179032345608 0 -55.106179032345608 98.249483959641111 0 0 0 0 652.55710668698885 -126.46212879491031 0 -126.46212879491031 32.60221160969013 0 0 0 0 -156.65702296618656 9.7439533930719335 0 9.7439533930719335 34.534154551027314 0 0 0 0 274.74485114931304 148.1273789637653 0 148.1273789637653 -152.56009228013136 0 0 0 0 -0.27097086615685839 63.638880885711842 0 63.638880885711842 -41.324680331928903 0 0 0 0 4.2847049069714558 -92.217566623481616 0 -92.217566623481616 -8.9496422388474457 0 0 0 0 296.51024698779838 306.69403552604444 0 306.69403552604444 -233.88937902764155 0 0 0 0 -43.652361726231902 -274.71586431246396 0 -274.71586431246396 32.638524228690358 0 0 0 0 4.2837478403648213 5.4302090148826334 0 5.4302090148826334 -91.951500904275491 0 0 0 0 -14.943367286778084 -201.57559290278732 0 -201.57559290278732 -360.73175307721249 0 0 0 0 -26.578033746471192 105.86030594955446 0 105.86030594955446 -361.69019463466248 0 0 0 0 151.93547772824604 -196.659732434744 0 -196.659732434744 -579.65020712314436 0 0 0 0 43.288021926355214 437.05339688210643 0 437.05339688210643 -257.5228396821185 0 0 0 0 -716.74702851825714 152.93881211127882 0 152.93881211127882 -177.62109440688437 0 0 0 0 93.589744505505223 71.953337404269405 0 71.953337404269405 -427.25526809150324 0 0 0 0 -34.382985343941982 -82.373832867440797 0 -82.373832867440797 -609.44415585306706 0 0 0 0 111.01813189498353 148.14355749470269 0 148.14355749470269 -548.32721889895038 0 0 0 0 -3.9616109856419257 -3.2636803460850956 0 -3.2636803460850956 -1.6880450752620391 0 0 0 0 99.582981024404944 126.75213577159957 0 126.75213577159957 -180.07409369353741 0 0 0 0 121.15056913621424 194.90456186613574 0 194.90456186613574 -399.33142889002193 0 0 0 0 166.47496495057021 62.826077871282905 0 62.826077871282905 -402.23761598050623 0 0 0 0 141.19569212972237 135.05911090207519 0 135.05911090207519 -397.3301878158386 0 0 0 0 159.86381438333592 118.90305627448288 0 118.90305627448288 -389.56459808944783 0 0 0 0 109.85604123083613 57.576479075254611 0 57.576479075254611 -459.78688259432238 0 0 0 0 -179.55664574329876 -101.64098055274735 0 -101.64098055274735 -585.65245110810429 0 0 0 0 -129.39297180346284 139.46671666796101 0 139.46671666796101 -495.44827444779366 0 0 0 0 165.10527486105747 78.425049961022296 0 78.425049961022296 -462.96227275070851 0 0 0 0 113.19503112398797 110.05463980289551 0 110.05463980289551 -342.07493187992077 0 0 0 0 58.206787588786938 179.07180381134822 0 179.07180381134822 -425.42138638202414 0 0 0 0 22.189766820462864 48.62526939129566 0 48.62526939129566 -452.47506700925805 0 0 0 0 -112.15512610077667 112.39647236671044 0 112.39647236671044 -268.1680624468936 0 0 0 0 47.919545308660418 113.87230049739446 0 113.87230049739446 -272.7172971537002 0 0 0 0 148.27510030798749 105.58827487735653 0 105.58827487735653 -342.38914643340104 0 0 0 0 124.33066046970271 165.14301069681096 0 165.14301069681096 -256.19717585446051 0 0 0 0 34.691690750044927 65.448545775509047 0 65.448545775509047 -82.137283684991417 0 0 0 0 34.652830719968733 169.19653948339692 0 169.19653948339692 -39.309561041514826 0 0 0 0 122.23039060232986 47.146175473673793 0 47.146175473673793 -395.7558727572723 0 0 0 0 45.426543802483138 9.5288202635820198 0 9.5288202635820198 -265.72729551830707 0 0 0 0 105.14240659455027 86.848100755592895 0 86.848100755592895 -291.91235633341421 0 0 0 0 106.922576846222 101.47892352434428 0 101.47892352434428 -241.35258154746407 0 0 0 0 29.035962234138424 87.400542832012434 0 87.400542832012434 -92.323799505114948 0 0 0 0 38.872993897552078 63.239267115590337 0 63.239267115590337 -33.240365133387968 0 0 0 0 21.529496912007261 32.920367087110968 0 32.920367087110968 -24.022174641923819 0 0 0 0 99.231993141276689 179.37697975323317 0 179.37697975323317 -136.01017590609263 0 0 0 0 13.233859574770349 -0.90725476813076966 0 -0.90725476813076966 -73.493222540440911 0 0 0 0 37.811486355603847 41.765289215745725 0 41.765289215745725 -115.50741799057141 0 0 0 0 12.80980366924382 14.840296092434528 0 14.840296092434528 -48.51775244349119 0 0 0 0 6.4470092930673957 10.924070359825237 0 10.924070359825237 -66.05517902765132 0 0 0 0 8.1638335784014942 16.762260357343223 0 16.762260357343223 -21.243437367257378 0 0 0 0 5.8997642202776106 29.534343476786376 0 29.534343476786376 -50.984054402731999 0 0 0 0 21.927449496227382 10.462673835480018 0 10.462673835480018 -86.24568827441999 0 0 0 0 24.620821043342417 27.676179433563426 0 27.676179433563426 -37.518017936584684 0 0 0 0 7.5097451629757366 36.291210118666875 0 36.291210118666875 -7.3131455989433789 0 0 0 0 10.072467107763126 11.260516988221646 0 11.260516988221646 -31.366096896342754 0 0 0 0 8.9726868619991365 8.6891201574017032 0 8.6891201574017032 -31.686151357200288 0 0 0 0 22.570013080329772 21.359513034873089 0 21.359513034873089 -25.257294864784853 0 0 0 0 8.6188875037883328 11.241425050802338 0 11.241425050802338 -27.07140003155753 0 0 0 0 0.48333292624693058 25.782946010347587 0 25.782946010347587 -32.087651777124847 0 0 0 0 22.977426662481321 25.714007854918691 0 25.714007854918691 -44.173346450934332 0 0 0 0 7.5649551878543564 13.079613867011322 0 13.079613867011322 -31.338190002757372 0 0 0 0 75.256669237354458 88.210347265139717 0 88.210347265139717 65.339583397635579 0 0 0 0 24.405697945612204 66.187375674056966 0 66.187375674056966 112.72087370985901 0 0 0 0 28.458577062862037 38.931351468198436 0 38.931351468198436 -17.058485290337359 0 0 0 0 5.3749101065443821 1.9301562501790812 0 1.9301562501790812 3.8120645905505413 0 0 0 0 107.05436212188033 104.10663842798385 0 104.10663842798385 18.230041138551314 0 0 0 0 -3.7456439627458167 69.669968488669838 0 69.669968488669838 20.658189086781931 0 0 0 0 14.867474406629094 17.908084083093989 0 17.908084083093989 -13.635758056449788 0 0 0 0 12.334012283655511 18.207761818281142 0 18.207761818281142 -12.613724012917373 0 0 0 0 40.913207022779716 71.565331716863014 0 71.565331716863014 -25.521418641095352 0 0 0 0 31.391559389951681 -4.0942470265026714 0 -4.0942470265026714 6.8411312269709015 0 0 0 0 21.16511911334112 15.599657483639021 0 15.599657483639021 -31.029094609257299 0 0 0 0 74.071524332650824 -0.31241945708097774 0 -0.31241945708097774 -38.766357900385628 0 0 0 0 64.180591308406292 -41.275142682527076 0 -41.275142682527076 -60.390701038391853 0 0 0 0 60.684169967520461 -26.915408325598037 0 -26.915408325598037 -46.202785036788555 0 0 0 0 -71.524026686830439 53.047031324662385 0 53.047031324662385 36.359126173447294 0 0 0 0 30.878801208093137 -45.707330931145407 0 -45.707330931145407 -5.1617876382842951 0 0 0 0 57.121797231439814 -65.874494058007258 0 -65.874494058007258 -64.473416575638112 0 0 0 0 -0.31818451288131655 -74.366692028350371 0 -74.366692028350371 -31.169520078619826 0 0 0 0 2.8063827983183955 -1.9427835105561826 0 -1.9427835105561826 148.62196407029114 0 0 0 0 -104.72413481011517 96.258870543460944 0 96.258870543460944 -128.89204100810457 0 0 0 0 -87.678604339327308 -143.59484737926232 0 -143.59484737926232 -83.233873174460314 0 0 0 0 41.007360037180661 -48.701507171746925 0 -48.701507171746925 -58.631492519947642 0 0 0 0 170.75394969414697 63.035458204151382 0 63.035458204151382 -38.924655437211186 0 0 0 0 -468.84765317187725 822.7685935168447 0 822.7685935168447 -975.15216177327966 0 0 0 0 -6.2612240959722261 11.952899057996248 0 11.952899057996248 -20.005724861023978 0 0 0 0 88.852773038649843 44.956865812031083 0 44.956865812031083 -36.331074974172225 0 0 0 0 246.97659803461556 -87.718402708214853 0 -87.718402708214853 -72.431368503965132 0 0 0 0 64.42797700076062 -69.879015081300167 0 -69.879015081300167 -63.198263690108433 0 0 0 0 142.92075305003766 -46.490063475628631 0 -46.490063475628631 -72.604373583519191 0 0 0 0 278.12808688106242 -1064.6730285101985 0 -1064.6730285101985 -3504.634550846913 0 0 0 0 269.18718744108224 -552.46512401566906 0 -552.46512401566906 -1413.0098142744064 0 0 0 0 112.21258804602488 -669.90112318001775 0 -669.90112318001775 -4030.1090803059051 0 0 0 0 -196.81732649931814 491.16922749211881 0 491.16922749211881 108.09738834660675 0 0 0 0 -4.0878071579855702 5.3772406683882181 0 5.3772406683882181 -6.9708597179231901 0 0 0 0 6.6331740923396865 -79.222051431152067 0 -79.222051431152067 144.84634779035696 0 0 0 0 -328.49556211311017 830.13040727708767 0 830.13040727708767 -685.8172676753893 0 0 0 0 -105.43583574244036 90.121905344461993 0 90.121905344461993 -143.34950544741878 0 0 0 0 598.42571024575159 -53.327600989321581 0 -53.327600989321581 -278.54822778245216 0 0 0 0 1.8465310882067079 -3.6263773848796603 0 -3.6263773848796603 -5.1194532974169462 0 0 0 0 -107.9871666502261 -201.35081930330875 0 -201.35081930330875 45.77229514483588 0 0 0 0 18.437110538841853 12.59745617682643 0 12.59745617682643 -30.169785633651898 0 0 0 0 -149.35384176245623 418.36916658108157 0 418.36916658108157 83.83586309765451 0 0 0 0 260.96840372272447 199.23331966206115 0 199.23331966206115 -3490.9947418818792 0 0 0 0 -2.2165122908223043 -2.9647831700918204 0 -2.9647831700918204 -18.47682581938264 0 0 0 0 -338.1040470594952 914.98961717296288 0 914.98961717296288 -2141.8615892629095 0 0 0 0 -1273.0553877261175 -623.52122745178349 0 -623.52122745178349 -303.41980601623936 0 0 0 0 -412.83739861872147 -1734.6524865970696 0 -1734.6524865970696 -3073.2196645477034 0 0 0 0 -241.3395722399494 -1572.5636687058177 0 -1572.5636687058177 -3494.5433879568363 0 0 0 0 -465.10955201491936 -1338.9792513019543 0 -1338.9792513019543 -3112.9834077843698 0 0 0 0 -464.57583809726896 -1288.0764207772272 0 -1288.0764207772272 -3480.92610261748 0 0 0 0 227.76759550343772 339.79334386338581 0 339.79334386338581 11.99417809712304 0 0 0 0 -1017.3792692941698 -2026.5664262690955 0 -2026.5664262690955 -3560.5338916216615 0 0 0 0 3.7687321684482624 2.3995801847663003 0 2.3995801847663003 -13.216440444857501 0 0 0 0 -689.78776865726957 -1777.7804577834959 0 -1777.7804577834959 -2710.9509276061763 0 0 0 0 242.4329789291555 145.78722804553672 0 145.78722804553672 -566.91791200280477 0 0 0 0 1.4148764454137857 -0.15684942697031001 0 -0.15684942697031001 -3.6253126654653443 0 0 0 0 -86.019137358900352 -107.35595001181332 0 -107.35595001181332 -133.6771541938142 0 0 0 0 23.364670784419559 -61.392013517088799 0 -61.392013517088799 171.28276640882086 0 0 0 0 34.369577669636946 -10.933157253625723 0 -10.933157253625723 -56.611794786459541 0 0 0 0 0.11697503525679465 -1.9358827647770269 0 -1.9358827647770269 -8.2270308756204784 0 0 0 0 6.4281013879990212 42.144362094681242 0 42.144362094681242 100.02611612377041 0 0 0 0 179.80780718150322 -11.826996899033929 0 -11.826996899033929 -59.995136040201032 0 0 0 0 30.873339300817399 -15.45565582502968 0 -15.45565582502968 -105.8645774881752 0 0 0 0 39.284129833398083 -48.387909302335629 0 -48.387909302335629 -37.627154255726055 0 0 0 0 28.069001323922073 -12.450947806461954 0 -12.450947806461954 -65.249947634096316 0 0 0 0 14.775054044833432 6.9200625562031197 0 6.9200625562031197 -47.745111165923973 0 0 0 0 28.157351933866721 20.15249436348131 0 20.15249436348131 -61.754480619045808 0 0 0 0 68.909568829886894 82.836590647505545 0 82.836590647505545 5.7923225394133624 0 0 0 0 7.9576930636345011 7.9360374091235917 0 7.9360374091235917 -29.014346629429006 0 0 0 0 169.65604551758361 121.43689961012205 0 121.43689961012205 -12.943001898596776 0 0 0 0 -692.67892446041526 -1008.5734307279237 0 -1008.5734307279237 -1680.0475839367048 0 0 0 0 -532.66650642356979 -887.56895223940819 0 -887.56895223940819 -1686.7748035666473 0 0 0 0 -507.03371879682038 -1034.1640874851005 0 -1034.1640874851005 -1546.4184182066592 0 0 0 0 -209.12470339343633 -902.9251463550163 0 -902.9251463550163 -2709.6421266342513 0 0 0 0 -292.11291435565465 -1142.379818034658 0 -1142.379818034658 -2684.4320744882652 0 0 0 0 -1096.6172018621833 -1578.8273551957511 0 -1578.8273551957511 -2475.2377284830104 0 0 0 0 -500.02836757790323 -1260.8700568108011 0 -1260.8700568108011 -3501.1109434786263 0 0 0 0 -194.97504289854521 -960.42574010606995 0 -960.42574010606995 -3305.4438201355447 0 0 0 0 332.74797137907342 -887.64641411005709 0 -887.64641411005709 -3498.9417220720311 0 0 0 0 486.81579486316718 -527.06771806630263 0 -527.06771806630263 -2675.4412392526065 0 0 0 0 841.1172376464865 -386.26350650402082 0 -386.26350650402082 -3499.891629345796 0 0 0 0 506.88896855432279 -394.74827991923166 0 -394.74827991923166 -2599.6654815923939 0 0 0 0 1206.983316103112 140.05393868542501 0 140.05393868542501 -3498.8635627570338 0 0 0 0 1089.5690013868327 116.09391052553337 0 116.09391052553337 -2665.7568462700565 0 0 0 0 507.11978497775635 -387.76755364585642 0 -387.76755364585642 -2388.543839885062 0 0 0 0 554.9610128503715 111.63320035627152 0 111.63320035627152 -1441.8934430828949 0 0 0 0 545.4681955302691 28.872616400632893 0 28.872616400632893 -1869.6666630510845 0 0 0 0 234.96620421442685 -392.73283263929829 0 -392.73283263929829 -1668.5349279732691 0 0 0 0 377.83078487874491 -126.68468238077867 0 -126.68468238077867 -1227.889302337031 0 0 0 0 480.11294189025671 -73.956612576573661 0 -73.956612576573661 -1505.0326692769004 0 0 0 0 -47.724415178657978 -685.62043485313166 0 -685.62043485313166 -1932.0428579950494 0 0 0 0 48.140449116670652 -566.20887044005121 0 -566.20887044005121 -1793.3584616546796 0 0 0 0 -28.467832471334901 -774.39652902998375 0 -774.39652902998375 -1878.1802048674817 0 0 0 0 86.712359556003094 -338.73342660312733 0 -338.73342660312733 -1203.920497537677 0 0 0 0 -374.5263903913044 -681.96785643774365 0 -681.96785643774365 -916.36626588940817 0 0 0 0 80.05881263593011 64.232988157297001 0 64.232988157297001 -37.585129936652265 0 0 0 0 -97.739142511200384 -288.47337542219884 0 -288.47337542219884 -866.20386840973254 0 0 0 0 44.530918557734481 11.325516761017781 0 11.325516761017781 -17.886415910046964 0 0 0 0 15.949493327696269 17.803071949936523 0 17.803071949936523 -28.119047030644438 0 0 0 0 40.096269678288081 101.15426032245887 0 101.15426032245887 -338.89864486265469 0 0 0 0 82.037423271925036 18.021226380902135 0 18.021226380902135 -619.84602963714133 0 0 0 0 255.49732231851522 -138.72454042672507 0 -138.72454042672507 -515.8908892906602 0 0 0 0 268.39004080127688 -180.49653974587363 0 -180.49653974587363 -384.45639570593994 0 0 0 0 515.38104373291935 -115.46833369651176 0 -115.46833369651176 -857.83797765310283 0 0 0 0 58.785440440911891 37.957827951448706 0 37.957827951448706 -18.429519465608259 0 0 0 0 143.47815441734565 -109.9226659183787 0 -109.9226659183787 -532.63997378148997 0 0 0 0 23.142725714063999 -59.795954162013004 0 -59.795954162013004 -408.73240890626039 0 0 0 0 159.18065842105898 -214.11283341232047 0 -214.11283341232047 -396.97067184943444 0 0 0 0 112.30268009403289 -124.21089961656207 0 -124.21089961656207 -454.61385827557751 0 0 0 0 -117.67079748146523 -498.91137274392167 0 -498.91137274392167 -1101.8982722796327 0 0 0 0 1.8808970466857318 -183.20821503435945 0 -183.20821503435945 -724.67908095793246 0 0 0 0 7.1081814177678098 -257.14697690974663 0 -257.14697690974663 -1003.1261502721472 0 0 0 0 217.83881240421033 -158.47298292063351 0 -158.47298292063351 -1232.9629663878393 0 0 0 0 309.0012644637718 -21.577799013217373 0 -21.577799013217373 -1029.4190032878032 0 0 0 0 85.664823577750667 -110.05677336262306 0 -110.05677336262306 -1007.615940548425 0 0 0 0 66.519156379958531 -134.69323272593647 0 -134.69323272593647 -875.45160492722789 0 0 0 0 13.57687047831314 -85.575508079764404 0 -85.575508079764404 -299.02614080045169 0 0 0 0 58.468417604938971 37.692952871255791 0 37.692952871255791 -17.062616232180524 0 0 0 0 -9.3769527453223418 -111.37973177399181 0 -111.37973177399181 -164.75597646220831 0 0 0 0 -23.262742031722155 -43.880615252703592 0 -43.880615252703592 -84.180788654571643 0 0 0 0 -23.472121184275238 -60.278507241183434 0 -60.278507241183434 -130.68514176812732 0 0 0 0 -10.829265728301834 -83.766096503602284 0 -83.766096503602284 -187.1394165670954 0 0 0 0 16.305037519467078 -46.347323062875603 0 -46.347323062875603 -152.95369841589854 0 0 0 0 -7.2352424276832608 -51.50767634119984 0 -51.50767634119984 -154.08179474571443 0 0 0 0 -25.274460687611281 -4.3971622057888453 0 -4.3971622057888453 -16.028226733466113 0 0 0 0 39.613458756364707 -144.4335648938395 0 -144.4335648938395 -29.974106707058809 0 0 0 0 -10.471308687570854 -60.840086276535658 0 -60.840086276535658 81.127811480598439 0 0 0 0 325.42241164356165 -257.83247000073607 0 -257.83247000073607 11.689461818672498 0 0 0 0 50.775575962488801 -206.58939227560404 0 -206.58939227560404 117.34669383122741 0 0 0 0 305.77972333491289 -170.7588349904122 0 -170.7588349904122 -59.580343551584519 0 0 0 0 381.75353047209865 -238.10230179945393 0 -238.10230179945393 -412.20048719906117 0 0 0 0 181.52105370106801 -249.11059198359544 0 -249.11059198359544 -70.366115873152012 0 0 0 0 147.65776460437337 -150.31345673254236 0 -150.31345673254236 -355.78962409825999 0 0 0 0 -6.7253734507728495 -91.050796636059147 0 -91.050796636059147 -89.372425881299932 0 0 0 0 59.443694248302563 -170.33945429901632 0 -170.33945429901632 -145.42923333476392 0 0 0 0 21.110945007361494 -1.3072998851167199 0 -1.3072998851167199 -57.234039467163228 0 0 0 0 39.341047096659167 -13.015455080373613 0 -13.015455080373613 -112.51400585258489 0 0 0 0 67.177965876013332 -7.5101966052807256 0 -7.5101966052807256 -147.5999437226692 0 0 0 0 20.086057597372175 0.60601039096136233 0 0.60601039096136233 -10.986774287660179 0 0 0 0 29.669668909769825 0.65227083150057297 0 0.65227083150057297 -44.584032045116146 0 0 0 0 104.10297673904279 -18.67979284570265 0 -18.67979284570265 -112.04275662163764 0 0 0 0 51.91434184235186 19.519275604953691 0 19.519275604953691 -60.782402721000608 0 0 0 0 63.715881137730321 15.594629442222185 0 15.594629442222185 -113.75785475964949 0 0 0 0 97.404492474226572 -49.328607750665469 0 -49.328607750665469 -89.953840599953764 0 0 0 0 4.4005894213255914 -8.8711589179233439 0 -8.8711589179233439 -25.496658110998851 0 0 0 0 12.608886209905904 -44.943594513699281 0 -44.943594513699281 -130.3975733304178 0 0 0 0 8.9529731920702034 -45.548444769503931 0 -45.548444769503931 -65.627986368122492 0 0 0 0 -7.0621539947715064 -40.427895191319294 0 -40.427895191319294 -112.10533455427321 0 0 0 0 32.857816564341192 -7.0857190786900901 0 -7.0857190786900901 -154.09507811152707 0 0 0 0 31.473812039021141 -0.87085688806928374 0 -0.87085688806928374 -122.11862224885954 0 0 0 0 0.86946656039978976 1.9063547205668385 0 1.9063547205668385 -0.77063087256005336 0 0 0 0 25.807448708889751 4.2738171925175266 0 4.2738171925175266 -59.395860595430349 0 0 0 0 54.61103051650025 294.1506215693571 0 294.1506215693571 -918.46449799035145 0 0 0 0 -59.234126255931187 126.37239762262834 0 126.37239762262834 72.241918875791271 0 0 0 0 -3.3505523214844288 205.47210342377002 0 205.47210342377002 -143.87894356262768 0 0 0 0 22.727342479547588 -38.812516749689166 0 -38.812516749689166 -207.10918113021762 0 0 0 0 58.267434843796821 39.694659873369829 0 39.694659873369829 -16.639205198374611 0 0 0 0 206.82068163016083 196.10794728201654 0 196.10794728201654 -570.46070854560912 0 0 0 0 127.58360673294101 8.4940756136311393 0 8.4940756136311393 -672.35171622356029 0 0 0 0 267.42809323991833 208.35233771930962 0 208.35233771930962 -1107.9013560602216 0 0 0 0 254.75085926165957 153.77512340506019 0 153.77512340506019 -991.88127507041281 0 0 0 0 297.41130480504967 23.935160676502846 0 23.935160676502846 -1172.6140910164977 0 0 0 0 132.3018207391433 241.33464193988402 0 241.33464193988402 -959.12734363882373 0 0 0 0 57.375563741898077 385.36501279859476 0 385.36501279859476 -1141.4896061732361 0 0 0 0 165.08064346361243 251.83886129672283 0 251.83886129672283 -1126.1108610856845 0 0 0 0 139.37600844548797 193.89023505638215 0 193.89023505638215 -1232.7319273553749 0 0 0 0 -94.249355324607677 544.13571594535279 0 544.13571594535279 -1233.2355738112001 0 0 0 0 167.17323760781164 239.50698971038764 0 239.50698971038764 -1551.0935672587202 0 0 0 0 -85.893683842605242 219.57318950166155 0 219.57318950166155 -1168.9757158482316 0 0 0 0 -313.32744004650522 561.69842920761221 0 561.69842920761221 -1210.5464688693974 0 0 0 0 -174.82137352120662 115.74550703847672 0 115.74550703847672 -839.31666635134025 0 0 0 0 -125.44840093335188 -249.59114455673262 0 -249.59114455673262 -342.00178252782644 0 0 0 0 -42.394296553992717 114.17275476448231 0 114.17275476448231 -851.10629272408551 0 0 0 0 296.03893364843861 -173.08135156720891 0 -173.08135156720891 -730.389390698032 0 0 0 0 213.72675787080516 299.29018313466077 0 299.29018313466077 -969.30810453596041 0 0 0 0 -21.249312941321932 318.03387585255314 0 318.03387585255314 -958.11972212034016 0 0 0 0 118.87126644247292 -297.97818113534413 0 -297.97818113534413 -115.76869969398467 0 0 0 0 -243.73355624585383 494.17942635616055 0 494.17942635616055 140.46465961385456 0 0 0 0 55.983361933974734 35.871430631635747 0 35.871430631635747 -23.12901860774506 0 0 0 0 -399.11867302126848 481.30499422880894 0 481.30499422880894 327.64384906649502 0 0 0 0 11.042955360441738 -594.32977586033576 0 -594.32977586033576 504.85286746065685 0 0 0 0 6.2591251333443818 12.992459878717646 0 12.992459878717646 11.313397572091674 0 0 0 0 215.16906412140634 -185.91014301723226 0 -185.91014301723226 441.39533731387019 0 0 0 0 135.57209085459817 61.43154174571464 0 61.43154174571464 88.132486115515349 0 0 0 0 14.087159601467647 71.535384985489145 0 71.535384985489145 112.33035905702457 0 0 0 0 -9.5365159415105154 102.54256377111324 0 102.54256377111324 45.964001753403863 0 0 0 0 -349.18056813973089 89.286601491297915 0 89.286601491297915 31.353947373074334 0 0 0 0 161.41745591556355 -5.4429639509598928 0 -5.4429639509598928 -343.33154585575721 0 0 0 0 10.190485938679558 165.69860303818132 0 165.69860303818132 -133.86477489290428 0 0 0 0 0.10247823767455344 0.5355926821856869 0 0.5355926821856869 -0.38732584921665986 0 0 0 0 112.17577383112439 -8.8697368488028587 0 -8.8697368488028587 -117.22347456895659 0 0 0 0 -220.69328573079815 116.65740158780079 0 116.65740158780079 -502.22122402214882 0 0 0 0 -30.929842882906087 363.86845201153847 0 363.86845201153847 -286.24381341376647 0 0 0 0 -271.04566005175229 -72.547336158496364 0 -72.547336158496364 -301.24154123721019 0 0 0 0 -212.8016507156226 238.54664724836039 0 238.54664724836039 -633.18847247461235 0 0 0 0 -286.35323762163898 228.78067388418276 0 228.78067388418276 -476.98731406157094 0 0 0 0 -249.04547850791641 113.15518234008778 0 113.15518234008778 -590.65387004404693 0 0 0 0 -191.80769775469889 124.93846378666058 0 124.93846378666058 -806.29223208564508 0 0 0 0 -193.20743082555236 240.47211016777146 0 240.47211016777146 -922.80470816638262 0 0 0 0 -183.32792582577167 325.40582069678931 0 325.40582069678931 -1150.121833022371 0 0 0 0 -249.04563325370873 382.21960946994295 0 382.21960946994295 -931.08614349100571 0 0 0 0 -195.28661188797923 357.25757030869863 0 357.25757030869863 -639.15610507828933 0 0 0 0 -9.654954024914332 223.3930097946577 0 223.3930097946577 -833.42404850297316 0 0 0 0 -99.734175598454385 355.52195338050296 0 355.52195338050296 -1023.4900490135988 0 0 0 0 -213.89287177141478 327.57073323841723 0 327.57073323841723 -847.82648673858785 0 0 0 0 -176.73544798692728 336.20178023208973 0 336.20178023208973 -1100.342890799322 0 0 0 0 -220.97746182472611 491.55992601144453 0 491.55992601144453 -1214.7141087546333 0 0 0 0 -232.38080729169599 360.6802073306776 0 360.6802073306776 -1013.9880823593994 0 0 0 0 -261.22856248861558 440.6047048666419 0 440.6047048666419 -1187.5125447558094 0 0 0 0 -129.67399549509537 456.00136942494282 0 456.00136942494282 -1195.6822646271394 0 0 0 0 -303.7481498202792 610.93369206294665 0 610.93369206294665 -1340.7065411824587 0 0 0 0 -336.54354323533698 456.82564453382656 0 456.82564453382656 -1219.4647925306854 0 0 0 0 -483.98977340291094 684.62288845891453 0 684.62288845891453 -1370.4322688876719 0 0 0 0 -412.13629485087222 540.93218763489858 0 540.93218763489858 -1384.0199439618464 0 0 0 0 -284.15297476178785 548.13846340002601 0 548.13846340002601 -1385.6220363483662 0 0 0 0 -232.11869335041229 611.77537847434724 0 611.77537847434724 -1318.295868891797 0 0 0 0 -333.82952220593324 929.20138099912583 0 929.20138099912583 -1891.1189809349735 0 0 0 0 -446.04425473025185 935.85487381889834 0 935.85487381889834 -1856.4528304453415 0 0 0 0 -602.35186036738742 728.02527686916437 0 728.02527686916437 -1401.4591322137203 0 0 0 0 -471.11004389971276 604.11952282961283 0 604.11952282961283 -1622.4577462576417 0 0 0 0 -301.7071106884614 651.23659626569861 0 651.23659626569861 -1505.4507135566491 0 0 0 0 -473.52962715758531 772.72580668881301 0 772.72580668881301 -1418.7114801710559 0 0 0 0 -354.04134452123071 552.54086515836116 0 552.54086515836116 -1215.9460421130862 0 0 0 0 -260.5187583261195 424.62349456432275 0 424.62349456432275 -1294.4591082013649 0 0 0 0 -299.38176913208463 456.33545534374753 0 456.33545534374753 -1024.4181592827808 0 0 0 0 -379.00363063159421 484.0960319506994 0 484.0960319506994 -1295.1229135224276 0 0 0 0 -259.35424517330466 510.15379728714652 0 510.15379728714652 -1703.4248420797121 0 0 0 0 1.9904758599471108 -0.49539449745923037 0 -0.49539449745923037 -3.3534319431716071 0 0 0 0 -268.31002910081918 1122.6986487455342 0 1122.6986487455342 -2316.8423502987025 0 0 0 0 247.74654849501167 -541.18987114760421 0 -541.18987114760421 267.43310766913601 0 0 0 0 9.946261837831976 -1.2538682064012256 0 -1.2538682064012256 -18.524499666278253 0 0 0 0 -786.55834451334431 428.7276978979553 0 428.7276978979553 -651.92119367302439 0 0 0 0 70.798823812150403 -372.83762117426772 0 -372.83762117426772 146.6377756752081 0 0 0 0 135.76086416093284 511.60944964059712 0 511.60944964059712 -786.61847749152366 0 0 0 0 2.9819554265152313 -11.556133661344871 0 -11.556133661344871 -42.232739209298273 0 0 0 0 -182.66478688427105 658.40675280873256 0 658.40675280873256 -594.77463176740548 0 0 0 0 -451.59461051893231 747.14869166120116 0 747.14869166120116 -1328.8310886137624 0 0 0 0 -245.28806083853851 663.24404433974269 0 663.24404433974269 -1304.4543519291528 0 0 0 0 -845.80185815267396 1223.8770224319887 0 1223.8770224319887 -1895.1094117291505 0 0 0 0 4.4498945623949009 1.9723106134368944 0 1.9723106134368944 -4.2187729264765181 0 0 0 0 387.10979211163067 125.11049801555873 0 125.11049801555873 -1307.0099523553672 0 0 0 0 711.97775820955576 161.43971569643236 0 161.43971569643236 -1312.5812519697224 0 0 0 0 349.46014249875134 419.72188272796666 0 419.72188272796666 -1222.5685619662763 0 0 0 0 460.18304559599369 307.3985742742575 0 307.3985742742575 -1137.2314667459977 0 0 0 0 575.97619514552207 400.16500590805572 0 400.16500590805572 -1376.4348349667544 0 0 0 0 -313.31226537999373 1715.8459830260726 0 1715.8459830260726 -2068.2959419023709 0 0 0 0 7.1326168348668162 2.1747390247399707 0 2.1747390247399707 -4.512507259768185 0 0 0 0 1331.658568185489 490.4169654620764 0 490.4169654620764 -2461.430602662389 0 0 0 0 69.99397449112098 799.66394627619957 0 799.66394627619957 -1897.6321238162536 0 0 0 0 1194.3512425990014 -289.58511969931249 0 -289.58511969931249 -1226.7131868335364 0 0 0 0 1251.6942780902114 507.98118769189114 0 507.98118769189114 -3057.7788248267498 0 0 0 0 772.09623621866308 1004.4137015033739 0 1004.4137015033739 -3499.8193658830023 0 0 0 0 1193.6813551614066 595.90573566796866 0 595.90573566796866 -2432.548690992744 0 0 0 0 -64.921277704892361 115.6395130648641 0 115.6395130648641 -959.65868303074967 0 0 0 0 -316.14115136402143 440.17376657452223 0 440.17376657452223 -959.45695767169309 0 0 0 0 -583.37661875707988 293.27162049401159 0 293.27162049401159 -714.08622251877023 0 0 0 0 -518.69338848599045 1086.4716390768481 0 1086.4716390768481 -1590.5368055475326 0 0 0 0 13.031747176721804 3.6129653325602682 0 3.6129653325602682 -8.9550244715533367 0 0 0 0 -46.827402780985039 1090.5486549344378 0 1090.5486549344378 -2545.7893713983813 0 0 0 0 85.658283385213281 295.20355602634845 0 295.20355602634845 -1512.7057879455515 0 0 0 0 -252.42260791813391 1183.0680368912572 0 1183.0680368912572 -2564.836816824798 0 0 0 0 -898.75569115675853 1960.697789279754 0 1960.697789279754 -3498.164260064299 0 0 0 0 6.431899586644219 2.6616784720678979 0 2.6616784720678979 -8.9643960274393351 0 0 0 0 -567.91373511153176 878.41303683314436 0 878.41303683314436 -1505.023575830468 0 0 0 0 -0.013723881820787889 -2.0674515941259841 0 -2.0674515941259841 -18.219364661479275 0 0 0 0 -566.86398525512516 2492.4075217747559 0 2492.4075217747559 -3475.6811240080569 0 0 0 0 -903.30721510709213 764.94372584648954 0 764.94372584648954 -914.79842980502508 0 0 0 0 322.60176769299756 -379.21199675494245 0 -379.21199675494245 -262.60030851027295 0 0 0 0 -76.606169087866931 206.42719954063068 0 206.42719954063068 199.18246368679684 0 0 0 0 7.3378918555647648 11.294301493083758 0 11.294301493083758 9.1740772911753865 0 0 0 0 -97.772085010711891 177.48510390603587 0 177.48510390603587 167.62812771783319 0 0 0 0 281.76250919515883 543.2931557597185 0 543.2931557597185 -261.31550648795746 0 0 0 0 788.19227011049384 212.74781315390101 0 212.74781315390101 -3491.3539284728795 0 0 0 0 324.73881723844471 -539.11471320919372 0 -539.11471320919372 -1855.5159299753068 0 0 0 0 513.22037951120001 643.0116655808597 0 643.0116655808597 1399.6543521992426 0 0 0 0 -648.95950782848024 1048.0542527574726 0 1048.0542527574726 -1332.7796109581104 0 0 0 0 -1707.1958721273361 347.49014266575978 0 347.49014266575978 2141.3819452249954 0 0 0 0 221.77601247771338 -189.29891696546065 0 -189.29891696546065 -1538.9015759333488 0 0 0 0 -303.47864967987698 167.0189625111816 0 167.0189625111816 1569.5729934890496 0 0 0 0 -560.8517443210327 1556.5377953270231 0 1556.5377953270231 -4116.269845497307 0 0 0 0 -187.11125885183134 384.85500915473676 0 384.85500915473676 -3504.3405807660747 0 0 0 0 -10.030344272001351 4.5049017074583517 0 4.5049017074583517 -0.43238457902782912 0 0 0 0 -539.51204383369077 559.26699652762181 0 559.26699652762181 1395.2425424138071 0 0 0 0 19.494745463340223 124.04013150454921 0 124.04013150454921 758.80025309583289 0 0 0 0 140.3480449678791 -257.93657255688595 0 -257.93657255688595 1017.4471197284402 0 0 0 0 182.11979995668116 216.82193102573001 0 216.82193102573001 -454.40532963044825 0 0 0 0 146.83136014759293 351.17199055220044 0 351.17199055220044 189.20037500148464 0 0 0 0 -75.621784557089995 398.42841167206279 0 398.42841167206279 -10.255161721332115 0 0 0 0 -147.64068989897169 349.52260284340446 0 349.52260284340446 8.3758130376945701 0 0 0 0 -341.79160339398504 588.95809785972597 0 588.95809785972597 -1053.9230092842847 0 0 0 0 3.324546097565126 2.6949318616006863 0 2.6949318616006863 0.86573262532608197 0 0 0 0 -511.01853652161799 1151.6100364959202 0 1151.6100364959202 -1012.9927265515216 0 0 0 0 -777.04860550439696 1173.9500453876826 0 1173.9500453876826 -174.75070613373828 0 0 0 0 -147.60843377825404 281.98849092513046 0 281.98849092513046 -570.59500901332012 0 0 0 0 -371.38004783688359 235.94892662860184 0 235.94892662860184 -637.20615729762176 0 0 0 0 -31.707188487477936 141.01717331016516 0 141.01717331016516 -800.04794931218203 0 0 0 0 -94.575982682736083 125.11914463478206 0 125.11914463478206 -609.4051972020352 0 0 0 0 -71.526280379839136 49.014192307224221 0 49.014192307224221 -386.40994660824072 0 0 0 0 -3.5150089585524711 -15.378384608582564 0 -15.378384608582564 -565.3893246573798 0 0 0 0 -41.967947693332007 167.94905071791072 0 167.94905071791072 -474.47172605623928 0 0 0 0 -213.42423171811458 259.79334831551387 0 259.79334831551387 -678.62617451428082 0 0 0 0 24.618601307101244 129.71236827306711 0 129.71236827306711 -695.02865673684892 0 0 0 0 -127.89334172706475 174.40652430438149 0 174.40652430438149 -450.00678856531522 0 0 0 0 -30.083337294826379 270.64850434485015 0 270.64850434485015 -795.46566735357919 0 0 0 0 -80.071074342811698 191.25936000363436 0 191.25936000363436 -841.98746486848995 0 0 0 0 -173.38277035107603 387.98808508916045 0 387.98808508916045 -905.93136522500754 0 0 0 0 -104.85792085929643 449.96685246813831 0 449.96685246813831 -1097.2149959379349 0 0 0 0 -174.56901617322001 463.70084262182718 0 463.70084262182718 -1071.6269419723685 0 0 0 0 -116.04760645802526 249.31594248781767 0 249.31594248781767 -796.0550371671161 0 0 0 0 -283.19174786367785 781.20108184162018 0 781.20108184162018 -1263.31492800661 0 0 0 0 14.62654575777505 19.629987082741337 0 19.629987082741337 9.5445635042292594 0 0 0 0 197.93224212738355 2.8396109217228513 0 2.8396109217228513 -176.46969165424525 0 0 0 0 -253.99714192417241 490.67051133507812 0 490.67051133507812 -936.84808458115003 0 0 0 0 -146.16514039548474 494.35200841225196 0 494.35200841225196 -1064.6683597341653 0 0 0 0 -323.23895234185329 672.18398862117829 0 672.18398862117829 -1199.7336241238154 0 0 0 0 -511.36107272918434 657.09222481493816 0 657.09222481493816 -1008.0028954290246 0 0 0 0 -294.93491943744539 633.34127689096567 0 633.34127689096567 -1132.0086294817738 0 0 0 0 -471.50791629677019 563.14906322072193 0 563.14906322072193 -877.19539453813195 0 0 0 0 -113.06207172328413 259.47395986493575 0 259.47395986493575 -848.48542613393874 0 0 0 0 -8.0850954648549305 20.09704958259681 0 20.09704958259681 -65.44207746849861 0 0 0 0 -14.900904293279869 8.0347424647807202 0 8.0347424647807202 -13.849172709720342 0 0 0 0 -32.719382455712321 151.99841055072829 0 151.99841055072829 230.01019841970992 0 0 0 0 140.80053761029723 334.90667177734758 0 334.90667177734758 -335.87869390507694 0 0 0 0 177.16904133423191 -1046.5767414554139 0 -1046.5767414554139 -3494.68207208081 0 0 0 0 -286.79172806235891 -472.48278456437947 0 -472.48278456437947 -782.86200015498616 0 0 0 0 -64.054046374457258 -798.89831191206576 0 -798.89831191206576 -1324.5050951521553 0 0 0 0 -2.6837786831197792 -2.9339928366392769 0 -2.9339928366392769 -3.1986568013249617 0 0 0 0 -65.409217225094039 -40.724342707531832 0 -40.724342707531832 47.737736691946338 0 0 0 0 109.94120268500269 -467.63673213551374 0 -467.63673213551374 -3974.1562133575571 0 0 0 0 28.994676601613264 44.837073331344072 0 44.837073331344072 -245.74467934819404 0 0 0 0 22.800841770175737 27.719986342762695 0 27.719986342762695 -90.423016806322266 0 0 0 0 24.381886870647413 251.08401273460186 0 251.08401273460186 -3501.1714694955226 0 0 0 0 -8.4066465638700087 -3.7851469496609695 0 -3.7851469496609695 -15.622829709883414 0 0 0 0 -13.951459942097152 33.12356940408786 0 33.12356940408786 -66.953439629908615 0 0 0 0 -18.152134330073984 37.257261011237574 0 37.257261011237574 -14.445517408637038 0 0 0 0 -33.164829237521417 111.6585357760523 0 111.6585357760523 -1.7682618871622253 0 0 0 0 -1.865686685506148 8.1061771081830827 0 8.1061771081830827 -9.0855180244668858 0 0 0 0 385.58053341197956 -1725.3055482165328 0 -1725.3055482165328 1992.4461990089858 0 0 0 0 -180.01948850359258 767.37330219246905 0 767.37330219246905 -1076.9847692540789 0 0 0 0 -6.9723015050112735 576.51948271238507 0 576.51948271238507 -605.22137993678916 0 0 0 0 178.55604164291299 349.18039297431005 0 349.18039297431005 -326.81124118059233 0 0 0 0 268.17341339183622 75.820815725232933 0 75.820815725232933 -782.37822430333472 0 0 0 0 197.29283204303101 58.743784611870069 0 58.743784611870069 -29.003832571186649 0 0 0 0 -136.58742398636909 -594.4098572703806 0 -594.4098572703806 -3174.687225395488 0 0 0 0 -302.81132854280713 937.0828780700358 0 937.0828780700358 -3161.1261075327129 0 0 0 0 152.95231082698047 -240.20110837789798 0 -240.20110837789798 -83.414339760249277 0 0 0 0 -25.761853346154965 -2.0266004238349424 0 -2.0266004238349424 2.6921520069676319 0 0 0 0 108.59414158793152 -53.295168648310209 0 -53.295168648310209 -32.938692896575958 0 0 0 0 48.85963135125894 -306.44502462024684 0 -306.44502462024684 438.34396891130746 0 0 0 0 71.770250167563063 54.044579175111721 0 54.044579175111721 579.54528167749231 0 0 0 0 -27.31607428313443 16.5198390181734 0 16.5198390181734 -8.4093407474457305 0 0 0 0 -79.173756663494714 -127.14586840258562 0 -127.14586840258562 710.72721701716 0 0 0 0 -186.97854334760456 383.79366652583121 0 383.79366652583121 -3495.8564039818775 0 0 0 0 332.2940352539772 -74.292760860216731 0 -74.292760860216731 630.76583422794647 0 0 0 0 232.88814095405041 162.87328340599925 0 162.87328340599925 263.98100017851539 0 0 0 0 268.03420330613881 199.8964484712742 0 199.8964484712742 -113.22042766476443 0 0 0 0 234.10949058050028 126.45513939044031 0 126.45513939044031 -266.7997823966507 0 0 0 0 153.78520830754678 168.20883700044578 0 168.20883700044578 263.65333564415596 0 0 0 0 176.72436999115416 344.66735641282139 0 344.66735641282139 -299.14703115949942 0 0 0 0 112.30849451243375 251.9812900597899 0 251.9812900597899 -129.34690951631819 0 0 0 0 238.49497665241597 311.44651136275479 0 311.44651136275479 -325.84438795774622 0 0 0 0 40.589701998781493 216.38782060998346 0 216.38782060998346 -324.87365235648758 0 0 0 0 107.10493485503321 -12.626027687274473 0 -12.626027687274473 -485.51613675680528 0 0 0 0 82.873565737126228 204.56200212713429 0 204.56200212713429 -384.2836315114946 0 0 0 0 85.72626422241774 -72.377001795386604 0 -72.377001795386604 -443.39437671509586 0 0 0 0 83.772960509808399 -0.88158550099251443 0 -0.88158550099251443 -413.87628075070461 0 0 0 0 71.871350939025433 -42.884027423137013 0 -42.884027423137013 -182.88851681607775 0 0 0 0 40.596469781976339 -126.44714325353198 0 -126.44714325353198 -337.0620485654581 0 0 0 0 78.212348776944509 -1.3908826784277153 0 -1.3908826784277153 -250.51678534231178 0 0 0 0 -510.62665065081092 -4.5246700101561146 0 -4.5246700101561146 -93.19759830312978 0 0 0 0 255.65833128525628 91.919903928173881 0 91.919903928173881 -183.52121748265563 0 0 0 0 73.514475055783777 121.16504836544397 0 121.16504836544397 -33.595538309353287 0 0 0 0 425.87316093808295 -4.153579301382706 0 -4.153579301382706 -80.039365459037072 0 0 0 0 -200.53702936647733 490.90627317185954 0 490.90627317185954 -194.17450924546574 0 0 0 0 -0.9363193826275058 2.2366263024589301 0 2.2366263024589301 -11.064893706078436 0 0 0 0 78.442445287761984 109.34014417915205 0 109.34014417915205 134.5941711324158 0 0 0 0 13.92336299305498 233.5098618779266 0 233.5098618779266 -93.949309020211331 0 0 0 0 -158.52444952000769 429.55424229665005 0 429.55424229665005 -105.02040172959823 0 0 0 0 -452.50056077365662 -849.03145638166825 0 -849.03145638166825 1599.4767045693297 0 0 0 0 8.9900760485443243 -2.1264145399654808 0 -2.1264145399654808 28.67334222554382 0 0 0 0 62.020932800702212 589.35936618665983 0 589.35936618665983 -334.15639618214482 0 0 0 0 -446.74821985715607 50.769736258829653 0 50.769736258829653 556.70554790969982 0 0 0 0 -6.849404823671831 8.4875323127479128 0 8.4875323127479128 -3.1968192413279866 0 0 0 0 703.06862668934809 363.77670615747957 0 363.77670615747957 -213.74531175200173 0 0 0 0 -114.68195559788001 -224.61493255146343 0 -224.61493255146343 -174.97462231255486 0 0 0 0 3.2545547810958544 4.5535701441113341 0 4.5535701441113341 -37.288715769429785 0 0 0 0 121.15161170818146 588.24160655226433 0 588.24160655226433 64.000871465490491 0 0 0 0 55.32236274686602 -59.506642007183473 0 -59.506642007183473 -31.179295603084029 0 0 0 0 130.47851186978005 -362.72260483432547 0 -362.72260483432547 -168.77144718215732 0 0 0 0 2.3886149957268596 -0.85020075848261634 0 -0.85020075848261634 -6.5405537001234961 0 0 0 0 -18.96938255474015 46.005003009893699 0 46.005003009893699 -123.78569532558322 0 0 0 0 -223.86265049257509 -298.84379786332102 0 -298.84379786332102 382.30282940748293 0 0 0 0 0.51285085561073984 13.5296813231874 0 13.5296813231874 -61.23304329667792 0 0 0 0 246.6548982721522 300.18112177533658 0 300.18112177533658 -621.78301629151247 0 0 0 0 240.22401309625798 -107.18787343282384 0 -107.18787343282384 -326.76949010449607 0 0 0 0 -26.400743036723725 136.61468852623511 0 136.61468852623511 -499.52602390621178 0 0 0 0 -5.7417790454204578 2.5604417548001948 0 2.5604417548001948 -45.153731167971273 0 0 0 0 -0.6402193651066721 18.771702489771126 0 18.771702489771126 -61.833518264815069 0 0 0 0 35.250690658983103 211.18113300863979 0 211.18113300863979 -52.753872108434734 0 0 0 0 -3.4210068598963517 10.98292402750667 0 10.98292402750667 -56.145814963092562 0 0 0 0 11.873067587730743 5.9507190193709221 0 5.9507190193709221 -30.202568342202341 0 0 0 0 37.78390697841769 -75.374453922875546 0 -75.374453922875546 -18.113969936666763 0 0 0 0 17.093585897291774 12.691798799371099 0 12.691798799371099 -60.745054831724701 0 0 0 0 39.08816621951064 -74.937795833095151 0 -74.937795833095151 -18.385676355355827 0 0 0 0 -4.4018823573615009 -118.91503732422643 0 -118.91503732422643 111.78553064395965 0 0 0 0 -80.827679793565039 -41.957038859072782 0 -41.957038859072782 51.438600081426557 0 0 0 0 -147.080207589662 -13.975026957806222 0 -13.975026957806222 110.73394451817148 0 0 0 0 -236.14491642993471 186.04957136215489 0 186.04957136215489 -80.506431564965169 0 0 0 0 -32.053909480947368 17.496325568983593 0 17.496325568983593 46.259698095615022 0 0 0 0 -2.4726282523163583 11.590959517009036 0 11.590959517009036 -27.710730797515197 0 0 0 0 8.7081376173548186 5.0663499466430224 0 5.0663499466430224 -29.697151993875977 0 0 0 0 757.70820144696518 -172.86777233341491 0 -172.86777233341491 -298.02069187487723 0 0 0 0 -85.714609079133879 142.57487074002165 0 142.57487074002165 -101.17116561720468 0 0 0 0 23.225542015255996 13.627060598322714 0 13.627060598322714 -16.795183989488578 0 0 0 0 381.69197773810083 -457.94420939402698 0 -457.94420939402698 -45.24516257414507 0 0 0 0 44.168497412607394 131.087505083 0 131.087505083 405.48453249970044 0 0 0 0 319.69866936527251 -20.400014848864885 0 -20.400014848864885 23.787614994515025 0 0 0 0 31.405862699901263 19.082040859710105 0 19.082040859710105 -81.018058617541101 0 0 0 0 3.0391327323776576 5.9371533980949307 0 5.9371533980949307 -45.219431994069993 0 0 0 0 77.305764568218365 -58.187969366462312 0 -58.187969366462312 59.508439611698122 0 0 0 0 114.44266891979078 -54.033154290155835 0 -54.033154290155835 -16.854353218252072 0 0 0 0 7.7721757169169905 4.9233560796419624 0 4.9233560796419624 -18.703994091694767 0 0 0 0 1.2484693009651373 5.461544296362753 0 5.461544296362753 -6.3520126621085069 0 0 0 0 81.1386261302614 -82.407647968539095 0 -82.407647968539095 29.545041645051242 0 0 0 0 58.61700139327877 -52.042948319071002 0 -52.042948319071002 11.538859478376253 0 0 0 0 80.780388073821996 -87.856195715150534 0 -87.856195715150534 46.165173373108701 0 0 0 0 95.171076767108389 -74.938864897076201 0 -74.938864897076201 22.963411013071891 0 0 0 0 -69.876990552857023 -337.77239751004345 0 -337.77239751004345 -62.025175204660627 0 0 0 0 -77.424982620545734 -54.722998413539045 0 -54.722998413539045 42.418700916565285 0 0 0 0 382.97812571539453 -396.38513748145436 0 -396.38513748145436 -603.3377107938868 0 0 0 0 41.831638587214911 -154.54161850456148 0 -154.54161850456148 -531.3041232599353 0 0 0 0 -76.845253353701992 470.1188443310275 0 470.1188443310275 -317.45467249953072 0 0 0 0 50.210554985664203 58.936998394108741 0 58.936998394108741 -494.98583614065683 0 0 0 0 27.648596436163643 70.137891770507849 0 70.137891770507849 -303.45272709224082 0 0 0 0 82.329210555821192 -49.184597258106805 0 -49.184597258106805 -436.75370886826204 0 0 0 0 -0.3599930986794817 -3.7921633377563282 0 -3.7921633377563282 -3.1361256497798138 0 0 0 0 26.463690707824071 65.714660196143996 0 65.714660196143996 -178.42475372747867 0 0 0 0 83.270874217817891 -69.406035576306749 0 -69.406035576306749 -247.64851981576066 0 0 0 0 91.087876687946846 -99.980561217233117 0 -99.980561217233117 -334.20810508179056 0 0 0 0 19.303364671965028 -18.73144420963763 0 -18.73144420963763 13.486976124851935 0 0 0 0 -3.728178374219711 -7.9115104286511091 0 -7.9115104286511091 -2.1089501285010215 0 0 0 0 -15.678061802739649 -58.60333331333004 0 -58.60333331333004 0.7776764372638354 0 0 0 0 88.441540571055157 -34.285918954838053 0 -34.285918954838053 -1.9242935403235606 0 0 0 0 13.093623601709623 4.9957246263202251 0 4.9957246263202251 -23.015340588692197 0 0 0 0 6.332722616798673 -3.9363951241939716 0 -3.9363951241939716 -11.985593374510188 0 0 0 0 2.9876581384487224 -7.0847369665220015 0 -7.0847369665220015 -1.0897848585930934 0 0 0 0 65.832247307211219 -118.40641282378783 0 -118.40641282378783 58.10758374838133 0 0 0 0 12.301403268361286 -21.715058095846508 0 -21.715058095846508 -2.3625290254999598 0 0 0 0 62.973344735159117 -68.910494476043823 0 -68.910494476043823 -49.349361609358311 0 0 0 0 52.354216325218978 -26.039870643221384 0 -26.039870643221384 -1.8978824821964011 0 0 0 0 39.170725519585176 -12.440481427514896 0 -12.440481427514896 -46.406527332736005 0 0 0 0 50.504264370465535 -26.738889975713391 0 -26.738889975713391 -84.402343676036253 0 0 0 0 33.190419680044215 -25.217731554750571 0 -25.217731554750571 -67.06133826802261 0 0 0 0 78.020067482699233 -37.703996114956681 0 -37.703996114956681 -115.03171931210636 0 0 0 0 10.257798481297936 -16.917090224520887 0 -16.917090224520887 -68.873730480586943 0 0 0 0 48.716504321505738 -19.934469219151651 0 -19.934469219151651 -83.601255548379413 0 0 0 0 41.446304249464987 -18.321829463571635 0 -18.321829463571635 -7.144615438857695 0 0 0 0 34.57213624502856 -22.822393809350615 0 -22.822393809350615 -79.853659027652611 0 0 0 0 22.231473698791888 -18.105859247597436 0 -18.105859247597436 -63.196554958973138 0 0 0 0 62.661767967576452 -27.749176983052166 0 -27.749176983052166 -61.40530675201444 0 0 0 0 37.374680338387407 -5.8638645879891556 0 -5.8638645879891556 -42.010059413798444 0 0 0 0 81.306912295874326 6.5720133963166063 0 6.5720133963166063 -62.510310335950635 0 0 0 0 45.401296590927814 -22.942338688993914 0 -22.942338688993914 28.567515234441089 0 0 0 0 72.328902349911004 -83.919096330857428 0 -83.919096330857428 36.455659712439228 0 0 0 0 67.298767310514904 -0.29691525136718155 0 -0.29691525136718155 -67.685040095224394 0 0 0 0 76.737070718123505 -54.664389000050505 0 -54.664389000050505 -15.916722175745235 0 0 0 0 12.59059708015676 -4.7869679741571112 0 -4.7869679741571112 -35.764181091669926 0 0 0 0 20.019450101582379 -13.656174707188256 0 -13.656174707188256 -17.327410217127181 0 0 0 0 10.095898688577416 2.683181888174957 0 2.683181888174957 -30.159665089055352 0 0 0 0 11.291390448532681 -15.56791173945059 0 -15.56791173945059 -18.392715780519353 0 0 0 0 37.524249772330222 -14.911014832936416 0 -14.911014832936416 -69.623123039717029 0 0 0 0 13.201960096070252 18.919792943983339 0 18.919792943983339 -49.505148772384928 0 0 0 0 32.311232386155098 4.8204828958814687 0 4.8204828958814687 -86.713938735083502 0 0 0 0 5.1692738470192126 0.1017297852813499 0 0.1017297852813499 -14.713824784426834 0 0 0 0 18.137096317752487 -8.501334412710321 0 -8.501334412710321 -22.24815554692217 0 0 0 0 14.054321122075939 -14.512445798857939 0 -14.512445798857939 -12.59238155810921 0 0 0 0 14.216613089782232 9.9561499775959632 0 9.9561499775959632 -34.120582668459278 0 0 0 0 34.595259711228209 -27.897355564957252 0 -27.897355564957252 -66.682103127488517 0 0 0 0 24.11960624121275 -28.113712337071775 0 -28.113712337071775 -60.37177808576962 0 0 0 0 10.384797221900953 -45.898708547087153 0 -45.898708547087153 -83.006471616216004 0 0 0 0 20.208875406320431 -9.5971312583169492 0 -9.5971312583169492 -34.006246139626455 0 0 0 0 15.823839431832692 -6.5600189648759617 0 -6.5600189648759617 -33.921313050772795 0 0 0 0 14.691803534081544 -3.9726717729299708 0 -3.9726717729299708 -39.322544476934127 0 0 0 0 18.352616914855005 -13.6067952825289 0 -13.6067952825289 -20.677395196106261 0 0 0 0 13.592332880796221 -13.789574465354235 0 -13.789574465354235 -52.378782364721701 0 0 0 0 13.766857672602782 -3.7902473475842271 0 -3.7902473475842271 -40.922004047981318 0 0 0 0 12.607144173857748 2.1513783217146312 0 2.1513783217146312 -5.4137694332702253 0 0 0 0 -4.847762850386971 -34.028003807190544 0 -34.028003807190544 59.538824833973194 0 0 0 0 6.0498952096595531 -103.80809908870651 0 -103.80809908870651 43.498464620417508 0 0 0 0 2.36595409810809 -3.3804097088985792 0 -3.3804097088985792 -1.4335653320955259 0 0 0 0 73.499172178673689 -1.7058978528184525 0 -1.7058978528184525 -83.168234941433184 0 0 0 0 25.747632113942018 -44.284189613215858 0 -44.284189613215858 -46.35442070481804 0 0 0 0 28.292516276953393 -24.785144280816894 0 -24.785144280816894 -29.01914060569834 0 0 0 0 29.025802282747463 -23.246395290712826 0 -23.246395290712826 -59.431381809044979 0 0 0 0 19.361015941352889 -14.274411456151938 0 -14.274411456151938 -43.943457551187748 0 0 0 0 10.287548274216533 -11.749977144689183 0 -11.749977144689183 -37.006885535432957 0 0 0 0 9.1500558953796425 -6.169589848778287 0 -6.169589848778287 -19.280593861452545 0 0 0 0 14.719581510736646 -0.41771302835240931 0 -0.41771302835240931 -40.461323178573366 0 0 0 0 4.5036499333322748 -1.586718440714467 0 -1.586718440714467 -6.2566304741251031 0 0 0 0 115.45034139650033 23.932482706917654 0 23.932482706917654 -144.05039250199388 0 0 0 0 -168.35800244308848 -185.5333621447262 0 -185.5333621447262 71.691827461858338 0 0 0 0 -0.76519761522637086 -1.6204007491341379 0 -1.6204007491341379 -0.084037162050657699 0 0 0 0 112.10382957748706 -66.831782649016532 0 -66.831782649016532 -239.0990473169386 0 0 0 0 -109.90782282105283 -107.66510462213319 0 -107.66510462213319 5.8579652384250949 0 0 0 0 74.816596580555711 -219.3668235028008 0 -219.3668235028008 -161.45843309889824 0 0 0 0 347.27046994666307 78.382452421295966 0 78.382452421295966 -524.24154593546336 0 0 0 0 -120.00569277774866 172.03813756249747 0 172.03813756249747 -512.67334576283611 0 0 0 0 9.8207576491986401 268.45535808689601 0 268.45535808689601 -779.42134540301777 0 0 0 0 -100.8099802205993 147.99587618282749 0 147.99587618282749 -312.01478084679547 0 0 0 0 -7.1656440911533252 26.508261122905537 0 26.508261122905537 -510.26612255153304 0 0 0 0 -199.08017719457865 0.52594057396163407 0 0.52594057396163407 162.60356770951512 0 0 0 0 -25.018729413063852 57.967300437951963 0 57.967300437951963 -453.66331386471211 0 0 0 0 -72.960547032705449 139.09422726001321 0 139.09422726001321 -123.28586814833147 0 0 0 0 -76.005377745221551 176.72203073905075 0 176.72203073905075 -119.56194770572984 0 0 0 0 46.942415029820665 114.60181957273744 0 114.60181957273744 -470.78500228597841 0 0 0 0 86.577323498771193 85.405970885058196 0 85.405970885058196 -485.47478277819027 0 0 0 0 78.134295747971009 263.09670477834032 0 263.09670477834032 -166.58848218854109 0 0 0 0 -69.89797441380972 79.162427167744681 0 79.162427167744681 290.25806641049712 0 0 0 0 11.269101844851775 -91.665393694783234 0 -91.665393694783234 10.490619721600524 0 0 0 0 6.8380703905700102 -137.65269087965135 0 -137.65269087965135 -184.46843209668441 0 0 0 0 1.6960640638403852 -0.25493771318984315 0 -0.25493771318984315 -4.7333736702132327 0 0 0 0 12.61795978895239 2.4335387589264883 0 2.4335387589264883 4.1325912173961115 0 0 0 0 10.854235826270269 -12.571750878811145 0 -12.571750878811145 11.586755521006125 0 0 0 0 73.449843942428913 -19.577818543658168 0 -19.577818543658168 -13.095274584546132 0 0 0 0 48.284503784497247 18.135284221656548 0 18.135284221656548 -8.4838334489629688 0 0 0 0 44.422468396053773 -16.835302928014926 0 -16.835302928014926 -6.7348862628841744 0 0 0 0 52.464770964832951 -5.9052701306495692 0 -5.9052701306495692 -18.616716168424318 0 0 0 0 20.972810651910549 -1.0274923667784606 0 -1.0274923667784606 -32.165124265276972 0 0 0 0 29.87832524456967 -9.894836377141587 0 -9.894836377141587 -6.5792848907495083 0 0 0 0 27.901488194281495 -1.0494704330718321 0 -1.0494704330718321 -5.3580710989653397 0 0 0 0 17.259537105456452 -11.68292480999478 0 -11.68292480999478 -8.4444075610664822 0 0 0 0 26.315576859331486 -18.760569449570539 0 -18.760569449570539 9.8166362206138729 0 0 0 0 10.856720465462026 -7.4252019008387933 0 -7.4252019008387933 -8.3248845720510189 0 0 0 0 20.967442762101001 -31.413188175063965 0 -31.413188175063965 0.89852726416575024 0 0 0 0 30.992050984351408 -3.632040275797408 0 -3.632040275797408 1.7292209396191538 0 0 0 0 25.066889598763566 -12.709883795581845 0 -12.709883795581845 -15.620893569197506 0 0 0 0 34.060106825021847 -21.570629006476278 0 -21.570629006476278 -6.9489928075424814 0 0 0 0 25.674959329084572 -15.426125898167811 0 -15.426125898167811 -12.193553548935597 0 0 0 0 31.577842543957502 -14.329051342449596 0 -14.329051342449596 -7.4543052683551156 0 0 0 0 72.104073556763979 -48.005573850698056 0 -48.005573850698056 -22.062074903796201 0 0 0 0 39.73878336359121 -1.6623236043633369 0 -1.6623236043633369 -93.958493219055526 0 0 0 0 9.2226384823121546 -13.803893653871711 0 -13.803893653871711 -20.666887486391431 0 0 0 0 50.430610360424907 25.629753221010105 0 25.629753221010105 -10.796402958889303 0 0 0 0 39.332685832612697 -55.707377719166288 0 -55.707377719166288 19.189732838963664 0 0 0 0 3.888736188300129 -5.5019492582456291 0 -5.5019492582456291 -2.6523325924906516 0 0 0 0 14.078986496388097 21.892815801426877 0 21.892815801426877 -38.341502811867031 0 0 0 0 95.690942486277891 -13.062310745156537 0 -13.062310745156537 -44.680545736515342 0 0 0 0 24.589229286308267 -5.8084567506058455 0 -5.8084567506058455 -2.4808154000839195 0 0 0 0 23.545643403406 -3.4344732407348637 0 -3.4344732407348637 -4.1510818106690497 0 0 0 0 17.439260250384905 -4.2678224922492518 0 -4.2678224922492518 -12.816886383508972 0 0 0 0 21.23161414723517 -17.065619710180179 0 -17.065619710180179 -13.455470073599777 0 0 0 0 -27.696530940453158 53.253035081293092 0 53.253035081293092 153.28067608423589 0 0 0 0 17.468164862156826 2.6638265586401424 0 2.6638265586401424 -4.57366344342155 0 0 0 0 26.485381996906654 -6.6110739152691167 0 -6.6110739152691167 -50.696496275107165 0 0 0 0 16.507680484257435 -7.2649143960113634 0 -7.2649143960113634 -43.462696640408467 0 0 0 0 -3.81573105208372 -65.836900100550338 0 -65.836900100550338 -72.877573086961092 0 0 0 0 16.697245741760522 -17.756652412010101 0 -17.756652412010101 -22.320286669601401 0 0 0 0 5.5974729902994902 -4.3374602582923547 0 -4.3374602582923547 2.5842492882361441 0 0 0 0 17.27135045223713 -120.26635452121309 0 -120.26635452121309 -102.59148941330932 0 0 0 0 -46.54078984283251 125.30438593956251 0 125.30438593956251 -69.175339630448434 0 0 0 0 166.78901702613803 109.31256913894913 0 109.31256913894913 -150.38599667391281 0 0 0 0 12.494600975788082 -1.5185932544895877 0 -1.5185932544895877 -79.06013443865649 0 0 0 0 61.059731784618634 -16.988052462507767 0 -16.988052462507767 -318.64231380862111 0 0 0 0 -0.49640925070343656 62.62715257075979 0 62.62715257075979 -151.17115454031136 0 0 0 0 2.8461385987320682 -62.302483323135675 0 -62.302483323135675 -208.12986630789965 0 0 0 0 40.342993802196361 -19.684815048847668 0 -19.684815048847668 -254.79679278023104 0 0 0 0 -0.96745601461257991 -0.60000963292841902 0 -0.60000963292841902 -1.5821627922591617 0 0 0 0 23.624211971387922 -147.68546668563249 0 -147.68546668563249 12.884237643133929 0 0 0 0 -17.82100510564851 50.502243673709017 0 50.502243673709017 -294.29362518728522 0 0 0 0 -0.45215209966390191 -1.6562678082839444 0 -1.6562678082839444 -9.1773394655874156 0 0 0 0 156.86192080967521 -156.95996837952771 0 -156.95996837952771 -208.84971519838837 0 0 0 0 -11.053547353529893 2.6073628984291872 0 2.6073628984291872 0.12647581058081414 0 0 0 0 55.621666726779949 -25.035688601868969 0 -25.035688601868969 -116.63292176444884 0 0 0 0 -156.50449547109656 350.65374798043558 0 350.65374798043558 -307.04342439756147 0 0 0 0 59.054417254643795 -34.662682021625187 0 -34.662682021625187 -111.48661977069423 0 0 0 0 46.895160105373179 -187.25180061832816 0 -187.25180061832816 200.5951294194565 0 0 0 0 6.3858855586412915 -2.6342079107044967 0 -2.6342079107044967 -0.8996042889935969 0 0 0 0 232.68711486594293 79.368891973349491 0 79.368891973349491 -206.42307606192117 0 0 0 0 1026.7947449270105 9.9993607785108907 0 9.9993607785108907 -855.80286327445356 0 0 0 0 560.23057527250967 -171.2110469964523 0 -171.2110469964523 -154.06423339624598 0 0 0 0 10.306736365233519 97.003305033638753 0 97.003305033638753 -555.52207420364721 0 0 0 0 430.32864869256082 -554.66648745863858 0 -554.66648745863858 86.746123620156141 0 0 0 0 -624.96711720078747 -453.55216744961945 0 -453.55216744961945 427.59731044431101 0 0 0 0 -41.191810539847211 -62.740591990484972 0 -62.740591990484972 61.428232843498336 0 0 0 0 -97.624906291017396 125.55519749315863 0 125.55519749315863 -208.65215056979832 0 0 0 0 -595.98157065715111 357.89148422826247 0 357.89148422826247 -219.06948556302086 0 0 0 0 34.275314448464997 -67.60136755896383 0 -67.60136755896383 92.189971806556059 0 0 0 0 -124.62319186254172 -152.02093132136361 0 -152.02093132136361 -17.219538219811511 0 0 0 0 261.48647514100594 -127.99623675266957 0 -127.99623675266957 -22.795683184842346 0 0 0 0 -11.920587267509291 -27.877827646392689 0 -27.877827646392689 -46.552257429864767 0 0 0 0 259.25058413562317 -88.67653137390414 0 -88.67653137390414 -176.20301609181843 0 0 0 0 127.85245732947078 -113.98782164941076 0 -113.98782164941076 -59.637150148722867 0 0 0 0 63.642368854969391 -20.573499081758655 0 -20.573499081758655 -61.531198445714836 0 0 0 0 22.788874116122315 -91.564340697166699 0 -91.564340697166699 -55.736168280305719 0 0 0 0 1.1501548533798314 -6.5240198284231994 0 -6.5240198284231994 -13.887107663661695 0 0 0 0 -99.671979428217128 313.20630130999552 0 313.20630130999552 99.996226851762913 0 0 0 0 132.48754100003862 31.879547358870695 0 31.879547358870695 -241.0289383209165 0 0 0 0 263.45853433544471 -195.25687508334795 0 -195.25687508334795 -71.704210212395992 0 0 0 0 132.10450974944069 2.7990864122612038 0 2.7990864122612038 -20.246229326014145 0 0 0 0 12.880442766781044 -5.596876148559538 0 -5.596876148559538 -70.653500151515743 0 0 0 0 409.29023732433598 312.00572730466297 0 312.00572730466297 -81.22224166444721 0 0 0 0 54.754004429470115 -21.157410516409982 0 -21.157410516409982 -35.764065213868889 0 0 0 0 11.779380515858065 2.0117202921392163 0 2.0117202921392163 -4.0674394285306334 0 0 0 0 57.156832119179853 -34.040804000558637 0 -34.040804000558637 -19.386858102479891 0 0 0 0 -29.728298392441502 -10.335896037384373 0 -10.335896037384373 -12.588924315441545 0 0 0 0 -29.493866066234204 -7.3569427631973667 0 -7.3569427631973667 -48.031558523376589 0 0 0 0 53.234922637824184 38.278443487357436 0 38.278443487357436 -129.41145383991534 0 0 0 0 1.7676412146117997 1.4799949483818722 0 1.4799949483818722 1.418566846887209 0 0 0 0 64.994889776124182 90.74083993653403 0 90.74083993653403 -230.16618491521513 0 0 0 0 53.446287995897364 77.950226614433632 0 77.950226614433632 -168.80199526522847 0 0 0 0 104.85788326494458 -85.363250933613017 0 -85.363250933613017 -277.13113552324648 0 0 0 0 90.739495192265167 44.14290151637033 0 44.14290151637033 -292.78901366479113 0 0 0 0 55.718125610610514 -57.681838194665033 0 -57.681838194665033 -94.189910153008896 0 0 0 0 36.576985973661067 -67.384739194341819 0 -67.384739194341819 -92.522710953824571 0 0 0 0 25.988509065329708 -42.395946730102878 0 -42.395946730102878 -32.047262037798646 0 0 0 0 86.688948666949727 10.314067614381202 0 10.314067614381202 -185.82007572326256 0 0 0 0 48.338656128212278 -38.007413861021632 0 -38.007413861021632 -134.8092176552309 0 0 0 0 35.811528419342721 -5.8884247699970729 0 -5.8884247699970729 -142.15508964788751 0 0 0 0 41.973946851306323 -43.481265870806965 0 -43.481265870806965 -78.241340009612031 0 0 0 0 35.890589990848184 -12.391510722511157 0 -12.391510722511157 -120.10682883115078 0 0 0 0 45.665588442360786 -20.31347959356026 0 -20.31347959356026 -131.95851366608258 0 0 0 0 30.682167370786374 -36.303580555722874 0 -36.303580555722874 -80.67347451626847 0 0 0 0 35.33224976860356 -39.998031414499565 0 -39.998031414499565 -81.540621548847412 0 0 0 0 -42.179093710198686 -7.9831051664441475 0 -7.9831051664441475 -130.4401893314498 0 0 0 0 18.534967378186593 -22.083298396839382 0 -22.083298396839382 -94.08530600598408 0 0 0 0 4.9353246572881417 -2.514676140736043 0 -2.514676140736043 -18.699326077726845 0 0 0 0 29.586646381427272 -23.826487929902214 0 -23.826487929902214 -128.00188789477033 0 0 0 0 50.007485649186492 -15.007609780717758 0 -15.007609780717758 -151.20662307605517 0 0 0 0 17.574898338472849 -3.8750226028132602 0 -3.8750226028132602 -21.816382789745717 0 0 0 0 11.31713683757409 -1.2698518849792677 0 -1.2698518849792677 -62.843176337994024 0 0 0 0 19.58688259864919 -9.5286398570701678 0 -9.5286398570701678 -94.28737824849901 0 0 0 0 20.277918721956667 -0.17672572354786098 0 -0.17672572354786098 -42.336565613456969 0 0 0 0 28.899766333763388 7.4351783355225898 0 7.4351783355225898 -85.755304538224522 0 0 0 0 -23.265124542018839 21.572904052845843 0 21.572904052845843 -91.743213164998451 0 0 0 0 5.8291860955669783 -25.535053391956634 0 -25.535053391956634 -86.324963515780382 0 0 0 0 44.843504728514745 -44.641610286196737 0 -44.641610286196737 -80.053425145946676 0 0 0 0 16.945099010135436 -14.374895586573984 0 -14.374895586573984 -68.686673296790104 0 0 0 0 48.966041828415655 -34.369679274786904 0 -34.369679274786904 -70.671397436308325 0 0 0 0 57.862394372108611 -47.410970722630736 0 -47.410970722630736 -85.905636367744592 0 0 0 0 48.930220959583551 -33.400758229140024 0 -33.400758229140024 -96.540495228422515 0 0 0 0 55.347929177507467 -24.320944433628028 0 -24.320944433628028 -86.679075449686934 0 0 0 0 57.213043346177074 -42.204424239258515 0 -42.204424239258515 -119.70924125103556 0 0 0 0 56.765994900826627 -76.925791579531506 0 -76.925791579531506 -106.03050081846686 0 0 0 0 42.702597490955668 -60.562800672518279 0 -60.562800672518279 -61.641630886861094 0 0 0 0 18.658488268910297 -3.6691545438490998 0 -3.6691545438490998 -29.517778159429493 0 0 0 0 14.893843060155632 -38.787168526203459 0 -38.787168526203459 -136.20922757495123 0 0 0 0 45.547542909562253 -49.303506580883777 0 -49.303506580883777 -82.402379163962905 0 0 0 0 29.932317833237903 -40.393679071015868 0 -40.393679071015868 -87.452800767634471 0 0 0 0 22.23879655339806 -26.334362680474442 0 -26.334362680474442 -43.282352983384044 0 0 0 0 2.1335823461477048 -14.640240802602328 0 -14.640240802602328 -60.825437249872422 0 0 0 0 5.2439095140225618 -25.939164436880674 0 -25.939164436880674 -38.0194349198282 0 0 0 0 -3.3502823002419699 -20.598834659144391 0 -20.598834659144391 -63.577628763426141 0 0 0 0 26.045466594745449 -36.440505686212418 0 -36.440505686212418 -109.79198794881813 0 0 0 0 -22.057648762208828 -9.825252467754126 0 -9.825252467754126 -45.588464045900764 0 0 0 0 12.538070845401307 -0.73416046623970033 0 -0.73416046623970033 -76.094432089674228 0 0 0 0 12.129302472440745 18.835560159231541 0 18.835560159231541 -60.189655165797177 0 0 0 0 0.82902525698591489 -43.882361717765889 0 -43.882361717765889 -105.03749329185302 0 0 0 0 13.713101124707464 16.764582963889552 0 16.764582963889552 -163.12536591601383 0 0 0 0 2.2255833813712087 0.79025533590552044 0 0.79025533590552044 -8.1074758786707832 0 0 0 0 16.972093514654784 4.5315088400186028 0 4.5315088400186028 -41.651215284848107 0 0 0 0 -26.838882442920294 -13.177065498772208 0 -13.177065498772208 -32.880811796283524 0 0 0 0 17.708030034030116 -4.6175213205087857 0 -4.6175213205087857 -43.541590843582526 0 0 0 0 6.5338501964588431 26.032542928391194 0 26.032542928391194 -58.177336351473059 0 0 0 0 8.031362908418032 -27.393963971804624 0 -27.393963971804624 -80.440008589132049 0 0 0 0 14.225859168726087 0.44390637628320917 0 0.44390637628320917 -39.901717910592367 0 0 0 0 12.178942687163726 15.327290740210628 0 15.327290740210628 -80.176505663741409 0 0 0 0 111.09804497958248 -62.100217990897363 0 -62.100217990897363 -43.988971429971571 0 0 0 0 -3.7470819161330517 -9.4054285361613807 0 -9.4054285361613807 -17.899692389424729 0 0 0 0 108.28055878910891 -69.94848134658605 0 -69.94848134658605 -49.546970767005405 0 0 0 0 4.5822962967948797 17.329757191677345 0 17.329757191677345 -88.594501117164327 0 0 0 0 -155.55340608151528 -107.39031561344746 0 -107.39031561344746 -127.39757540878782 0 0 0 0 4.3843146157282717 -16.486502695452145 0 -16.486502695452145 -46.338412433644407 0 0 0 0 162.25909192529616 -26.129369273516204 0 -26.129369273516204 -58.96004500699928 0 0 0 0 17.778302100392889 -8.7163828000915373 0 -8.7163828000915373 -25.911672681891957 0 0 0 0 12.245146572108297 -18.361285966731884 0 -18.361285966731884 -36.533932790123799 0 0 0 0 -0.20726783945889693 -21.497981869107132 0 -21.497981869107132 -39.083243003301561 0 0 0 0 15.770387306678458 -61.074905282006512 0 -61.074905282006512 -83.297889154170889 0 0 0 0 5.2638866370702999 -30.520593089524937 0 -30.520593089524937 -113.69395178305422 0 0 0 0 -1.9291280163151896 -23.697376481071842 0 -23.697376481071842 -38.235963867531609 0 0 0 0 14.722739335615966 -0.41800863955964473 0 -0.41800863955964473 -15.368922315852672 0 0 0 0 11.792074286791831 -34.632048706436763 0 -34.632048706436763 -291.75150247438432 0 0 0 0 -149.16175966527953 -79.956619683842291 0 -79.956619683842291 -12.42039671587554 0 0 0 0 1.5502914483286858 -2.2796689584109515 0 -2.2796689584109515 -1.7198001225451662 0 0 0 0 16.017759639264852 -21.379005901783032 0 -21.379005901783032 -2.1592490399269764 0 0 0 0 -1.7535133541741743 -20.81341147322928 0 -20.81341147322928 -21.926434898508887 0 0 0 0 6.5522807432880654 -38.02189245286354 0 -38.02189245286354 -1.6768433492616168 0 0 0 0 14.120973674772085 -45.722763586866563 0 -45.722763586866563 -68.992869379007971 0 0 0 0 100.58116373974735 -26.296723744082556 0 -26.296723744082556 -116.80198393063438 0 0 0 0 -13.32672339970577 -134.32260722523915 0 -134.32260722523915 -80.295503595662012 0 0 0 0 161.89548193647897 -55.714504907607989 0 -55.714504907607989 -131.95835307580273 0 0 0 0 62.645632448542528 -211.27641678596592 0 -211.27641678596592 -327.41729996880167 0 0 0 0 -128.64583231245524 58.526654060020519 0 58.526654060020519 -19.731024444045033 0 0 0 0 33.331254109657877 -41.301711925513189 0 -41.301711925513189 -87.873558839875102 0 0 0 0 160.39134254510282 51.356739844934054 0 51.356739844934054 -99.565155868818692 0 0 0 0 -0.24977652265079087 -68.590907593201337 0 -68.590907593201337 -48.470424337407167 0 0 0 0 12.717360095106415 -65.891290387513436 0 -65.891290387513436 -99.691100201813242 0 0 0 0 -95.764778923259655 -182.68262529090157 0 -182.68262529090157 -170.79641182225896 0 0 0 0 -19.513895035157475 -89.927268308259954 0 -89.927268308259954 -82.783520425364259 0 0 0 0 -37.901954797802318 -111.28091671136281 0 -111.28091671136281 -159.8587352653667 0 0 0 0 -19.506948829026584 -126.96499343626097 0 -126.96499343626097 -147.68833870958042 0 0 0 0 1.6685930406547413 -72.829561430167814 0 -72.829561430167814 -121.50638977180643 0 0 0 0 -11.320497625498319 -88.820454842727486 0 -88.820454842727486 -91.505778472244856 0 0 0 0 -162.17689842727668 -127.36537521274295 0 -127.36537521274295 -102.45766098341846 0 0 0 0 -3.8929092917032904 -97.642870243606922 0 -97.642870243606922 -230.37622301345982 0 0 0 0 11.115064938542176 3.8456032196833831 0 3.8456032196833831 -18.514716535284364 0 0 0 0 -30.330301676831368 -66.185203847828006 0 -66.185203847828006 -105.38230395149731 0 0 0 0 29.710621842121594 -9.7123109426020022 0 -9.7123109426020022 -59.050340747021046 0 0 0 0 592.20033965151379 130.3081771773065 0 130.3081771773065 -190.39417556596891 0 0 0 0 157.32631253544969 36.541482097816697 0 36.541482097816697 -62.21182168525047 0 0 0 0 608.71379272250851 138.12723939010937 0 138.12723939010937 -360.92290018301719 0 0 0 0 85.71307695070027 164.97816824300844 0 164.97816824300844 75.932794944447778 0 0 0 0 140.14189027393149 -12.722211896766112 0 -12.722211896766112 -82.614254192771114 0 0 0 0 103.03632378522343 71.120900707920555 0 71.120900707920555 -83.782535434473559 0 0 0 0 54.962677917446854 61.441650465608291 0 61.441650465608291 -89.557459012197796 0 0 0 0 34.573654069987242 -187.54712333962561 0 -187.54712333962561 -229.12416203680368 0 0 0 0 20.415612234426234 -9.8352760578497964 0 -9.8352760578497964 -11.216453519441544 0 0 0 0 237.40654688564609 41.626175210954443 0 41.626175210954443 -90.405714489363163 0 0 0 0 47.578923663145645 -46.65132818010467 0 -46.65132818010467 -95.286313990608591 0 0 0 0 107.90686094487185 28.992259654692631 0 28.992259654692631 -26.735664181955681 0 0 0 0 114.70515061910191 23.096255852557988 0 23.096255852557988 -66.857711555796413 0 0 0 0 94.20992886439322 33.048715015602603 0 33.048715015602603 -26.611625029291602 0 0 0 0 183.49728796545423 67.222342558712626 0 67.222342558712626 -62.050840255958974 0 0 0 0 128.07770979555789 80.240641328911806 0 80.240641328911806 -95.48956528754934 0 0 0 0 144.30749381230271 41.250934678275371 0 41.250934678275371 -52.02434219533643 0 0 0 0 304.63690763199702 31.080258421648978 0 31.080258421648978 -77.289326544852884 0 0 0 0 139.9955064744936 28.353344729011042 0 28.353344729011042 -48.361011278157093 0 0 0 0 14.237295555050295 18.823969517224072 0 18.823969517224072 -66.869345188740681 0 0 0 0 25.22577316476054 -51.587754251829296 0 -51.587754251829296 -256.13559976963074 0 0 0 0 39.093792965926696 -32.007502333454795 0 -32.007502333454795 -286.30663232375355 0 0 0 0 749.73053505781354 -329.95007442012974 0 -329.95007442012974 56.895635385136231 0 0 0 0 23.625386497146835 16.078435547297929 0 16.078435547297929 -6.8449105630415819 0 0 0 0 658.7682433295372 80.324564684444624 0 80.324564684444624 -522.6589554491278 0 0 0 0 57.199616080019041 170.17804705919252 0 170.17804705919252 -228.57530358164922 0 0 0 0 62.548654060421541 -43.272360617984305 0 -43.272360617984305 -996.40023834816566 0 0 0 0 1.1397860952560279 5.1767897371084324 0 5.1767897371084324 8.1897472435254759 0 0 0 0 1159.7531817631207 -1252.3595117568934 0 -1252.3595117568934 288.9831724246983 0 0 0 0 668.63880866272666 113.06763617554498 0 113.06763617554498 -2043.7794995871836 0 0 0 0 -1105.780613974257 -1685.365028710658 0 -1685.365028710658 -754.47975675090174 0 0 0 0 -1755.1623416172629 -1047.9939936604351 0 -1047.9939936604351 -716.45723794404239 0 0 0 0 -1931.5741325031408 710.23915687118119 0 710.23915687118119 -592.51423694835626 0 0 0 0 85.564838615267945 192.91073879680744 0 192.91073879680744 -511.67536892405587 0 0 0 0 -698.31503528738904 446.32062952077513 0 446.32062952077513 -217.65772103635982 0 0 0 0 -1143.8509508520347 -262.86856000993509 0 -262.86856000993509 -140.21366177057189 0 0 0 0 -352.46354879565297 4.9339051306619695 0 4.9339051306619695 -82.392335938370707 0 0 0 0 -469.12567989948184 64.747574364897218 0 64.747574364897218 77.866374521520811 0 0 0 0 56.893552070388978 269.91623196821638 0 269.91623196821638 -272.42484820918662 0 0 0 0 -73.15427996442304 -216.93324665938826 0 -216.93324665938826 -220.21780259210209 0 0 0 0 -572.4459621279384 -279.38755009767056 0 -279.38755009767056 -78.453455097042934 0 0 0 0 -131.56173437907273 -236.09633132231193 0 -236.09633132231193 -447.83355730677204 0 0 0 0 -569.02863553881252 -631.11843976035561 0 -631.11843976035561 -748.84693501013544 0 0 0 0 -1.4185274604691926 -0.66314151278564637 0 -0.66314151278564637 -0.54319243471331946 0 0 0 0 85.123644903789682 -260.93678256744056 0 -260.93678256744056 -609.96424974662682 0 0 0 0 -130.84937660177502 -215.00919034099309 0 -215.00919034099309 -208.2824018342244 0 0 0 0 -1.5727313850319717 -1.5490671962764271 0 -1.5490671962764271 -0.054449381983189937 0 0 0 0 59.531765759756126 -439.05453796846962 0 -439.05453796846962 -815.76893892147791 0 0 0 0 131.53133298630382 -112.14954210387793 0 -112.14954210387793 -942.05941390989119 0 0 0 0 -472.58711186064102 -56.292122854564695 0 -56.292122854564695 -136.8748609609695 0 0 0 0 -8.0068717129324796 -482.40859782682264 0 -482.40859782682264 -1922.912716073407 0 0 0 0 -176.52475260752726 605.01248016448039 0 605.01248016448039 -1483.1239496106705 0 0 0 0 61.631380985261785 262.0210579693794 0 262.0210579693794 -923.44430344646241 0 0 0 0 125.97205254770233 -137.12214823167551 0 -137.12214823167551 -880.644509689286 0 0 0 0 211.86614811348591 65.215750948791538 0 65.215750948791538 -474.55520164485642 0 0 0 0 629.78762363126953 177.22762862619584 0 177.22762862619584 -716.33991516379092 0 0 0 0 0.94297863813754645 0.18195008795507306 0 0.18195008795507306 -21.937054479292165 0 0 0 0 546.95916073565786 746.70870554650037 0 746.70870554650037 -234.70127041112426 0 0 0 0 600.68640512415732 323.77772307328996 0 323.77772307328996 -1427.9160440936785 0 0 0 0 720.12827766890769 -81.058022556657306 0 -81.058022556657306 -413.29001467655996 0 0 0 0 1116.3922011198683 268.62978849933165 0 268.62978849933165 -235.89596077556234 0 0 0 0 256.84717549390552 -76.988143624217628 0 -76.988143624217628 -69.123132441676262 0 0 0 0 558.79311251091167 -20.791166805869352 0 -20.791166805869352 -204.34191173168347 0 0 0 0 518.38449956097429 11.818911279475742 0 11.818911279475742 51.891547730845787 0 0 0 0 -18.185635494453891 -165.92903005611515 0 -165.92903005611515 -536.91184516163582 0 0 0 0 257.62017338461328 -74.486585463194231 0 -74.486585463194231 -610.83654471024647 0 0 0 0 0.044499110794632202 -0.66598292829086292 0 -0.66598292829086292 -0.1906492636799042 0 0 0 0 -2.786280749764046 -260.71138440325785 0 -260.71138440325785 91.749828328673175 0 0 0 0 -66.571320619747894 -155.14757915014241 0 -155.14757915014241 -9.851233454438443 0 0 0 0 46.937802592794469 -200.50955041243878 0 -200.50955041243878 -73.903037270320965 0 0 0 0 -47.327020920438372 -228.84571322314673 0 -228.84571322314673 -6.0328337413975532 0 0 0 0 249.34496760458023 -150.84608172493472 0 -150.84608172493472 -41.264429229998314 0 0 0 0 461.01326761302334 34.755119155471903 0 34.755119155471903 -136.31057834224248 0 0 0 0 234.07632634217862 -128.55440905698833 0 -128.55440905698833 -61.849313806604187 0 0 0 0 -14.829272202176071 -128.4392543311651 0 -128.4392543311651 -35.25343924483559 0 0 0 0 380.26921784734191 -69.588614290400074 0 -69.588614290400074 -138.3711065624193 0 0 0 0 35.549889954369519 -199.89476299530043 0 -199.89476299530043 -148.09970572208294 0 0 0 0 123.05895268478525 74.555593639252265 0 74.555593639252265 -147.30289814301977 0 0 0 0 2.9973918522239273 -0.35514619001524039 0 -0.35514619001524039 -0.25240303585932278 0 0 0 0 437.7274004382989 27.33497097509246 0 27.33497097509246 -390.43006286631226 0 0 0 0 227.2918528849641 -233.38747281070391 0 -233.38747281070391 170.6206365076896 0 0 0 0 -55.014322386383355 -150.46523020013922 0 -150.46523020013922 37.54947773881122 0 0 0 0 64.457086270624131 -161.84141042886722 0 -161.84141042886722 -327.70718723420828 0 0 0 0 -66.420586118566462 -108.0301745416341 0 -108.0301745416341 -108.04912948802485 0 0 0 0 -23.044681510496957 -32.168974110016734 0 -32.168974110016734 -113.60416470612745 0 0 0 0 4.6653097712690794 -1.9455361179514892 0 -1.9455361179514892 0.15599756425270961 0 0 0 0 -16.045189075737653 -63.556665710681045 0 -63.556665710681045 -142.7527817555374 0 0 0 0 2.5315377727748682 -1.7083569771955123 0 -1.7083569771955123 0.43672968435781634 0 0 0 0 0.84630697496825746 -0.15181634127607957 0 -0.15181634127607957 0.065377851898246853 0 0 0 0 -166.04436933516627 -7.457199248424331 0 -7.457199248424331 331.28753525779462 0 0 0 0 29.677046912978767 -57.978169978996448 0 -57.978169978996448 -217.23473026756483 0 0 0 0 -28.743815004262615 -49.571583508306276 0 -49.571583508306276 -116.96930214237727 0 0 0 0 0.63057726462284336 -70.728156116087575 0 -70.728156116087575 -131.49912817705558 0 0 0 0 81.476475679697614 -4.8136574833092709 0 -4.8136574833092709 -123.30494580582854 0 0 0 0 14.838088973053196 -0.67757326371417648 0 -0.67757326371417648 -86.522470490099138 0 0 0 0 57.466378912464279 20.260126055216233 0 20.260126055216233 -98.763970038949992 0 0 0 0 3.2864541217168153 -6.8875374210570044 0 -6.8875374210570044 -48.485985062881355 0 0 0 0 88.693308414874082 100.49424637919628 0 100.49424637919628 63.279321443756089 0 0 0 0 0.63330942226320985 -48.030560874893013 0 -48.030560874893013 166.66207164364459 0 0 0 0 -56.582014300525771 112.70004946047675 0 112.70004946047675 92.744171968336559 0 0 0 0 5.2494228460946033 98.573808443975395 0 98.573808443975395 85.685633652731667 0 0 0 0 -93.155785005674261 167.74662965658581 0 167.74662965658581 82.715004996683064 0 0 0 0 -331.06362308365351 8.2047616215977541 0 8.2047616215977541 159.83175465334261 0 0 0 0 -161.16455299436348 -92.57945542751122 0 -92.57945542751122 -3.0860292150900932 0 0 0 0 -234.21606257872372 -209.26877667672716 0 -209.26877667672716 38.989959421758613 0 0 0 0 -103.63368785092462 -193.1477811956056 0 -193.1477811956056 4.7913625847531875 0 0 0 0 -36.235935505871566 -68.977101927478316 0 -68.977101927478316 124.93940872478834 0 0 0 0 -84.488966514368656 88.357457571226405 0 88.357457571226405 -126.6191477737666 0 0 0 0 -27.399926903695018 31.241084673863952 0 31.241084673863952 -75.545732621350908 0 0 0 0 20.407874005840181 -4.1998596395133063 0 -4.1998596395133063 9.381853330967715 0 0 0 0 0.19131429836412722 30.580844213836826 0 30.580844213836826 -31.368173787806882 0 0 0 0 0.17069343045856478 -0.062669553348968066 0 -0.062669553348968066 -0.81419393978069365 0 0 0 0 -109.19620648776147 191.9087587553131 0 191.9087587553131 -189.45345841017843 0 0 0 0 71.60828391951479 -11.323497206976754 0 -11.323497206976754 -39.989191211760044 0 0 0 0 88.530472726745089 93.225436388951493 0 93.225436388951493 -245.67595075338613 0 0 0 0 1.8515366954180417 10.536435879133933 0 10.536435879133933 2.7888529685660615 0 0 0 0 5.4974907004078268 7.913411486176301 0 7.913411486176301 -7.9323108321113978 0 0 0 0 5.2138410422300261 5.6056417204235913 0 5.6056417204235913 -9.1976455429685302 0 0 0 0 -0.42594532534127749 0.62089848352459853 0 0.62089848352459853 -2.9495439021290508 0 0 0 0 -34.908468000934761 42.523721386518446 0 42.523721386518446 -66.069052292179549 0 0 0 0 0.49150227546097902 1.4046126716420986 0 1.4046126716420986 -7.0567779510747641 0 0 0 0 -28.401203229123851 34.235514118438005 0 34.235514118438005 -70.419268522324273 0 0 0 0 -34.889596644160406 37.072164683340816 0 37.072164683340816 -46.610529846075224 0 0 0 0 -12.57265247256592 22.196546530190972 0 22.196546530190972 -51.238379649723356 0 0 0 0 -6.5482846169740156 29.506864215760288 0 29.506864215760288 -47.537036095454823 0 0 0 0 18.682359304243882 -13.196585146331927 0 -13.196585146331927 -35.04602463444462 0 0 0 0 -20.845136182904042 36.31820372686343 0 36.31820372686343 -72.255014614231186 0 0 0 0 -4.6007596375633284 2.9195799991830427 0 2.9195799991830427 32.9275807247177 0 0 0 0 14.607757422205509 8.0167917517246678 0 8.0167917517246678 -33.930938479385077 0 0 0 0 34.207622310121792 -82.392847247294412 0 -82.392847247294412 20.837131519801915 0 0 0 0 0.07090720532015482 -0.93972980411660956 0 -0.93972980411660956 -1.8569887216529821 0 0 0 0 -38.600878238073165 193.57438447298773 0 193.57438447298773 -321.72679480108491 0 0 0 0 57.096064949294856 39.590945690819353 0 39.590945690819353 -224.42119562193693 0 0 0 0 -7.552861660120552 34.818304643580632 0 34.818304643580632 -122.76006089782459 0 0 0 0 71.802766030849398 -55.103037672990467 0 -55.103037672990467 -103.27325725370611 0 0 0 0 59.397204756895093 -26.73588317654503 0 -26.73588317654503 -165.21406491829839 0 0 0 0 -101.88703953302164 29.313401215484191 0 29.313401215484191 -186.01993886067066 0 0 0 0 1.2741832772155914 0.36822495657060017 0 0.36822495657060017 -0.17200744287705305 0 0 0 0 10.07410922667539 25.594767714363115 0 25.594767714363115 -73.0147742973204 0 0 0 0 168.22877292768476 15.27638937629672 0 15.27638937629672 -356.05921546906757 0 0 0 0 20.456844851144211 34.722753472234217 0 34.722753472234217 -165.05910123622743 0 0 0 0 -5.9608947791089122 17.010930615040706 0 17.010930615040706 -158.19549102182282 0 0 0 0 25.572335651064449 10.527340236696546 0 10.527340236696546 -163.99142492120154 0 0 0 0 -17.647845698924982 42.941611811329494 0 42.941611811329494 -161.72297931218054 0 0 0 0 11.606947897248542 -6.5436051217475324 0 -6.5436051217475324 -167.73629674401309 0 0 0 0 48.011829967123646 68.769027656118851 0 68.769027656118851 -182.23504718179538 0 0 0 0 73.607577711119006 77.862857880922093 0 77.862857880922093 -191.65754517716414 0 0 0 0 -44.182169543217071 70.170940357769723 0 70.170940357769723 -115.70973167641205 0 0 0 0 -16.154404291272442 126.35418759219465 0 126.35418759219465 -151.3039773266064 0 0 0 0 -97.418607333507381 106.84897796863515 0 106.84897796863515 -210.75111734890379 0 0 0 0 -38.925347235004438 54.042287070042221 0 54.042287070042221 -201.81854228944576 0 0 0 0 -11.830931595691254 110.54280075625866 0 110.54280075625866 -243.3081582699524 0 0 0 0 -0.32235992761778887 60.130016621595132 0 60.130016621595132 -205.07047710487677 0 0 0 0 3.6767312065544049 36.251850989745435 0 36.251850989745435 -285.41666553461982 0 0 0 0 -0.076488249198160801 -136.59973306291067 0 -136.59973306291067 -1380.6144918421342 0 0 0 0 -193.22263182141867 -204.79205415906472 0 -204.79205415906472 -288.69889835756851 0 0 0 0 -84.082375672328595 -21.222751560828328 0 -21.222751560828328 -46.208228224815684 0 0 0 0 -143.93217439722264 -747.2033570807107 0 -747.2033570807107 -2260.0542854565592 0 0 0 0 -0.65220772262455751 -1.242223728016711 0 -1.242223728016711 -1.7050730248788284 0 0 0 0 -170.86423927335835 -516.07091018912615 0 -516.07091018912615 -1704.5573807094624 0 0 0 0 22.573223466902135 -320.63445480105293 0 -320.63445480105293 -2330.7556325353507 0 0 0 0 -7.4728673653964108 -373.54943616488163 0 -373.54943616488163 -1495.8545995905515 0 0 0 0 214.26899869274115 -40.940418612135545 0 -40.940418612135545 -3498.7391534634626 0 0 0 0 0.044610404452476854 -141.92457079269661 0 -141.92457079269661 -2167.2520052607724 0 0 0 0 108.3118807505568 -142.67871690754691 0 -142.67871690754691 -2386.7004662839536 0 0 0 0 6.3691076239580582 -236.75201842081879 0 -236.75201842081879 -2219.0316541861685 0 0 0 0 -73.735567285792797 -93.532577592734015 0 -93.532577592734015 -2360.8778328625021 0 0 0 0 0.053634356793329951 -1.2587347934399133 0 -1.2587347934399133 -6.1960876974584238 0 0 0 0 -0.64434928589202611 -61.976208796811989 0 -61.976208796811989 -3448.3679828073218 0 0 0 0 27.474189006875349 -754.73104870828683 0 -754.73104870828683 -2778.9531972273107 0 0 0 0 -40.834133224772984 -594.53869103482612 0 -594.53869103482612 -3144.9506483785663 0 0 0 0 0.0094100975444482704 -1.026489327752472 0 -1.026489327752472 -5.1216390487801107 0 0 0 0 -99.027254530433055 -349.9267451021642 0 -349.9267451021642 -3789.6742450946258 0 0 0 0 69.481147508946407 -541.91887603791838 0 -541.91887603791838 -3601.7823643170559 0 0 0 0 228.57978017029507 -196.25339074885778 0 -196.25339074885778 -2875.5566159032896 0 0 0 0 -30.025682382155409 -215.54851167398738 0 -215.54851167398738 212.89224791197921 0 0 0 0 -2.2017205071643193 -5.0002781853070815 0 -5.0002781853070815 -4.3866754519978599 0 0 0 0 34.505898599748775 -5.0187141573333065 0 -5.0187141573333065 -224.21667095986049 0 0 0 0 -0.43805200222819818 -2.3175946722739127 0 -2.3175946722739127 -1.8553048186650472 0 0 0 0 40.094446678371241 10.985867014187534 0 10.985867014187534 -178.88846582127735 0 0 0 0 42.394119407091011 3.1630717281805119 0 3.1630717281805119 3.6535703757690499 0 0 0 0 55.990780075372726 -87.442405146139208 0 -87.442405146139208 66.00810582707345 0 0 0 0 48.474939559564973 -77.48033190381102 0 -77.48033190381102 58.903175315019325 0 0 0 0 0.43766978299302162 -1.4196402859770387 0 -1.4196402859770387 -1.1683014129331752 0 0 0 0 -12.51246666436839 -7.774711378140637 0 -7.774711378140637 83.498311084556917 0 0 0 0 37.998428438731253 -79.744415734203358 0 -79.744415734203358 73.785781419661362 0 0 0 0 21.820592062543255 132.46498219075147 0 132.46498219075147 -140.85360281718022 0 0 0 0 -2.1270482814588592 -10.674315187871571 0 -10.674315187871571 -5.6440077818871117 0 0 0 0 -554.60831767637887 -632.36974562535761 0 -632.36974562535761 -366.60772456319683 0 0 0 0 -76.355802298583512 -168.08854773530038 0 -168.08854773530038 -665.28684725987841 0 0 0 0 43.016852501585163 -87.954815391698503 0 -87.954815391698503 79.466818602857529 0 0 0 0 -155.39930912381038 -752.37202981684459 0 -752.37202981684459 -3501.2027752119684 0 0 0 0 -393.37666902439673 -228.36784386209547 0 -228.36784386209547 374.99808218720136 0 0 0 0 -4.1006488280025373 -4.5563048945608102 0 -4.5563048945608102 -2.9485866898747624 0 0 0 0 58.639939055549149 -579.6025176955809 0 -579.6025176955809 -4387.3444810155188 0 0 0 0 -22.548465044153431 -177.85662991192658 0 -177.85662991192658 -3323.7191813079262 0 0 0 0 297.00567159327028 -951.87708202113572 0 -951.87708202113572 -3451.4618972039752 0 0 0 0 -192.05057551902598 -862.74483771869563 0 -862.74483771869563 -3615.2677219668258 0 0 0 0 598.27627712982314 -1165.2424550491305 0 -1165.2424550491305 -3493.9047168590332 0 0 0 0 291.02920478037532 -924.40119582768966 0 -924.40119582768966 -2910.0078753337875 0 0 0 0 -0.88163831205292809 -48.958501352361054 0 -48.958501352361054 58.892245784069928 0 0 0 0 280.93692899467487 -812.33228414804034 0 -812.33228414804034 -2941.1992833070035 0 0 0 0 -10.963255814931305 -12.478320840050088 0 -12.478320840050088 -6.1109551454128983 0 0 0 0 -84.676078844213862 -391.96741978271166 0 -391.96741978271166 -2306.0011906166765 0 0 0 0 66.07707194274775 -623.65239927103539 0 -623.65239927103539 -2235.9680029234005 0 0 0 0 -3.813205893523707 2.8384990058259376 0 2.8384990058259376 7.0230111560995283 0 0 0 0 -3.7107928714833918 -1.7067032420574151 0 -1.7067032420574151 -8.8469839517282587 0 0 0 0 -407.06362022115621 -211.03716365337095 0 -211.03716365337095 -286.68430078364327 0 0 0 0 14.927841484624651 -1139.9366037133659 0 -1139.9366037133659 -1887.3294507161481 0 0 0 0 -7.1278164665455046 -11.731913197138425 0 -11.731913197138425 -6.7380319159959754 0 0 0 0 -18.894764074290833 -38.270199040434818 0 -38.270199040434818 11.922918061027303 0 0 0 0 3.7265429632673204 -17.268100269910065 0 -17.268100269910065 -36.749833072564797 0 0 0 0 -33.218917044042428 7.1921159143385012 0 7.1921159143385012 -29.273486416597734 0 0 0 0 -28.717118669854244 -37.555513941355457 0 -37.555513941355457 -43.151281538099283 0 0 0 0 11.883817805376566 -10.508576116058975 0 -10.508576116058975 -26.961056957225082 0 0 0 0 92.33775451416102 -84.570745598304711 0 -84.570745598304711 -74.563938595645595 0 0 0 0 59.114382189438857 9.019826848336379 0 9.019826848336379 -149.99849801587698 0 0 0 0 13.283181681968927 -55.92003468425537 0 -55.92003468425537 6.7735176392525318 0 0 0 0 0.99052804252556736 -11.310452075924445 0 -11.310452075924445 -4.2889638014931251 0 0 0 0 74.869640692169469 -17.337233883365116 0 -17.337233883365116 -29.656412673488376 0 0 0 0 -23.411279357866533 -21.65947506534576 0 -21.65947506534576 -14.001305972924456 0 0 0 0 -21.663414510297372 -1.7966061499337229 0 -1.7966061499337229 -59.614439845725428 0 0 0 0 1.6557467449065371 -27.397026590901078 0 -27.397026590901078 -50.418105339136673 0 0 0 0 64.679770808179455 -49.824789196412894 0 -49.824789196412894 -69.063025516690686 0 0 0 0 13.630952983962061 -23.071013698201568 0 -23.071013698201568 -83.08416616008617 0 0 0 0 18.467169036637188 -28.048786555766128 0 -28.048786555766128 -88.285714793310035 0 0 0 0 9.7536481191901885 8.3491880368874263 0 8.3491880368874263 -119.7489148323657 0 0 0 0 10.47428389037985 1.9994792672259791 0 1.9994792672259791 -27.334239201576565 0 0 0 0 37.20745914304166 0.26085755306121428 0 0.26085755306121428 -35.516698323073797 0 0 0 0 4.7173504201068965 1.1268086291193811 0 1.1268086291193811 -11.484345332901256 0 0 0 0 10.89973081428241 2.4563465592963212 0 2.4563465592963212 -14.848654889186378 0 0 0 0 51.631430349293623 -7.4595737330528209 0 -7.4595737330528209 -122.22738429262245 0 0 0 0 44.317140568800824 -15.414825113301049 0 -15.414825113301049 -287.46831951112836 0 0 0 0 42.40753679156569 -31.148834289677325 0 -31.148834289677325 -146.27821896180103 0 0 0 0 7.5696961430847409 -58.086815122955159 0 -58.086815122955159 -123.40379132379894 0 0 0 0 47.120272191288734 -144.68333377955241 0 -144.68333377955241 182.28463148376613 0 0 0 0 1.7457065950848119 -36.401619198120898 0 -36.401619198120898 -97.475538557802793 0 0 0 0 95.20446682488182 -87.998210148012731 0 -87.998210148012731 -41.498331647329906 0 0 0 0 22.93042802200398 123.10119549478986 0 123.10119549478986 -366.79443896865268 0 0 0 0 0.022794708777767347 -0.17392170849402078 0 -0.17392170849402078 -0.24961053275050915 0 0 0 0 17.217230787435028 55.18782806051604 0 55.18782806051604 -265.26786019559222 0 0 0 0 -53.508038359469367 24.272726668785253 0 24.272726668785253 -176.25938240157848 0 0 0 0 5.2156139066820266 1.2463367111554078 0 1.2463367111554078 0.24802426635263686 0 0 0 0 51.23922573373784 1.7478110610027215 0 1.7478110610027215 -184.05595519228154 0 0 0 0 -22.147033301788724 -2.2410919619833294 0 -2.2410919619833294 -64.524917652954173 0 0 0 0 -90.657133794146148 78.25545980600873 0 78.25545980600873 -146.56436710309936 0 0 0 0 -42.606777790078468 -0.88854040661681211 0 -0.88854040661681211 -21.155606743057433 0 0 0 0 -22.230731423795987 75.388719504546316 0 75.388719504546316 -99.64400849120284 0 0 0 0 -28.974688201386812 40.973911012020835 0 40.973911012020835 -29.840148579605739 0 0 0 0 12.221961384791712 1.9528691213127729 0 1.9528691213127729 -1.5785974259737969 0 0 0 0 -70.215429526493608 124.16596817707614 0 124.16596817707614 -178.74976191944006 0 0 0 0 22.526342570364307 47.466757757098094 0 47.466757757098094 -184.93875733739696 0 0 0 0 25.479767688736899 -22.770914708067721 0 -22.770914708067721 -15.82243484108767 0 0 0 0 19.596526578771261 24.57635707189911 0 24.57635707189911 -23.439852810901357 0 0 0 0 -36.526071605745301 54.250679543394654 0 54.250679543394654 -185.64443571755328 0 0 0 0 -0.75027379817974849 -2.8971215192418072 0 -2.8971215192418072 -3.3598993357650784 0 0 0 0 -30.729667911320576 76.691114858585934 0 76.691114858585934 -155.53464435633214 0 0 0 0 -12.171160756525808 36.251613751399418 0 36.251613751399418 -87.434611587857944 0 0 0 0 -2.912837451807718 44.183859575772658 0 44.183859575772658 -119.94811770685192 0 0 0 0 27.079058866544187 24.092423751684692 0 24.092423751684692 -117.2083753621846 0 0 0 0 29.08673154667531 30.278854922347819 0 30.278854922347819 -149.04520896919712 0 0 0 0 5.6160364038489661 10.887781262914359 0 10.887781262914359 -57.279093260527588 0 0 0 0 7.7209578425120906 -6.3098762434763103 0 -6.3098762434763103 -4.3785449664801348 0 0 0 0 19.038494852148688 23.883930889365729 0 23.883930889365729 -116.59206878728583 0 0 0 0 14.052719947661899 -13.188618306841818 0 -13.188618306841818 -211.01285170152187 0 0 0 0 11.908826671693532 -8.6854456851142459 0 -8.6854456851142459 -114.40351229991938 0 0 0 0 1.0661245537108037 1.1055029403286767 0 1.1055029403286767 -1.0134154045549622 0 0 0 0 10.400444003990586 -8.1788200405711962 0 -8.1788200405711962 -33.701599592152007 0 0 0 0 -76.322430898583207 -118.86202649387997 0 -118.86202649387997 7.0699816998258029 0 0 0 0 48.884815620832342 -53.059667605091818 0 -53.059667605091818 30.413433723748312 0 0 0 0 175.22657132436694 10.584199922879634 0 10.584199922879634 -309.36298613577674 0 0 0 0 70.754627358845113 129.65998190449318 0 129.65998190449318 -80.643916353379609 0 0 0 0 12.724281482119949 40.266158572107088 0 40.266158572107088 -75.536485365533736 0 0 0 0 19.031970735594026 117.59317280209507 0 117.59317280209507 -79.251297274488024 0 0 0 0 328.44734452086129 -113.42498203110881 0 -113.42498203110881 -64.923659484600648 0 0 0 0 -0.25380222906649674 1.6260204346775708 0 1.6260204346775708 -3.9467767876856854 0 0 0 0 7.3869216820834822 -4.6511718611272954 0 -4.6511718611272954 -24.800479590005125 0 0 0 0 6.1105336201626415 31.411389988657902 0 31.411389988657902 -9.9549229560980166 0 0 0 0 7.1475607989852703 -4.2623632451678475 0 -4.2623632451678475 -9.6742505448965233 0 0 0 0 47.523063181300131 22.053898553509498 0 22.053898553509498 -127.04939835667028 0 0 0 0 35.125324568200995 86.641456164172268 0 86.641456164172268 -146.39422560142702 0 0 0 0 41.349984392657916 -5.4909693584704655 0 -5.4909693584704655 -212.69945887108042 0 0 0 0 -170.76144380299593 -149.63462806532334 0 -149.63462806532334 5.6880048268649261 0 0 0 0 31.704764326274926 185.65167881006346 0 185.65167881006346 -229.03642359556397 0 0 0 0 8.9041626442994133 -5.2897996178362803 0 -5.2897996178362803 -32.160557311575758 0 0 0 0 4.8779587335682209 1.5259026397397975 0 1.5259026397397975 -68.031986034759029 0 0 0 0 5.7920738004406758 9.8394025382222026 0 9.8394025382222026 -64.053098584492545 0 0 0 0 6.7304657057322856 6.7134996368222346 0 6.7134996368222346 -53.584101926651783 0 0 0 0 8.2077566335146912 11.999958445652737 0 11.999958445652737 -55.519578418476158 0 0 0 0 5.9806418253378979 4.1183733188881888 0 4.1183733188881888 -56.953489508727216 0 0 0 0 0.22989043751124427 -0.69896445438280352 0 -0.69896445438280352 -53.854220274821273 0 0 0 0 0.80967034226203793 -1.8029486079030903 0 -1.8029486079030903 -52.23115659551695 0 0 0 0 -4.0934106392968488 -2.2038635654898826 0 -2.2038635654898826 -52.226144307537879 0 0 0 0 0.18590190280721686 -0.19567227502557216 0 -0.19567227502557216 -52.826953252864769 0 0 0 0 -6.5373581094658846 -9.6477466591459233 0 -9.6477466591459233 -48.657209662997047 0 0 0 0 -1.6960934185740939 -8.2670053298934363 0 -8.2670053298934363 -63.822650905014598 0 0 0 0 3.8960125011386055 -8.0820471750123843 0 -8.0820471750123843 -42.62925716763641 0 0 0 0 -6.249857728679217 0.50359467973612482 0 0.50359467973612482 -43.179268702158879 0 0 0 0 3.9824665950811777 0.78882234998309286 0 0.78882234998309286 -52.014765152838663 0 0 0 0 -6.5377995601249665 -1.0578285254450748 0 -1.0578285254450748 -50.624125574628124 0 0 0 0 -6.9606384065043585 -1.4697107645188225 0 -1.4697107645188225 -50.022309574531391 0 0 0 0 -5.5935871364770264 1.4448312056920258 0 1.4448312056920258 -53.068278519194791 0 0 0 0 -5.1425218070760366 0.13717754998651799 0 0.13717754998651799 -49.720315229271364 0 0 0 0 -14.562780478235538 3.6434729132015491 0 3.6434729132015491 -50.900615395981731 0 0 0 0 1.1266522080841241 4.5969865940132877 0 4.5969865940132877 -60.190563883108553 0 0 0 0 -1.4484747901037451 -34.99798662056287 0 -34.99798662056287 -73.034407697392453 0 0 0 0 -13.96441933998679 4.6124268257653966 0 4.6124268257653966 -54.752725440419454 0 0 0 0 -1.5275349123692195 9.3811797271555406 0 9.3811797271555406 -57.332597127351619 0 0 0 0 4.2319372572721328 -13.939015830089772 0 -13.939015830089772 -13.441503132276935 0 0 0 0 0.78724493199729295 -4.8056188137779827 0 -4.8056188137779827 -66.014522753015626 0 0 0 0 3.3317652054429345 12.418962004448986 0 12.418962004448986 -62.285190705762943 0 0 0 0 -17.258696226116854 -3.6339653027534951 0 -3.6339653027534951 -60.713309013604885 0 0 0 0 -5.6523150625729386 -0.17111333893990377 0 -0.17111333893990377 -60.21010498367832 0 0 0 0 0.12055389517058757 -10.027042574336519 0 -10.027042574336519 -102.48161569428339 0 0 0 0 -20.023738944784554 -15.219226483506645 0 -15.219226483506645 -76.751602680276847 0 0 0 0 3.8348256569211117 3.5556821898353519 0 3.5556821898353519 -89.007567817810923 0 0 0 0 3.7913551458220809 4.9930077627504943 0 4.9930077627504943 -75.709057481843047 0 0 0 0 13.428622398289917 22.937292423914187 0 22.937292423914187 -97.231923438201193 0 0 0 0 12.214035820831015 0.021295113008818589 0 0.021295113008818589 -31.629016798673547 0 0 0 0 -3.965855971217934 32.041434636208578 0 32.041434636208578 -47.580004209972685 0 0 0 0 33.306786244070736 1.2539559309079777 0 1.2539559309079777 -14.57397065332043 0 0 0 0 4.146506990384486 -1.31515676389688 0 -1.31515676389688 -12.255817466878511 0 0 0 0 8.5954964981456214 0.27467898098984733 0 0.27467898098984733 -60.421141538055963 0 0 0 0 20.701346829828253 -4.0693190825404599 0 -4.0693190825404599 -21.19159539033717 0 0 0 0 -1.5811975180295121 -9.910235869945609 0 -9.910235869945609 -72.571618124304223 0 0 0 0 14.646799278306776 -16.558014128330313 0 -16.558014128330313 -57.338441711965061 0 0 0 0 2.5350412200437829 8.2503931502646566 0 8.2503931502646566 -15.085554742161094 0 0 0 0 3.2537968205338075 2.4835930410336005 0 2.4835930410336005 -44.572286794733373 0 0 0 0 6.0259264950195739 1.2282744888078359 0 1.2282744888078359 -32.239755314748152 0 0 0 0 22.639392768748905 5.1433311160153607 0 5.1433311160153607 -64.77116490068147 0 0 0 0 -58.818741511759136 57.658397853042516 0 57.658397853042516 -27.688130056776572 0 0 0 0 -35.01227438841218 -75.033224617785891 0 -75.033224617785891 132.48056782904314 0 0 0 0 1.9921322319467833 2.838630238590568 0 2.838630238590568 -42.376079716386386 0 0 0 0 1.3625296627706083 -3.2786154747512146 0 -3.2786154747512146 -2.3885050930023226 0 0 0 0 -14.268490189197109 4.766598060981778 0 4.766598060981778 -31.584836106485454 0 0 0 0 6.8453307108835588 -5.4570298149701557 0 -5.4570298149701557 -53.457529921055539 0 0 0 0 36.228123845105969 -0.13018390261277091 0 -0.13018390261277091 -55.529649791613338 0 0 0 0 5.2614171099471605 5.718300751876086 0 5.718300751876086 -53.848280774323939 0 0 0 0 7.8196424030515317 -10.608080968761257 0 -10.608080968761257 -19.198804858042848 0 0 0 0 7.4601021197521087 14.023250973663352 0 14.023250973663352 -24.065805359359359 0 0 0 0 12.276870142749203 -3.6294569458495971 0 -3.6294569458495971 -64.267010254581692 0 0 0 0 -5.9088460159746319 -15.594730900804279 0 -15.594730900804279 -68.671492773846694 0 0 0 0 9.542348249652882 6.7644908492382854 0 6.7644908492382854 -29.62275044882108 0 0 0 0 -4.325870248168485 -12.711180175087065 0 -12.711180175087065 -70.781008019053843 0 0 0 0 -2.9283347630425851 -13.374477560442756 0 -13.374477560442756 -74.644282658031443 0 0 0 0 1.710033267380318 -10.805776934987762 0 -10.805776934987762 -12.59255375442315 0 0 0 0 -5.8132642986383871 -3.6932573473604862 0 -3.6932573473604862 -73.867553163872799 0 0 0 0 12.489732394074053 -17.038439882526291 0 -17.038439882526291 -75.140914994757622 0 0 0 0 -0.86161441977128561 -5.271787791265524 0 -5.271787791265524 -46.641579333401751 0 0 0 0 -3.7786125019611063 -9.6863999716733815 0 -9.6863999716733815 -69.689164711053309 0 0 0 0 6.9334595301775153 -19.050534070145659 0 -19.050534070145659 -24.768037569185253 0 0 0 0 -3.9153065381739376 -17.248532030300339 0 -17.248532030300339 -10.005953618994681 0 0 0 0 -3.8007936114650036 -13.193020220726297 0 -13.193020220726297 -24.101529576947314 0 0 0 0 2.0206720487822167 15.451915805169847 0 15.451915805169847 -100.02558556386793 0 0 0 0 -0.16886050421614274 -2.8219520220712031 0 -2.8219520220712031 -29.443493444386945 0 0 0 0 -7.1898774317896823 10.496090037297108 0 10.496090037297108 -99.321455012803199 0 0 0 0 17.891862360746416 -7.035298958839121 0 -7.035298958839121 -22.277508013125043 0 0 0 0 9.7124244872733208 -9.4933354224775215 0 -9.4933354224775215 -43.832041934735742 0 0 0 0 8.135822643727348 -4.7236815819480569 0 -4.7236815819480569 -55.773378742939627 0 0 0 0 -2.6159178727270791 -11.722444581069432 0 -11.722444581069432 -17.291226347399743 0 0 0 0 5.6867791808590482 -17.084392843040405 0 -17.084392843040405 -21.660737509504543 0 0 0 0 1.2433031529212712 -14.19465800296166 0 -14.19465800296166 -24.144462521449896 0 0 0 0 -0.86446713672439535 -8.1826139176895367 0 -8.1826139176895367 -29.224816763881279 0 0 0 0 0.45517914610228871 -6.1838402063110607 0 -6.1838402063110607 -43.127264740454848 0 0 0 0 0.73005944489365859 -3.5759231532511251 0 -3.5759231532511251 -29.438414022204867 0 0 0 0 -0.81654942047703116 -12.683802166589885 0 -12.683802166589885 -22.504587421077304 0 0 0 0 -0.37198896094923839 -36.09806882806879 0 -36.09806882806879 -28.628877655442921 0 0 0 0 -5.4742629372014395 -10.519922202186166 0 -10.519922202186166 -15.742882581049628 0 0 0 0 -5.2740792330972779 -11.869089827267715 0 -11.869089827267715 -18.870237311595815 0 0 0 0 -6.6987030000550476 -11.554565951650147 0 -11.554565951650147 -14.496573936667119 0 0 0 0 -6.1965652750145637 -6.2960995273460867 0 -6.2960995273460867 -20.379185689809674 0 0 0 0 -198.75279633678281 -58.695474259984621 0 -58.695474259984621 -24.517368099368923 0 0 0 0 -5.4062986089211984 -6.029755710325901 0 -6.029755710325901 -21.909659452311633 0 0 0 0 -1.712161569446442 -1.4030491116857036 0 -1.4030491116857036 -6.1909452504426259 0 0 0 0 -443.43419683058266 -36.070964721191558 0 -36.070964721191558 564.93708231387427 0 0 0 0 -432.4078098961794 485.31288175057898 0 485.31288175057898 -835.16538867253985 0 0 0 0 -1.2267998063940315 -0.084205163738102939 0 -0.084205163738102939 -8.4797355107069734 0 0 0 0 33.327261260087312 268.28493605164113 0 268.28493605164113 -2457.3142264018825 0 0 0 0 -3.0573757202160929 -5.9065968070869914 0 -5.9065968070869914 -12.88325977163268 0 0 0 0 100.21297876108781 3.3862850461628113 0 3.3862850461628113 -3463.2640792593011 0 0 0 0 -1340.5372484699508 -1514.768751253785 0 -1514.768751253785 -1629.0727816755389 0 0 0 0 -477.4385438801329 1218.3222285530283 0 1218.3222285530283 -3498.3970383489577 0 0 0 0 -8.352816329342204 16.535052368846664 0 16.535052368846664 -58.204376573354239 0 0 0 0 203.56599504187511 -277.65064044872815 0 -277.65064044872815 90.374303780758055 0 0 0 0 169.57963463774868 782.24036603025161 0 782.24036603025161 -3349.8411831694757 0 0 0 0 -4.9982088604226567 1.558844008106604 0 1.558844008106604 -3.9694442521403701 0 0 0 0 4.0875132540427828 -8.4549563681158446 0 -8.4549563681158446 -15.490438285424872 0 0 0 0 512.31911210594512 -848.28759125173383 0 -848.28759125173383 -3484.1839716487925 0 0 0 0 395.24384608033569 -524.56467552602408 0 -524.56467552602408 705.78270675642125 0 0 0 0 450.3142471102401 -187.06859462766442 0 -187.06859462766442 22.539529212575871 0 0 0 0 322.07571076548248 -103.14085648020409 0 -103.14085648020409 -1614.7606668573135 0 0 0 0 -4.4571619493096062 2.4777068211689937 0 2.4777068211689937 -12.366765255232281 0 0 0 0 2.2987812177585285 0.40682703273816401 0 0.40682703273816401 -3.8564955021914074 0 0 0 0 -1157.2103046802827 -2199.0682491679327 0 -2199.0682491679327 1004.907968551619 0 0 0 0 -182.54831523549103 109.03883579291141 0 109.03883579291141 -401.07241638693085 0 0 0 0 348.99342704412913 -112.14649190272758 0 -112.14649190272758 -615.23230931707076 0 0 0 0 30.711343918371107 259.62871607000488 0 259.62871607000488 -65.76999744035129 0 0 0 0 42.827066210074165 284.85951068272698 0 284.85951068272698 -533.78516393848986 0 0 0 0 -1.2146327292444781 -0.18087378481982341 0 -0.18087378481982341 -0.19854858809294562 0 0 0 0 -6.8580698257553081 208.54247872049018 0 208.54247872049018 45.4214447247723 0 0 0 0 -73.40473445611687 37.598229822289795 0 37.598229822289795 19.584524379533832 0 0 0 0 109.80156913780721 -7.6657019989361288 0 -7.6657019989361288 -120.07943347539003 0 0 0 0 22.372896602483536 66.379314953919675 0 66.379314953919675 -111.24693823055713 0 0 0 0 -94.66413271701613 23.193760184236453 0 23.193760184236453 -47.811353957033134 0 0 0 0 -1.1542964205599446 -0.97051619898775243 0 -0.97051619898775243 -52.500640132304397 0 0 0 0 -22.78493768427677 -22.715347040117194 0 -22.715347040117194 -66.954700979132213 0 0 0 0 -20.780354408733501 -20.538595578946115 0 -20.538595578946115 -45.59840012535642 0 0 0 0 10.84461093165919 11.830089210547158 0 11.830089210547158 -106.64727953325564 0 0 0 0 0.4298339486346161 -0.81538564247500744 0 -0.81538564247500744 -9.8107549817750126 0 0 0 0 -0.22314095009890522 -14.907222556758214 0 -14.907222556758214 -20.337722821729628 0 0 0 0 4.1479289708323108 16.389867901030811 0 16.389867901030811 -14.609090731544711 0 0 0 0 -13.451042834217592 20.986859945818651 0 20.986859945818651 -51.958702641408308 0 0 0 0 -2.6785155464301056 14.68276787461582 0 14.68276787461582 -48.270530527315714 0 0 0 0 -2.873083409821497 13.058006810864754 0 13.058006810864754 -60.306572648867586 0 0 0 0 6.9135378316848559 3.3654830210653017 0 3.3654830210653017 -52.860250079458638 0 0 0 0 6.8409826139301231 -2.3438775215763599 0 -2.3438775215763599 -62.821090769713919 0 0 0 0 1.8566641294338038 -7.1769087618213092 0 -7.1769087618213092 -26.204081625425374 0 0 0 0 20.540006655697294 -1.3416573792003419 0 -1.3416573792003419 -65.70204106226447 0 0 0 0 33.047984411841618 -3.9342165183743418 0 -3.9342165183743418 -43.401916932605673 0 0 0 0 21.512931235327983 11.728099172509246 0 11.728099172509246 -62.633134269779475 0 0 0 0 -9.4365216782591688 3.9814339535223553 0 3.9814339535223553 -44.609144480724353 0 0 0 0 83.70370459925428 -71.590417378156417 0 -71.590417378156417 -35.870364975722623 0 0 0 0 3.3726760543284211 -10.497655710899139 0 -10.497655710899139 -16.034864292295381 0 0 0 0 -5.6730347212276868 8.9000939654897593 0 8.9000939654897593 -47.021928435453447 0 0 0 0 244.27323403378989 198.97189371249988 0 198.97189371249988 -2239.8991623699403 0 0 0 0 -333.76125077205558 -626.90717417775159 0 -626.90717417775159 -1888.8116769186763 0 0 0 0 -1.3017041741006694 -3.7488663191247866 0 -3.7488663191247866 -9.3788189471560131 0 0 0 0 311.1745907584978 764.65496081574747 0 764.65496081574747 -3500.8551551973724 0 0 0 0 532.51191664666248 326.49093520582028 0 326.49093520582028 -3243.9103692893732 0 0 0 0 -315.2621142667881 945.7462440665513 0 945.7462440665513 -1031.8199437584699 0 0 0 0 236.13615482792224 -75.121423151620547 0 -75.121423151620547 -1243.4329314192291 0 0 0 0 -284.06099302074142 -1072.5741894511339 0 -1072.5741894511339 -2802.1676684335871 0 0 0 0 -1.5915022965622769 0.20819614329682778 0 0.20819614329682778 -9.9813257070960617 0 0 0 0 173.79508079595047 -498.59447395817915 0 -498.59447395817915 -3493.1980070286809 0 0 0 0 -0.88744548765313103 3.2911412572937166 0 3.2911412572937166 -34.188233882735801 0 0 0 0 -3.8953812265161183 1.4306691966485232 0 1.4306691966485232 -39.611645237167977 0 0 0 0 -570.13585987116767 -188.33612696998534 0 -188.33612696998534 198.77785894447879 0 0 0 0 -1.6278539906784317 5.7559389709931565 0 5.7559389709931565 -55.182275735283838 0 0 0 0 -8.3238681271643262 2.9040122973916738 0 2.9040122973916738 -5.9346787284407938 0 0 0 0 -3.9814833620457648 -3.8593086684850277 0 -3.8593086684850277 -33.462958063060796 0 0 0 0 -12.360970158765326 12.164102138014641 0 12.164102138014641 -49.655516465441906 0 0 0 0 -3.6630166360000658 4.8081094987428514 0 4.8081094987428514 -42.795759972519591 0 0 0 0 -2.6288367593066368 9.5357163598309853 0 9.5357163598309853 -42.817536216891313 0 0 0 0 -0.34987137540459728 5.9642664791334568 0 5.9642664791334568 -53.664012268140141 0 0 0 0 -11.828780022641979 36.208986363643817 0 36.208986363643817 -65.690746184089221 0 0 0 0 15.699487780996606 46.590232679289329 0 46.590232679289329 -125.39229855469603 0 0 0 0 1.2771148743813683 -8.1646472428619745 0 -8.1646472428619745 -35.726301882699772 0 0 0 0 -1.6545170299885017 3.0583377808693086 0 3.0583377808693086 -6.8813792704173693 0 0 0 0 8.7361144443721059 -1.2695474598367582 0 -1.2695474598367582 -43.863530507287578 0 0 0 0 41.968109091062615 -41.881836060245405 0 -41.881836060245405 -117.54442550898693 0 0 0 0 17.084954797662704 12.017357452539727 0 12.017357452539727 -48.821747662048438 0 0 0 0 1.7541212151090804 0.63752379802463111 0 0.63752379802463111 -42.790211368585005 0 0 0 0 100.72387808702388 -132.43412071595958 0 -132.43412071595958 17.555291990356636 0 0 0 0 5.4148592001560409 7.6809507682079925 0 7.6809507682079925 -54.139357767853454 0 0 0 0 132.07994494107652 -35.137892934390948 0 -35.137892934390948 -43.794984414947976 0 0 0 0 8.310197077342421 0.35038032625865867 0 0.35038032625865867 -35.191812820596908 0 0 0 0 2.3130442331448648 33.214660418736457 0 33.214660418736457 -74.600758525848505 0 0 0 0 22.985230859308103 8.3293900206263061 0 8.3293900206263061 -59.813930541517038 0 0 0 0 12.470011454424075 2.7845290926544379 0 2.7845290926544379 -29.585896982588807 0 0 0 0 14.315379158427049 5.1329922345412342 0 5.1329922345412342 -62.781015927888802 0 0 0 0 23.097562058971107 10.372141388861564 0 10.372141388861564 -51.223399475013139 0 0 0 0 17.595464614224056 -1.1177140159634291 0 -1.1177140159634291 -56.295834024102078 0 0 0 0 2.1083847274100838 3.0829140439698257 0 3.0829140439698257 -48.376057324984544 0 0 0 0 8.7373149247337096 -8.9453532310508308 0 -8.9453532310508308 -62.920264474150827 0 0 0 0 9.7718654208908902 6.2810296687785012 0 6.2810296687785012 -54.536238142747607 0 0 0 0 8.8429797836890582 -8.4025317698421418 0 -8.4025317698421418 -22.732541593332684 0 0 0 0 5.9622656635248994 8.5357762935525319 0 8.5357762935525319 -66.788253962440649 0 0 0 0 5.9619367827317546 7.27080806883896 0 7.27080806883896 -59.577212313801283 0 0 0 0 6.9995732322004187 0.097443885264510754 0 0.097443885264510754 -56.761134483880596 0 0 0 0 7.7513798603499708 3.1888877028977731 0 3.1888877028977731 -65.409977553326826 0 0 0 0 3.0142798830310804 3.4153415482021217 0 3.4153415482021217 -49.578811852539388 0 0 0 0 7.8509615077674653 -3.9211200410309175 0 -3.9211200410309175 -53.602364412770839 0 0 0 0 6.526239901297231 9.1311564339412143 0 9.1311564339412143 -46.25903641419427 0 0 0 0 -0.20933974594095162 0.40559629819836118 0 0.40559629819836118 -51.891378188054659 0 0 0 0 3.1264353808428496 2.4405586870707339 0 2.4405586870707339 -51.912209422676824 0 0 0 0 3.6617258711648901 2.1392090305016609 0 2.1392090305016609 -52.07701914347308 0 0 0 0 10.082824192965745 6.7469809504254954 0 6.7469809504254954 -49.054345964679669 0 0 0 0 6.4492036163778721 8.1510419574260595 0 8.1510419574260595 -48.754520790062088 0 0 0 0 23.77140550398417 11.943220201792428 0 11.943220201792428 -33.755881411110749 0 0 0 0 2.2546136756799324 7.2175042384185026 0 7.2175042384185026 -37.309586860156202 0 0 0 0 15.89426142463526 10.893056392487779 0 10.893056392487779 -50.425165780416137 0 0 0 0 20.272701901917117 11.429498813165992 0 11.429498813165992 -25.845564143179217 0 0 0 0 -1.6202315855625784 -15.84600218659034 0 -15.84600218659034 -59.909425570140229 0 0 0 0 4.4060651273903204 1.6840190217189956 0 1.6840190217189956 -8.2681128194089979 0 0 0 0 20.799308487720737 10.917713395629107 0 10.917713395629107 -32.487876033497741 0 0 0 0 10.070015033710661 -6.628401791320357 0 -6.628401791320357 -58.989392319405852 0 0 0 0 7.4773787527871534 1.3304229120237494 0 1.3304229120237494 -22.518631739404697 0 0 0 0 4.2652697418063354 2.9224372290195788 0 2.9224372290195788 -11.548143079352855 0 0 0 0 8.837849923351154 4.6848878014809401 0 4.6848878014809401 -20.457042441173741 0 0 0 0 6.1870317059905284 5.2733593392740801 0 5.2733593392740801 -23.949333220248434 0 0 0 0 19.915644914026643 9.4148140760062233 0 9.4148140760062233 -34.289880633441499 0 0 0 0 7.8514286009412899 13.021707953303121 0 13.021707953303121 -17.842457014499814 0 0 0 0 6.5342350912304212 1.9556951512224714 0 1.9556951512224714 -26.200057870573659 0 0 0 0 -0.59659130812678995 -9.038022187885872 0 -9.038022187885872 -36.846480760301347 0 0 0 0 17.525801902723742 -0.8035507970234903 0 -0.8035507970234903 -35.321565025118616 0 0 0 0 16.086242469627365 1.8486003930775041 0 1.8486003930775041 -42.499832284272998 0 0 0 0 12.573686108058217 1.1279361686868015 0 1.1279361686868015 -25.00461410957422 0 0 0 0 8.1531777843243152 3.6134115365812747 0 3.6134115365812747 -42.633496814510323 0 0 0 0 14.851289088116573 0.55462226491363253 0 0.55462226491363253 -51.976798303367104 0 0 0 0 16.621495052084811 -0.72865045249454852 0 -0.72865045249454852 -34.156453620904358 0 0 0 0 16.210420890854039 5.4320716034344514 0 5.4320716034344514 -37.637480712815886 0 0 0 0 22.413119742683193 9.8392724224358972 0 9.8392724224358972 -37.006178720519529 0 0 0 0 -75.872827846943437 -194.4020106728276 0 -194.4020106728276 -80.81216863442387 0 0 0 0 -28.893808676239132 -124.89079871012655 0 -124.89079871012655 -0.64945457050271216 0 0 0 0 4.3311332439539001 -83.587856910667142 0 -83.587856910667142 5.7906201551668346 0 0 0 0 -1.0771417526423193 -113.30029391903008 0 -113.30029391903008 -4.6493030773854116 0 0 0 0 -98.218934322275857 -120.99648091684867 0 -120.99648091684867 36.005417864696938 0 0 0 0 -5.4543814378463082 -3.9709818967368662 0 -3.9709818967368662 -1.8547085241713148 0 0 0 0 -78.8068001401316 337.58939738649497 0 337.58939738649497 -105.0487793389475 0 0 0 0 97.041415526177389 149.63856455895893 0 149.63856455895893 -489.89309748116648 0 0 0 0 114.75251660993717 -150.3935663136499 0 -150.3935663136499 -437.82743276412657 0 0 0 0 83.284628983633411 -174.11755181496846 0 -174.11755181496846 -87.985628026704944 0 0 0 0 201.72975456378481 -25.113853932623897 0 -25.113853932623897 -472.66274643035649 0 0 0 0 -385.51384295243179 42.123804353926971 0 42.123804353926971 266.73897033692629 0 0 0 0 3.1537451991424135 -15.761788318387062 0 -15.761788318387062 -31.88669484696527 0 0 0 0 -6.8916586052400817 -5.4556338331094594 0 -5.4556338331094594 -13.384001415019156 0 0 0 0 14.598554759651961 17.704131411031995 0 17.704131411031995 -73.657312964867742 0 0 0 0 6.4245298512440012 2.4654641520453708 0 2.4654641520453708 -36.085332518931892 0 0 0 0 -0.37065974922006717 -10.308982099908462 0 -10.308982099908462 -10.733206137578236 0 0 0 0 9.212443399257328 -4.9642093037003008 0 -4.9642093037003008 -30.812653873074602 0 0 0 0 -0.003120626938683202 5.33262943772149 0 5.33262943772149 1.7416172013648463 0 0 0 0 21.50737764529822 9.3373359699107823 0 9.3373359699107823 -54.147775913370424 0 0 0 0 -0.0088940849755090312 26.327623477825 0 26.327623477825 -46.078237587025797 0 0 0 0 6.4428301988175463 11.531942796849762 0 11.531942796849762 -44.697620135317266 0 0 0 0 6.485386591735665 13.408680491652234 0 13.408680491652234 -12.921772141419481 0 0 0 0 6.3474482852238907 12.941692800435703 0 12.941692800435703 -53.655506246432196 0 0 0 0 9.8046747635677001 -3.1857810528364396 0 -3.1857810528364396 -28.869345815063639 0 0 0 0 17.381999897384048 -22.438163270384393 0 -22.438163270384393 -42.794831962170065 0 0 0 0 10.415413062122752 -3.7809369014430558 0 -3.7809369014430558 -23.643927558056021 0 0 0 0 -39.305178776511298 63.571405848350878 0 63.571405848350878 -80.713437911224901 0 0 0 0 4.6295452789706477 -2.576287510295252 0 -2.576287510295252 -23.267510214751326 0 0 0 0 9.1467108256412715 0.40086821912142057 0 0.40086821912142057 -19.125564156952166 0 0 0 0 206.4062701057349 70.831700501148021 0 70.831700501148021 -147.76217774488032 0 0 0 0 7.0929761380511742 -0.71045886058644214 0 -0.71045886058644214 -10.527704858620851 0 0 0 0 47.441522419790999 -141.7038268379838 0 -141.7038268379838 83.729465229043853 0 0 0 0 -261.77473549385923 178.73406180091479 0 178.73406180091479 -177.36403071648238 0 0 0 0 35.691797904431496 -93.459946193939686 0 -93.459946193939686 -9.1867629113985458 0 0 0 0 9.8802364512921486 -27.601844297758362 0 -27.601844297758362 -107.36458559491439 0 0 0 0 4.6029898656718267 -6.0110052135535241 0 -6.0110052135535241 -27.946756289770235 0 0 0 0 5.4864729407472623 -23.158985936435784 0 -23.158985936435784 -49.383861337322742 0 0 0 0 -0.3071092018562922 -30.615407243541995 0 -30.615407243541995 -46.871530868418631 0 0 0 0 -51.23190188809167 -66.456143179722858 0 -66.456143179722858 -12.615201988417539 0 0 0 0 -190.58486910460852 109.83929482207168 0 109.83929482207168 -63.747309747668623 0 0 0 0 2.5831143965433938 -6.6522556140428009 0 -6.6522556140428009 -6.9231303869714509 0 0 0 0 12.753878320586864 37.323196171182644 0 37.323196171182644 -165.78633886211901 0 0 0 0 -1.6376003823315841 10.936932859600347 0 10.936932859600347 -211.05550767829845 0 0 0 0 131.68252315696873 -83.774889930825339 0 -83.774889930825339 -149.69010319690278 0 0 0 0 -195.3290365484936 73.683053328713868 0 73.683053328713868 -126.19682779388677 0 0 0 0 159.34778843474032 114.46484345642966 0 114.46484345642966 -212.28224448290712 0 0 0 0 -0.64525381891326106 228.02029071669676 0 228.02029071669676 -209.73203751980327 0 0 0 0 -4.0362409072093008 -12.156710300652229 0 -12.156710300652229 -28.262547879400586 0 0 0 0 -60.52322964439918 -22.363922050477413 0 -22.363922050477413 -24.878744030582311 0 0 0 0 -155.10516982091053 262.68256233352622 0 262.68256233352622 -148.23975140762923 0 0 0 0 -50.684333490364224 -44.48783967808231 0 -44.48783967808231 -14.891006880861823 0 0 0 0 -84.062053343759544 -36.84746026279754 0 -36.84746026279754 -14.676957865580334 0 0 0 0 -161.95890739352944 -87.798025108138972 0 -87.798025108138972 0.46363357323275523 0 0 0 0 -42.127140640610378 -83.80542425450767 0 -83.80542425450767 0.53884127775381785 0 0 0 0 -84.503548018628862 -56.479086364168325 0 -56.479086364168325 2.5886788132338552 0 0 0 0 -37.338138340346632 -81.683517642661172 0 -81.683517642661172 2.8177452220868986 0 0 0 0 -61.841368240276097 -76.619058988755569 0 -76.619058988755569 40.234365754324244 0 0 0 0 -84.544580896595107 -113.64326321217959 0 -113.64326321217959 34.21519426197483 0 0 0 0 -25.260664900375559 -94.032752928265836 0 -94.032752928265836 11.910069628440397 0 0 0 0 -49.227845808385609 -71.548057086773042 0 -71.548057086773042 65.136812397759059 0 0 0 0 -25.715718267301327 -87.321720253061358 0 -87.321720253061358 2.0483676088842913 0 0 0 0 52.569762275377798 -23.284619068399479 0 -23.284619068399479 41.889799280013904 0 0 0 0 99.913236228204369 -106.4508969223898 0 -106.4508969223898 -68.893633694970049 0 0 0 0 -59.296805230811515 -97.507505936562666 0 -97.507505936562666 -0.82818629849498393 0 0 0 0 -25.032732047024183 -170.02748364364379 0 -170.02748364364379 -97.356114517264359 0 0 0 0 111.77726021129274 -54.659709134313744 0 -54.659709134313744 -36.773214698099764 0 0 0 0 174.29805136633786 -93.100498609081114 0 -93.100498609081114 -130.46354575944133 0 0 0 0 409.91812424767431 269.50423805140599 0 269.50423805140599 -88.004370990203824 0 0 0 0 -146.29556354398756 -322.32787953137085 0 -322.32787953137085 -255.53750840589782 0 0 0 0 -442.45256388023699 -71.377006426882872 0 -71.377006426882872 -8.634479052727329 0 0 0 0 -73.291979983991041 505.04124339019472 0 505.04124339019472 119.19798604192692 0 0 0 0 -465.86232766440821 -443.42966549843186 0 -443.42966549843186 370.02980010616011 0 0 0 0 358.70926208962737 -57.068987504659162 0 -57.068987504659162 -502.96519640566476 0 0 0 0 15.256141210247367 1.1464125335874655 0 1.1464125335874655 -20.650400509526634 0 0 0 0 -2.1850308005541592 -18.111571706060204 0 -18.111571706060204 -46.636894592062163 0 0 0 0 -2.0869554493583564 -20.577262144586712 0 -20.577262144586712 -53.51500890465104 0 0 0 0 9.8242479156582689 -1.6038773118026199 0 -1.6038773118026199 -28.762796427355767 0 0 0 0 -9.4302321613822642 -47.45488129113437 0 -47.45488129113437 -101.61783102976915 0 0 0 0 -23.16923449615706 20.181172086464358 0 20.181172086464358 -50.662021608441137 0 0 0 0 -0.010837963345830204 -5.048808613950726 0 -5.048808613950726 -9.1212347504121567 0 0 0 0 -4.8880289233653826 -21.546447677127233 0 -21.546447677127233 -42.841999742694242 0 0 0 0 9.4295506019661204 11.080238772930571 0 11.080238772930571 -54.816882263752547 0 0 0 0 -1.6158969726116084 4.4305291756136285 0 4.4305291756136285 -103.74192128037248 0 0 0 0 -16.146112104377607 -78.925049205943651 0 -78.925049205943651 -122.77523046578426 0 0 0 0 -5.1603722273139283 -116.2000458433431 0 -116.2000458433431 -363.60994502639369 0 0 0 0 5.067134354849486 0.9652998095451224 0 0.9652998095451224 -15.774250377468007 0 0 0 0 -158.37158769824373 -166.40864486309874 0 -166.40864486309874 -122.91807460669952 0 0 0 0 -15.181403324963366 -32.242432459342922 0 -32.242432459342922 -28.120696102116057 0 0 0 0 -5.6211900356238544 -7.162741248353278 0 -7.162741248353278 2.3419556267033386 0 0 0 0 -12.877633748018525 -7.2711665634196834 0 -7.2711665634196834 -90.91996388273401 0 0 0 0 -16.796402351056269 -35.01833363875231 0 -35.01833363875231 -42.769479015189901 0 0 0 0 -39.653691578819917 -35.840972519781644 0 -35.840972519781644 -81.146989881337504 0 0 0 0 -46.063392632659088 -162.47811672040552 0 -162.47811672040552 -419.97708810481708 0 0 0 0 134.28038433132656 97.01790024373804 0 97.01790024373804 -713.30863488776959 0 0 0 0 -8.3477051097306685 -6.7588395919156028 0 -6.7588395919156028 -112.37141196434823 0 0 0 0 -15.328777972009448 -14.751130127144279 0 -14.751130127144279 -45.011779475596995 0 0 0 0 -13.417809673386046 -2.4958910250461486 0 -2.4958910250461486 -71.652127708497574 0 0 0 0 -4.4625641720072764 -12.860265948462171 0 -12.860265948462171 -20.075580799197795 0 0 0 0 -8.9538560600312849 -0.3076796627647127 0 -0.3076796627647127 -71.305392454957655 0 0 0 0 -25.519236014722651 5.6436506230311352 0 5.6436506230311352 -42.27004413252871 0 0 0 0 -36.983820648452138 -13.542403003473737 0 -13.542403003473737 -58.99088120059605 0 0 0 0 -3.563742813398993 -12.961238088690337 0 -12.961238088690337 -40.373671670652612 0 0 0 0 282.85721048624328 -316.42736471477838 0 -316.42736471477838 33.168269531117403 0 0 0 0 -9.7492857345159312 -18.79399619143247 0 -18.79399619143247 -22.656526671787162 0 0 0 0 -26.436124708697207 -1.8872205241859774 0 -1.8872205241859774 -36.600745395400736 0 0 0 0 -14.46680699491958 -9.2485586667171447 0 -9.2485586667171447 -41.811662253472605 0 0 0 0 323.74265894222634 -336.96656880737049 0 -336.96656880737049 -155.65712308319053 0 0 0 0 322.34449479139766 130.47798088894342 0 130.47798088894342 -622.97191154019674 0 0 0 0 -3.3491071410647084 -4.289998415405762 0 -4.289998415405762 -8.0481129439213248 0 0 0 0 -125.7371223328737 -43.615821172008509 0 -43.615821172008509 -49.189268185364199 0 0 0 0 -492.78836770840098 483.78415344549285 0 483.78415344549285 -226.13538466434693 0 0 0 0 313.36533751576644 22.67978071836842 0 22.67978071836842 80.719035957125925 0 0 0 0 336.15636542214452 -9.6360719809308648 0 -9.6360719809308648 -289.21027638949454 0 0 0 0 -0.9613149213928196 -7.2795623817688977 0 -7.2795623817688977 -8.7285587977889918 0 0 0 0 -16.972918956021658 -50.786573970268364 0 -50.786573970268364 -23.523305247610551 0 0 0 0 -2.7471854857485347 -10.466918115718997 0 -10.466918115718997 -44.299909762451477 0 0 0 0 -9.3226296498605734 -11.364790473307949 0 -11.364790473307949 -57.996992454209249 0 0 0 0 8.13682436608633 -11.714612204239529 0 -11.714612204239529 -31.794344002220896 0 0 0 0 -2.3127923330029043 -11.282548136550183 0 -11.282548136550183 -46.391853154030741 0 0 0 0 -6.8140012827925887 -12.538361576644661 0 -12.538361576644661 -34.52038138772474 0 0 0 0 17.836691628189783 -25.92217744536174 0 -25.92217744536174 -73.517658817645497 0 0 0 0 21.249334574180466 -22.759808007227548 0 -22.759808007227548 -103.76108849263983 0 0 0 0 0.48714509059755073 -11.347384848573711 0 -11.347384848573711 -77.071331192935759 0 0 0 0 19.20292381139393 3.5202374430009513 0 3.5202374430009513 -94.932622929263744 0 0 0 0 12.830644361113173 2.7614713487273548 0 2.7614713487273548 -68.097176413662964 0 0 0 0 -12.693805194277502 14.470588891883381 0 14.470588891883381 -67.788661381505335 0 0 0 0 -11.00814632519382 -10.864051500028836 0 -10.864051500028836 -35.897886251324962 0 0 0 0 -10.62594476023196 8.3306586723774672 0 8.3306586723774672 -55.345324501923642 0 0 0 0 -6.8172309992781255 4.1280686295813211 0 4.1280686295813211 -25.77766076371185 0 0 0 0 -3.7894602542581106 1.8203302726996142 0 1.8203302726996142 -37.183070362159697 0 0 0 0 -5.4659118375699336 -6.1831630493106786 0 -6.1831630493106786 -39.320612159266602 0 0 0 0 -14.082007329392567 -8.9953342297901884 0 -8.9953342297901884 -15.778306065514741 0 0 0 0 -5.8334486022890815 25.328442235051625 0 25.328442235051625 -157.60808688305406 0 0 0 0 -106.52278865549351 -70.084109261042613 0 -70.084109261042613 -52.79481617388592 0 0 0 0 52.532905538029127 128.22820472383319 0 128.22820472383319 -444.10046577287721 0 0 0 0 3.9211423787416777 -8.9406120820203796 0 -8.9406120820203796 -19.33539295202354 0 0 0 0 -8.8475733517668012 10.852074104768974 0 10.852074104768974 -24.881688375131517 0 0 0 0 48.008488334416903 -13.483073099981993 0 -13.483073099981993 -45.793680238413799 0 0 0 0 -10.380575756818757 -12.979950897501027 0 -12.979950897501027 -12.542496638091365 0 0 0 0 34.146759793408165 -44.881384192041878 0 -44.881384192041878 -83.91730553528032 0 0 0 0 -54.709669127921899 -46.812310205623362 0 -46.812310205623362 45.190988867318083 0 0 0 0 -61.694614296920179 -91.264589009186693 0 -91.264589009186693 -77.742810954136075 0 0 0 0 -5.368518157199679 -13.26528525459986 0 -13.26528525459986 -7.9605873657134936 0 0 0 0 -51.281349039275824 -38.2730117271567 0 -38.2730117271567 36.911115721086389 0 0 0 0 -37.845388407142764 75.032773494254798 0 75.032773494254798 -106.18683864787454 0 0 0 0 -22.880166577827708 6.0677160313589411 0 6.0677160313589411 8.4203656555910129 0 0 0 0 -36.95803076419088 66.509232961208909 0 66.509232961208909 -73.458904210405308 0 0 0 0 15.694313368077928 -0.16216683703532908 0 -0.16216683703532908 -96.544604495276872 0 0 0 0 3.90396416307658 35.119772029098385 0 35.119772029098385 -195.36048254811612 0 0 0 0 -57.234007440322785 -89.614108484209282 0 -89.614108484209282 -126.51547084292906 0 0 0 0 -0.50748271020664992 1.5421191885211698 0 1.5421191885211698 -0.91981269175460056 0 0 0 0 15.116346449789035 40.128282691664936 0 40.128282691664936 -183.1534301443462 0 0 0 0 -108.15391725157485 84.227930494402244 0 84.227930494402244 -62.9549993686378 0 0 0 0 -21.494800243182908 9.5654307879885891 0 9.5654307879885891 -28.707639726926573 0 0 0 0 -21.68257227204731 13.939909707325569 0 13.939909707325569 -22.084982370084617 0 0 0 0 -11.575093383420153 5.5730365451381658 0 5.5730365451381658 -27.101227811872377 0 0 0 0 0.14114346350578977 0.083659722432500416 0 0.083659722432500416 -9.5762447602405985 0 0 0 0 -6.5957312012983493 7.5227689672792621 0 7.5227689672792621 -47.334754246898228 0 0 0 0 -22.816800941501697 -16.311591416240844 0 -16.311591416240844 -17.219527904337156 0 0 0 0 -5.332599742263767 -28.005457809736981 0 -28.005457809736981 -15.348916497721802 0 0 0 0 1.5586067674132682 -12.208540305172193 0 -12.208540305172193 -21.337621828573646 0 0 0 0 -0.24032575070975937 -3.4422130417676051 0 -3.4422130417676051 -4.4993201636076492 0 0 0 0 -10.276673980471514 -0.65255204333516303 0 -0.65255204333516303 -43.960414014851267 0 0 0 0 -2.6887436415615849 -13.16717333068442 0 -13.16717333068442 -33.760356130160915 0 0 0 0 1.8386790570833202 -5.6288797485715847 0 -5.6288797485715847 -50.818430719732646 0 0 0 0 66.000916029860491 -75.629155367554631 0 -75.629155367554631 -16.655332211774294 0 0 0 0 63.240796937288451 -55.051968885292808 0 -55.051968885292808 -102.83493166259723 0 0 0 0 42.285103410470697 -30.593531051772516 0 -30.593531051772516 -51.898316857754253 0 0 0 0 11.956151527043403 59.963282947195694 0 59.963282947195694 -76.890074401551828 0 0 0 0 -7.6842909303679789 1.8897044251789339 0 1.8897044251789339 -54.763847345770046 0 0 0 0 -1.1596639452736781 8.2241352062919759 0 8.2241352062919759 -48.800150377282989 0 0 0 0 2.9514941346969557 4.001769303363794 0 4.001769303363794 -55.439805879244773 0 0 0 0 47.464732516826189 22.801273882003443 0 22.801273882003443 -86.748794336279389 0 0 0 0 -34.350640511231745 32.260495849719518 0 32.260495849719518 -58.996382791272481 0 0 0 0 0.28724971543507571 13.085826883538161 0 13.085826883538161 -27.319070981398653 0 0 0 0 6.590174509176336 18.423173685384427 0 18.423173685384427 -71.004221642346238 0 0 0 0 7.6523689312070902 3.2978798448934015 0 3.2978798448934015 -17.048472959742156 0 0 0 0 4.936621118495168 7.5892586334521184 0 7.5892586334521184 -21.995053809747333 0 0 0 0 2.9475452689348458 26.766983875277219 0 26.766983875277219 -67.112189332241542 0 0 0 0 5.895107709699289 8.7301070098837954 0 8.7301070098837954 -56.648480670235585 0 0 0 0 6.3550735322381184 3.1290496244363055 0 3.1290496244363055 -23.118184745876846 0 0 0 0 4.2778455057321523 4.2966226069707147 0 4.2966226069707147 -5.2829637498669513 0 0 0 0 8.5816638589094509 -1.9706859688158147 0 -1.9706859688158147 -31.979917000920977 0 0 0 0 148.34236607677576 18.205632728451747 0 18.205632728451747 -117.93140595671139 0 0 0 0 7.768106222165942 1.8360210361238174 0 1.8360210361238174 -57.647193411691887 0 0 0 0 3.0545257953517648 8.9625465264543891 0 8.9625465264543891 -46.001409564298228 0 0 0 0 -5.3964909666633947 17.657404277039888 0 17.657404277039888 -22.411730197850027 0 0 0 0 -131.23612156026547 87.047098455950618 0 87.047098455950618 -10.38986752225901 0 0 0 0 -1.7611714518144606 6.5924989357563071 0 6.5924989357563071 -0.97112968774706587 0 0 0 0 -49.917790164506755 -62.397186225058249 0 -62.397186225058249 -119.45597790046304 0 0 0 0 -56.30899213316934 53.883097734113107 0 53.883097734113107 -28.626829114713473 0 0 0 0 0.099017061197400835 -18.543120522776007 0 -18.543120522776007 -94.667483554658247 0 0 0 0 -6.8569100259260267 2.6169914389611222 0 2.6169914389611222 -41.040135672912584 0 0 0 0 -4.1448280740496557 7.4370644551308942 0 7.4370644551308942 -13.150934536908608 0 0 0 0 0.46958278900729056 9.2007551978640549 0 9.2007551978640549 -20.25772373561631 0 0 0 0 -1.5705185693565333 7.1300970179560181 0 7.1300970179560181 -9.0211679538789582 0 0 0 0 -1.2986396717831166 8.8676272183915543 0 8.8676272183915543 -28.224675078123084 0 0 0 0 -6.8752096781258842 8.0821946541291254 0 8.0821946541291254 -48.051866831374355 0 0 0 0 -4.5164591757111339 11.205573415576509 0 11.205573415576509 -44.102499134038226 0 0 0 0 -2.0759135081026927 10.83667222924359 0 10.83667222924359 -4.35928657440747 0 0 0 0 4.1091605114102094 14.509813281532843 0 14.509813281532843 -40.930852486577351 0 0 0 0 -1.6471201215387055 12.316028475150233 0 12.316028475150233 -4.3943572878888517 0 0 0 0 0.43437969363991735 0.011440331039722196 0 0.011440331039722196 -6.935790485162272 0 0 0 0 -5.2576274630612261 11.011630511799012 0 11.011630511799012 -22.139724466716871 0 0 0 0 -9.300587305433055 16.674017149081919 0 16.674017149081919 -18.40810444377712 0 0 0 0 1.4532102874641448 1.4992554270563119 0 1.4992554270563119 -7.8095562802056691 0 0 0 0 -5.5458941153474779 7.0491187831337356 0 7.0491187831337356 -4.6514301037510961 0 0 0 0 -4.8773095343201902 11.214962860642117 0 11.214962860642117 -27.337769043559092 0 0 0 0 -10.370358403797582 22.743209936452331 0 22.743209936452331 -88.182871068682289 0 0 0 0 -12.203883287806093 11.028723688534228 0 11.028723688534228 -32.417845914205827 0 0 0 0 18.452700489066046 14.080467384861549 0 14.080467384861549 -128.17252856233972 0 0 0 0 19.851080030980484 20.860797741015631 0 20.860797741015631 -97.229466438730014 0 0 0 0 -4.948960971814131 -2.0539499283695477 0 -2.0539499283695477 -29.550988170991332 0 0 0 0 -2.1772466630141953 -2.7378135543109465 0 -2.7378135543109465 -8.0983729685571006 0 0 0 0 -8.6997336641773018 25.79901924920523 0 25.79901924920523 -87.405241961008869 0 0 0 0 15.839980242266819 11.613383714797237 0 11.613383714797237 -57.320878377664485 0 0 0 0 25.305622795291882 22.386907850301213 0 22.386907850301213 -81.229833541088738 0 0 0 0 -26.811515862419469 8.763615313473565 0 8.763615313473565 -15.597724936014345 0 0 0 0 -2.706876483113239 2.7216600347599069 0 2.7216600347599069 1.9060380687170237 0 0 0 0 -4.623662741218709 6.5137505878374213 0 6.5137505878374213 -17.592353310894396 0 0 0 0 -2.3751751006228803 7.8756377984164772 0 7.8756377984164772 -1.5259987780901483 0 0 0 0 -2.1112001917195471 4.4817475478921551 0 4.4817475478921551 -24.795003197858023 0 0 0 0 -3.0566689050234004 11.937409393998678 0 11.937409393998678 -24.194239035292412 0 0 0 0 -1.8575810430125579 3.4508095451132021 0 3.4508095451132021 -2.8915823238069152 0 0 0 0 -2.1859594114792742 6.5295309699304198 0 6.5295309699304198 -39.295912196394056 0 0 0 0 -2.0926643117619506 5.8371238416475535 0 5.8371238416475535 -35.171553099353332 0 0 0 0 -1.2802293362142336 2.9319650410689064 0 2.9319650410689064 -45.610640851238713 0 0 0 0 2.7066963021882202 9.7581599109253148 0 9.7581599109253148 -41.76316860751831 0 0 0 0 5.0078440887333215 7.1523859984517912 0 7.1523859984517912 -48.040963517121781 0 0 0 0 3.9658117295922892 8.8667488697865338 0 8.8667488697865338 -48.32529527117731 0 0 0 0 16.675549778784671 10.762334258077317 0 10.762334258077317 -52.953639458935868 0 0 0 0 4.4837653294639495 19.041977052449511 0 19.041977052449511 -54.968482443422545 0 0 0 0 0.40787901909050106 13.870283912401646 0 13.870283912401646 -35.01881930611853 0 0 0 0 4.7103836982429925 14.584531699161744 0 14.584531699161744 -35.309379500846262 0 0 0 0 -12.230012273948965 18.046622605382481 0 18.046622605382481 -28.52444988139905 0 0 0 0 1.6581494871901441 16.868476815798203 0 16.868476815798203 -32.541897679577232 0 0 0 0 -5.6669153285342873 18.331436923028377 0 18.331436923028377 -32.470633912766061 0 0 0 0 -3.9608972348635234 16.099025596551655 0 16.099025596551655 -35.348987997378572 0 0 0 0 -28.474732303325254 33.542346245085355 0 33.542346245085355 -44.196506381726067 0 0 0 0 10.736786918448047 25.308386266478919 0 25.308386266478919 -83.143780361257086 0 0 0 0 38.467402110789408 -7.1927988361712778 0 -7.1927988361712778 -98.196879964867549 0 0 0 0 14.57900013951105 14.168456096976684 0 14.168456096976684 -75.209783522193902 0 0 0 0 8.9731749273478272 3.3663617457132204 0 3.3663617457132204 -58.281127859387198 0 0 0 0 19.887735672354808 -18.03548507116102 0 -18.03548507116102 -40.912512822309509 0 0 0 0 1.7199549616556169 9.0175294468208449 0 9.0175294468208449 29.507799209444784 0 0 0 0 0.51377102434596167 -10.957053249822366 0 -10.957053249822366 -6.9545931436863384 0 0 0 0 -11.573650726773167 -24.999005320583819 0 -24.999005320583819 -44.39248578142724 0 0 0 0 -46.434323657748678 32.881000702072924 0 32.881000702072924 18.057380978607398 0 0 0 0 16.833566319090764 24.864983645999928 0 24.864983645999928 -53.43782258828287 0 0 0 0 3.1335506817509895 -6.8731284997920739 0 -6.8731284997920739 -39.68526893989474 0 0 0 0 -77.956611856502178 124.69662612862521 0 124.69662612862521 -251.99340525016305 0 0 0 0 1.5800754007441355 150.65225190509227 0 150.65225190509227 -245.0581173216633 0 0 0 0 101.67506096527256 23.088169410861155 0 23.088169410861155 -287.74943005730165 0 0 0 0 -70.609121701455479 303.67633012050646 0 303.67633012050646 -527.44074764268589 0 0 0 0 -223.29120574986086 -28.808755802121595 0 -28.808755802121595 -33.153177770516777 0 0 0 0 -13.973588184893615 -85.756737521463947 0 -85.756737521463947 -253.79526386274665 0 0 0 0 -55.778298748976894 76.786285801252234 0 76.786285801252234 -92.372233911359217 0 0 0 0 -178.1511290350619 291.0859059358263 0 291.0859059358263 -343.36834879923663 0 0 0 0 133.11385647392692 -87.999898757319897 0 -87.999898757319897 -66.069592907748302 0 0 0 0 -0.21105022305788967 -0.74777088771593014 0 -0.74777088771593014 -2.7565471428547994 0 0 0 0 103.51053167888494 -269.88666795028257 0 -269.88666795028257 -211.21086114533318 0 0 0 0 -0.56994662698143816 -2.4626569189876761 0 -2.4626569189876761 -7.9880462254089935 0 0 0 0 13.211570329251032 10.550726797187053 0 10.550726797187053 21.910821310826577 0 0 0 0 -146.82369429500471 137.02320791955572 0 137.02320791955572 -106.43029182650025 0 0 0 0 -87.888843058080639 41.761935676127905 0 41.761935676127905 -127.23612479699659 0 0 0 0 -71.963155059731008 65.438301829693955 0 65.438301829693955 -93.325859631266212 0 0 0 0 54.071685179321662 5.5985952353657922 0 5.5985952353657922 -4.3513410553350695 0 0 0 0 -4.3574307430189947 -5.4921241611518781 0 -5.4921241611518781 -5.1102162826282438 0 0 0 0 4.5849911849949194 5.784564869982205 0 5.784564869982205 -52.464341925908229 0 0 0 0 -0.92704464216261773 -5.9446805697908189 0 -5.9446805697908189 -11.307610212018403 0 0 0 0 19.424058445156675 -0.65889859342860291 0 -0.65889859342860291 -19.616020426197792 0 0 0 0 7.0642661191123954 -7.2806885918283228 0 -7.2806885918283228 -12.263055730519497 0 0 0 0 -38.218735497736759 91.942056077379675 0 91.942056077379675 -78.06560135318432 0 0 0 0 -2.7689803082202529 0.19877187484934211 0 0.19877187484934211 -6.2150908713391999 0 0 0 0 -74.884787961065626 133.65526062920253 0 133.65526062920253 -106.363533565338 0 0 0 0 -169.0224574904787 -243.24153785334784 0 -243.24153785334784 -250.83872064059688 0 0 0 0 -48.366949761625506 126.15395711446035 0 126.15395711446035 -140.24131393684365 0 0 0 0 -40.830997781728819 107.27523298139567 0 107.27523298139567 -114.9924044195941 0 0 0 0 -105.16933653512308 97.578746105857135 0 97.578746105857135 -6.9107115744700423 0 0 0 0 -4.869970605122603 -3.995596272223338 0 -3.995596272223338 -281.40140523883747 0 0 0 0 -1.7902807529297733 2.0317555014093784 0 2.0317555014093784 -2.4935564407941229 0 0 0 0 209.66845151564303 341.80973426435958 0 341.80973426435958 -463.43261257259292 0 0 0 0 29.588753680349782 -4.6049503403119161 0 -4.6049503403119161 -16.648727311810944 0 0 0 0 -69.964734215012925 76.388807748757245 0 76.388807748757245 -36.114284959214274 0 0 0 0 -70.839323573547517 120.6134148487472 0 120.6134148487472 -68.606984473532066 0 0 0 0 -31.425263360162603 63.521115929295775 0 63.521115929295775 -101.78422754766507 0 0 0 0 -22.825524275873363 20.513734832551563 0 20.513734832551563 -18.013257692626212 0 0 0 0 27.525959324001576 -5.0058982391983591 0 -5.0058982391983591 -49.561205611986225 0 0 0 0 1.3046553446481539 -13.742506483074976 0 -13.742506483074976 -23.517681917452137 0 0 0 0 -16.414019583221091 -1.0139755148848053 0 -1.0139755148848053 -44.214051420145552 0 0 0 0 -7.2942187569393582 6.8160275653644931 0 6.8160275653644931 -37.644074482304859 0 0 0 0 2.9744347643668183 -13.627492894171155 0 -13.627492894171155 -19.481015541910892 0 0 0 0 0.63430608627982688 -0.034806851497407365 0 -0.034806851497407365 -0.6502457047395751 0 0 0 0 0.0034016415769932916 1.9795799660860212 0 1.9795799660860212 -2.915101274555127 0 0 0 0 1.3907608398507589 3.7092754296461408 0 3.7092754296461408 -11.792891314213932 0 0 0 0 31.235930773393306 5.653097955202611 0 5.653097955202611 -23.92173796572024 0 0 0 0 28.554232371773196 -18.011923673526326 0 -18.011923673526326 -13.793083835618745 0 0 0 0 37.274883118531989 34.978755761992943 0 34.978755761992943 -20.689123071842914 0 0 0 0 -2.6039111056384061 5.3831519437911624 0 5.3831519437911624 -8.1492472364437845 0 0 0 0 34.546515474473154 -0.42677445086155785 0 -0.42677445086155785 -12.805305073488853 0 0 0 0 0.089126056463648906 2.5018989443706232 0 2.5018989443706232 -2.7384407367753738 0 0 0 0 -0.44350544312088891 1.2873820890667318 0 1.2873820890667318 0.79712569124058064 0 0 0 0 -0.0034726951176797731 2.1292958602207364 0 2.1292958602207364 0.32568705893936567 0 0 0 0 -7.1646434536655192 14.234112494450528 0 14.234112494450528 3.2780948290164815 0 0 0 0 -7.5584438244172816 -31.60317927844153 0 -31.60317927844153 -21.691828231712861 0 0 0 0 -58.909991653906559 88.567802451492753 0 88.567802451492753 -127.50871217433451 0 0 0 0 0.025926155449271043 0.046316532759917095 0 0.046316532759917095 0.26872901577530683 0 0 0 0 -0.0071607679698388856 -0.87350503515335731 0 -0.87350503515335731 -0.70152340960339643 0 0 0 0 0.17631940821016245 169.07442599392246 0 169.07442599392246 -209.08455467224121 0 0 0 0 -0.86353065014775132 0.0550616500977128 0 0.0550616500977128 -0.36094362262197421 0 0 0 0 -35.892031565365954 88.430738575212672 0 88.430738575212672 -211.10705140886421 0 0 0 0 0.082546101918649334 -0.20410260930160007 0 -0.20410260930160007 0.37010637700755922 0 0 0 0 -1.9122655457763784 33.245248758292291 0 33.245248758292291 -129.46835667634878 0 0 0 0 0.16832989037804147 2.2918721025489504 0 2.2918721025489504 -13.467440412299766 0 0 0 0 -0.72425219628992921 -40.4005800827765 0 -40.4005800827765 -74.283964004629524 0 0 0 0 1.4707175576914562 -14.818068323439547 0 -14.818068323439547 -55.824637939280365 0 0 0 0 -1.9012115880229885 138.66038046022368 0 138.66038046022368 -151.60349420741841 0 0 0 0 -3.0632421061271788 -0.35373911859548457 0 -0.35373911859548457 0.28733537257114961 0 0 0 0 -22.220313989500028 8.1656755060394062 0 8.1656755060394062 -30.616284692543559 0 0 0 0 7.1254576652311812 21.310729143122444 0 21.310729143122444 -89.8813350336859 0 0 0 0 12.652239352222637 7.8565959292463958 0 7.8565959292463958 -56.791042789707717 0 0 0 0 -3.1798026754220245 4.3592738067090977 0 4.3592738067090977 -39.400651696298155 0 0 0 0 6.2439590268864533 -6.2044535396910163 0 -6.2044535396910163 -29.130143902544205 0 0 0 0 -7.043613303596203 9.3742715655280335 0 9.3742715655280335 -39.012327847711276 0 0 0 0 5.716573225855667 -2.37551484192808 0 -2.37551484192808 -29.399018250120889 0 0 0 0 -8.7703093794429492 3.3689723819989013 0 3.3689723819989013 -26.701838420398417 0 0 0 0 18.578216765678349 -13.619966226549877 0 -13.619966226549877 -42.09729721866097 0 0 0 0 1.2120789777918013 0.62569276106279403 0 0.62569276106279403 -6.0185973962910708 0 0 0 0 -2.6447564389845848 5.960540043808578 0 5.960540043808578 -23.35348471170073 0 0 0 0 -2.3336125460849075 4.1979188694967888 0 4.1979188694967888 -14.460140715833404 0 0 0 0 1.6819576273424104 0.92914971777469191 0 0.92914971777469191 -12.822419272334969 0 0 0 0 -3.8338961098429536 6.8054743571701692 0 6.8054743571701692 -17.646350161814553 0 0 0 0 -4.6290025348918231 8.8055256994646527 0 8.8055256994646527 -6.8336569860722278 0 0 0 0 -16.516559040364712 34.791794794226007 0 34.791794794226007 -40.944384828544571 0 0 0 0 3.5625878298766622 -2.1697799538524123 0 -2.1697799538524123 -48.430175606990815 0 0 0 0 -4.1935419485240777 2.9420153729008689 0 2.9420153729008689 0.42444029049715937 0 0 0 0 -4.8036820266522682 6.9232852281929809 0 6.9232852281929809 -16.562541070212319 0 0 0 0 -13.28217892424459 33.834660176013131 0 33.834660176013131 -47.920741734968033 0 0 0 0 2.3652563508797777 -0.076303319302468253 0 -0.076303319302468253 -9.5622844297189999 0 0 0 0 -31.448380695668448 33.130948984238785 0 33.130948984238785 -43.621361374382104 0 0 0 0 -0.24517963668213988 0.59930328251422793 0 0.59930328251422793 -0.69291024808079271 0 0 0 0 -4.752806428055913 6.1916993399063358 0 6.1916993399063358 -14.009278852929128 0 0 0 0 -3.4671731983590419 4.4167790341598447 0 4.4167790341598447 -12.24365754979226 0 0 0 0 -3.4884989152482557 4.5018535285817052 0 4.5018535285817052 -12.537939695641398 0 0 0 0 1.2665560669112397 1.9558256327291019 0 1.9558256327291019 -14.401240655352012 0 0 0 0 2.4729622949080987 2.3260237790091196 0 2.3260237790091196 -11.898062574371579 0 0 0 0 -0.035932078793784489 5.0422518671111902 0 5.0422518671111902 -6.9487220524752047 0 0 0 0 1.824885775757547 5.1996909145254904 0 5.1996909145254904 -7.6074747209495399 0 0 0 0 3.2369576005856153 4.6709561212919652 0 4.6709561212919652 -13.025014492173796 0 0 0 0 0.017878604708786248 2.5377924754952255 0 2.5377924754952255 -13.830768854226335 0 0 0 0 1.4586034337499729 4.2889940852473956 0 4.2889940852473956 -12.552227095562557 0 0 0 0 -1.2432041237253602 4.6214445157238515 0 4.6214445157238515 -17.07561331121542 0 0 0 0 -0.10015245591786304 1.4624919259076705 0 1.4624919259076705 -15.958116031324607 0 0 0 0 -96.76986850300338 -118.91338352329331 0 -118.91338352329331 -247.56061328362557 0 0 0 0 -61.141154993780361 -206.39365086722682 0 -206.39365086722682 -373.72704745894589 0 0 0 0 -0.010726123200962501 -106.88603560173578 0 -106.88603560173578 -269.27095384737186 0 0 0 0 -76.410147107165585 -122.90550340065602 0 -122.90550340065602 -154.83739756219438 0 0 0 0 -35.500530605437177 -118.14623627755645 0 -118.14623627755645 -249.93903645887622 0 0 0 0 -95.829435056799824 -86.518392067646346 0 -86.518392067646346 -106.92931513568328 0 0 0 0 -88.592570939766404 -47.613168438154389 0 -47.613168438154389 -83.452009756423649 0 0 0 0 -39.402939505378129 -97.567100470845617 0 -97.567100470845617 -235.99002464505611 0 0 0 0 -147.94129073690971 -103.18028882485669 0 -103.18028882485669 -226.80572846426367 0 0 0 0 -79.931392651843169 -179.22155203868897 0 -179.22155203868897 -380.69817340972077 0 0 0 0 -148.42706755673197 -133.77599956907943 0 -133.77599956907943 -400.37152958425577 0 0 0 0 -51.325334777765491 -87.897486795140139 0 -87.897486795140139 -401.81509464416013 0 0 0 0 -63.934540567259702 -173.11525022034766 0 -173.11525022034766 -413.76072941020539 0 0 0 0 12.946091812235153 -200.27910034562592 0 -200.27910034562592 -651.99070186243625 0 0 0 0 -156.30861187844957 -22.978706730265912 0 -22.978706730265912 -608.3702686438919 0 0 0 0 -127.74243457955774 -222.95646694318566 0 -222.95646694318566 -556.34922484177514 0 0 0 0 -494.37776967970353 -131.79737017290608 0 -131.79737017290608 -578.59924185028285 0 0 0 0 -39.047298044406411 -243.90526001073704 0 -243.90526001073704 -606.64146616308426 0 0 0 0 61.978553130188317 -118.85147499475715 0 -118.85147499475715 -604.36992030350541 0 0 0 0 -0.070363605804057677 -139.7533045758064 0 -139.7533045758064 -439.8234954530235 0 0 0 0 0.27664191047370146 -127.33946960008325 0 -127.33946960008325 -525.80610952087591 0 0 0 0 -0.91500003582973477 264.32431133006321 0 264.32431133006321 -697.34961133053002 0 0 0 0 -65.806387924879687 -330.15860071013958 0 -330.15860071013958 -942.42028658170602 0 0 0 0 -61.279918914442739 3.3645727404377794 0 3.3645727404377794 -82.520865388316452 0 0 0 0 -19.792251576544061 -11.750446514648502 0 -11.750446514648502 -166.69128098533838 0 0 0 0 -61.713177160748209 103.11703536927922 0 103.11703536927922 -245.89360162083176 0 0 0 0 -0.037485804813416485 -0.32013149042407463 0 -0.32013149042407463 -0.87813319951183644 0 0 0 0 2.4082431143853817 8.3833943090285175 0 8.3833943090285175 2.637765060786478 0 0 0 0 -0.0075336733749401374 -1.5758816058209106 0 -1.5758816058209106 -4.0480484575091396 0 0 0 0 0.18029376715386561 -0.65379814769060829 0 -0.65379814769060829 -0.19281009280462058 0 0 0 0 1.1938438194191758 -4.8950158140935542 0 -4.8950158140935542 -13.124545585375131 0 0 0 0 -19.647823477348084 -32.237507459314656 0 -32.237507459314656 47.416667468525702 0 0 0 0 44.297824732806419 -52.965174239336193 0 -52.965174239336193 -108.65458496812789 0 0 0 0 4.022342892939605 -0.84660487313522026 0 -0.84660487313522026 -8.3564837864469155 0 0 0 0 5.166878616802955 0.41382814578188487 0 0.41382814578188487 -9.8527846552548226 0 0 0 0 3.0309771470347284 -3.2714276401275697 0 -3.2714276401275697 -7.0740624473249056 0 0 0 0 2.422491114318623 1.0911689957093529 0 1.0911689957093529 -9.2060888798085045 0 0 0 0 2.5538426758409978 1.715779585308745 0 1.715779585308745 -14.321336991021212 0 0 0 0 7.2645115347087632 7.9076322045875713 0 7.9076322045875713 -15.08126146622817 0 0 0 0 29.466632773796618 -15.993338424959802 0 -15.993338424959802 -10.433538711047731 0 0 0 0 14.860255997844378 2.9814367216131359 0 2.9814367216131359 -18.675622017326532 0 0 0 0 6.9623467306626026 5.7770367222547065 0 5.7770367222547065 -13.907191477337619 0 0 0 0 3.7138965145187131 -1.1343194614146057 0 -1.1343194614146057 -4.9065441934246792 0 0 0 0 14.291153088283096 7.0453143640625058 0 7.0453143640625058 -30.472609118136461 0 0 0 0 -0.020953008354506975 16.280099993165269 0 16.280099993165269 -13.256884562462801 0 0 0 0 7.2700317112872881 -15.168281646103424 0 -15.168281646103424 -28.726813795772614 0 0 0 0 -19.437700882718673 -8.3607239126540662 0 -8.3607239126540662 21.30602052831091 0 0 0 0 1.3758240458694897 0.46884414925935403 0 0.46884414925935403 0.11071729805925656 0 0 0 0 4.0380686936625807 -14.961885978962528 0 -14.961885978962528 -9.5507207671907963 0 0 0 0 18.417544803932543 -13.893026131474471 0 -13.893026131474471 -10.4216501780611 0 0 0 0 21.901466036235206 -5.9565123619795486 0 -5.9565123619795486 -24.89445947331842 0 0 0 0 52.228541387896485 -29.311073712917278 0 -29.311073712917278 -57.606626473003416 0 0 0 0 1.8663409485011471 29.937026874205912 0 29.937026874205912 24.657147532241652 0 0 0 0 8.6889305747501808 -1.5210894597150286 0 -1.5210894597150286 -3.4965946223419735 0 0 0 0 -55.49336648657458 -155.44868009276252 0 -155.44868009276252 -262.54930774266541 0 0 0 0 22.282904497498322 50.436836827644584 0 50.436836827644584 -79.610795546730515 0 0 0 0 -337.6022217667105 -356.35562002832739 0 -356.35562002832739 -166.97506891149533 0 0 0 0 67.522363373098869 3.7210742256138474 0 3.7210742256138474 -183.71636992761341 0 0 0 0 -0.82492371381279428 -1.6629893205244599 0 -1.6629893205244599 -5.3068156024168047 0 0 0 0 44.459379731242109 -302.83052523147489 0 -302.83052523147489 -877.41882973368047 0 0 0 0 -104.49140819122587 -14.911893527496431 0 -14.911893527496431 -943.61366488323256 0 0 0 0 38.134313266433502 -336.24653173196839 0 -336.24653173196839 -663.63768165363581 0 0 0 0 49.316008107663805 -183.36062022212718 0 -183.36062022212718 -726.52037252267837 0 0 0 0 111.2704217754482 -253.23560870569054 0 -253.23560870569054 -682.68282810905657 0 0 0 0 31.818066560799025 -331.58950522686791 0 -331.58950522686791 -726.15305505389551 0 0 0 0 45.736106453898856 24.66621417193528 0 24.66621417193528 -361.82602617876546 0 0 0 0 16.582437336953205 -60.511629923743385 0 -60.511629923743385 -524.65735744600534 0 0 0 0 104.54988449860258 -101.47019989189721 0 -101.47019989189721 -370.34430041303131 0 0 0 0 78.098800450095709 -213.25312568649679 0 -213.25312568649679 -718.84524746293027 0 0 0 0 20.579512611428328 70.31800935157662 0 70.31800935157662 13.991164409017074 0 0 0 0 39.128281694784334 -86.435444821087003 0 -86.435444821087003 -301.86386426326135 0 0 0 0 -68.795561762468651 -11.940406201130827 0 -11.940406201130827 4.6854108972038375 0 0 0 0 -33.079473397213974 160.92557389373542 0 160.92557389373542 -351.81821214439697 0 0 0 0 -3.4433937969422566 1.4229107797472409 0 1.4229107797472409 -0.27141190835945395 0 0 0 0 -135.3061124694392 23.075653088613763 0 23.075653088613763 113.36339982639038 0 0 0 0 -3.3520814722255636 158.13464795741311 0 158.13464795741311 106.29398250524901 0 0 0 0 77.719533201312231 -20.123903604908264 0 -20.123903604908264 -99.314578960694234 0 0 0 0 -242.74500279020731 -44.325769305578433 0 -44.325769305578433 79.960329428281511 0 0 0 0 -148.85916599803832 126.62636853473305 0 126.62636853473305 -129.83131384756416 0 0 0 0 -252.96320572306945 -13.892771429214918 0 -13.892771429214918 82.104578240716364 0 0 0 0 -246.62383122934062 -50.988490989606362 0 -50.988490989606362 169.0868431161507 0 0 0 0 -2.4622540499186547 0.94631979959888213 0 0.94631979959888213 -0.28657072825011198 0 0 0 0 -33.364919661721387 -133.05610989662819 0 -133.05610989662819 35.026187717128778 0 0 0 0 -187.42227176071651 14.533989143899817 0 14.533989143899817 -66.563302520895377 0 0 0 0 -197.11172918146326 345.84810628632113 0 345.84810628632113 -553.08969862006779 0 0 0 0 -174.98438005752774 -23.907639077278873 0 -23.907639077278873 -94.147448937990703 0 0 0 0 -133.56348320308095 -95.447773163803504 0 -95.447773163803504 38.460326725558843 0 0 0 0 -230.87562401194447 217.45819125625712 0 217.45819125625712 24.008363252069103 0 0 0 0 -2.6697451466912128 5.4813371773821018 0 5.4813371773821018 -11.984352076320704 0 0 0 0 129.80498876235004 132.83497603623618 0 132.83497603623618 -1236.1033621392853 0 0 0 0 -23.467372496543248 -541.02750115187519 0 -541.02750115187519 -1296.9557832353366 0 0 0 0 -752.68016779864604 -595.39894230763093 0 -595.39894230763093 -512.42550512547314 0 0 0 0 -419.35024749223169 169.04942323635987 0 169.04942323635987 -402.43778596667107 0 0 0 0 -266.47389501730169 -196.16983713001173 0 -196.16983713001173 -158.06452263216488 0 0 0 0 -183.15418893210654 93.091910584325888 0 93.091910584325888 -5.2093920926708961 0 0 0 0 -26.602992361010138 16.735573091566039 0 16.735573091566039 -107.90054522622631 0 0 0 0 -51.009797948335972 26.041535529537214 0 26.041535529537214 7.9251485437853262 0 0 0 0 -66.158621739079848 -156.14283816446914 0 -156.14283816446914 -260.20977352318005 0 0 0 0 -138.92666515422798 -65.217249286281003 0 -65.217249286281003 -99.779486896237358 0 0 0 0 -154.55343977112761 -168.28337607007415 0 -168.28337607007415 -309.49110866016053 0 0 0 0 -254.24249357156077 -345.19249685557952 0 -345.19249685557952 -404.00202819630795 0 0 0 0 82.486018587395492 -248.01657275692196 0 -248.01657275692196 -602.14930690354959 0 0 0 0 -24.693710210189501 -151.84205778766773 0 -151.84205778766773 -578.88106031196548 0 0 0 0 -39.514144588171973 -83.900000607682159 0 -83.900000607682159 -313.17657589783903 0 0 0 0 -75.928875200024322 -137.56509668506624 0 -137.56509668506624 -277.40130799986946 0 0 0 0 -112.19396897732474 -223.49710166487057 0 -223.49710166487057 -321.30047516338527 0 0 0 0 -50.15702360421426 -57.053459908871446 0 -57.053459908871446 -162.63143116702122 0 0 0 0 -77.411339346745208 -111.75715750465861 0 -111.75715750465861 -160.96679662825773 0 0 0 0 -19.793194359011977 -18.666304963771836 0 -18.666304963771836 -148.70597500837175 0 0 0 0 -100.37594778378983 -125.58035352812294 0 -125.58035352812294 -204.96296396147227 0 0 0 0 -21.914727921633272 -57.463406104594469 0 -57.463406104594469 -215.45307375961511 0 0 0 0 -67.439317825581867 -29.394859127321979 0 -29.394859127321979 -56.329395567358006 0 0 0 0 45.766739274050451 59.280948025159887 0 59.280948025159887 -41.937606158974631 0 0 0 0 20.138179021699841 -21.636071885484853 0 -21.636071885484853 -72.185296490006294 0 0 0 0 -53.71747914079026 -27.405608899098297 0 -27.405608899098297 -29.759652020526119 0 0 0 0 32.832911526128782 -28.882468138903278 0 -28.882468138903278 -185.62596811480034 0 0 0 0 0.37197639354945977 93.745346781950502 0 93.745346781950502 57.070631463568134 0 0 0 0 15.750054257455567 18.331650988095532 0 18.331650988095532 -39.966869138525084 0 0 0 0 -7.1019778441873314 -22.222656968762749 0 -22.222656968762749 35.234630841099715 0 0 0 0 -56.607801682499485 -134.03681808795955 0 -134.03681808795955 -151.08645837623317 0 0 0 0 38.292816122099566 134.47445662381779 0 134.47445662381779 9.299073069851147 0 0 0 0 89.012826938897433 9.2870507650332002 0 9.2870507650332002 -74.418213483004365 0 0 0 0 14.424825738214571 19.227320693641374 0 19.227320693641374 -43.956460967450369 0 0 0 0 2.8070659724403413 34.32788529706886 0 34.32788529706886 -68.633222347183619 0 0 0 0 -87.230023722982651 -67.322614300494024 0 -67.322614300494024 -73.379843506612815 0 0 0 0 -8.1536090410468205 17.174173098861502 0 17.174173098861502 -62.971216673409799 0 0 0 0 -24.876858126054231 -110.46465954200539 0 -110.46465954200539 -125.58643430122174 0 0 0 0 115.22437486108082 -136.3226831763568 0 -136.3226831763568 -390.7854767856843 0 0 0 0 4.271422656094888 7.1102332374330679 0 7.1102332374330679 0.69964335674171707 0 0 0 0 9.369248480277065 72.402725798820029 0 72.402725798820029 -134.66230186215398 0 0 0 0 91.822172156579654 8.4933938917920386 0 8.4933938917920386 -262.07103400901542 0 0 0 0 43.243155381500401 -41.750712252935045 0 -41.750712252935045 -275.23488439590437 0 0 0 0 7.311199918836274 -17.396925448898088 0 -17.396925448898088 9.1452693357485941 0 0 0 0 -135.40167346843555 -361.0263370275643 0 -361.0263370275643 -1005.4208085397731 0 0 0 0 20.710025800287639 -19.997913283778587 0 -19.997913283778587 8.1650927466370575 0 0 0 0 -124.77878925411324 -379.73545749078403 0 -379.73545749078403 -988.06312216393417 0 0 0 0 -26.824340618815768 -439.31119069677516 0 -439.31119069677516 -1168.9633804911173 0 0 0 0 32.428599571091382 -21.360786122118384 0 -21.360786122118384 7.9228992440435064 0 0 0 0 77.115491615844718 -178.18288368139292 0 -178.18288368139292 -439.56845760750002 0 0 0 0 -33.529346147305553 34.871116999474907 0 34.871116999474907 -202.22256849665064 0 0 0 0 87.981429227800959 -68.602629439832526 0 -68.602629439832526 -124.3292379719278 0 0 0 0 65.624405777687727 -61.258153466092153 0 -61.258153466092153 -79.36766199797421 0 0 0 0 -13.515457979644452 27.633911757664464 0 27.633911757664464 -74.203086876863381 0 0 0 0 8.3209902723171965 5.5878725472407496 0 5.5878725472407496 -12.955546927964917 0 0 0 0 105.44022539108821 182.50728807362157 0 182.50728807362157 51.243203336489387 0 0 0 0 145.40480969359032 -23.174989907281997 0 -23.174989907281997 -113.83635786884406 0 0 0 0 -21.449984718006817 -29.570037349738868 0 -29.570037349738868 -18.532197048494709 0 0 0 0 14.344889330076171 0.95672887778286508 0 0.95672887778286508 -17.225589499634964 0 0 0 0 72.574232680263208 119.83474066876079 0 119.83474066876079 -16.543181699849811 0 0 0 0 48.219174904812917 -23.540751932392595 0 -23.540751932392595 -21.219368029174802 0 0 0 0 5.5687390972604636 8.1095491287532617 0 8.1095491287532617 -43.597442782722851 0 0 0 0 238.52422365810389 134.7503643674645 0 134.7503643674645 -90.434047441362054 0 0 0 0 0.052246064611681797 0.2516321187963495 0 0.2516321187963495 -34.361043877516977 0 0 0 0 296.85960211791416 -65.310513021388033 0 -65.310513021388033 -356.21238650676969 0 0 0 0 -71.290454799793224 -106.70780986057798 0 -106.70780986057798 -139.99794264676166 0 0 0 0 250.36184455976445 -153.3598545336863 0 -153.3598545336863 -1804.3756812064294 0 0 0 0 -130.07139980089036 568.61655203178771 0 568.61655203178771 -733.14827888869331 0 0 0 0 -132.18041963446694 -1062.6499914794767 0 -1062.6499914794767 -1664.2320489437116 0 0 0 0 -23.520950246384018 -514.18257436888234 0 -514.18257436888234 -2070.6488240932449 0 0 0 0 -0.034038481321722491 -0.1541036880670319 0 -0.1541036880670319 -14.148852227144516 0 0 0 0 -1206.1427515205548 -775.11426750827741 0 -775.11426750827741 -91.106455806191661 0 0 0 0 -8.0957569529937246 -706.97714882550645 0 -706.97714882550645 -1662.9447091095681 0 0 0 0 -80.649569585432801 17.785558725423471 0 17.785558725423471 -203.79068742034724 0 0 0 0 -238.20764122812272 -426.72628707048898 0 -426.72628707048898 -439.36793146433774 0 0 0 0 116.98117932398777 -29.069836176626268 0 -29.069836176626268 -65.153557957193698 0 0 0 0 142.92464230400327 157.41495836620015 0 157.41495836620015 -71.691195984618389 0 0 0 0 -6.586871871800235 13.3611851229671 0 13.3611851229671 -21.853130296924604 0 0 0 0 7.379899218565015 -210.1068774919986 0 -210.1068774919986 -574.07734394105501 0 0 0 0 48.765749246040969 -166.73270104937546 0 -166.73270104937546 -623.7472525890189 0 0 0 0 -120.62866541798167 -190.46332319363137 0 -190.46332319363137 -146.04317864075074 0 0 0 0 91.427177646116888 -289.16223467561213 0 -289.16223467561213 -635.01900198346357 0 0 0 0 90.649333183728686 -295.32177924585994 0 -295.32177924585994 -666.98081864538835 0 0 0 0 26.105461160012169 -539.22239437679309 0 -539.22239437679309 -850.58168662249227 0 0 0 0 89.921276777366984 -204.51985561143738 0 -204.51985561143738 -851.3620063879498 0 0 0 0 123.5427823074815 -194.99061756057927 0 -194.99061756057927 -852.42237153129827 0 0 0 0 -32.430390768995721 -228.63719696154658 0 -228.63719696154658 -575.53725264174864 0 0 0 0 160.696986582406 -102.15329553718402 0 -102.15329553718402 -622.63965901384654 0 0 0 0 285.5956312199487 -10.014663234665932 0 -10.014663234665932 -1223.6307706533553 0 0 0 0 65.436387987754472 -43.536937904398656 0 -43.536937904398656 -636.79109004084603 0 0 0 0 -155.84515227776865 55.167549938087177 0 55.167549938087177 -66.357361828126159 0 0 0 0 6.0822755674740678 6.6218835018997027 0 6.6218835018997027 -14.237965559082397 0 0 0 0 50.869141539381417 -0.80784137905902753 0 -0.80784137905902753 -395.80353722066502 0 0 0 0 51.672933880757206 45.698202565126849 0 45.698202565126849 107.247807354217 0 0 0 0 360.92867332272101 335.63606337201054 0 335.63606337201054 186.7194959857552 0 0 0 0 4.0236329319887041 5.261997587827679 0 5.261997587827679 -11.349046318406522 0 0 0 0 -39.602694001390546 -304.70850234721365 0 -304.70850234721365 -924.22456596085249 0 0 0 0 -133.62693128631895 -160.34922216200357 0 -160.34922216200357 -779.30804430714488 0 0 0 0 -221.45925858138713 -347.53162177359263 0 -347.53162177359263 -925.15580066166876 0 0 0 0 -6.5607863454007429 -44.447573604034915 0 -44.447573604034915 -721.57740968948929 0 0 0 0 122.0324861530479 -172.57076340817002 0 -172.57076340817002 -1151.889184906875 0 0 0 0 -188.43868842758138 225.59100453558494 0 225.59100453558494 -667.30845687660621 0 0 0 0 -8.1387000357967736 -139.12765240610315 0 -139.12765240610315 -885.36671004160598 0 0 0 0 -7.7709132219138155 -153.72706325969557 0 -153.72706325969557 -648.13913321439031 0 0 0 0 -19.304941778707729 19.606931820155296 0 19.606931820155296 -927.46900007734439 0 0 0 0 -38.039275516309637 -70.134739917135519 0 -70.134739917135519 -42.794655508687711 0 0 0 0 9.6332917941668796 66.219348701968556 0 66.219348701968556 -895.25725691264961 0 0 0 0 0.82520485788861575 1.7613026341845028 0 1.7613026341845028 -4.1959249009657924 0 0 0 0 -7.8895288475772105 -561.27452095803164 0 -561.27452095803164 -2077.024826052977 0 0 0 0 -18.152370915324809 59.444504328603216 0 59.444504328603216 -986.86876486062829 0 0 0 0 416.50119633245117 336.44545606801364 0 336.44545606801364 -837.90607389164506 0 0 0 0 -36.128936117378089 90.402733313771023 0 90.402733313771023 -216.34210291983618 0 0 0 0 337.9638925302836 11.928056575069832 0 11.928056575069832 -40.435190142670763 0 0 0 0 413.78456980056319 684.39560032548616 0 684.39560032548616 360.91254159003438 0 0 0 0 155.21996888907381 71.309346024881961 0 71.309346024881961 -38.429169104529137 0 0 0 0 128.32575615066224 -148.01843354472976 0 -148.01843354472976 -348.52259322737518 0 0 0 0 -33.99237044658139 -100.30142224891461 0 -100.30142224891461 -280.33818238243839 0 0 0 0 44.452872277338109 -20.41845183531305 0 -20.41845183531305 12.357380929863879 0 0 0 0 -1282.2099118295155 1904.4751657595043 0 1904.4751657595043 -1053.2950392692946 0 0 0 0 62.873480106658235 -229.71375668508426 0 -229.71375668508426 -376.13793039296434 0 0 0 0 -21.644661492207675 -81.155318811178404 0 -81.155318811178404 -196.65551988347579 0 0 0 0 263.3541179173306 -74.622166992830898 0 -74.622166992830898 -228.49662688658282 0 0 0 0 179.26237326878748 192.12719315227514 0 192.12719315227514 54.786449530860409 0 0 0 0 17.419248451351294 47.139377997173142 0 47.139377997173142 -182.86151363885438 0 0 0 0 97.891050160927293 -200.7560326488383 0 -200.7560326488383 -460.96469268451619 0 0 0 0 282.94211481433194 -371.06922762034083 0 -371.06922762034083 -1293.6414721530309 0 0 0 0 38.619151751655366 -21.190546944605899 0 -21.190546944605899 6.5479063469704357 0 0 0 0 -186.53278344045702 -330.05760323614413 0 -330.05760323614413 -904.08443644078216 0 0 0 0 56.612621225158364 -304.97064977740956 0 -304.97064977740956 -952.22088550449917 0 0 0 0 213.7020041674441 -626.01091250574973 0 -626.01091250574973 -964.53387914563791 0 0 0 0 58.317738501298663 -290.69381381834683 0 -290.69381381834683 -712.25066486947981 0 0 0 0 156.39391382474423 -242.54338458034908 0 -242.54338458034908 -307.3178747498896 0 0 0 0 -412.22200026046994 -579.51057386554749 0 -579.51057386554749 -194.17683347561979 0 0 0 0 161.1900175583869 -206.8069992713572 0 -206.8069992713572 -63.291805325105088 0 0 0 0 49.741394607563052 -812.08429819856246 0 -812.08429819856246 -1040.7791413467057 0 0 0 0 111.11695461229101 -1233.7666706323944 0 -1233.7666706323944 -1922.1399532791838 0 0 0 0 -1074.3113846465312 -1020.4496836869366 0 -1020.4496836869366 -294.59567440099636 0 0 0 0 399.20457502986937 -548.57760438045079 0 -548.57760438045079 -1039.1759547464899 0 0 0 0 355.39196577201074 -702.99630315547984 0 -702.99630315547984 -1068.1668141828559 0 0 0 0 15.086742167608463 -146.72270009787826 0 -146.72270009787826 -325.53590050229104 0 0 0 0 147.47874601787771 -71.683000425611681 0 -71.683000425611681 -383.53466753083194 0 0 0 0 146.13723864877466 13.573507392888132 0 13.573507392888132 -214.20109785078967 0 0 0 0 216.21626970479156 4.9514422536594793 0 4.9514422536594793 -207.3356156545633 0 0 0 0 127.43678920504681 -110.56445893218915 0 -110.56445893218915 -287.02391089758748 0 0 0 0 196.05003198998747 -156.05224923411151 0 -156.05224923411151 -284.11992354047834 0 0 0 0 43.537491233889341 -142.20327402660041 0 -142.20327402660041 -170.84852566668997 0 0 0 0 -56.572217377564812 -347.71516196927041 0 -347.71516196927041 -415.35869948309846 0 0 0 0 111.39077339766482 -78.856640236386738 0 -78.856640236386738 -342.40287904595607 0 0 0 0 -5.9210907414026224 -331.11095278480389 0 -331.11095278480389 -593.53515265937313 0 0 0 0 68.473559148127606 -174.85016487948451 0 -174.85016487948451 -642.66588281086661 0 0 0 0 -67.04552284134752 -174.74813260669544 0 -174.74813260669544 -671.04412616897025 0 0 0 0 -4.4677137213705009 -153.0995785610105 0 -153.0995785610105 -709.34629224799573 0 0 0 0 -10.657601321585389 -68.749365760253568 0 -68.749365760253568 -415.67621414036694 0 0 0 0 48.071650212585155 -83.484982898560702 0 -83.484982898560702 -415.71806822940562 0 0 0 0 -37.322175783983312 64.349473633908929 0 64.349473633908929 -263.26907215129177 0 0 0 0 -58.236720549102984 2.6972739458360593 0 2.6972739458360593 -337.2011764535273 0 0 0 0 -33.437074108250272 82.527263947624306 0 82.527263947624306 -454.11758989756345 0 0 0 0 -7.9876148369337017 -12.316620726895493 0 -12.316620726895493 -9.07690096439336 0 0 0 0 18.254411882861859 -107.28462100298202 0 -107.28462100298202 71.603891724604182 0 0 0 0 -7.8770947828818052 -13.846938004098888 0 -13.846938004098888 -10.808213328238395 0 0 0 0 30.086183776102189 -25.804694995676982 0 -25.804694995676982 -24.019641568105726 0 0 0 0 17.42210460676506 -5.4295407557510771 0 -5.4295407557510771 -176.58183534274394 0 0 0 0 31.046711004672034 -22.220311116485391 0 -22.220311116485391 -38.304577802060521 0 0 0 0 23.019417657535087 45.287354527361458 0 45.287354527361458 -188.47478076258267 0 0 0 0 2.2166428448399529 -165.62868870081729 0 -165.62868870081729 -172.10524001711747 0 0 0 0 -25.320622936357722 13.611647560015626 0 13.611647560015626 -140.27347278772504 0 0 0 0 823.376801600607 460.33511000195722 0 460.33511000195722 200.11221265641507 0 0 0 0 940.1725276679681 304.98517833303777 0 304.98517833303777 81.799827912560431 0 0 0 0 3.3473407227962753 -2.2350489494002659 0 -2.2350489494002659 -5.1197497668799912 0 0 0 0 -0.2852118479843142 -2.9537886960216895 0 -2.9537886960216895 -4.2118485188008492 0 0 0 0 191.27730291473927 20.77982051782601 0 20.77982051782601 -173.11391372155049 0 0 0 0 287.65743518259478 -132.58353138904204 0 -132.58353138904204 -205.50960920260695 0 0 0 0 42.049281772353424 40.775904830101354 0 40.775904830101354 -149.41010949276097 0 0 0 0 195.81490898924039 -30.526985551683424 0 -30.526985551683424 -271.04128011380089 0 0 0 0 52.877154808418709 -4.6106987831444712 0 -4.6106987831444712 -253.11275285651209 0 0 0 0 270.53861379549198 174.74466648617272 0 174.74466648617272 12.701954404066782 0 0 0 0 259.91239863711735 98.767459048259752 0 98.767459048259752 -103.27773045253707 0 0 0 0 195.46825505461806 71.545304402266396 0 71.545304402266396 -174.29268017975846 0 0 0 0 269.45655393168272 10.981202438109904 0 10.981202438109904 -256.46377855434548 0 0 0 0 370.15844595476665 47.257697707085754 0 47.257697707085754 -199.9100986145495 0 0 0 0 378.58855783021909 268.61381339789295 0 268.61381339789295 43.519626775218057 0 0 0 0 289.44243966107877 177.71738747345034 0 177.71738747345034 126.97984910824744 0 0 0 0 333.29277588571495 157.65135672870383 0 157.65135672870383 25.527133092575241 0 0 0 0 439.46310075398287 184.25975292730072 0 184.25975292730072 -121.06139994793921 0 0 0 0 661.49794412313349 283.90064502120367 0 283.90064502120367 69.052141944266623 0 0 0 0 439.46809985447908 151.90812842588639 0 151.90812842588639 209.62102402134042 0 0 0 0 292.12227157731286 257.84882887618733 0 257.84882887618733 249.4409132078581 0 0 0 0 -4.8019582987890317 -1.7393393703387119 0 -1.7393393703387119 -21.088560365053127 0 0 0 0 513.23207030495541 328.59227960406861 0 328.59227960406861 364.76865141291637 0 0 0 0 495.05230372061351 271.88679923260588 0 271.88679923260588 127.46716249457677 0 0 0 0 1.6732880660979959 -2.9098210855230775 0 -2.9098210855230775 -8.469274577750582 0 0 0 0 500.59964084476087 128.11608300721127 0 128.11608300721127 1.5174659395161143 0 0 0 0 507.76251247005985 363.91243438310448 0 363.91243438310448 52.262196823779959 0 0 0 0 -20.569671775283496 -22.027147476437676 0 -22.027147476437676 -26.297650749358581 0 0 0 0 -1.6507135047597501 -7.067518708772667 0 -7.067518708772667 -45.249431555196495 0 0 0 0 399.95162344371602 245.27764356694388 0 245.27764356694388 150.04945114726434 0 0 0 0 9.3987500096070775 2.1068361302757239 0 2.1068361302757239 -16.426579981998515 0 0 0 0 686.61966835441854 657.81979904005129 0 657.81979904005129 386.11003515034099 0 0 0 0 374.64905034374533 298.98709637056891 0 298.98709637056891 211.81048111015116 0 0 0 0 565.93948102723516 185.25359193516488 0 185.25359193516488 204.27739415105316 0 0 0 0 530.65145505745386 240.39894166364684 0 240.39894166364684 71.031125827721553 0 0 0 0 513.39318398125397 298.28286502469564 0 298.28286502469564 141.0121473010513 0 0 0 0 435.27372822974939 274.41102489321202 0 274.41102489321202 142.74238389640232 0 0 0 0 430.68833698760409 287.03087350277929 0 287.03087350277929 124.61399750298006 0 0 0 0 384.11771112018323 292.40568177769455 0 292.40568177769455 249.80519310077216 0 0 0 0 452.95611419486886 231.92383629918913 0 231.92383629918913 187.59006836397748 0 0 0 0 -3.019914669984594 4.308943062675354 0 4.308943062675354 -6.9396864681282295 0 0 0 0 -13.990382291085552 -38.458635964168934 0 -38.458635964168934 -88.184070365699881 0 0 0 0 4.6152450357812995 -25.072636210803466 0 -25.072636210803466 -83.816073062203941 0 0 0 0 -2.2490818212182688 -5.624762997262593 0 -5.624762997262593 -6.3100061064864974 0 0 0 0 5.3223273025144024 -1.7072439979552598 0 -1.7072439979552598 -16.277677005501602 0 0 0 0 446.20573295163558 212.04764918590809 0 212.04764918590809 131.67267520610767 0 0 0 0 1.2104635636348817 -2.7204934854170943 0 -2.7204934854170943 1.4152033182260482 0 0 0 0 -58.210708387414343 -119.50635891482671 0 -119.50635891482671 -161.21511704339355 0 0 0 0 572.91649314846654 450.85957029095152 0 450.85957029095152 141.2017569810123 0 0 0 0 24.68367141939234 3.9544565032410901 0 3.9544565032410901 48.943871931754984 0 0 0 0 -1.689120802349116 1.5860753097916813 0 1.5860753097916813 -1.6184221263887366 0 0 0 0 420.96324045437359 15.605763410450891 0 15.605763410450891 -252.31113109341823 0 0 0 0 -118.85438412327721 -364.43996180423528 0 -364.43996180423528 -420.64014619702357 0 0 0 0 -55.683529657322651 -18.029848262325686 0 -18.029848262325686 -129.82044627794312 0 0 0 0 338.27056464699126 4.5109868372092023 0 4.5109868372092023 -108.87829968137521 0 0 0 0 33.297784497090106 248.42516045798766 0 248.42516045798766 196.22919548870414 0 0 0 0 113.52041127413395 210.70588530965324 0 210.70588530965324 -263.14056128078664 0 0 0 0 59.274993133647513 -64.493227784747432 0 -64.493227784747432 -137.88503670449427 0 0 0 0 64.066407017494726 74.713187797536762 0 74.713187797536762 -27.462272557560937 0 0 0 0 4.2951829138414794 0.1687751118174674 0 0.1687751118174674 -5.2732272155009241 0 0 0 0 -15.379281778744144 198.14185117361558 0 198.14185117361558 -412.46416329607018 0 0 0 0 418.90833287386704 -16.393179361490184 0 -16.393179361490184 -6.7620628334916546 0 0 0 0 437.31280833743222 81.70000844119204 0 81.70000844119204 -69.059320087457309 0 0 0 0 430.2465670263955 -45.856949538472691 0 -45.856949538472691 -489.13470834720647 0 0 0 0 663.12772345478152 551.92935941953328 0 551.92935941953328 -322.0752943604748 0 0 0 0 465.85562524015404 80.005408713041106 0 80.005408713041106 -96.650908203504514 0 0 0 0 243.68986743914684 227.62341706121151 0 227.62341706121151 98.142130184322014 0 0 0 0 422.9838789444093 259.83410424539761 0 259.83410424539761 9.6223813304677606 0 0 0 0 365.21728936424915 159.10729062466999 0 159.10729062466999 -118.64912602904951 0 0 0 0 603.87228704562585 162.63827948352264 0 162.63827948352264 1.4836685307018342 0 0 0 0 371.81013176742999 211.14369575042656 0 211.14369575042656 209.5783042248222 0 0 0 0 141.09875002359513 -51.438900411671057 0 -51.438900411671057 -10.493711479910417 0 0 0 0 13.8357510773405 2.2645712113066736 0 2.2645712113066736 -13.884613629926321 0 0 0 0 27.024302019150127 25.131304110174824 0 25.131304110174824 0.40343362519342918 0 0 0 0 33.35614194463011 11.046412349890943 0 11.046412349890943 -16.393310552899493 0 0 0 0 256.85020261721365 93.025038497580681 0 93.025038497580681 43.34008901996458 0 0 0 0 11.298550437276862 1.0589993026457734 0 1.0589993026457734 -15.167777173579736 0 0 0 0 34.688753226781955 21.218346432207909 0 21.218346432207909 -31.062251912793727 0 0 0 0 361.11467414925573 334.72824475051311 0 334.72824475051311 177.20799928312772 0 0 0 0 13.19944252008645 -21.985443870660674 0 -21.985443870660674 -24.844300172873773 0 0 0 0 31.690832429727379 -4.4552704531706695 0 -4.4552704531706695 -41.93879911750264 0 0 0 0 70.900445136876442 -7.269296652306366 0 -7.269296652306366 -146.33922131211148 0 0 0 0 61.692723090176514 -18.366721390775638 0 -18.366721390775638 -39.750746006378904 0 0 0 0 82.575027985829365 -87.694396307117131 0 -87.694396307117131 -345.40638636926451 0 0 0 0 16.83790044160196 38.80002073358628 0 38.80002073358628 27.662344861812016 0 0 0 0 18.583312005973312 50.695801451576699 0 50.695801451576699 -64.872388830517593 0 0 0 0 -1.7717737914307996 -0.32823078555199459 0 -0.32823078555199459 0.59782749187277773 0 0 0 0 27.784711406191946 12.074041066218342 0 12.074041066218342 -178.73695415258771 0 0 0 0 -0.74996888686937346 3.3819215319293505 0 3.3819215319293505 -0.72468337216903933 0 0 0 0 16.623074539668949 23.077529458472327 0 23.077529458472327 -2.992631161105237 0 0 0 0 -1.1592918842979998 -74.873669487511506 0 -74.873669487511506 -41.399134520068401 0 0 0 0 16.043536875300813 8.0144621863375107 0 8.0144621863375107 -0.5448239835526465 0 0 0 0 15.766359057963882 16.044901187260166 0 16.044901187260166 -7.6958115426386939 0 0 0 0 25.55650194253667 13.436039959979098 0 13.436039959979098 -8.4936498642055085 0 0 0 0 21.237274322571903 12.28759178718326 0 12.28759178718326 -0.61203767481984528 0 0 0 0 -197.98564434038326 252.87618770132394 0 252.87618770132394 -154.02648480165226 0 0 0 0 35.834654535935442 7.5063885398449202 0 7.5063885398449202 -136.97219808762748 0 0 0 0 86.879615518585524 380.9115548514128 0 380.9115548514128 -1114.2655034899581 0 0 0 0 -450.03250376524738 442.46834223123733 0 442.46834223123733 -195.50115816854304 0 0 0 0 -9.756029198262695 191.66641686599178 0 191.66641686599178 -1198.3513020406681 0 0 0 0 -0.43450997215038711 4.6886679342454016 0 4.6886679342454016 -1.3610807281349935 0 0 0 0 -115.91765873308896 247.34275263846939 0 247.34275263846939 -1032.1530804759968 0 0 0 0 -37.858288557282322 389.51608231351565 0 389.51608231351565 -795.19698825620799 0 0 0 0 39.359539387767654 354.15937474844395 0 354.15937474844395 -680.08035017037764 0 0 0 0 54.50165117559709 314.61997198412428 0 314.61997198412428 -860.65283086370619 0 0 0 0 37.206749622198913 235.20480717102328 0 235.20480717102328 -622.98058657526417 0 0 0 0 18.074852826508504 240.18813386061447 0 240.18813386061447 -504.34794991483795 0 0 0 0 61.248117375238508 21.857444121407752 0 21.857444121407752 -602.73094145011419 0 0 0 0 -32.741651112957697 -9.0349509182633483 0 -9.0349509182633483 -277.06125348810019 0 0 0 0 114.98259569392303 245.81555980676058 0 245.81555980676058 -888.75099649163894 0 0 0 0 -46.904338473665121 139.91852810481942 0 139.91852810481942 -136.51147283189493 0 0 0 0 1.7238216659711902 2.5059530772339258 0 2.5059530772339258 -1.2510992958264637 0 0 0 0 7.2957609398216459 1.9293329098383509 0 1.9293329098383509 -3.8010413565016279 0 0 0 0 19.0304913732557 73.734597431674047 0 73.734597431674047 -193.6328768372332 0 0 0 0 264.05502944042735 57.477244139739923 0 57.477244139739923 -123.7424323875457 0 0 0 0 266.435859976541 40.037292638549843 0 40.037292638549843 -1.867576214728615 0 0 0 0 -58.489389634483928 161.77544537410768 0 161.77544537410768 -785.62899959253264 0 0 0 0 2.9465299559166169 0.15106134636999968 0 0.15106134636999968 -2.051698334480875 0 0 0 0 93.134810849798214 -322.5098087612605 0 -322.5098087612605 -638.18978206969041 0 0 0 0 -37.115832172446972 -502.81943478311223 0 -502.81943478311223 -887.78886371309636 0 0 0 0 -127.19414073724511 -516.07064933701622 0 -516.07064933701622 -79.639209759421647 0 0 0 0 93.823287102691211 -46.604503375179775 0 -46.604503375179775 -403.58943897732388 0 0 0 0 81.642122498642038 12.118837993109992 0 12.118837993109992 101.39903402025811 0 0 0 0 -143.24942474894488 -416.72137565186131 0 -416.72137565186131 416.67614863179915 0 0 0 0 -49.707487022450891 84.442683893917092 0 84.442683893917092 -189.73494836949976 0 0 0 0 195.2773615536853 -42.267241385248781 0 -42.267241385248781 -114.63641827792799 0 0 0 0 25.454043545179957 29.778429336936824 0 29.778429336936824 -126.76291682368901 0 0 0 0 -1.377705719000005 14.032350503872294 0 14.032350503872294 -18.992591472153435 0 0 0 0 49.896769753067019 -117.9039574217968 0 -117.9039574217968 -63.38463179225073 0 0 0 0 -6.2516037292930662 -10.066267987804792 0 -10.066267987804792 -7.7975376020668108 0 0 0 0 -50.711588093503451 -37.665859296983399 0 -37.665859296983399 -786.72641097327869 0 0 0 0 54.154140785348318 -180.36440814292291 0 -180.36440814292291 203.44212169233651 0 0 0 0 -16.149310043518085 -100.96941588994923 0 -100.96941588994923 -1830.4663275849016 0 0 0 0 -12.306678565179936 -34.408245157956117 0 -34.408245157956117 -807.06430676923628 0 0 0 0 -18.976594466846791 -284.91692377951404 0 -284.91692377951404 -1085.0481644812899 0 0 0 0 -99.283899517956343 -417.04171564603894 0 -417.04171564603894 -1136.5047317632416 0 0 0 0 -201.80619384134388 -443.70735608683026 0 -443.70735608683026 -1133.4165328206145 0 0 0 0 -131.52735590401039 -273.22832882550574 0 -273.22832882550574 -959.82676862092922 0 0 0 0 -58.966735556567187 -299.40477344895226 0 -299.40477344895226 -1117.8362954317126 0 0 0 0 -256.49491486285569 -317.39464372715884 0 -317.39464372715884 -1107.0382426314136 0 0 0 0 326.53036114647466 -51.104865737261207 0 -51.104865737261207 -1295.592352134423 0 0 0 0 -2.2326496200758079 -4.3506466321694575 0 -4.3506466321694575 -3.9367188530097792 0 0 0 0 -207.3883546306372 -372.88655209778153 0 -372.88655209778153 -1017.4150650157681 0 0 0 0 235.77342900901533 65.955872014652414 0 65.955872014652414 -603.17271216626978 0 0 0 0 1.4765302260455577 -0.21652415538386549 0 -0.21652415538386549 -3.015962244546472 0 0 0 0 -97.782200954649397 -748.95251844256563 0 -748.95251844256563 -1667.7401576502161 0 0 0 0 -266.95727398469023 -398.77299645524181 0 -398.77299645524181 -926.55713800384547 0 0 0 0 -5.4899990921212041 -17.641240388322842 0 -17.641240388322842 2.6283423981115561 0 0 0 0 -241.33777777427804 -416.2258213241148 0 -416.2258213241148 -919.10788964312815 0 0 0 0 -159.71014259528238 -445.77704595301475 0 -445.77704595301475 -964.13372314092703 0 0 0 0 -0.68938669097543226 1.268156164855526 0 1.268156164855526 -10.472755947947775 0 0 0 0 -176.87300764785687 -414.2304940623435 0 -414.2304940623435 -909.97581320424797 0 0 0 0 -25.847348412555341 29.155496781902912 0 29.155496781902912 45.761377226219338 0 0 0 0 5.1773736910956103 1.8873535727028354 0 1.8873535727028354 -12.515512245242135 0 0 0 0 23.016415656965819 -20.138118548609782 0 -20.138118548609782 -68.555523438990349 0 0 0 0 -405.57654070816602 -844.2037653911193 0 -844.2037653911193 -1315.7361509163165 0 0 0 0 -25.993435017646107 38.023215772271215 0 38.023215772271215 -2.6017123650963185 0 0 0 0 -0.85161543308643206 0.54427920218282111 0 0.54427920218282111 -2.0834335685644021 0 0 0 0 -126.04187706695029 -444.06542652215285 0 -444.06542652215285 -966.72493151827075 0 0 0 0 -276.36929278893581 -496.68603160723251 0 -496.68603160723251 -910.31878795597004 0 0 0 0 -171.70059810661678 -512.72529237820709 0 -512.72529237820709 -1069.2779680471285 0 0 0 0 -23.532084018363548 -460.06929032291373 0 -460.06929032291373 -1094.0575213639604 0 0 0 0 -375.20370138658444 -231.91142481761926 0 -231.91142481761926 -1218.3481970485736 0 0 0 0 -350.38250519261538 -539.09885341933477 0 -539.09885341933477 -679.38261899077042 0 0 0 0 -0.44294145141501007 0.26645078747461071 0 0.26645078747461071 -3.0770258020901053 0 0 0 0 -490.87606513504136 150.8919049024189 0 150.8919049024189 -634.5473300615995 0 0 0 0 -348.99954839774659 -560.83930061773572 0 -560.83930061773572 -2020.2592957969173 0 0 0 0 -469.1030208887662 -548.33420436752203 0 -548.33420436752203 -821.74836303135089 0 0 0 0 -85.71782371018071 -492.51155780881527 0 -492.51155780881527 -910.3125609734343 0 0 0 0 -76.51568136439505 -370.79952530031733 0 -370.79952530031733 -1017.5233685279627 0 0 0 0 2.219098661448986 0.93068054902272479 0 0.93068054902272479 -5.9383257554657405 0 0 0 0 61.060315583372358 -278.93108134106296 0 -278.93108134106296 -696.7838698821015 0 0 0 0 -141.35336842948891 -456.53096289873429 0 -456.53096289873429 -514.93649452092359 0 0 0 0 418.75317148769909 -568.84917046566989 0 -568.84917046566989 -55.922157750857878 0 0 0 0 307.65747504488718 -233.73739838325127 0 -233.73739838325127 -868.14566249020572 0 0 0 0 200.91412605943424 98.185302149824565 0 98.185302149824565 -143.56014694508212 0 0 0 0 205.08794195640257 84.94545795416343 0 84.94545795416343 -733.63990825897054 0 0 0 0 -53.768502194116081 -107.77545003866544 0 -107.77545003866544 -439.61235146712716 0 0 0 0 -179.20625678220358 465.81992445435822 0 465.81992445435822 -341.52047607986606 0 0 0 0 12.357931484491019 627.2588030733823 0 627.2588030733823 -576.49552251824935 0 0 0 0 -1.4886890474586103 0.19385022560493326 0 0.19385022560493326 0.047907930959866007 0 0 0 0 0.46789550448556838 553.04982485857909 0 553.04982485857909 356.56892282299668 0 0 0 0 -29.661498805066685 262.3235208600654 0 262.3235208600654 -1134.516009248895 0 0 0 0 -188.3795740707651 509.66186608229327 0 509.66186608229327 -679.81282470758015 0 0 0 0 -231.90455598503877 524.84605548820036 0 524.84605548820036 -505.09039467199182 0 0 0 0 -216.1727015731326 523.08046431604453 0 523.08046431604453 -623.41219725360861 0 0 0 0 -151.3806045437691 465.56715358125439 0 465.56715358125439 -698.44321589681931 0 0 0 0 -3.4235334973752742 339.75754423574108 0 339.75754423574108 -606.08791240489882 0 0 0 0 -384.25877132899132 400.920377726281 0 400.920377726281 -632.77930763055338 0 0 0 0 9.0468858752763506 -27.459985592490938 0 -27.459985592490938 -26.431913879218101 0 0 0 0 -124.00116279833151 173.62089342766558 0 173.62089342766558 -239.3962313323027 0 0 0 0 -147.67694292671575 425.92730283687706 0 425.92730283687706 -427.06479047817993 0 0 0 0 -81.907798422956603 220.23268927679965 0 220.23268927679965 -377.01419343761518 0 0 0 0 -299.92521362934514 376.63405219429114 0 376.63405219429114 -341.01781457488687 0 0 0 0 -412.34811598553404 269.99378130906916 0 269.99378130906916 -291.62978166065295 0 0 0 0 -735.94226220318137 864.96756412916875 0 864.96756412916875 -817.55055673461902 0 0 0 0 -541.43461333269636 665.09378578863834 0 665.09378578863834 -532.0724082717752 0 0 0 0 -177.39078120630347 447.15642425247393 0 447.15642425247393 -940.73131279242807 0 0 0 0 -17.469229531154213 -41.14529985842637 0 -41.14529985842637 -1411.8985873883212 0 0 0 0 -317.66007797526049 388.48871046044951 0 388.48871046044951 -853.19991668857983 0 0 0 0 -270.06635880349756 167.75410994262529 0 167.75410994262529 -2036.6194311482686 0 0 0 0 -1083.0523331902295 30.840952430124162 0 30.840952430124162 -1734.9835991466607 0 0 0 0 -899.48087355119958 788.81132575985248 0 788.81132575985248 -2750.0797238883679 0 0 0 0 -11.081607100716443 5.8506431423843424 0 5.8506431423843424 -4.7735097204548538 0 0 0 0 110.41768786104058 -176.2426327041976 0 -176.2426327041976 -3210.431456543447 0 0 0 0 -54.780123722768906 -217.67602711353538 0 -217.67602711353538 -1748.7180416398769 0 0 0 0 -54.578699878152918 -301.25509790892102 0 -301.25509790892102 -2655.8182344541128 0 0 0 0 80.931448610343978 -33.193206968287996 0 -33.193206968287996 -180.61199557720101 0 0 0 0 -470.56236973272803 231.37939632750931 0 231.37939632750931 178.71102340439393 0 0 0 0 -192.9738919766279 -35.026036059109174 0 -35.026036059109174 -101.85394146158069 0 0 0 0 17.578140609107621 -23.050312166817776 0 -23.050312166817776 -24.243514393949823 0 0 0 0 -7.8061424579211005 110.19401691335543 0 110.19401691335543 -46.238419232802698 0 0 0 0 -18.568618631542961 -109.52292099958868 0 -109.52292099958868 60.153892302543682 0 0 0 0 -0.78299102060142312 -52.235805074902601 0 -52.235805074902601 -248.08144957173499 0 0 0 0 7.8164515991294472 -8.8632836436736397 0 -8.8632836436736397 -44.61794644681504 0 0 0 0 24.610615442141707 25.086643352915416 0 25.086643352915416 -145.09979890257819 0 0 0 0 38.760878954466421 20.85709420000785 0 20.85709420000785 -221.03329737312743 0 0 0 0 42.685531182243821 40.584939575921453 0 40.584939575921453 -262.94724975114514 0 0 0 0 -24.200919365775245 -61.384372048145451 0 -61.384372048145451 53.850685566285392 0 0 0 0 28.477733945034135 -14.067243698040045 0 -14.067243698040045 -23.167018519097297 0 0 0 0 38.91230623384665 -17.862496523222944 0 -17.862496523222944 -52.928664587554522 0 0 0 0 0.30985144675255905 -33.856554872036213 0 -33.856554872036213 -37.265650606626878 0 0 0 0 16.446979078906185 27.044555143620528 0 27.044555143620528 91.107232476599165 0 0 0 0 -0.019842874203011635 31.157605652027996 0 31.157605652027996 -35.676946489009424 0 0 0 0 -45.949474029865868 -118.67049382732512 0 -118.67049382732512 -1099.3788024350215 0 0 0 0 3.2247143802092642 2.2171515690614001 0 2.2171515690614001 -12.002522567012477 0 0 0 0 -3.6543123150911883 6.259487650009504 0 6.259487650009504 -11.612952189653186 0 0 0 0 -27.518304880227337 20.640724964040771 0 20.640724964040771 -14.586862765602305 0 0 0 0 78.046067643519194 104.67754273636729 0 104.67754273636729 -74.393634651722095 0 0 0 0 -54.224599373326839 -30.981778029432462 0 -30.981778029432462 -1393.1173569175153 0 0 0 0 -57.297505660289154 -84.460142063086096 0 -84.460142063086096 -1421.1080721537437 0 0 0 0 0.23349355737692676 55.153975338165765 0 55.153975338165765 -1475.7092317618008 0 0 0 0 66.469846213489291 -1.0632053716326482 0 -1.0632053716326482 -1710.0203072021468 0 0 0 0 43.477632646749896 -110.57904801290715 0 -110.57904801290715 -1928.7892001904765 0 0 0 0 -0.18059930514401085 114.39615847671635 0 114.39615847671635 -1714.680835987383 0 0 0 0 22.956911767169004 -135.92926763618016 0 -135.92926763618016 -1197.7616011463106 0 0 0 0 65.3389648731264 73.79435634148831 0 73.79435634148831 -1689.5227687750303 0 0 0 0 59.704324197395223 131.15402198293714 0 131.15402198293714 -1892.0039566081105 0 0 0 0 -137.49201402489518 178.35704235705634 0 178.35704235705634 -1564.1785278362659 0 0 0 0 -381.73622232039673 130.08580601755239 0 130.08580601755239 -1805.7755154581682 0 0 0 0 -51.254083385688887 82.021772661973955 0 82.021772661973955 -1802.9457366794013 0 0 0 0 -452.91440821949749 126.15808252343413 0 126.15808252343413 -1280.2065714876662 0 0 0 0 -421.52844082130753 296.20764277975832 0 296.20764277975832 -1789.8781883595584 0 0 0 0 -243.88851276733294 -64.412304320430849 0 -64.412304320430849 -2097.9987244605582 0 0 0 0 -96.943770147374835 -141.8092286888641 0 -141.8092286888641 -1217.9336968605348 0 0 0 0 -360.00768106667152 -99.588786385837011 0 -99.588786385837011 -1038.3879844362818 0 0 0 0 28.721739109204009 90.143272573535796 0 90.143272573535796 -1578.4419372038446 0 0 0 0 -239.89578580042701 -25.744869359245058 0 -25.744869359245058 -1149.5463669745368 0 0 0 0 -1.7322427904947224 5.0112712507213075 0 5.0112712507213075 -3.9247243183666995 0 0 0 0 -82.537244903365973 66.572242486970936 0 66.572242486970936 -957.54558433432248 0 0 0 0 143.17520048954941 -92.434685176602216 0 -92.434685176602216 -1150.5679752496098 0 0 0 0 -67.262458466068438 -340.35512197473508 0 -340.35512197473508 -872.54990341319353 0 0 0 0 0.48438777614568418 5.6480266296575508 0 5.6480266296575508 -2.8294597666651669 0 0 0 0 -53.807742220180103 147.73826162186015 0 147.73826162186015 -414.01173161732731 0 0 0 0 -52.178996717065303 -2.897332618576911 0 -2.897332618576911 30.761737449007342 0 0 0 0 10.013621665419464 -36.70023943437991 0 -36.70023943437991 -99.528075718968466 0 0 0 0 -3.4591733767133661 -53.031643676255044 0 -53.031643676255044 -123.56475662573939 0 0 0 0 -17.268486657509328 -84.030535210273229 0 -84.030535210273229 -156.14476760238313 0 0 0 0 -0.70032148227888213 2.0307035605293322 0 2.0307035605293322 -3.1565115935162567 0 0 0 0 -0.1244202585775417 -58.882827591997604 0 -58.882827591997604 -122.22224958287552 0 0 0 0 -51.156403549399442 -36.382654615768843 0 -36.382654615768843 -31.381379414226103 0 0 0 0 -418.9945665180112 -263.86650372558222 0 -263.86650372558222 620.55052398269572 0 0 0 0 -5.0389770972639383 -81.642126727487323 0 -81.642126727487323 31.926211055761136 0 0 0 0 -638.96484827602399 662.43039703235229 0 662.43039703235229 557.73165782416277 0 0 0 0 535.93750095281212 -209.9384163126125 0 -209.9384163126125 -276.88923535833919 0 0 0 0 -2276.1066366358373 -804.45423134550276 0 -804.45423134550276 -336.13472882799169 0 0 0 0 -671.37686803115866 1022.700422457931 0 1022.700422457931 -345.87822588667723 0 0 0 0 298.02014497900814 -306.36952501950725 0 -306.36952501950725 -1043.9622911733677 0 0 0 0 297.55700178444022 -259.17664684131614 0 -259.17664684131614 -2245.0828026898016 0 0 0 0 212.65404093037432 -8.3310050191248592 0 -8.3310050191248592 -394.92092728592024 0 0 0 0 295.2662022472756 333.05000285925064 0 333.05000285925064 -1292.0844543301209 0 0 0 0 259.34519612592703 1052.6474574677391 0 1052.6474574677391 -2016.7350674564805 0 0 0 0 -1223.4950251607952 -439.10688294841202 0 -439.10688294841202 1.0277189194848688 0 0 0 0 -3.956979576972909 -7.2341080866555476 0 -7.2341080866555476 -25.303275316365422 0 0 0 0 -531.32978902567265 -257.42509755425999 0 -257.42509755425999 15.240682116562311 0 0 0 0 15.69687744670955 -96.464155642766855 0 -96.464155642766855 8.1280567569738196 0 0 0 0 72.599723599488243 -156.07873415121867 0 -156.07873415121867 -98.572882656470028 0 0 0 0 324.25505689395141 -487.75502240412709 0 -487.75502240412709 -333.7657791480197 0 0 0 0 -8.0383061579326736 -48.829401605673695 0 -48.829401605673695 -43.919385682688578 0 0 0 0 -0.14241751435683625 -23.813308613724754 0 -23.813308613724754 -3.9556823079080345 0 0 0 0 67.051690263819182 -69.139139746386718 0 -69.139139746386718 -252.23873208888108 0 0 0 0 36.178762898896942 -57.642579355230048 0 -57.642579355230048 -4.1649101277661131 0 0 0 0 -42.903835754121246 -60.072712280867563 0 -60.072712280867563 32.143611614505062 0 0 0 0 2.4478151409204258 3.4317748782438144 0 3.4317748782438144 -15.593995040676809 0 0 0 0 0.87394609046335603 -7.5567066328486732 0 -7.5567066328486732 9.3724334710520907 0 0 0 0 -118.15067813310998 188.4296534601508 0 188.4296534601508 -437.75148879592598 0 0 0 0 -163.03296101838532 258.02966692036716 0 258.02966692036716 -452.17440825371887 0 0 0 0 -159.48210510493664 107.01427034850349 0 107.01427034850349 -427.99906357504278 0 0 0 0 -203.75310177192659 122.3360573072714 0 122.3360573072714 -322.42396298331732 0 0 0 0 -102.57269777631882 183.19895097441622 0 183.19895097441622 -219.1613529074275 0 0 0 0 -144.68296178262517 41.907012183214647 0 41.907012183214647 -156.86763006759429 0 0 0 0 -34.170308605644095 49.836108400226294 0 49.836108400226294 15.113405581520055 0 0 0 0 73.707948950341233 -54.353626665048068 0 -54.353626665048068 56.769651474845887 0 0 0 0 -55.275232297201001 -21.847181641300267 0 -21.847181641300267 116.55867473909348 0 0 0 0 -17.034608970444424 -46.953246174720334 0 -46.953246174720334 60.588573294404341 0 0 0 0 -229.86400041494016 -142.35722485608494 0 -142.35722485608494 22.136343259757268 0 0 0 0 -185.86435842539868 -135.41722762885183 0 -135.41722762885183 -87.713669670178206 0 0 0 0 -70.868456135827728 -38.756991762915277 0 -38.756991762915277 -6.4656726853208966 0 0 0 0 -125.23893532414149 11.180017555658196 0 11.180017555658196 -248.32523522414704 0 0 0 0 -21.09532144095283 -188.98756644345121 0 -188.98756644345121 -50.328367392192376 0 0 0 0 76.856993228921056 -47.962192933449842 0 -47.962192933449842 152.44238390067767 0 0 0 0 121.06523172220113 -259.34996305259119 0 -259.34996305259119 70.250778208448537 0 0 0 0 13.28972291829632 -141.78439295557837 0 -141.78439295557837 66.073691456069355 0 0 0 0 -126.83435202948931 -112.61545995089909 0 -112.61545995089909 106.54456391809799 0 0 0 0 -43.272998510041361 -197.12497786737003 0 -197.12497786737003 16.840997281471573 0 0 0 0 24.001690575110842 -39.354986851900321 0 -39.354986851900321 -28.009716669315821 0 0 0 0 -11.340196520199243 -28.736389532382418 0 -28.736389532382418 -38.880548480341531 0 0 0 0 -2.3307520035811677 -18.260950529539922 0 -18.260950529539922 -46.184541860476259 0 0 0 0 -12.316066767409211 -39.005989432733259 0 -39.005989432733259 -41.619562283358391 0 0 0 0 -11.629073462535391 -29.760679763082969 0 -29.760679763082969 -30.378107191793248 0 0 0 0 47.542285825948056 -77.462962741490628 0 -77.462962741490628 11.555893254058901 0 0 0 0 95.241803923363477 -122.25696928126126 0 -122.25696928126126 112.27135666794493 0 0 0 0 -11.639302908462454 -27.906467217370302 0 -27.906467217370302 -35.385358519323304 0 0 0 0 -5.475279832317014 -25.980032062431228 0 -25.980032062431228 -45.080037545086938 0 0 0 0 70.930234007268155 -189.46207705101551 0 -189.46207705101551 134.72242823472516 0 0 0 0 102.71525647943781 -73.644110539527901 0 -73.644110539527901 -51.453619824987982 0 0 0 0 265.19225250542513 -231.35345041922847 0 -231.35345041922847 -15.518458859985913 0 0 0 0 75.181819036795787 -236.84193738210888 0 -236.84193738210888 331.41869416180998 0 0 0 0 235.48604625081862 -112.87259041941797 0 -112.87259041941797 -45.612548158031132 0 0 0 0 3.5216818526324047 -6.1249934600083407 0 -6.1249934600083407 -23.7805850728205 0 0 0 0 15.203235506556666 -43.118582968369083 0 -43.118582968369083 -36.196369436620444 0 0 0 0 -4.6346094233491613 -31.541068209937311 0 -31.541068209937311 -56.062713100291404 0 0 0 0 -12.185717993290481 -27.637435599786809 0 -27.637435599786809 -39.472778887737135 0 0 0 0 15.468008090014337 -42.703064434699627 0 -42.703064434699627 -37.284201952548756 0 0 0 0 14.810105470315648 -44.801539587161642 0 -44.801539587161642 -39.627022616077738 0 0 0 0 11.073893955807371 -34.110224153071528 0 -34.110224153071528 -58.97582443327029 0 0 0 0 7.3893455405485327 -8.274293780480285 0 -8.274293780480285 -10.267202560076203 0 0 0 0 -8.3283370395365637 -39.609724164283307 0 -39.609724164283307 -63.198132510540745 0 0 0 0 20.426094539961923 -46.215169434195559 0 -46.215169434195559 -34.207801618947997 0 0 0 0 -1.3163529890225618 -28.547212405746905 0 -28.547212405746905 -58.579722240981937 0 0 0 0 -10.746729836817394 -50.242148889495184 0 -50.242148889495184 -32.828148706850698 0 0 0 0 -7.2928574969992042 -19.187046667406776 0 -19.187046667406776 -49.355633350719586 0 0 0 0 -10.390688778879849 -44.215058545746615 0 -44.215058545746615 -67.110837559728679 0 0 0 0 -4.5014880230628478 -50.248385739419064 0 -50.248385739419064 -25.414620247072889 0 0 0 0 15.586008589034691 -41.328230410717993 0 -41.328230410717993 -34.872530932298105 0 0 0 0 -14.285769440111189 -26.416418372220228 0 -26.416418372220228 -31.75195678092642 0 0 0 0 -0.31054340106682332 -3.6138906323101256 0 -3.6138906323101256 -5.6544776565489352 0 0 0 0 -28.455218061870255 -62.969752329212554 0 -62.969752329212554 -132.65141684628878 0 0 0 0 2.0521141259159776 -28.574347611311737 0 -28.574347611311737 -43.329398546573884 0 0 0 0 -82.807420942637691 -58.055542979921825 0 -58.055542979921825 34.632124517362399 0 0 0 0 -5.8269110418325667 1.1857751421592422 0 1.1857751421592422 0.63307864372536649 0 0 0 0 -8.5521692528600397 -24.244218157361502 0 -24.244218157361502 -67.649671395598489 0 0 0 0 -25.914239031244378 -69.356804998568663 0 -69.356804998568663 32.222657479293233 0 0 0 0 -45.290156853101507 -98.455457964264497 0 -98.455457964264497 105.74533334921216 0 0 0 0 5.9573735188560022 -174.85713809790832 0 -174.85713809790832 72.496507480638684 0 0 0 0 -19.843952018008764 -46.815491072838164 0 -46.815491072838164 -40.134002970897285 0 0 0 0 -7.464584694334917 -43.73741548281032 0 -43.73741548281032 -15.811978473760973 0 0 0 0 -62.88531888826401 7.839045859395128 0 7.839045859395128 38.930684544914698 0 0 0 0 -110.05262133433644 -65.625671460976776 0 -65.625671460976776 -20.937270340435546 0 0 0 0 -5.439231435113129 -23.139448564219855 0 -23.139448564219855 -10.889173497783062 0 0 0 0 -5.1795311316521406 -5.82504947261355 0 -5.82504947261355 1.6936915284424876 0 0 0 0 1137.3329248400914 65.087187167138381 0 65.087187167138381 156.63971129118909 0 0 0 0 699.75346208515111 201.78510778012071 0 201.78510778012071 -453.60796202146724 0 0 0 0 -10.641935825995169 -4.7981429717613437 0 -4.7981429717613437 30.502689442261087 0 0 0 0 4.5171542659081751 -159.86683166412882 0 -159.86683166412882 -333.62457633358554 0 0 0 0 303.40721747492717 -378.97851860097097 0 -378.97851860097097 -1298.9535683898889 0 0 0 0 847.48116650537122 -693.83531051547675 0 -693.83531051547675 -1911.3744975325337 0 0 0 0 -72.395671821614087 -120.16177881651288 0 -120.16177881651288 -1061.143262711955 0 0 0 0 48.177069121813474 -2.2412031960553804 0 -2.2412031960553804 -879.98766887492775 0 0 0 0 153.84333591131053 -506.02351260977537 0 -506.02351260977537 -745.74604745198428 0 0 0 0 -115.92563195319599 -417.48627202874877 0 -417.48627202874877 -730.7534158022886 0 0 0 0 -228.97839752943764 -468.55982460013388 0 -468.55982460013388 -380.93430913221965 0 0 0 0 27.880444304848425 -124.11511618780247 0 -124.11511618780247 -406.79050906432622 0 0 0 0 11.839856707490981 -575.36014293713276 0 -575.36014293713276 -748.63894228388676 0 0 0 0 513.1717629163395 -725.0080622500659 0 -725.0080622500659 -705.65314511424162 0 0 0 0 -121.54322371521266 -271.01428119399657 0 -271.01428119399657 -141.75564199005203 0 0 0 0 -888.29609159192114 -141.07024124017516 0 -141.07024124017516 -674.2681884836361 0 0 0 0 -573.50957309106525 -1015.9868516925585 0 -1015.9868516925585 -436.456532109622 0 0 0 0 748.67496579269937 -206.60868251095962 0 -206.60868251095962 -1702.0143398627147 0 0 0 0 188.44031523844353 1.2835319207134432 0 1.2835319207134432 -786.13120078822703 0 0 0 0 188.60475713291032 -6.6153898697629501 0 -6.6153898697629501 -483.36906796351832 0 0 0 0 531.27116306676544 -401.95117859400489 0 -401.95117859400489 -314.63289496722018 0 0 0 0 9.6006924721136073 -1.4986469818664099 0 -1.4986469818664099 1.9642304272486362 0 0 0 0 146.77506065937359 -195.07295467426997 0 -195.07295467426997 -554.59664247029332 0 0 0 0 -90.897307408979941 84.888389200321285 0 84.888389200321285 -259.10751058476535 0 0 0 0 -5.0438300193100325 -35.88408867018962 0 -35.88408867018962 -73.915236945930872 0 0 0 0 23.231860863335896 -32.903689542622487 0 -32.903689542622487 -259.83440023462532 0 0 0 0 -52.130635729290589 40.237427922693541 0 40.237427922693541 -188.8892118487247 0 0 0 0 -106.77198907885594 -201.56727020343044 0 -201.56727020343044 -274.4802758912731 0 0 0 0 26.076491688217843 -12.874724134027083 0 -12.874724134027083 -13.571429872005233 0 0 0 0 -154.90047308675275 252.58111854868366 0 252.58111854868366 -367.78316661700592 0 0 0 0 -234.79139567688617 573.52437449103991 0 573.52437449103991 -1279.3896637647886 0 0 0 0 5.6618919066977682 -9.6343902162895674 0 -9.6343902162895674 -28.805501333249946 0 0 0 0 256.09044997291494 245.035997515487 0 245.035997515487 -1560.9043108705964 0 0 0 0 -799.28678346707056 -860.83281857013799 0 -860.83281857013799 -793.21697898796117 0 0 0 0 -726.00826158248492 198.78629204212029 0 198.78629204212029 -457.63494951490065 0 0 0 0 222.21815065111878 -669.23324426224826 0 -669.23324426224826 -974.40951112632501 0 0 0 0 -768.99402775978342 -1392.2077013910612 0 -1392.2077013910612 -686.50009548130038 0 0 0 0 -3933.9656568894061 1875.0567842058153 0 1875.0567842058153 -1939.8943495082967 0 0 0 0 5.9473881864245257 -5.9749145385840414 0 -5.9749145385840414 0.55633285870949578 0 0 0 0 2851.6592869641245 -285.41691621435439 0 -285.41691621435439 -3892.2623642916442 0 0 0 0 773.11936308302757 -534.82091000365472 0 -534.82091000365472 -733.78917709630332 0 0 0 0 651.37718123343075 -221.96703630873162 0 -221.96703630873162 -1452.5542448466522 0 0 0 0 440.17789076492591 -140.94327136415541 0 -140.94327136415541 -776.19391033872307 0 0 0 0 446.70908319097725 -334.50429923344927 0 -334.50429923344927 -587.58111145483963 0 0 0 0 453.6790197258706 -295.81079882160702 0 -295.81079882160702 -718.62270668666201 0 0 0 0 -189.20219711409118 201.66303352944487 0 201.66303352944487 -197.90219678138965 0 0 0 0 -99.837964089956586 -243.27763480686372 0 -243.27763480686372 -394.48457975023121 0 0 0 0 29.673378460380583 10.001470818012997 0 10.001470818012997 -31.956189598734618 0 0 0 0 -119.95143617205395 -66.368215304017212 0 -66.368215304017212 -131.23067593110682 0 0 0 0 -24.454379131510976 34.775430678685638 0 34.775430678685638 -16.005911852787612 0 0 0 0 -76.429994393794914 -238.82341013629775 0 -238.82341013629775 -414.43542304942821 0 0 0 0 -69.622176307428163 -168.91402314806692 0 -168.91402314806692 -377.90600844607798 0 0 0 0 -41.34569132442266 -253.20876715724444 0 -253.20876715724444 -409.78547964569225 0 0 0 0 -48.605686074293772 -294.93724573804025 0 -294.93724573804025 -552.96181966819859 0 0 0 0 -121.55444330616228 -455.08969100625472 0 -455.08969100625472 -271.49232399849279 0 0 0 0 -83.28399718460787 -253.28305332331547 0 -253.28305332331547 -394.41199294091166 0 0 0 0 -122.88325778173714 -539.15995764949866 0 -539.15995764949866 -696.04759507038034 0 0 0 0 -52.901664796347177 -179.91162291202636 0 -179.91162291202636 -264.34331709949765 0 0 0 0 -2165.7618794087721 -550.14475194515808 0 -550.14475194515808 -22.472129857102118 0 0 0 0 -10.707693736789651 -13.975171923078058 0 -13.975171923078058 -24.021024789091253 0 0 0 0 -464.55880567668646 -88.620997821188666 0 -88.620997821188666 45.343071835349292 0 0 0 0 -759.33749889206319 -774.70495746338247 0 -774.70495746338247 -423.46475058362194 0 0 0 0 380.44897519851656 -1159.2528013908541 0 -1159.2528013908541 -720.31575633990724 0 0 0 0 68.179592996406427 -406.31062785735048 0 -406.31062785735048 -721.48524449942306 0 0 0 0 342.23329600539364 -330.58522300097411 0 -330.58522300097411 -771.27140492587932 0 0 0 0 578.72465793824631 -555.84215318261658 0 -555.84215318261658 -852.93784512926868 0 0 0 0 134.78005293410388 -572.88281004355304 0 -572.88281004355304 -821.72437845175773 0 0 0 0 151.69106330235081 -424.22600627991415 0 -424.22600627991415 -826.78223868164787 0 0 0 0 11.349024389237456 -339.48291077758404 0 -339.48291077758404 -798.47300852062835 0 0 0 0 53.707312142760202 -378.07819485557411 0 -378.07819485557411 -767.98632438880486 0 0 0 0 11.385048579744762 -335.93695197569468 0 -335.93695197569468 -524.99525022149101 0 0 0 0 62.669121937578893 -431.2778493288024 0 -431.2778493288024 -822.32906362533106 0 0 0 0 -70.013286501780385 -268.18537546361404 0 -268.18537546361404 -994.77939692651853 0 0 0 0 -27.009527867427096 -339.27552318088055 0 -339.27552318088055 -877.29832331636339 0 0 0 0 3.6185159187807585 -302.00421619120607 0 -302.00421619120607 -834.42511991286301 0 0 0 0 -4.3832994152799074 -351.55212039552134 0 -351.55212039552134 -832.0101317912704 0 0 0 0 -415.99013742765965 -482.81263616609976 0 -482.81263616609976 -467.68119660635693 0 0 0 0 -593.25040817501031 -870.89100290562055 0 -870.89100290562055 -851.71415391320988 0 0 0 0 311.05999291854096 54.93704513146622 0 54.93704513146622 -61.528049507644027 0 0 0 0 -2.0676319843605171 2.5409835681073361 0 2.5409835681073361 -24.847538608985978 0 0 0 0 -72.461912368846242 230.30786277051811 0 230.30786277051811 -116.13065646223185 0 0 0 0 -1799.9736266117834 -1949.8173884977004 0 -1949.8173884977004 1545.0977166773246 0 0 0 0 738.92243197530479 422.84817770138761 0 422.84817770138761 -537.62097656268816 0 0 0 0 -149.50913683611725 -423.41853730828007 0 -423.41853730828007 -862.91029223292571 0 0 0 0 11.075661990864319 -734.03538315912738 0 -734.03538315912738 -1350.3071464685345 0 0 0 0 649.96647718040913 -483.6502310358228 0 -483.6502310358228 -1318.0541098219273 0 0 0 0 154.61745247531508 -172.99130018534015 0 -172.99130018534015 -980.39476329760873 0 0 0 0 -62.727859562539379 -114.57234762608641 0 -114.57234762608641 -990.2542687567875 0 0 0 0 -418.46394681734819 -189.54688742843427 0 -189.54688742843427 -1006.055635956327 0 0 0 0 -225.19853816719115 -764.82624369553059 0 -764.82624369553059 -2517.3164596554925 0 0 0 0 -398.76532971734377 -168.53518000349413 0 -168.53518000349413 -983.7090416715946 0 0 0 0 -95.478513818743522 408.60434782425727 0 408.60434782425727 -2559.056633971988 0 0 0 0 314.19859649214777 216.87267499399604 0 216.87267499399604 -3446.4714382367238 0 0 0 0 -199.89100458215034 150.58542011772897 0 150.58542011772897 -1319.5956786521638 0 0 0 0 -2.1989580975750869 5.7076201290125894 0 5.7076201290125894 4.1122468942884041 0 0 0 0 -513.86867201025598 -225.73799068487278 0 -225.73799068487278 -1099.6663657006065 0 0 0 0 -240.45469832492199 132.70223611003485 0 132.70223611003485 31.25078486055645 0 0 0 0 -319.40030621794722 -407.17622687395487 0 -407.17622687395487 -417.60951742710677 0 0 0 0 89.072660525140236 -199.88477890304057 0 -199.88477890304057 -1100.7808081130188 0 0 0 0 -256.43191908075096 225.92839518665278 0 225.92839518665278 4.5072814426348486 0 0 0 0 118.76860945804947 -460.85190002693344 0 -460.85190002693344 -822.74943165417062 0 0 0 0 -69.702048073205731 -16.065317485428068 0 -16.065317485428068 -7.1657168211026416 0 0 0 0 -136.66810248933325 104.4782322641513 0 104.4782322641513 -432.62877178880444 0 0 0 0 -40.957953628127143 -179.13359823512292 0 -179.13359823512292 -612.80093247402283 0 0 0 0 -97.56431460697786 262.60116335632483 0 262.60116335632483 -1099.0437710627812 0 0 0 0 -26.860273816289371 7.5887121456229352 0 7.5887121456229352 1.2221057283844061 0 0 0 0 -95.346638460425311 221.28110860364541 0 221.28110860364541 -719.70223072196677 0 0 0 0 3.0322345307268748 -29.518659915182599 0 -29.518659915182599 -114.28076971775779 0 0 0 0 -54.384169993139949 70.581472614259837 0 70.581472614259837 -552.23584237020987 0 0 0 0 -70.928832498654955 50.093466210467277 0 50.093466210467277 -37.444550061120808 0 0 0 0 31.517986405938856 -13.676946661861336 0 -13.676946661861336 -47.515540008010731 0 0 0 0 -61.353673916557455 -129.54720633832767 0 -129.54720633832767 -504.33363599976656 0 0 0 0 21.619959941977868 -142.90894064015447 0 -142.90894064015447 -729.05072978275712 0 0 0 0 -9.1346044627498486 -178.55078955814315 0 -178.55078955814315 -590.63782799743785 0 0 0 0 -0.51598591113361181 -153.73995028733407 0 -153.73995028733407 -521.32818910680362 0 0 0 0 -3.256459559983341 -238.78163602451241 0 -238.78163602451241 -680.66367310623173 0 0 0 0 -3.783142696483992 -254.86376771576761 0 -254.86376771576761 -957.26589158259594 0 0 0 0 -125.81117549209739 -273.45576446341511 0 -273.45576446341511 -871.13138484260708 0 0 0 0 -27.314578634352074 -62.972751737948784 0 -62.972751737948784 -881.76201484210469 0 0 0 0 8.7417078518483322 -130.23583716740904 0 -130.23583716740904 -1276.3821479506732 0 0 0 0 -20.124619632129907 -69.227017257602711 0 -69.227017257602711 -876.64876856445699 0 0 0 0 -18.890113138142624 -47.009687801546534 0 -47.009687801546534 -619.0070554059057 0 0 0 0 35.822177619678001 359.98566249557416 0 359.98566249557416 -1177.7378630896928 0 0 0 0 -107.35855354640125 79.618348036336101 0 79.618348036336101 -863.45602171694554 0 0 0 0 -38.448315649431557 -61.179303707525534 0 -61.179303707525534 -37.81830639196761 0 0 0 0 -59.211551358434008 -63.866760875702312 0 -63.866760875702312 -5.4557439590353169 0 0 0 0 -115.03313301118033 77.141887158988538 0 77.141887158988538 -102.4315584626238 0 0 0 0 -26.049280183692645 -34.160227249129093 0 -34.160227249129093 -76.193760887857934 0 0 0 0 -152.15587406543818 327.84841959306868 0 327.84841959306868 -1261.3045992722255 0 0 0 0 -23.27487460356269 -71.675206525693937 0 -71.675206525693937 -62.631318834212536 0 0 0 0 21.457674097144263 -68.910144269084412 0 -68.910144269084412 -53.061858763700002 0 0 0 0 79.375251185176239 -15.874540711418376 0 -15.874540711418376 -62.079909929905625 0 0 0 0 252.96533498734061 -44.473821154082543 0 -44.473821154082543 -218.35116097961873 0 0 0 0 31.923966785848172 -56.785343065207613 0 -56.785343065207613 -90.986617504167725 0 0 0 0 815.3555594656832 -307.96570766337231 0 -307.96570766337231 -95.636871380742377 0 0 0 0 34.626530143719407 -22.195060273094654 0 -22.195060273094654 -47.671122082495913 0 0 0 0 36.433322985947598 199.60267900317194 0 199.60267900317194 -1737.6135786870764 0 0 0 0 -36.493502478526352 235.74224441794649 0 235.74224441794649 -1233.6328285268137 0 0 0 0 -17.599452867507352 -7.5826841709931614 0 -7.5826841709931614 -1467.5195263337264 0 0 0 0 -51.088085921677703 -161.6717970233185 0 -161.6717970233185 -734.35271726586507 0 0 0 0 -96.652622200839687 -177.10982244227353 0 -177.10982244227353 -739.35981770889339 0 0 0 0 59.3323092237803 -74.651674761163662 0 -74.651674761163662 -159.39903806735595 0 0 0 0 -154.63256031232811 -49.971032919373101 0 -49.971032919373101 -864.25316273927456 0 0 0 0 -142.81650922574022 84.297517755923764 0 84.297517755923764 -693.84899211903394 0 0 0 0 -19.780063167091612 -157.5403322168022 0 -157.5403322168022 -484.60962599386039 0 0 0 0 -23.821357622691949 189.59168333170965 0 189.59168333170965 -768.60066260853637 0 0 0 0 462.29770710584125 -662.30901154518506 0 -662.30901154518506 -150.68588309563347 0 0 0 0 1245.8107142176814 -1070.5017896043646 0 -1070.5017896043646 -4926.0262964731664 0 0 0 0 -0.939830434068881 -209.70593407196066 0 -209.70593407196066 -276.75411250505567 0 0 0 0 -104.60674545795223 -118.4376571032135 0 -118.4376571032135 -178.51529170479625 0 0 0 0 59.709760777256179 -236.14155966941325 0 -236.14155966941325 -415.05715362225601 0 0 0 0 219.1324788666243 -318.24856614074088 0 -318.24856614074088 192.3850317685974 0 0 0 0 67.364674656431362 -48.35615985929995 0 -48.35615985929995 -12.311516820335157 0 0 0 0 -7.0322932307079959 12.840940958518388 0 12.840940958518388 -95.290844923145301 0 0 0 0 -188.73858615022982 -389.85615714995947 0 -389.85615714995947 -618.86144063840038 0 0 0 0 -171.70023408149063 -302.43755888448504 0 -302.43755888448504 -448.68578269012505 0 0 0 0 56.381736206223856 -81.25970891713709 0 -81.25970891713709 -131.94701666953802 0 0 0 0 -116.21974204042128 -19.865045317558398 0 -19.865045317558398 -9.2156357200448724 0 0 0 0 -75.490789040799427 122.18439199477871 0 122.18439199477871 -227.09030461914153 0 0 0 0 -291.39931165560301 -101.88862399928621 0 -101.88862399928621 -137.71334877008485 0 0 0 0 101.41126397288463 96.217513388583029 0 96.217513388583029 -1064.0068117613846 0 0 0 0 193.12236157569714 -418.49903702791198 0 -418.49903702791198 -1156.256677730602 0 0 0 0 111.66458714274995 -389.18493350193967 0 -389.18493350193967 -961.32758772844682 0 0 0 0 67.402444527353509 -585.64535836080904 0 -585.64535836080904 -888.15393124639377 0 0 0 0 35.652996615164739 -733.36673688477458 0 -733.36673688477458 -1211.5203953757591 0 0 0 0 369.44386814205791 -532.28786100412253 0 -532.28786100412253 -1090.4446118513879 0 0 0 0 17.601627455784183 -916.53962247074378 0 -916.53962247074378 -727.81263910117559 0 0 0 0 -198.25920817456063 -730.50673177065619 0 -730.50673177065619 -954.85139953907492 0 0 0 0 38.343408087452644 -325.31941286633946 0 -325.31941286633946 -1190.8455888289172 0 0 0 0 4.7852962494730491 -120.82238558163499 0 -120.82238558163499 -243.65594775721547 0 0 0 0 -332.13243399930798 -525.37370578267291 0 -525.37370578267291 -724.79257332615998 0 0 0 0 328.47335342581573 107.76467643508659 0 107.76467643508659 -862.67683306135223 0 0 0 0 -362.89360231990213 334.72752989875153 0 334.72752989875153 -673.68515074395691 0 0 0 0 303.08606136931849 470.22916562704631 0 470.22916562704631 -647.5188533954024 0 0 0 0 -4.2601680338230707 5.0237475860908347 0 5.0237475860908347 -5.4174161421364886 0 0 0 0 196.13736257804703 -58.975803305751469 0 -58.975803305751469 -809.33782228840755 0 0 0 0 23.155914586845029 106.88821767314948 0 106.88821767314948 -822.24283035247936 0 0 0 0 -426.68637594189568 301.92272977350149 0 301.92272977350149 -906.80036135819682 0 0 0 0 -208.66292470086256 -404.22593339191849 0 -404.22593339191849 -610.39903782003967 0 0 0 0 -951.72214152539891 -1089.9411130510634 0 -1089.9411130510634 -1083.41674906751 0 0 0 0 242.95902657312763 -108.46919807120139 0 -108.46919807120139 -2177.8225545108362 0 0 0 0 -1444.7474258860402 -1845.0137481905476 0 -1845.0137481905476 -2019.880857379263 0 0 0 0 -5.4850590582582868 11.723433180682576 0 11.723433180682576 -29.609423664965647 0 0 0 0 -294.86237842703486 1468.4040107390701 0 1468.4040107390701 -1572.1703978129663 0 0 0 0 -250.2581065225495 741.53764822667654 0 741.53764822667654 -4394.7000975920382 0 0 0 0 -2295.2118683212029 215.58506286686315 0 215.58506286686315 864.43287002583384 0 0 0 0 2139.7838469763446 -2029.5908779157035 0 -2029.5908779157035 -2411.3223719283096 0 0 0 0 511.82157736800582 -156.9415323377325 0 -156.9415323377325 -46.551091078785248 0 0 0 0 -5.7775755124208814 -21.15614352634179 0 -21.15614352634179 -56.858878284391238 0 0 0 0 13.377781562001985 -1.5745531012021701 0 -1.5745531012021701 -18.78182139794319 0 0 0 0 138.31093161220997 -274.8101424274937 0 -274.8101424274937 -34.701837716856971 0 0 0 0 425.06111604654507 -359.94300327239034 0 -359.94300327239034 -178.33333215402672 0 0 0 0 191.89060504864756 -176.03133369394345 0 -176.03133369394345 95.788980854180409 0 0 0 0 0.44654956536190582 -4.5505317918210082 0 -4.5505317918210082 -26.877207704522249 0 0 0 0 657.46475149771322 2229.6200369153485 0 2229.6200369153485 -2796.3821872313711 0 0 0 0 615.01192915386491 2012.4243281974123 0 2012.4243281974123 -1722.4276808226023 0 0 0 0 -40.57585822638066 -119.31046171196067 0 -119.31046171196067 -593.17814869492213 0 0 0 0 -57.189083338369528 -195.81103463812178 0 -195.81103463812178 -944.49492251688207 0 0 0 0 -179.47116361332519 -55.099716187971353 0 -55.099716187971353 -551.1438673782468 0 0 0 0 12.201574633759336 -32.607636438461661 0 -32.607636438461661 -78.639501157408432 0 0 0 0 -276.56868194647177 -23.224343465713901 0 -23.224343465713901 -241.26372589090533 0 0 0 0 -217.10482857565876 -67.361426092822512 0 -67.361426092822512 -504.55948367048404 0 0 0 0 160.25480516375319 -448.29229341253358 0 -448.29229341253358 -642.42802291361659 0 0 0 0 382.07367289726426 -636.1477699954994 0 -636.1477699954994 -736.56886745269549 0 0 0 0 -232.6515387120744 -193.03537687233256 0 -193.03537687233256 -508.6392723166083 0 0 0 0 7.4794727704171322 -37.008544292986308 0 -37.008544292986308 -105.49549984960137 0 0 0 0 4.8215255835563653 -4.3255690865063201 0 -4.3255690865063201 -31.094998404296319 0 0 0 0 -250.04036491732404 -286.49305234167332 0 -286.49305234167332 -673.93158736480473 0 0 0 0 -84.752380410625847 -230.01287850021072 0 -230.01287850021072 -545.3266933553532 0 0 0 0 -114.63338587525686 -388.99644236998211 0 -388.99644236998211 -726.42954005421052 0 0 0 0 -189.84060205731294 -268.83473024075647 0 -268.83473024075647 -336.91155002159212 0 0 0 0 -0.31148579550659861 -0.29189614660066354 0 -0.29189614660066354 1.8554426742380343 0 0 0 0 -598.01878198894519 -208.91026131047147 0 -208.91026131047147 -88.660792864808172 0 0 0 0 -35.616652308344783 -293.6412927150086 0 -293.6412927150086 -770.34485082269384 0 0 0 0 -96.045314779120659 -7.765398974798984 0 -7.765398974798984 17.408154970423766 0 0 0 0 -1579.1931494585151 -9.0357761983468663 0 -9.0357761983468663 -866.77758887110394 0 0 0 0 222.36212449075538 -299.33744001181185 0 -299.33744001181185 -1787.5324950121139 0 0 0 0 54.920250229581143 379.31536522821261 0 379.31536522821261 -1772.0930911902367 0 0 0 0 44.928855677593674 -1021.8136939796241 0 -1021.8136939796241 -1276.4332096304424 0 0 0 0 356.65664593902216 -730.57017025051528 0 -730.57017025051528 -1940.1340765192144 0 0 0 0 120.27944642116927 -385.55465157850267 0 -385.55465157850267 -760.50336539783166 0 0 0 0 240.59015122716664 -405.14126180054882 0 -405.14126180054882 -1173.892414780028 0 0 0 0 82.977236413214996 227.3599106941474 0 227.3599106941474 -975.4113995723601 0 0 0 0 118.65753734470491 83.000212869155803 0 83.000212869155803 -1355.3231693492089 0 0 0 0 116.11420069457381 6.6597328563730116 0 6.6597328563730116 -762.8413902947359 0 0 0 0 -12.181634628817847 281.23214640535844 0 281.23214640535844 -516.90800285279693 0 0 0 0 3.7642324928092421 312.38019867725961 0 312.38019867725961 -1021.88993820217 0 0 0 0 -306.31715407310185 502.27975716977744 0 502.27975716977744 -317.58236712834332 0 0 0 0 -267.12901478967251 218.03706978652917 0 218.03706978652917 103.55077889114909 0 0 0 0 -102.43255357466478 299.09693890867493 0 299.09693890867493 -517.64383538183756 0 0 0 0 -0.78211165158445439 -3.5074012621010091 0 -3.5074012621010091 -15.0768006869678 0 0 0 0 -315.00467049205326 600.76964009691073 0 600.76964009691073 -919.48591970056441 0 0 0 0 -18.757107809804438 -1048.199140983319 0 -1048.199140983319 -505.25792986193846 0 0 0 0 -319.63915508706123 -683.30725966341561 0 -683.30725966341561 620.808888982996 0 0 0 0 1121.9149731845846 339.43219661995317 0 339.43219661995317 -1159.3140245740651 0 0 0 0 0.87222770015366535 -4.0043913611547755 0 -4.0043913611547755 -30.834904036205131 0 0 0 0 -779.53622500826896 334.38179153983947 0 334.38179153983947 817.25394126048195 0 0 0 0 382.6865625704595 6.0834695070298039 0 6.0834695070298039 -131.66024420781469 0 0 0 0 -95.25949842321279 -71.73949980539328 0 -71.73949980539328 75.635219816561403 0 0 0 0 -237.70600692471271 162.55334094944919 0 162.55334094944919 -10.955445349107322 0 0 0 0 -275.18761645904669 80.142050426118658 0 80.142050426118658 -191.44834301123774 0 0 0 0 -263.5213964747818 114.27802605553006 0 114.27802605553006 -158.45324389497546 0 0 0 0 37.673961460447572 174.2884297008477 0 174.2884297008477 -228.11009541663225 0 0 0 0 -129.38471182913418 186.69423705381087 0 186.69423705381087 -431.56634139834205 0 0 0 0 -165.46755063642195 212.25158379138156 0 212.25158379138156 -171.01535796909593 0 0 0 0 -167.90352295935736 215.0169396326055 0 215.0169396326055 -249.10590333647269 0 0 0 0 -124.59032717921218 102.20710389783198 0 102.20710389783198 -495.82173363818947 0 0 0 0 -20.536675579431176 145.20310848313238 0 145.20310848313238 -816.10041953227847 0 0 0 0 -91.917666796121921 149.59318077306307 0 149.59318077306307 -430.63316136905632 0 0 0 0 -349.60627817230124 207.91806277263095 0 207.91806277263095 -60.960627927932364 0 0 0 0 -244.65611062674725 101.22280746787874 0 101.22280746787874 -375.28170566546032 0 0 0 0 -250.37077146019146 134.89720750087145 0 134.89720750087145 -330.91339932360279 0 0 0 0 -214.96555297156738 174.06512460455269 0 174.06512460455269 -334.63329786725262 0 0 0 0 -208.64725230811746 142.15359867854568 0 142.15359867854568 -370.71055028866976 0 0 0 0 -274.86807613229394 187.09396374242715 0 187.09396374242715 -303.61639556399314 0 0 0 0 -191.25063824535027 103.94576852882165 0 103.94576852882165 -306.26105007471187 0 0 0 0 -261.29249724479087 62.252518822009733 0 62.252518822009733 -231.972517040198 0 0 0 0 -255.15358344246033 92.801777624197712 0 92.801777624197712 -215.27700820715108 0 0 0 0 -199.56896075751501 -17.087467446868686 0 -17.087467446868686 -163.21148777495546 0 0 0 0 -503.42228408225037 -219.82563061530891 0 -219.82563061530891 -272.23032070593763 0 0 0 0 266.32674570258314 -79.062350288539164 0 -79.062350288539164 -369.25304914400112 0 0 0 0 41.891653140923154 -238.44182595870734 0 -238.44182595870734 -473.7122877694128 0 0 0 0 -450.14285146843758 -383.73512934690734 0 -383.73512934690734 -375.56147035282993 0 0 0 0 -81.116494677851733 161.5401520704836 0 161.5401520704836 132.63746220361645 0 0 0 0 -29.661761104855032 68.982860406083091 0 68.982860406083091 -139.6023263067691 0 0 0 0 -394.97041443993658 133.10484945476492 0 133.10484945476492 -15.603452574450785 0 0 0 0 -48.046784653603936 56.522583084679354 0 56.522583084679354 151.00409684125043 0 0 0 0 -201.96110181104086 130.4610648805683 0 130.4610648805683 235.0449476038666 0 0 0 0 -295.3059419125384 -37.400631042590248 0 -37.400631042590248 171.03640149546845 0 0 0 0 -287.09363660947213 -170.3430916597099 0 -170.3430916597099 24.157471903119585 0 0 0 0 -16.894880334599293 124.06515894412951 0 124.06515894412951 -95.461273434833856 0 0 0 0 5.7466338209706009 219.72945552867895 0 219.72945552867895 48.814316755233449 0 0 0 0 0.78404187085138943 -2.1425280663972206 0 -2.1425280663972206 -23.990225554288088 0 0 0 0 44.371724921686109 180.96116395883655 0 180.96116395883655 -111.9634227535862 0 0 0 0 444.28158344998519 -212.75289626925587 0 -212.75289626925587 -273.40793888679764 0 0 0 0 16.745391632923202 -341.12967048426435 0 -341.12967048426435 -250.67227599161561 0 0 0 0 -699.1654953867619 398.41982672886297 0 398.41982672886297 79.455619344873412 0 0 0 0 -0.49787138027672029 -1.1743949141425745 0 -1.1743949141425745 -8.4791093248806817 0 0 0 0 -68.487890769269143 -18.132661253526749 0 -18.132661253526749 -229.01592985568277 0 0 0 0 -11.430732525361236 90.421109203032756 0 90.421109203032756 -38.966533727085334 0 0 0 0 -89.155366936134669 -119.14535791856906 0 -119.14535791856906 -116.21994836964222 0 0 0 0 -6.7727885841244486 -6.9574104892292326 0 -6.9574104892292326 -5.2565087451758927 0 0 0 0 69.279547894322604 -91.381206379952346 0 -91.381206379952346 -126.86276863724925 0 0 0 0 9.1697705955157289 48.975292946081026 0 48.975292946081026 -120.03105718917504 0 0 0 0 -38.43832462872524 56.809077174963022 0 56.809077174963022 -80.584287502104416 0 0 0 0 12.243113233991608 57.168079566617962 0 57.168079566617962 -98.5690432904521 0 0 0 0 960.90905638664844 1311.4239614987819 0 1311.4239614987819 -51.827178124338388 0 0 0 0 -69.943639310142316 84.209975954116089 0 84.209975954116089 -101.89868686886621 0 0 0 0 -394.1969053779867 136.03782770076941 0 136.03782770076941 -112.59179492743715 0 0 0 0 -1351.7642944645631 -478.10126058825699 0 -478.10126058825699 -348.00196841497655 0 0 0 0 -382.9996311309369 -73.288267867334071 0 -73.288267867334071 -206.69277299866371 0 0 0 0 -450.74003432422614 -188.1421067945048 0 -188.1421067945048 -142.48216234811116 0 0 0 0 -389.79313765030383 -14.800941202498507 0 -14.800941202498507 -33.975546167850553 0 0 0 0 -451.10748897904614 -176.98808914309302 0 -176.98808914309302 98.969007408013567 0 0 0 0 -372.48021618715393 -58.004203299900837 0 -58.004203299900837 46.284911260649096 0 0 0 0 110.40094428134034 82.830765158425493 0 82.830765158425493 -63.314968417835189 0 0 0 0 -3.4281556891219225 19.755877469331608 0 19.755877469331608 -7.0400450200104387 0 0 0 0 -4.1163337304465202 -6.0555138118218927 0 -6.0555138118218927 -6.7094207879760575 0 0 0 0 12.192612557043503 -8.6761438650355558 0 -8.6761438650355558 -13.013998515700223 0 0 0 0 -2.5395530436116402 -3.7409747193696603 0 -3.7409747193696603 -4.71824648872024 0 0 0 0 101.31035697583332 -302.19573896545978 0 -302.19573896545978 52.47834449034417 0 0 0 0 -71.293295489103912 156.49010281050141 0 156.49010281050141 130.88254359917482 0 0 0 0 -9.2900119617261225 13.762325437395702 0 13.762325437395702 5.7477265006382368 0 0 0 0 -591.39649483466019 -262.61529555359084 0 -262.61529555359084 -122.95626624347642 0 0 0 0 -1.1512625676549 -2.1577568165787575 0 -2.1577568165787575 -3.3566697232048739 0 0 0 0 -3.4764196129016511 -1.9018897334879767 0 -1.9018897334879767 0.27714114795463729 0 0 0 0 135.24154996023208 74.740805964447645 0 74.740805964447645 -36.545662380434806 0 0 0 0 -349.24229744912373 -551.99770667091798 0 -551.99770667091798 -258.98521512189473 0 0 0 0 -524.61428126217288 -48.886834453340271 0 -48.886834453340271 133.04007966281688 0 0 0 0 -594.63678417955089 -224.82161983707192 0 -224.82161983707192 86.68015826647752 0 0 0 0 275.29935048726475 32.632881290512159 0 32.632881290512159 -36.020464559413085 0 0 0 0 273.52167019983244 50.090371955142473 0 50.090371955142473 -188.00082453754294 0 0 0 0 247.26281147518966 -44.950493776399526 0 -44.950493776399526 -132.04926288214483 0 0 0 0 341.30282888483271 -52.495058515160054 0 -52.495058515160054 -216.48195191806008 0 0 0 0 317.75332423354121 -138.23621050972724 0 -138.23621050972724 -163.57512718255748 0 0 0 0 385.82038840514724 -32.002920494043792 0 -32.002920494043792 -28.069690230709966 0 0 0 0 239.55943408203348 -50.757058301027428 0 -50.757058301027428 -71.024395337357419 0 0 0 0 592.04150438298529 -312.68568674719427 0 -312.68568674719427 75.940348434494808 0 0 0 0 433.90510117200574 -137.97632884788618 0 -137.97632884788618 -113.39597982139094 0 0 0 0 -7.3405566266056361 -13.935750843840296 0 -13.935750843840296 -31.510235193568917 0 0 0 0 317.40405032413946 -106.45668108946484 0 -106.45668108946484 -10.23693342457409 0 0 0 0 -2.664887555731184 -1.5473897270712769 0 -1.5473897270712769 -17.077771870142897 0 0 0 0 9.4855942596987006 5.7935621730721323 0 5.7935621730721323 -25.41058817076555 0 0 0 0 -368.33969607443578 -1433.4335344275823 0 -1433.4335344275823 1500.3907572063181 0 0 0 0 -12.598975081901109 -18.665534057180722 0 -18.665534057180722 -28.30185924724168 0 0 0 0 -383.54656620294134 709.57441332043004 0 709.57441332043004 100.45608368862304 0 0 0 0 -3.0055153035335564 -4.0236273099858693 0 -4.0236273099858693 -4.6725950840934729 0 0 0 0 0.023427343046932947 18.279745231462584 0 18.279745231462584 -17.773008075877442 0 0 0 0 -5.1633050917162109 -55.368990516883059 0 -55.368990516883059 -87.781223746744217 0 0 0 0 24.785494701811331 -18.838296748719586 0 -18.838296748719586 -124.57995071995538 0 0 0 0 258.04559353918194 -16.230347413104028 0 -16.230347413104028 -88.698284094454721 0 0 0 0 -1.1254816133718286 -8.5252108543900817 0 -8.5252108543900817 -41.607294557342925 0 0 0 0 -10.017806030446081 -34.403570170121384 0 -34.403570170121384 -74.257488961302442 0 0 0 0 -41.939980424089299 20.879726232698886 0 20.879726232698886 -12.526767549818032 0 0 0 0 -7.4950555165769828 11.996975204804201 0 11.996975204804201 -25.166340463424717 0 0 0 0 -17.566202702647203 -9.1904005918522671 0 -9.1904005918522671 -17.621835407709227 0 0 0 0 -84.496662851073779 -44.582554596243426 0 -44.582554596243426 -77.424961643991992 0 0 0 0 -120.00353755480864 215.29688496906238 0 215.29688496906238 171.45495858472714 0 0 0 0 -165.35266901704745 -19.314657189344871 0 -19.314657189344871 906.28264526121347 0 0 0 0 -4.4887676607786489 373.78656919260629 0 373.78656919260629 217.87848738342291 0 0 0 0 -14.461824976243804 12.160389735651265 0 12.160389735651265 -14.001114404492824 0 0 0 0 -109.26093779121311 14.037409235890664 0 14.037409235890664 -19.472073554294184 0 0 0 0 -89.775822955518379 24.354578946193215 0 24.354578946193215 -25.807542164087863 0 0 0 0 -4.8030351413239316 0.58914951131932014 0 0.58914951131932014 -7.3647202288136953 0 0 0 0 -14.329658655598394 48.848482175596416 0 48.848482175596416 -34.912692566002079 0 0 0 0 217.91274712824452 6.2457112929914729 0 6.2457112929914729 -393.70807026841794 0 0 0 0 -38.454278961751697 -54.061864231807704 0 -54.061864231807704 96.352294809708837 0 0 0 0 -473.93023063991131 78.18996712234366 0 78.18996712234366 103.89480299806019 0 0 0 0 -0.64926437992646768 -1.2288321864109122 0 -1.2288321864109122 -3.7084919839035706 0 0 0 0 -171.94490553941796 -125.5243531741944 0 -125.5243531741944 -14.224967351059604 0 0 0 0 -126.83391665148156 205.54374604469922 0 205.54374604469922 -244.68138484033261 0 0 0 0 -28.85851153886324 -170.26908933861705 0 -170.26908933861705 -271.54421700530293 0 0 0 0 214.02836619155096 -12.335553249420627 0 -12.335553249420627 -142.30416540826263 0 0 0 0 21.224716182798147 -209.10976908680459 0 -209.10976908680459 -57.002136727067409 0 0 0 0 29.311252599374711 -26.213373966991639 0 -26.213373966991639 77.133900213040761 0 0 0 0 13.301986253934956 108.57491249002396 0 108.57491249002396 -8.5107357035303721 0 0 0 0 83.999496602528779 37.091739992025396 0 37.091739992025396 -8.9310850070178276 0 0 0 0 40.566262577169255 150.63056388120458 0 150.63056388120458 -260.20920594590893 0 0 0 0 0.24091417837917106 6.2538910617258807 0 6.2538910617258807 -32.399536846030969 0 0 0 0 -0.59468311101849736 2.5937616651650544 0 2.5937616651650544 -8.0180432926796072 0 0 0 0 1.0602138804335226 6.227852244764108 0 6.227852244764108 -31.097306671939748 0 0 0 0 0.30743801339574617 9.4466520513740413 0 9.4466520513740413 -19.056146435256352 0 0 0 0 -1.8623998720731834 25.94794879046276 0 25.94794879046276 -28.558619662566343 0 0 0 0 -18.652582914088271 23.621055167044688 0 23.621055167044688 -28.28995835524438 0 0 0 0 1.8089511233005098 7.5219904158915654 0 7.5219904158915654 -24.422390792070559 0 0 0 0 -1.8269839734493871 0.43349371055955999 0 0.43349371055955999 -37.083393228327623 0 0 0 0 -7.419324365160719 0.79889685969101265 0 0.79889685969101265 -20.40797031504917 0 0 0 0 264.14977712913424 104.78406670103141 0 104.78406670103141 -110.08514819119591 0 0 0 0 264.52460076564239 109.14228891189123 0 109.14228891189123 -63.563935825965018 0 0 0 0 -9.341926451492327 -17.032716978916142 0 -17.032716978916142 -80.701980582489341 0 0 0 0 -0.99110608577211678 -23.873295255434641 0 -23.873295255434641 -75.15065012688865 0 0 0 0 -6.9118247524951997 -22.218699904574137 0 -22.218699904574137 -12.382458866986248 0 0 0 0 2.4901640656392132 6.175121441866537 0 6.175121441866537 -28.075783589534325 0 0 0 0 17.918843423170983 -12.121023058643914 0 -12.121023058643914 -66.099547194055049 0 0 0 0 3.9254089759433626 6.6084822824235658 0 6.6084822824235658 -21.347544194272757 0 0 0 0 19.179379501001677 -14.574323400720459 0 -14.574323400720459 -107.44483756351838 0 0 0 0 -13.703536018339946 -67.128118130462099 0 -67.128118130462099 14.148568896147481 0 0 0 0 -5.6039714856444292 -21.72670836660761 0 -21.72670836660761 -8.175276761664648 0 0 0 0 8.344838877618713 1.8448663387589477 0 1.8448663387589477 -93.500869129056809 0 0 0 0 -9.613982194892742 1.3722121260725544 0 1.3722121260725544 -77.724303503560805 0 0 0 0 -6.9012556436828163 -15.378975381638156 0 -15.378975381638156 -70.030672140033857 0 0 0 0 34.47779959599211 -140.21013116707036 0 -140.21013116707036 -277.32063765457133 0 0 0 0 -1.0020988303052505 -1.6001167646272911 0 -1.6001167646272911 -1.0502086851072647 0 0 0 0 -64.027666684405631 99.742936007649405 0 99.742936007649405 -144.9000064964639 0 0 0 0 -42.277218506249483 -127.16615871250906 0 -127.16615871250906 -128.10819676991377 0 0 0 0 -119.06387871029528 144.95792537236775 0 144.95792537236775 14.372853804903571 0 0 0 0 60.331486490805219 -12.157381375220211 0 -12.157381375220211 -23.305694864568068 0 0 0 0 21.525907218588145 7.672455134044867 0 7.672455134044867 -12.722630436182953 0 0 0 0 22.213346749340417 19.334106835951388 0 19.334106835951388 -197.63983415906841 0 0 0 0 -17.583810643513061 -69.719606290746015 0 -69.719606290746015 5.5346001422294648 0 0 0 0 56.967537161101063 -0.20714838425919879 0 -0.20714838425919879 -65.705599622597219 0 0 0 0 -70.790645364511875 8.8534293004995561 0 8.8534293004995561 125.7400217676477 0 0 0 0 -1.6525113158851781 11.855011608575182 0 11.855011608575182 -16.850303656672807 0 0 0 0 -2.7175011531056441 -20.6631646782605 0 -20.6631646782605 -10.314039927233679 0 0 0 0 46.028273058969717 5.1130260581612674 0 5.1130260581612674 4.939472478479729 0 0 0 0 43.156358537937194 -4.8296308948047226 0 -4.8296308948047226 -9.7538128099786263 0 0 0 0 -67.527527252783329 35.342436576149339 0 35.342436576149339 -44.266062891852926 0 0 0 0 -0.60157528409808947 12.732203266257784 0 12.732203266257784 -189.50619514095888 0 0 0 0 -21.143241813037093 -43.090125631330011 0 -43.090125631330011 26.870002722018398 0 0 0 0 67.407624902063617 -21.60494736581677 0 -21.60494736581677 -597.05751076567685 0 0 0 0 -46.876427713490557 195.60967407997668 0 195.60967407997668 -336.16946898571405 0 0 0 0 93.377539471975979 22.614063701767009 0 22.614063701767009 -558.33109125700139 0 0 0 0 22.314749777693578 -72.160164532462659 0 -72.160164532462659 -351.22509220882057 0 0 0 0 1.3054558473140787 14.519247960874054 0 14.519247960874054 -45.099415150623827 0 0 0 0 4.2689998458251921 -7.5691296516292823 0 -7.5691296516292823 -300.1051239475637 0 0 0 0 -4.331545940275511 14.212500767051836 0 14.212500767051836 -12.51892259440659 0 0 0 0 -32.12868546842401 -200.22451201237709 0 -200.22451201237709 -510.00560026321182 0 0 0 0 -5.8602740651743019 14.113649760643824 0 14.113649760643824 -12.876489741463629 0 0 0 0 -35.994432933486678 -82.391544437865377 0 -82.391544437865377 -471.87233445487072 0 0 0 0 8.3817545296842582 -22.872805680886813 0 -22.872805680886813 -90.372878600406693 0 0 0 0 24.158510986842884 -3.4815803747333121 0 -3.4815803747333121 -77.777307745829603 0 0 0 0 -779.65291655261899 -240.91555759967741 0 -240.91555759967741 9.7782459254267451 0 0 0 0 -302.85710098366508 -5.7649801401157674 0 -5.7649801401157674 48.128141641049297 0 0 0 0 -321.416367952359 -88.976513745306875 0 -88.976513745306875 59.486553994625865 0 0 0 0 -524.49139298941373 -34.609332065578201 0 -34.609332065578201 100.83695406962215 0 0 0 0 -250.96306456833918 63.626011742111586 0 63.626011742111586 -5.0604630437592277 0 0 0 0 -524.72936100851803 -14.452804316097172 0 -14.452804316097172 119.05178130842978 0 0 0 0 -123.19079091666936 -31.078358976570598 0 -31.078358976570598 -18.759735048234688 0 0 0 0 -266.73122394508027 3.9661512965976726 0 3.9661512965976726 8.74903880365855 0 0 0 0 4.296071551996647 176.89817808397856 0 176.89817808397856 -231.84348478851462 0 0 0 0 -682.68536393559407 369.72869931723835 0 369.72869931723835 -195.7138194096915 0 0 0 0 -115.93418229995848 -47.624398613034828 0 -47.624398613034828 156.40821284556296 0 0 0 0 -451.94369608005945 -16.613284786748409 0 -16.613284786748409 33.711686990165617 0 0 0 0 -114.15272435408173 16.728621074154603 0 16.728621074154603 -365.82790855957137 0 0 0 0 23.336891481012572 181.21555044924025 0 181.21555044924025 -327.93334353071987 0 0 0 0 -5.257271503055108 -3.2104048672419125 0 -3.2104048672419125 -2.7458837299541159 0 0 0 0 -79.540642914227647 -221.17431241099257 0 -221.17431241099257 -484.00412876311748 0 0 0 0 -93.614323722489644 144.69935080489086 0 144.69935080489086 -210.70849523466313 0 0 0 0 2.1472009405952122 31.790846186777344 0 31.790846186777344 -313.66642348819732 0 0 0 0 -15.319502356098383 83.362073859338125 0 83.362073859338125 -166.5866472444759 0 0 0 0 10.278585040686266 -13.773073451503478 0 -13.773073451503478 -155.69506763803656 0 0 0 0 0.81218958782775985 -0.38708753805683216 0 -0.38708753805683216 -0.088824739879640902 0 0 0 0 -9.6990678298507191 162.43734113206801 0 162.43734113206801 82.148203290737001 0 0 0 0 -0.71234196651461446 -4.7723465492206785 0 -4.7723465492206785 -9.5447500809639507 0 0 0 0 -8.5126103080619941 15.168820649181725 0 15.168820649181725 -75.795891793604824 0 0 0 0 -1.7038110150679131 3.6936731230816804 0 3.6936731230816804 -93.403946039668881 0 0 0 0 -4.7762170633541245 -0.038728098414139822 0 -0.038728098414139822 -66.016197797667701 0 0 0 0 -11.270785094227904 15.575144188122067 0 15.575144188122067 -53.831198503514315 0 0 0 0 1.8957330823882046 -9.4914108202313514 0 -9.4914108202313514 -17.602925847177644 0 0 0 0 73.816529272040498 62.413235890846408 0 62.413235890846408 4.6243623296104488 0 0 0 0 2.5804541208926466 -3.3161435029096396 0 -3.3161435029096396 -5.1820799226558023 0 0 0 0 90.852700662882853 27.453950090042781 0 27.453950090042781 -38.775228840779164 0 0 0 0 1.4669307113435934 -6.6371399298950564 0 -6.6371399298950564 -22.624388155440101 0 0 0 0 -33.680958130127692 -36.203566179785412 0 -36.203566179785412 77.977691967211285 0 0 0 0 -0.53858633062338157 -3.7134897965085827 0 -3.7134897965085827 -14.509331994193914 0 0 0 0 -0.26811179573392607 -11.264394576142365 0 -11.264394576142365 -14.982847206465266 0 0 0 0 -76.477215856983094 -66.206286875945807 0 -66.206286875945807 -37.528189691925945 0 0 0 0 76.424955858983139 39.073151028629127 0 39.073151028629127 -51.629141402634559 0 0 0 0 -141.08993492136869 21.32197336947138 0 21.32197336947138 19.454727117583388 0 0 0 0 -139.80506013546255 15.141344094779924 0 15.141344094779924 -6.5681357904395554 0 0 0 0 -90.532088772612042 162.60537991268211 0 162.60537991268211 -65.030646455008537 0 0 0 0 153.7650629916352 87.059975199168548 0 87.059975199168548 -112.1663421509802 0 0 0 0 -0.33567216971488634 -6.1711058719281802 0 -6.1711058719281802 -22.519764537334396 0 0 0 0 52.987123092765614 -25.865845994350821 0 -25.865845994350821 -56.091700832475908 0 0 0 0 32.578291051606357 -78.87965131191595 0 -78.87965131191595 -135.13133437543729 0 0 0 0 214.80327155813939 -52.592329939896445 0 -52.592329939896445 -58.169703842329909 0 0 0 0 -128.42181022101067 61.07929102282651 0 61.07929102282651 -60.24997011225787 0 0 0 0 -229.34439040563666 456.08140897143676 0 456.08140897143676 -740.39730471704388 0 0 0 0 -283.11212300251282 -60.246124427430914 0 -60.246124427430914 -43.129311651216995 0 0 0 0 -99.083312591341382 -538.1657316924684 0 -538.1657316924684 -808.81492821749271 0 0 0 0 -0.93445738396855305 -2.6847601444169165 0 -2.6847601444169165 -9.5147159297243036 0 0 0 0 -308.87259794436613 -186.43990323229809 0 -186.43990323229809 -647.46941403763049 0 0 0 0 -505.27888610373338 -187.03218127131549 0 -187.03218127131549 -1214.8625575044571 0 0 0 0 -361.50353389538577 140.44594757018785 0 140.44594757018785 -1325.4325792912132 0 0 0 0 -597.90156865899917 123.87247814572765 0 123.87247814572765 -32.028092981861846 0 0 0 0 -396.34546186091757 44.40633747420361 0 44.40633747420361 49.999083730232087 0 0 0 0 -377.83561372894019 -20.320763291429103 0 -20.320763291429103 59.53363210997486 0 0 0 0 12.293307037551131 48.538567689669435 0 48.538567689669435 -22.607096823982374 0 0 0 0 -221.87957147159614 -113.06698719798442 0 -113.06698719798442 36.699523290873913 0 0 0 0 -542.30205650934386 -140.51500260421426 0 -140.51500260421426 38.652097609432531 0 0 0 0 -0.83640130067740159 0.69279499569027791 0 0.69279499569027791 -0.6574946367212533 0 0 0 0 137.37530897627585 29.568402245226025 0 29.568402245226025 -1863.4749797535624 0 0 0 0 -2.4375595859470423 3.6602043180638617 0 3.6602043180638617 -3.1319795480005581 0 0 0 0 21.998730044884724 -88.402135922271555 0 -88.402135922271555 -64.225729653713643 0 0 0 0 -210.77251907626851 128.71265062007296 0 128.71265062007296 22.122914899096941 0 0 0 0 -478.01219294408656 407.78612652825541 0 407.78612652825541 -250.14525269778278 0 0 0 0 -112.51807904113957 81.151542179650278 0 81.151542179650278 -194.36399229957897 0 0 0 0 43.355932402451799 -18.88468550424659 0 -18.88468550424659 -1285.0858842502639 0 0 0 0 -9.5563093408067061 5.942892849394795 0 5.942892849394795 -5.5990968618578023 0 0 0 0 13.52173220707482 1.2048130734547158 0 1.2048130734547158 -692.32593524792901 0 0 0 0 -85.94925022858115 166.20106352068251 0 166.20106352068251 -481.74750032167503 0 0 0 0 46.822191921881313 341.74277260871168 0 341.74277260871168 -610.38124866393446 0 0 0 0 -69.651595994037052 194.93516086773161 0 194.93516086773161 -646.69382648628562 0 0 0 0 53.989774561848208 -88.717211900438997 0 -88.717211900438997 -61.283232568937819 0 0 0 0 -7.4295665551608163 2.7294129488883065 0 2.7294129488883065 4.814874787235027 0 0 0 0 -109.60685620706863 11.04321592389897 0 11.04321592389897 27.969155743368901 0 0 0 0 -25.423824784762218 -3.0284459630462948 0 -3.0284459630462948 4.7078221505854145 0 0 0 0 21.744684223946024 -19.048606332875352 0 -19.048606332875352 -45.624542226549238 0 0 0 0 -8.8625339438793382 -8.0753471439962645 0 -8.0753471439962645 -13.486282498697477 0 0 0 0 -19.304553515106818 5.4408727961854311 0 5.4408727961854311 -7.5464805535812047 0 0 0 0 19.466147424482187 2.8578140331082977 0 2.8578140331082977 -23.215831602581602 0 0 0 0 -21.391344019439202 121.17733354768097 0 121.17733354768097 46.557725215825485 0 0 0 0 -2.9336934418147749 -0.47723506093153389 0 -0.47723506093153389 -3.7377568859320149 0 0 0 0 -2.2417059150029672 -22.918422076349088 0 -22.918422076349088 -16.288028244493944 0 0 0 0 59.604931165980815 -37.129806679113244 0 -37.129806679113244 -18.368836454348639 0 0 0 0 -913.61311636727623 -892.67392403755366 0 -892.67392403755366 -575.48547417132067 0 0 0 0 -208.15525495840484 -441.93000264941656 0 -441.93000264941656 -404.10817598977519 0 0 0 0 1.9855554197477829 -3.4917759686876195 0 -3.4917759686876195 0.54495835642471491 0 0 0 0 32.035099512453598 -67.239370136812795 0 -67.239370136812795 -715.35844248055218 0 0 0 0 138.19008723604202 -269.84726000225055 0 -269.84726000225055 -874.55428752570151 0 0 0 0 4.5542909900905215 -346.0960327622015 0 -346.0960327622015 -545.75997920907685 0 0 0 0 58.742316953226691 -143.0759002831619 0 -143.0759002831619 -288.72216881078202 0 0 0 0 -249.48645397074506 -402.56919738175202 0 -402.56919738175202 -433.03063980105071 0 0 0 0 -393.28787091955382 134.69431653408537 0 134.69431653408537 -81.674432254709245 0 0 0 0 -243.84687237118851 -425.92992250379029 0 -425.92992250379029 -416.70684763613826 0 0 0 0 -192.07826426274914 73.574702534671815 0 73.574702534671815 35.202276669529965 0 0 0 0 -7.0053962307210895 -65.669401597413525 0 -65.669401597413525 -33.12546157676843 0 0 0 0 207.19264270605709 -151.57361845442938 0 -151.57361845442938 -305.94908256424242 0 0 0 0 37.289693138642178 119.83241230882413 0 119.83241230882413 -262.96139844741265 0 0 0 0 -12.903854991048604 -7.5060171826450244 0 -7.5060171826450244 4.239721017480889 0 0 0 0 -11.180107302609031 5.2075225938024232 0 5.2075225938024232 17.975007819266466 0 0 0 0 -136.27638635755284 55.485035314020934 0 55.485035314020934 61.795491843196942 0 0 0 0 -0.67292242250839607 -1.4920126527928659 0 -1.4920126527928659 -10.461162498669239 0 0 0 0 -29.517609018486837 -183.59517613583012 0 -183.59517613583012 -45.416911559019354 0 0 0 0 13.280677682269015 4.0733834454294993 0 4.0733834454294993 -253.17825473686389 0 0 0 0 -9.5294851741527964 -1.7560542401297425 0 -1.7560542401297425 -18.889654154943855 0 0 0 0 -30.243895720119326 -21.575921083634967 0 -21.575921083634967 -5.2163584993686527 0 0 0 0 18.334549019087717 -29.629285815681214 0 -29.629285815681214 -37.007319474185351 0 0 0 0 -38.834969361490948 -33.579721493755642 0 -33.579721493755642 -14.342124156685486 0 0 0 0 -20.57221273554751 -26.936173115711426 0 -26.936173115711426 -14.638810712893701 0 0 0 0 -60.03312466013449 -61.168169947395654 0 -61.168169947395654 -13.82599256397225 0 0 0 0 -6.8953436253323162 -20.438552813240676 0 -20.438552813240676 87.119512121127627 0 0 0 0 -20.704095112367213 -21.026163606606133 0 -21.026163606606133 -25.858678270495147 0 0 0 0 -65.52023267066761 -72.16331848117261 0 -72.16331848117261 -48.228800211007183 0 0 0 0 0.2019842731583239 0.12039388422211061 0 0.12039388422211061 0.0510707617534365 0 0 0 0 -86.316280715834182 -17.357184524402328 0 -17.357184524402328 41.583031499321805 0 0 0 0 -74.277199844424104 61.877296620739799 0 61.877296620739799 59.725964258308522 0 0 0 0 146.07074894664038 -54.320006295594794 0 -54.320006295594794 -96.555899025290273 0 0 0 0 -0.92753423580506933 -5.5761573532581679 0 -5.5761573532581679 -4.4149922187461925 0 0 0 0 -2.4586710666699219 8.8787708896852564 0 8.8787708896852564 -17.287902004543866 0 0 0 0 -0.55873433703285968 -0.9244782880025042 0 -0.9244782880025042 -0.27840707040945745 0 0 0 0 -44.639876836562507 -23.733632932728142 0 -23.733632932728142 -8.1717675626423443 0 0 0 0 -1.2190851536903651 -6.0528163539935775 0 -6.0528163539935775 -10.653647316608186 0 0 0 0 -0.35519067653488179 -0.28779137571736157 0 -0.28779137571736157 -0.35616532243878396 0 0 0 0 -88.565587775045969 -18.021309929667041 0 -18.021309929667041 -7.4393835944356397 0 0 0 0 -11.550842019169067 -7.2666518094811181 0 -7.2666518094811181 101.62476668044837 0 0 0 0 -3.1456847888644575 -5.1579947651124769 0 -5.1579947651124769 -6.9521353189988702 0 0 0 0 -1.9236935847952736 -47.474452206341539 0 -47.474452206341539 65.834248899365775 0 0 0 0 -3.5578281329356471 -5.4778214232014051 0 -5.4778214232014051 -8.1137392377551976 0 0 0 0 138.98587637647688 -178.83320013260163 0 -178.83320013260163 45.954071197164012 0 0 0 0 22.957869633304654 -55.994173564416997 0 -55.994173564416997 67.245082200832258 0 0 0 0 -12.677392483295989 -96.308852423186181 0 -96.308852423186181 139.83363247779198 0 0 0 0 5.4571638787583652 -116.18741585538919 0 -116.18741585538919 -85.916431414763792 0 0 0 0 25.475696673456696 5.1961422504100483 0 5.1961422504100483 -169.72382558844402 0 0 0 0 -86.097096974794113 -43.111103709125018 0 -43.111103709125018 9.3597160612553125 0 0 0 0 -144.84041794537916 -157.36592869017841 0 -157.36592869017841 -172.43969592960639 0 0 0 0 -103.27842477307422 0.47696137831826491 0 0.47696137831826491 90.719830114445358 0 0 0 0 -57.212693423703968 -108.59383661051106 0 -108.59383661051106 48.803917148630717 0 0 0 0 -42.996664528880956 157.56927854607648 0 157.56927854607648 215.13456566008244 0 0 0 0 -191.60859480839645 20.114392990439228 0 20.114392990439228 166.93711020076989 0 0 0 0 -102.32723169851488 -93.158081264711655 0 -93.158081264711655 62.387663834342675 0 0 0 0 -10.325395733259938 166.83874936042957 0 166.83874936042957 101.57317436322774 0 0 0 0 -83.925065555780748 -79.616980909067934 0 -79.616980909067934 -31.956022587775806 0 0 0 0 -181.53145489491726 0.28073438211504254 0 0.28073438211504254 -71.961826148435648 0 0 0 0 -384.99773964491146 -293.25758581956882 0 -293.25758581956882 -401.39590364943433 0 0 0 0 -352.4878358778551 201.08499718400708 0 201.08499718400708 -279.10885347133444 0 0 0 0 165.47373248039366 191.58801804206087 0 191.58801804206087 -801.03849038607586 0 0 0 0 -73.218867244469038 -262.93235710364752 0 -262.93235710364752 -751.50584273118147 0 0 0 0 -196.50323505313645 -182.04849661346452 0 -182.04849661346452 -89.872675875747518 0 0 0 0 2.0284631910180906 73.875742604857805 0 73.875742604857805 -994.67097844607633 0 0 0 0 -126.62603301897616 379.09612581713009 0 379.09612581713009 -718.88590006544837 0 0 0 0 -1.0612981344119419 -0.37398635051341245 0 -0.37398635051341245 -9.7352610946180391 0 0 0 0 13.605710859752435 1.5244596110060229 0 1.5244596110060229 -558.27999171830652 0 0 0 0 -124.10582919743683 353.4134542534066 0 353.4134542534066 -516.79635439412959 0 0 0 0 -132.17065225542137 78.896373933626819 0 78.896373933626819 -478.31160558990086 0 0 0 0 41.508322980254889 -18.532172994790017 0 -18.532172994790017 -438.52318511790872 0 0 0 0 -166.02260178962752 41.99214309250965 0 41.99214309250965 -305.77636761383746 0 0 0 0 10.433206878703004 -0.57980657453936146 0 -0.57980657453936146 -355.07694977543724 0 0 0 0 90.420067686780385 -53.128099183253653 0 -53.128099183253653 -329.25298164469132 0 0 0 0 17.550414398609064 -84.610107409029297 0 -84.610107409029297 -432.74093439953867 0 0 0 0 0.24312368935534323 30.362974695499361 0 30.362974695499361 -431.09927502792561 0 0 0 0 28.644442968016619 228.56747175034207 0 228.56747175034207 -320.59971986253368 0 0 0 0 111.63995107977462 77.966960502926668 0 77.966960502926668 -193.55136881801445 0 0 0 0 -37.494903372535191 181.78636802313122 0 181.78636802313122 -334.79980709517804 0 0 0 0 -54.252682671816729 271.7666171119854 0 271.7666171119854 -290.88012910425095 0 0 0 0 -130.35008420837403 -21.067117157537723 0 -21.067117157537723 -58.199283964524511 0 0 0 0 -7.1800554601218209 97.105029478384495 0 97.105029478384495 -16.175182052291348 0 0 0 0 -39.339362696618991 -21.28400092742686 0 -21.28400092742686 115.73269900014566 0 0 0 0 66.901689164165873 -7.8208107339887647 0 -7.8208107339887647 -40.556457213919202 0 0 0 0 -0.17144029727205634 -181.34581519082712 0 -181.34581519082712 287.89783731363423 0 0 0 0 131.2131292646518 -163.89608835223771 0 -163.89608835223771 152.77401859193378 0 0 0 0 96.192857273392292 -154.08624243114537 0 -154.08624243114537 186.03084396672784 0 0 0 0 107.95022103549127 -253.74805109351291 0 -253.74805109351291 184.34370252677763 0 0 0 0 334.08641285771228 -327.95125353998446 0 -327.95125353998446 208.66263871720002 0 0 0 0 155.48564762394744 -213.50217815802898 0 -213.50217815802898 96.606698279618286 0 0 0 0 144.40858179270799 -140.79005783371395 0 -140.79005783371395 -40.808004077582154 0 0 0 0 10.179692149855327 70.986479973806127 0 70.986479973806127 -86.122570121806348 0 0 0 0 33.70989033234946 -20.282031326809374 0 -20.282031326809374 -82.713107782018596 0 0 0 0 78.272480662162707 137.80204567802139 0 137.80204567802139 -300.63888651503112 0 0 0 0 110.82012253349967 163.8470140743957 0 163.8470140743957 -605.792101626781 0 0 0 0 133.32913542275128 -103.13975002841471 0 -103.13975002841471 -226.84666036091221 0 0 0 0 0.25952916142159665 -150.49866504905913 0 -150.49866504905913 -478.66217547007545 0 0 0 0 0.27517569538902364 -0.16632608835888618 0 -0.16632608835888618 -4.0798179917162827 0 0 0 0 347.73374870379121 -30.552904236334143 0 -30.552904236334143 -537.98609396823304 0 0 0 0 -145.24715504207052 346.6469762176348 0 346.6469762176348 -293.12428672668102 0 0 0 0 -37.787168423468444 147.645994045213 0 147.645994045213 -61.083840489656723 0 0 0 0 56.243836668461881 -62.930869606923807 0 -62.930869606923807 -105.7324099075031 0 0 0 0 181.87635528710416 16.314876646225457 0 16.314876646225457 -128.86240555086988 0 0 0 0 122.87446033417837 89.731384991551749 0 89.731384991551749 19.720716676732991 0 0 0 0 0.33430637742317604 1.0047112577650665 0 1.0047112577650665 -6.6849682148303486 0 0 0 0 -11.818233530546422 -0.81289186758658616 0 -0.81289186758658616 -153.37370631823433 0 0 0 0 29.038382769456803 -76.346745105001901 0 -76.346745105001901 -112.1007294915471 0 0 0 0 -80.874419140063765 -121.46287371413564 0 -121.46287371413564 -104.86583952279034 0 0 0 0 -24.377957281576528 -124.76739560149508 0 -124.76739560149508 -146.04223633871879 0 0 0 0 -110.20651364052901 -183.54168092839245 0 -183.54168092839245 -230.94079928478459 0 0 0 0 -169.42673754996213 -126.90180525727556 0 -126.90180525727556 -176.46417891407327 0 0 0 0 -18.026872513802573 -30.216994204245566 0 -30.216994204245566 -282.51731239707442 0 0 0 0 -74.915561728166722 -153.81425341142676 0 -153.81425341142676 -448.77578584366711 0 0 0 0 27.261980890460109 212.24737248223028 0 212.24737248223028 -434.21428891660617 0 0 0 0 -53.672828443945036 282.39172039426194 0 282.39172039426194 -1011.4192966965711 0 0 0 0 -54.639551424985257 131.94588471797397 0 131.94588471797397 -364.48377714012895 0 0 0 0 -214.20591225424505 -182.90081927245774 0 -182.90081927245774 -246.43205991591822 0 0 0 0 -497.21397177788276 -531.66432196988444 0 -531.66432196988444 -847.88114164598665 0 0 0 0 -230.29044866054028 -110.4001672585764 0 -110.4001672585764 -184.36071684167837 0 0 0 0 -232.23060143579096 -158.13037320894364 0 -158.13037320894364 -172.80285128390642 0 0 0 0 -204.77366479885677 -112.12963237744771 0 -112.12963237744771 -99.821209568974155 0 0 0 0 -2.724793449527823 8.307906432447048 0 8.307906432447048 -37.404491994238839 0 0 0 0 -154.09876363363946 -181.53649241180392 0 -181.53649241180392 -148.65303141458571 0 0 0 0 -116.74839735275782 -177.04939378625204 0 -177.04939378625204 -126.17168279610632 0 0 0 0 -105.44878833897019 -156.90616242185934 0 -156.90616242185934 -139.44281848788523 0 0 0 0 -154.07632946877857 -146.33949635970203 0 -146.33949635970203 -120.8459284859855 0 0 0 0 -68.569935650735715 -179.40481587273098 0 -179.40481587273098 -139.8840129210148 0 0 0 0 -80.085575590394001 -157.41475642316072 0 -157.41475642316072 -172.25604916211159 0 0 0 0 -51.878776941171964 -102.36437259679951 0 -102.36437259679951 -102.48383887446835 0 0 0 0 -39.28677635389613 -44.167207514907204 0 -44.167207514907204 -107.40979899091508 0 0 0 0 -109.59669465743445 -76.579802097143329 0 -76.579802097143329 -90.021734085807111 0 0 0 0 -76.461307600322471 -163.15274795363803 0 -163.15274795363803 -53.882216881131171 0 0 0 0 -14.398348489536147 -7.4845139389435644 0 -7.4845139389435644 37.851771137211472 0 0 0 0 -75.721399013607879 -118.95912057692476 0 -118.95912057692476 36.897808036494325 0 0 0 0 -66.628852950358123 -174.11255117145629 0 -174.11255117145629 -93.54894104959385 0 0 0 0 -63.802402671397431 -123.34472345290123 0 -123.34472345290123 -20.298208311774943 0 0 0 0 -63.793297556912876 -157.70410531824018 0 -157.70410531824018 -140.94865701956587 0 0 0 0 -103.49117195359577 -196.11626297052135 0 -196.11626297052135 -106.32692458180099 0 0 0 0 -83.669984345200646 -208.73067708667077 0 -208.73067708667077 -132.23489847400197 0 0 0 0 -75.054690704155291 -202.48698058665286 0 -202.48698058665286 -145.50245269104198 0 0 0 0 -59.754707447147666 -220.24397855513962 0 -220.24397855513962 -170.34157112919638 0 0 0 0 -60.675751587506966 -234.19209551690437 0 -234.19209551690437 -159.49831657826871 0 0 0 0 -126.95001802083425 -237.00314532043558 0 -237.00314532043558 -127.29204777558334 0 0 0 0 -82.573399446421604 -184.28914460211286 0 -184.28914460211286 -76.406122452448471 0 0 0 0 -1.205617370816892 -1.0170917729879037 0 -1.0170917729879037 -3.026067367653468 0 0 0 0 -34.647396153372028 -75.357063314317202 0 -75.357063314317202 -62.949256859952584 0 0 0 0 -117.35923727373483 -144.69431642036807 0 -144.69431642036807 -50.374961000779876 0 0 0 0 -154.45692692281591 -194.47525197031064 0 -194.47525197031064 -103.10268474547775 0 0 0 0 -249.82318412207678 -197.25409850562573 0 -197.25409850562573 -89.1638714709552 0 0 0 0 -329.74673042577706 62.764321941838716 0 62.764321941838716 154.72458471599384 0 0 0 0 -1150.9650256387649 -541.78588641541137 0 -541.78588641541137 -217.23885674278426 0 0 0 0 -777.25911021714637 -794.33358233605395 0 -794.33358233605395 -686.73943569828407 0 0 0 0 -579.91149268641243 -384.16232999671865 0 -384.16232999671865 -188.35088585346239 0 0 0 0 -591.4868750386629 -74.099525871741207 0 -74.099525871741207 -107.54132182241301 0 0 0 0 0.074689035334991161 -0.15578442470551579 0 -0.15578442470551579 -2.2202074218112742 0 0 0 0 -162.85026185615425 -359.32565895752123 0 -359.32565895752123 -413.44181460472464 0 0 0 0 -275.978454627475 -264.5869129470957 0 -264.5869129470957 -341.19979631545721 0 0 0 0 -209.49488000916608 -123.50694404703972 0 -123.50694404703972 -311.1055219612681 0 0 0 0 113.37531728774229 -111.61196292929708 0 -111.61196292929708 -214.33935187052703 0 0 0 0 29.57917252687912 -242.35773712445007 0 -242.35773712445007 -299.51273025240516 0 0 0 0 -23.157535454327444 -193.34322580075241 0 -193.34322580075241 -281.30259590216156 0 0 0 0 -157.50493614218522 -328.2793058874322 0 -328.2793058874322 -248.47632761053683 0 0 0 0 -12.730447037709382 -189.5056190897667 0 -189.5056190897667 -250.47958156226377 0 0 0 0 18.252890640042779 -7.2522145738513757 0 -7.2522145738513757 4.190803114867812 0 0 0 0 -92.369059255692264 82.082959772476897 0 82.082959772476897 -25.321754445260012 0 0 0 0 7.415807896424667 -49.422389351275342 0 -49.422389351275342 -323.33385298818939 0 0 0 0 230.27503566126688 347.23967624132638 0 347.23967624132638 -687.71249566599727 0 0 0 0 12.594179947896919 -637.71459679353575 0 -637.71459679353575 -1382.5641400774475 0 0 0 0 745.04713862348581 -52.006662477469945 0 -52.006662477469945 -1588.9280067544169 0 0 0 0 -59.079583514083424 -82.927305950033769 0 -82.927305950033769 -132.09959048721066 0 0 0 0 476.3850303034942 -80.378146264334646 0 -80.378146264334646 -368.45607996822218 0 0 0 0 7.6276843598533972 12.688257344872873 0 12.688257344872873 -63.846742022967362 0 0 0 0 7.9884678240829672 4.6470488180710632 0 4.6470488180710632 -26.194870405200355 0 0 0 0 98.040987641390529 155.5625986462619 0 155.5625986462619 148.78626068469748 0 0 0 0 17.204270655140135 -46.467777904632385 0 -46.467777904632385 -130.39086099168708 0 0 0 0 -39.636856487319164 -78.614767133141868 0 -78.614767133141868 -143.41188630000397 0 0 0 0 26.571997721581283 -112.81838596301532 0 -112.81838596301532 -154.24369522510096 0 0 0 0 190.6389042692972 0.92105106513190549 0 0.92105106513190549 -239.46611210967058 0 0 0 0 47.222085095138823 -11.775203836368647 0 -11.775203836368647 -13.939396161960886 0 0 0 0 261.11114781112974 156.17655302970343 0 156.17655302970343 -122.22845238397349 0 0 0 0 -9.7356813418870907 43.963129533884505 0 43.963129533884505 -84.993908446680095 0 0 0 0 157.90834120494037 118.38992854137177 0 118.38992854137177 -43.468188550825289 0 0 0 0 42.806721440112597 1.7122329292797076 0 1.7122329292797076 -85.752028281844105 0 0 0 0 -14.948256657472573 42.046963496328168 0 42.046963496328168 -74.245662901881985 0 0 0 0 285.18149195509977 164.81595884672788 0 164.81595884672788 -196.90587916853656 0 0 0 0 310.29591550150371 102.2768941692093 0 102.2768941692093 -155.33114146112348 0 0 0 0 2.8885892913567659 -95.420442164278938 0 -95.420442164278938 -486.72818663804355 0 0 0 0 -71.344738846346445 187.05551284861212 0 187.05551284861212 -487.28475518892083 0 0 0 0 46.717147208211827 -73.146467969530931 0 -73.146467969530931 -321.63958927766362 0 0 0 0 -13.35984095267122 165.00651692763495 0 165.00651692763495 -206.32455278970519 0 0 0 0 100.43341840255744 50.988427450267409 0 50.988427450267409 -124.4135643155023 0 0 0 0 -14.127644237579261 126.68402787226478 0 126.68402787226478 -424.39869678349351 0 0 0 0 -160.70204039359305 335.05158142541404 0 335.05158142541404 -264.93057629771647 0 0 0 0 -62.88289562339196 312.60979952663183 0 312.60979952663183 -270.07390403902536 0 0 0 0 -94.082338489031827 258.30740751029043 0 258.30740751029043 -34.106269121512014 0 0 0 0 -52.757280315967364 270.35198116396441 0 270.35198116396441 -93.928636592652765 0 0 0 0 -91.601076730172281 209.08306003039434 0 209.08306003039434 -49.617069359876041 0 0 0 0 -238.47114030369994 349.14339763673343 0 349.14339763673343 -84.964578904473001 0 0 0 0 -44.129246669570421 431.38740636213697 0 431.38740636213697 -177.44496480575981 0 0 0 0 -129.84515971941619 447.62740151554317 0 447.62740151554317 -57.229077234311262 0 0 0 0 116.30543007940832 66.513409266817689 0 66.513409266817689 -43.876311934083787 0 0 0 0 141.57310365873582 -42.758481617891448 0 -42.758481617891448 -137.8389408951698 0 0 0 0 -13.677721207558935 38.473651758310552 0 38.473651758310552 -59.099363873679721 0 0 0 0 -12.16160963603761 271.3094519760034 0 271.3094519760034 -94.407418531751318 0 0 0 0 240.57900203273857 59.608698623124837 0 59.608698623124837 -107.49483495373715 0 0 0 0 54.091241414250817 16.516377834010882 0 16.516377834010882 -48.869444270218082 0 0 0 0 45.648105293866593 -73.945884277649952 0 -73.945884277649952 -122.24886569419323 0 0 0 0 28.523472248161852 -195.39363356473586 0 -195.39363356473586 -1150.1800372101061 0 0 0 0 51.674772086411394 -260.95714240840698 0 -260.95714240840698 -965.89039717266132 0 0 0 0 -31.312763441223069 -19.531985918027203 0 -19.531985918027203 -906.92250829194654 0 0 0 0 -342.38494966817598 -366.16111936420202 0 -366.16111936420202 -519.36553227137483 0 0 0 0 -227.27576068732742 293.27343904367444 0 293.27343904367444 -2277.9478263180463 0 0 0 0 -172.95310756966865 -48.302845431346213 0 -48.302845431346213 -1005.2807621392585 0 0 0 0 8.9976583519106512 0.44307828449418452 0 0.44307828449418452 -10.309132682393567 0 0 0 0 -210.63698983593713 -750.65146973842639 0 -750.65146973842639 -1423.7903014266631 0 0 0 0 -10.318958912576448 33.312864271644372 0 33.312864271644372 -44.902783181186635 0 0 0 0 112.6118189424069 -16.646586121518339 0 -16.646586121518339 -107.235564202756 0 0 0 0 40.185306398649914 -13.890323700457145 0 -13.890323700457145 -1.8490082831648422 0 0 0 0 -349.52987981125989 234.87978457759527 0 234.87978457759527 -1.2638963548815809 0 0 0 0 -770.88872396204806 344.4647889422713 0 344.4647889422713 12.63131149844412 0 0 0 0 85.350401272347881 760.27329990483668 0 760.27329990483668 -54.242282294937468 0 0 0 0 -427.3432337664126 518.09643215907636 0 518.09643215907636 -67.828811147297529 0 0 0 0 -431.3411485265633 345.26415414731855 0 345.26415414731855 149.32767227289878 0 0 0 0 452.75797209851225 18.74068259932028 0 18.74068259932028 -746.40430057646154 0 0 0 0 -552.09272079627772 765.13459635606932 0 765.13459635606932 -1167.7704202471577 0 0 0 0 -1802.7964829704069 251.85516190921408 0 251.85516190921408 117.91223450657708 0 0 0 0 -806.01124658259505 -666.04979425444981 0 -666.04979425444981 -1481.9401498330581 0 0 0 0 -289.7494862525964 -40.423681393313018 0 -40.423681393313018 -726.13722768210573 0 0 0 0 -333.07896292957957 -448.23989198091294 0 -448.23989198091294 -779.34040688194 0 0 0 0 -245.71137742045539 -209.54125191593994 0 -209.54125191593994 -479.96690473732815 0 0 0 0 -266.38048857433751 -287.31381323019014 0 -287.31381323019014 -395.02914375059481 0 0 0 0 112.65783355369422 -259.92611871981717 0 -259.92611871981717 -642.84459462878294 0 0 0 0 -23.521240778013635 -174.49455498430143 0 -174.49455498430143 -286.14405470921338 0 0 0 0 -102.53818245023649 -313.73883404786375 0 -313.73883404786375 -434.68891327798337 0 0 0 0 -424.25328085803994 -292.567601702518 0 -292.567601702518 -170.70605792017886 0 0 0 0 -339.70431845462372 -95.543638646386171 0 -95.543638646386171 -212.32032553123645 0 0 0 0 -902.34646245613658 -195.3783521549849 0 -195.3783521549849 -229.64261121761956 0 0 0 0 -298.90892420335877 -31.492985066804977 0 -31.492985066804977 -258.23928020597486 0 0 0 0 -296.18800577436559 175.9242387047525 0 175.9242387047525 -136.42068477603425 0 0 0 0 -107.75093339316663 57.427922668539395 0 57.427922668539395 -110.58864604878545 0 0 0 0 1.9315009873389499 109.28514549029933 0 109.28514549029933 -127.29828682174593 0 0 0 0 114.04857856678063 107.56850639592813 0 107.56850639592813 -480.35249637882953 0 0 0 0 -195.14192143297987 224.08336388232783 0 224.08336388232783 -405.50998980040458 0 0 0 0 -100.712233892933 93.512564423239382 0 93.512564423239382 -660.22166555041258 0 0 0 0 -6.0256669940590655 99.806533759460763 0 99.806533759460763 -470.04112309378252 0 0 0 0 15.998024086184159 41.020855895982095 0 41.020855895982095 -637.01343452365836 0 0 0 0 68.785008624918191 -44.070221682241026 0 -44.070221682241026 -920.03126382366463 0 0 0 0 -644.7992008989313 224.88438109711205 0 224.88438109711205 -447.34467390699501 0 0 0 0 -537.36085868091686 -31.778365588445013 0 -31.778365588445013 -563.47822919355531 0 0 0 0 -68.557661144619487 -96.269263933812908 0 -96.269263933812908 -1019.4207257178132 0 0 0 0 -1682.1155313736472 367.43444355703832 0 367.43444355703832 -691.65672897336481 0 0 0 0 -120.88321872955748 187.44261687813014 0 187.44261687813014 -1063.7984574668953 0 0 0 0 -12.921328527139849 160.14983720499367 0 160.14983720499367 -211.83735255901138 0 0 0 0 -129.1201800271192 94.608964899731291 0 94.608964899731291 -41.222109611004271 0 0 0 0 8.6108533275582886 110.50386710706516 0 110.50386710706516 -116.11128768475464 0 0 0 0 21.392623834926781 93.800830554730055 0 93.800830554730055 -106.65705783111116 0 0 0 0 52.127931356304543 96.741353626410273 0 96.741353626410273 -155.24950897158851 0 0 0 0 64.908968075884331 79.627710937371376 0 79.627710937371376 -163.04558955293396 0 0 0 0 106.86624411811499 22.824355002170705 0 22.824355002170705 -155.68201238252408 0 0 0 0 -36.297147900908726 11.679561520145455 0 11.679561520145455 -151.74403105018428 0 0 0 0 -13.051915174675742 150.38802032031344 0 150.38802032031344 -353.49688496302224 0 0 0 0 19.771590540578472 46.451735025626476 0 46.451735025626476 -164.78671894007039 0 0 0 0 -36.777176359180885 1.3024517987159925 0 1.3024517987159925 -259.66072525824711 0 0 0 0 107.27632040908247 -219.38363011555521 0 -219.38363011555521 -423.04919673764834 0 0 0 0 185.67521818620844 30.924402508177081 0 30.924402508177081 -315.49955951277116 0 0 0 0 200.80390833075762 -23.538222455782488 0 -23.538222455782488 -327.05759503102308 0 0 0 0 303.62269533964718 -6.3712878405058291 0 -6.3712878405058291 -415.89705143098399 0 0 0 0 -318.19410954480554 238.28266568849358 0 238.28266568849358 -133.59183985929121 0 0 0 0 0.26294884372161853 0.90263781972350188 0 0.90263781972350188 -1.4135336657012516 0 0 0 0 431.90020294160422 -64.273354392316833 0 -64.273354392316833 -307.21953377193131 0 0 0 0 340.62805055822537 172.24829663345008 0 172.24829663345008 -41.001116655857913 0 0 0 0 171.00487674635588 118.10161922574116 0 118.10161922574116 49.198916841889513 0 0 0 0 -1.0778958128028018 11.203293544611498 0 11.203293544611498 -4.6522273049473171 0 0 0 0 166.48030415911853 335.33352219492917 0 335.33352219492917 388.94184515065353 0 0 0 0 519.97233952822717 465.71155461666422 0 465.71155461666422 -147.12107341551928 0 0 0 0 368.35567259711479 217.55872422121229 0 217.55872422121229 -201.06282402091165 0 0 0 0 6.0764714572878802 70.060016318842827 0 70.060016318842827 -173.31878820063503 0 0 0 0 9.680866970452044 0.83561369455002676 0 0.83561369455002676 -10.315597973374894 0 0 0 0 21.620275375375059 12.961588416317682 0 12.961588416317682 -93.982678805070464 0 0 0 0 6.5282145166214249 27.254411059194553 0 27.254411059194553 -80.80937733045252 0 0 0 0 -3.1904984918110131 62.595396113916649 0 62.595396113916649 -93.940741783910198 0 0 0 0 7.546879657311365 59.166922586995497 0 59.166922586995497 -105.35555094789015 0 0 0 0 -43.938194845401085 54.943449594071353 0 54.943449594071353 -23.195414608682768 0 0 0 0 -46.766649071197435 71.361612410467387 0 71.361612410467387 -51.11525264786178 0 0 0 0 -18.275576202379568 42.512990822605246 0 42.512990822605246 -10.786700504608653 0 0 0 0 13.432215623894081 83.062396116798482 0 83.062396116798482 -152.49612755983981 0 0 0 0 25.813309986891909 101.18486618889256 0 101.18486618889256 -145.79795060129254 0 0 0 0 -1.4566432869396522 93.521421826200822 0 93.521421826200822 -127.80148978769284 0 0 0 0 -14.024903240495405 69.258837875695463 0 69.258837875695463 -95.764547570237482 0 0 0 0 -57.027232267471845 56.958995198920093 0 56.958995198920093 -27.007545336513431 0 0 0 0 25.772294874706859 71.013124449134921 0 71.013124449134921 -95.767018695622028 0 0 0 0 113.65434937369901 24.123100900549616 0 24.123100900549616 -189.36851712019416 0 0 0 0 -42.177376133706275 135.99103268434919 0 135.99103268434919 -156.40022571249574 0 0 0 0 2.7783802573776484 52.604044504168996 0 52.604044504168996 -86.449042793945409 0 0 0 0 42.749700890286476 32.410738052632951 0 32.410738052632951 -105.08265050758928 0 0 0 0 53.043214605530011 63.071875132991408 0 63.071875132991408 -39.862311884335213 0 0 0 0 5.0493398464816215 1.5255828694508118 0 1.5255828694508118 -55.49679428474488 0 0 0 0 22.238277228722822 10.899805204459355 0 10.899805204459355 -10.416495188338821 0 0 0 0 42.571886071691551 -3.3451525633536221 0 -3.3451525633536221 -68.463543819336337 0 0 0 0 -100.86948600280857 275.35222805511148 0 275.35222805511148 -286.4899189726857 0 0 0 0 -156.37906291801846 333.81856078137207 0 333.81856078137207 -216.91952828319336 0 0 0 0 -4.5624040138136479 33.870664021214907 0 33.870664021214907 -77.13668059821066 0 0 0 0 7.5893089925791024 20.422611466307799 0 20.422611466307799 -67.201339631747175 0 0 0 0 -0.73113288225023609 1.650402219307324 0 1.650402219307324 -18.75710425519879 0 0 0 0 -77.489367935141672 49.196426117171995 0 49.196426117171995 -72.725107844038575 0 0 0 0 -234.9059040757038 204.34608420596851 0 204.34608420596851 -241.13715181907901 0 0 0 0 -324.37304333511747 241.36984117875181 0 241.36984117875181 -244.25486328621628 0 0 0 0 -196.79250559505454 262.59813170472626 0 262.59813170472626 -284.07085384576567 0 0 0 0 -273.52229769213773 330.9605640074551 0 330.9605640074551 -227.47802938865789 0 0 0 0 -390.96284916782861 489.41098333702757 0 489.41098333702757 -531.33179692945123 0 0 0 0 -61.128033229713765 171.90611065750272 0 171.90611065750272 -803.49232940166621 0 0 0 0 -498.10516578076931 245.97846903752452 0 245.97846903752452 -146.99333752782695 0 0 0 0 -1247.9195440301519 974.94087093938288 0 974.94087093938288 -801.85114248278842 0 0 0 0 -96.57588861309614 58.112917156920048 0 58.112917156920048 -651.4385914276354 0 0 0 0 51.386189452490726 237.31074934838034 0 237.31074934838034 -2439.0652228305407 0 0 0 0 -681.76756092414689 -997.7817732361691 0 -997.7817732361691 -1202.0299213181643 0 0 0 0 -56.110550190878712 19.790612176213472 0 19.790612176213472 -695.13998187806646 0 0 0 0 -116.31170242738744 141.93322933831405 0 141.93322933831405 -75.689523724584433 0 0 0 0 -56.27052364926567 131.69054762010637 0 131.69054762010637 -722.4920058246862 0 0 0 0 151.02076187466992 -45.212824613474368 0 -45.212824613474368 -682.74013475653192 0 0 0 0 -200.45530047488137 -525.72564047111518 0 -525.72564047111518 -515.57728710893571 0 0 0 0 -0.73246626095633527 0.58905465769450771 0 0.58905465769450771 -20.27083799533824 0 0 0 0 -5.7204462395857263 -663.73202045458675 0 -663.73202045458675 -1211.3059281082969 0 0 0 0 370.24048523535748 -265.30673480530095 0 -265.30673480530095 -2254.4936603994283 0 0 0 0 -1482.3599119789178 -437.60946009460895 0 -437.60946009460895 14.951805152330962 0 0 0 0 -222.31823555709616 1253.1315151732942 0 1253.1315151732942 -1963.2941026057815 0 0 0 0 48.163449841804663 357.28670019537071 0 357.28670019537071 -1173.9961908617115 0 0 0 0 273.41741700716375 34.35136198598957 0 34.35136198598957 -1193.5598078772746 0 0 0 0 261.93042886659168 56.489740792538214 0 56.489740792538214 -1215.4892507140248 0 0 0 0 145.31023619327243 300.13864982226369 0 300.13864982226369 -1316.0528870763774 0 0 0 0 173.89514756861536 283.3895594973219 0 283.3895594973219 -1335.3918829967806 0 0 0 0 36.681323441844143 86.771359954640502 0 86.771359954640502 -1192.7540665302295 0 0 0 0 101.84968488228697 36.251084411320335 0 36.251084411320335 -939.35789326160739 0 0 0 0 -278.48468661469815 191.33732176385092 0 191.33732176385092 -976.43819783818617 0 0 0 0 -221.8330759044693 409.5271330930409 0 409.5271330930409 -1382.9989280411683 0 0 0 0 -130.74166703153969 -141.77628210178409 0 -141.77628210178409 -145.19336437954189 0 0 0 0 147.52466388761241 168.15141362925169 0 168.15141362925169 -1093.7486453985912 0 0 0 0 -154.88008355233251 250.16358552585007 0 250.16358552585007 -416.2894387066226 0 0 0 0 20.574238275772586 -178.94165799836628 0 -178.94165799836628 -1326.574694805342 0 0 0 0 127.35747674735467 -57.8426748558486 0 -57.8426748558486 -1238.5770511967567 0 0 0 0 -302.09380585650069 -537.3014650779005 0 -537.3014650779005 -936.14336437296879 0 0 0 0 121.83914636736699 -22.147890390293469 0 -22.147890390293469 -1379.702134653362 0 0 0 0 -81.268173874358581 -203.63655175122767 0 -203.63655175122767 -583.67118695532554 0 0 0 0 -65.406322460610681 -164.60864498854062 0 -164.60864498854062 -521.95539417761029 0 0 0 0 -458.55478922069415 -201.71824958204161 0 -201.71824958204161 -296.69548451567243 0 0 0 0 134.53256288721059 41.297104659723118 0 41.297104659723118 -284.71546800090437 0 0 0 0 -194.32085765665533 -199.46695846880812 0 -199.46695846880812 -432.13177478231955 0 0 0 0 -220.79106493373547 97.196046107550501 0 97.196046107550501 -167.08673985962923 0 0 0 0 -86.253500141228869 -113.90428318319755 0 -113.90428318319755 -459.35273182837409 0 0 0 0 -137.45453123942207 -76.630643033713568 0 -76.630643033713568 -263.32955084814603 0 0 0 0 -114.44764636201398 7.6138884697102185 0 7.6138884697102185 -219.41958110945416 0 0 0 0 -82.098368102546374 -1.6637490006032749 0 -1.6637490006032749 -297.91058222568245 0 0 0 0 -108.07140721798714 35.950854008260649 0 35.950854008260649 -129.62532865256071 0 0 0 0 -101.91823946782824 23.654873681851313 0 23.654873681851313 -228.87277893277133 0 0 0 0 -86.026891321910625 42.674001775545548 0 42.674001775545548 -189.21825892520428 0 0 0 0 -113.02813210938621 -14.902173453956493 0 -14.902173453956493 -199.07238642829179 0 0 0 0 -49.4830821607502 2.1746575256984215 0 2.1746575256984215 -204.67913364686683 0 0 0 0 -36.828139250716049 61.980909544996393 0 61.980909544996393 -191.70726635811116 0 0 0 0 237.07544077324565 -81.23554609571147 0 -81.23554609571147 -234.25867251063028 0 0 0 0 82.985807658427802 20.834069714888756 0 20.834069714888756 -18.938626943221607 0 0 0 0 72.286146416330666 -19.262699067333415 0 -19.262699067333415 -134.75147726487194 0 0 0 0 -0.20667067293334318 -0.50187790106175711 0 -0.50187790106175711 -2.1929435258660135 0 0 0 0 -356.64498220070891 227.11774073753622 0 227.11774073753622 -102.8676988516163 0 0 0 0 -93.356108396845229 81.298024279953097 0 81.298024279953097 -41.789297194227402 0 0 0 0 6.2969035424801021 1.5603213618822735 0 1.5603213618822735 2.7750892363647921 0 0 0 0 -186.6911579014195 -56.74746777870314 0 -56.74746777870314 29.368783119673026 0 0 0 0 39.420237767960316 194.23400981657687 0 194.23400981657687 -318.51171201224497 0 0 0 0 137.39684968089659 20.475661784306794 0 20.475661784306794 -298.58091284598049 0 0 0 0 -20.135462785269738 2.4587549866537302 0 2.4587549866537302 -843.16983764759789 0 0 0 0 -132.95736430022225 -195.59636825401321 0 -195.59636825401321 -531.03809472550347 0 0 0 0 62.874226427202302 -168.15233492338302 0 -168.15233492338302 -902.46566335392708 0 0 0 0 66.538289099073154 -57.632878662680014 0 -57.632878662680014 -611.06554114616665 0 0 0 0 85.666639955925348 -10.595428463388089 0 -10.595428463388089 -717.04412563763617 0 0 0 0 76.443032659808523 36.755416055028036 0 36.755416055028036 -935.26105148340866 0 0 0 0 108.78435399800946 -72.03024058592564 0 -72.03024058592564 -755.07210969944208 0 0 0 0 75.448448150385957 -19.112622755208577 0 -19.112622755208577 -710.05721797911974 0 0 0 0 103.1655253461231 -101.06511735606546 0 -101.06511735606546 -730.9847982164647 0 0 0 0 88.592018234387069 -60.191184727838845 0 -60.191184727838845 -584.78836533130925 0 0 0 0 126.1355372588223 37.051082162324747 0 37.051082162324747 -652.58355045550343 0 0 0 0 136.41082174256917 -38.536327098878246 0 -38.536327098878246 -820.90476963435503 0 0 0 0 68.281256804970326 -189.15693528935662 0 -189.15693528935662 -836.91634291805985 0 0 0 0 117.22913005593546 -100.43103188359055 0 -100.43103188359055 -687.31942388809694 0 0 0 0 31.312062620152574 -101.19261004373402 0 -101.19261004373402 -687.20826463866251 0 0 0 0 -32.739271256232314 -86.424104597630503 0 -86.424104597630503 -498.816878806967 0 0 0 0 -42.283580627601623 -103.54046439614467 0 -103.54046439614467 -515.91867537530197 0 0 0 0 -26.345964639935119 -26.305773752748792 0 -26.305773752748792 -467.13174040568992 0 0 0 0 -24.675670941243879 -27.996105494828953 0 -27.996105494828953 -486.42723016019954 0 0 0 0 -76.087478142930195 -54.469912707063486 0 -54.469912707063486 -350.39274931428372 0 0 0 0 -64.776487126528082 9.5262571250932524 0 9.5262571250932524 -356.93131875015206 0 0 0 0 -65.957391981268302 72.050546188402222 0 72.050546188402222 -273.95107673875464 0 0 0 0 -30.465682733127323 63.975400509792962 0 63.975400509792962 -272.17593955055781 0 0 0 0 -73.036091297164603 8.0859455813260865 0 8.0859455813260865 -325.78653885683161 0 0 0 0 -23.373353599447 45.101510254578898 0 45.101510254578898 -439.59859797928948 0 0 0 0 -50.796051995668677 83.055183577132993 0 83.055183577132993 -378.28867551223084 0 0 0 0 -36.40208659642667 37.094561433666968 0 37.094561433666968 -399.67623136036855 0 0 0 0 -99.030190983499779 57.875861752188939 0 57.875861752188939 -204.18201656106976 0 0 0 0 -70.958712885963905 36.823278912022943 0 36.823278912022943 -292.21793336483825 0 0 0 0 -71.053513989485509 64.864309200973366 0 64.864309200973366 -267.42896443096106 0 0 0 0 -96.154832188782166 109.75497841178731 0 109.75497841178731 -296.76993970709736 0 0 0 0 -104.61755804744462 123.28933884993603 0 123.28933884993603 -202.91237638733583 0 0 0 0 -47.939440043519426 134.40454479353502 0 134.40454479353502 -436.95819729653886 0 0 0 0 -63.0952802236352 83.666779231818509 0 83.666779231818509 -311.64763809643773 0 0 0 0 -7.7781053568087373 78.498144684344879 0 78.498144684344879 -452.01109543404891 0 0 0 0 21.043934003108006 39.998581621141057 0 39.998581621141057 -526.41221697254059 0 0 0 0 20.677297775292573 49.551369833153785 0 49.551369833153785 -578.03124181018211 0 0 0 0 -6.3212744566844776 66.857537676736683 0 66.857537676736683 -524.46915331680793 0 0 0 0 28.120359221291437 5.5574897372571286 0 5.5574897372571286 -608.22376552481728 0 0 0 0 63.281511836572463 -52.648827746332245 0 -52.648827746332245 -613.52063936599006 0 0 0 0 20.010046290139144 127.71389206300955 0 127.71389206300955 -731.45554553493912 0 0 0 0 -44.856130519299768 220.58517383417347 0 220.58517383417347 -784.16136298690253 0 0 0 0 -14.153998379995755 134.78530369969667 0 134.78530369969667 -599.0986155452847 0 0 0 0 -48.26737506671634 178.79716757134884 0 178.79716757134884 -604.0597990839542 0 0 0 0 -23.738637970898708 133.8464165017358 0 133.8464165017358 -577.86542647877945 0 0 0 0 -52.746128998471249 147.72383632097626 0 147.72383632097626 -451.12815002762363 0 0 0 0 -99.042920039079036 156.49234003583842 0 156.49234003583842 -451.64644456378301 0 0 0 0 -74.053892696389084 114.6553142953635 0 114.6553142953635 -381.75029220266151 0 0 0 0 -148.24913713207206 182.70367113524117 0 182.70367113524117 -116.97261844831519 0 0 0 0 -53.187644384357554 184.46157348861743 0 184.46157348861743 -384.77948883885983 0 0 0 0 -5.4143382603538299 -3.2936471034453945 0 -3.2936471034453945 -2.0288909731438025 0 0 0 0 -63.272234793294047 283.53045376630325 0 283.53045376630325 -216.327502725675 0 0 0 0 -31.605852422808312 -26.587543128818652 0 -26.587543128818652 -275.79739278592751 0 0 0 0 -10.662752208441816 13.154192887421232 0 13.154192887421232 -27.144970935914898 0 0 0 0 -13.81173477740986 -6.5541451426352211 0 -6.5541451426352211 -11.802312107077199 0 0 0 0 -121.82700743489022 236.40935815158264 0 236.40935815158264 -445.78635906393174 0 0 0 0 -135.17075544118416 173.86488204461057 0 173.86488204461057 -290.30445894983586 0 0 0 0 30.289117437638197 -6.108044171029178 0 -6.108044171029178 -37.298236870382425 0 0 0 0 -115.99948263349074 254.11026437670898 0 254.11026437670898 -625.02796256137663 0 0 0 0 -8.3110626199668332 15.243872525148618 0 15.243872525148618 -40.377062758198008 0 0 0 0 -5.1498212809494035 -7.3839157815594376 0 -7.3839157815594376 -11.259120364533914 0 0 0 0 -72.48237079941282 239.01325842798542 0 239.01325842798542 -627.39166877453681 0 0 0 0 -24.158562119475391 19.231718632661796 0 19.231718632661796 -61.651524863220402 0 0 0 0 -15.485298326363591 16.124886241708737 0 16.124886241708737 -60.543650070569129 0 0 0 0 -10.757580122129738 -9.463981160969837 0 -9.463981160969837 -15.155597230551152 0 0 0 0 -3.7612898230636347 35.802122285731457 0 35.802122285731457 -5.1912751679192297 0 0 0 0 -21.70979622899813 7.9520810820267798 0 7.9520810820267798 8.9635166918524192 0 0 0 0 -26.885431903805511 -4.7406268752902179 0 -4.7406268752902179 2.1185581047320738 0 0 0 0 -21.577679810714471 3.9460106223341427 0 3.9460106223341427 -16.104179128873511 0 0 0 0 -22.000524171897723 10.200226116962767 0 10.200226116962767 -24.039865413971711 0 0 0 0 -9.4234183690676669 8.960426981916072 0 8.960426981916072 -17.682248348784725 0 0 0 0 -4.4347765516195636 0.43632738700679852 0 0.43632738700679852 -2.1160725396522935 0 0 0 0 -28.971053821942405 33.979786996933399 0 33.979786996933399 -49.320370737274061 0 0 0 0 -1.0558923697322093 3.6610436799876993 0 3.6610436799876993 -12.21121163141629 0 0 0 0 -33.209294797607072 2.6786772053674213 0 2.6786772053674213 -55.149067718601145 0 0 0 0 -19.507768907574246 -25.048643339134287 0 -25.048643339134287 -56.482233234361047 0 0 0 0 -8.5769656926458993 -3.4108998711089953 0 -3.4108998711089953 -67.219363623642494 0 0 0 0 -37.765733526889562 21.523523110634414 0 21.523523110634414 -16.831250250179437 0 0 0 0 -45.859989766679064 24.70599332137499 0 24.70599332137499 -60.856567239157812 0 0 0 0 -16.376644683411378 -9.801698021548475 0 -9.801698021548475 -7.2761690832158195 0 0 0 0 -43.454198065370292 -19.853630900484859 0 -19.853630900484859 -19.241981196537381 0 0 0 0 -115.26351601706119 42.627370799542405 0 42.627370799542405 -149.44217421090434 0 0 0 0 -60.813267297533457 32.069333209125034 0 32.069333209125034 -221.09546648195828 0 0 0 0 -19.789822978385928 191.49988602635858 0 191.49988602635858 92.045861261351092 0 0 0 0 1.8028106787220786 -0.82678462753720794 0 -0.82678462753720794 -2.9511951867255561 0 0 0 0 -29.464251690045785 57.942883176707255 0 57.942883176707255 -235.11709925520699 0 0 0 0 -79.897906228779902 55.981586900372349 0 55.981586900372349 -234.06375209082034 0 0 0 0 -113.19018836634132 63.409779364483256 0 63.409779364483256 -198.12139612187457 0 0 0 0 -48.23632521122272 127.92521238258087 0 127.92521238258087 -152.41535946039949 0 0 0 0 -10.426762079304645 -6.3830339034383456 0 -6.3830339034383456 -4.055580852118041 0 0 0 0 -41.748273414783853 -117.26691580529643 0 -117.26691580529643 -82.241345878035645 0 0 0 0 -49.126169271754407 6.9839194011474319 0 6.9839194011474319 -1.374475656542927 0 0 0 0 -55.879057582051246 -14.268196793847892 0 -14.268196793847892 -50.614740837932914 0 0 0 0 -56.513287149258758 -2.642701088800095 0 -2.642701088800095 -13.915729324871791 0 0 0 0 -45.127079238264741 11.647621282976615 0 11.647621282976615 5.1694151627161773 0 0 0 0 -46.269652726616187 17.549670770597004 0 17.549670770597004 -14.997806981185477 0 0 0 0 -52.081460426796184 10.146601567674224 0 10.146601567674224 -19.724656689213589 0 0 0 0 -57.462127641179904 34.202827349959989 0 34.202827349959989 25.984967668511672 0 0 0 0 -91.979959197144126 85.940733385166823 0 85.940733385166823 -8.3867211015240173 0 0 0 0 -55.045972044152222 38.642972112545976 0 38.642972112545976 -8.0193945323699154 0 0 0 0 -7.504879846896074 43.721886396710033 0 43.721886396710033 -49.175182671830044 0 0 0 0 -46.379811984089429 36.70581899613353 0 36.70581899613353 -50.399859843302693 0 0 0 0 -34.056813017808963 23.189413197200338 0 23.189413197200338 -37.202719520337268 0 0 0 0 -47.521243872173727 8.4900354731362313 0 8.4900354731362313 -21.916990557227109 0 0 0 0 -46.890192162843618 11.248047749389571 0 11.248047749389571 -45.023652285613935 0 0 0 0 -17.379191659391836 15.081575376869296 0 15.081575376869296 -51.013157944071281 0 0 0 0 -34.211935341188124 13.539225526097113 0 13.539225526097113 -46.449373562907567 0 0 0 0 -23.52256815491819 8.1506427205640648 0 8.1506427205640648 -52.589269511445309 0 0 0 0 -20.498959883753741 21.715386667368875 0 21.715386667368875 -78.319307678153564 0 0 0 0 -18.537180053782549 8.8529861000042729 0 8.8529861000042729 -76.113845326057344 0 0 0 0 -10.407530912117293 17.741004145035262 0 17.741004145035262 -50.666391618128273 0 0 0 0 -8.0473018725313956 17.756884750929217 0 17.756884750929217 -43.319012708295389 0 0 0 0 104.91814467569566 117.01937968625862 0 117.01937968625862 13.027741139376303 0 0 0 0 275.2807908755567 29.288040213898057 0 29.288040213898057 -62.255272678818073 0 0 0 0 68.296461549813102 62.824157576600555 0 62.824157576600555 -62.982607331941836 0 0 0 0 -38.555721449571138 158.01124564879137 0 158.01124564879137 -54.082632049627136 0 0 0 0 77.632300733552256 62.131565445262822 0 62.131565445262822 -27.004338592814747 0 0 0 0 77.975098206763505 54.222500328702154 0 54.222500328702154 -57.933239644795322 0 0 0 0 169.10564353588052 -64.118002465937025 0 -64.118002465937025 15.753138613436022 0 0 0 0 0.52718723567007353 20.853015454604488 0 20.853015454604488 -94.387127663747208 0 0 0 0 -22.200176376490759 40.862276991269631 0 40.862276991269631 -10.602489434212185 0 0 0 0 -43.33632633059824 27.886434770378401 0 27.886434770378401 -75.52886641439909 0 0 0 0 206.28542794143505 -54.901653880951926 0 -54.901653880951926 -49.353591221210081 0 0 0 0 55.306870237704061 33.691210561923072 0 33.691210561923072 -240.54261873162613 0 0 0 0 15.034796839294447 -8.7955442631486491 0 -8.7955442631486491 -26.429723971882538 0 0 0 0 -30.599420457134329 83.952119669746025 0 83.952119669746025 -34.966190457482298 0 0 0 0 0.72838720347687058 8.4342012817329675 0 8.4342012817329675 -14.553762690982452 0 0 0 0 232.96415349814015 -69.72554449288873 0 -69.72554449288873 -64.279939236410428 0 0 0 0 -62.962798178181401 71.655071698762185 0 71.655071698762185 -48.221070410763787 0 0 0 0 203.17314841636835 94.605003419615969 0 94.605003419615969 -19.029818322887877 0 0 0 0 -7.1757820074253189 11.282233738209921 0 11.282233738209921 -6.5641568990103281 0 0 0 0 223.22248576896891 75.682986528918264 0 75.682986528918264 -84.904731413014815 0 0 0 0 92.414838334258093 -5.7206660356678185 0 -5.7206660356678185 1.8308455456890442 0 0 0 0 83.223025941053038 35.588280008249058 0 35.588280008249058 -80.241213827452157 0 0 0 0 -45.675456540342566 72.747185953085136 0 72.747185953085136 -59.934728875592555 0 0 0 0 -105.26231183868003 68.396658930891135 0 68.396658930891135 -136.36070562110763 0 0 0 0 -62.165476795566065 29.197611065923411 0 29.197611065923411 -108.74162123119459 0 0 0 0 -104.7946053055166 77.214946619911643 0 77.214946619911643 -179.41040791357227 0 0 0 0 -119.29538007550582 57.728722677373298 0 57.728722677373298 -126.51328999457473 0 0 0 0 -145.63509423308642 94.082457694999903 0 94.082457694999903 -110.43486970238882 0 0 0 0 -132.13040847901357 101.79141787208937 0 101.79141787208937 -130.1804939982103 0 0 0 0 -63.236712494701351 61.725627572719532 0 61.725627572719532 -151.79095382681408 0 0 0 0 -139.63159222100148 71.649722923593799 0 71.649722923593799 -88.181071161452564 0 0 0 0 -7.3649442084715702 135.7842173804238 0 135.7842173804238 -210.62107513480623 0 0 0 0 -43.565919177657634 108.02950719265209 0 108.02950719265209 -42.897462039887614 0 0 0 0 -81.165237436904135 285.08054594575515 0 285.08054594575515 -184.818651047196 0 0 0 0 78.110044525350531 29.551064805167698 0 29.551064805167698 -118.33015667660948 0 0 0 0 -2.2931589943454043 -2.3758238109003003 0 -2.3758238109003003 -2.6062790704236676 0 0 0 0 -40.645815386140384 13.9545002157829 0 13.9545002157829 -6.5186170354209025 0 0 0 0 -19.352580759074954 -23.096176365148494 0 -23.096176365148494 42.451573026977712 0 0 0 0 31.27244357426207 44.161579261861334 0 44.161579261861334 20.701427375037383 0 0 0 0 -58.781107235317904 -4.5877103436068865 0 -4.5877103436068865 37.524793082789984 0 0 0 0 -9.702237645303363 11.066483510225808 0 11.066483510225808 -10.794629544973475 0 0 0 0 24.357446573887501 81.716771218128997 0 81.716771218128997 214.07847986963498 0 0 0 0 -31.79927400219276 3.0585783238857402 0 3.0585783238857402 -50.186695198473899 0 0 0 0 304.90275332296005 -332.06903570918075 0 -332.06903570918075 -2.432993880349386 0 0 0 0 -42.758451447767584 401.94086314200104 0 401.94086314200104 -808.08097319822991 0 0 0 0 -29.957566234643309 215.64468354334531 0 215.64468354334531 -152.1591992759204 0 0 0 0 -8.8997209155220141 10.338825643385888 0 10.338825643385888 -32.370510148428281 0 0 0 0 22.767998388848355 -36.743689706932855 0 -36.743689706932855 -107.70960989489686 0 0 0 0 9.2572981142566277 8.8701653536081722 0 8.8701653536081722 68.130787321686512 0 0 0 0 -9.7649801649749861 142.7198992294725 0 142.7198992294725 -47.602930728950014 0 0 0 0 -133.94570508376819 157.8160883202454 0 157.8160883202454 35.608103438280523 0 0 0 0 107.58914670405557 37.229921596028362 0 37.229921596028362 -142.70635718799167 0 0 0 0 78.040184678560763 26.062822264921124 0 26.062822264921124 -93.364061010935984 0 0 0 0 -3.0250355407306575 5.5345727585361288 0 5.5345727585361288 -71.607698013002548 0 0 0 0 92.07774345591497 6.7907277046142553 0 6.7907277046142553 -46.231292145763291 0 0 0 0 97.005494931718431 -31.897499670533648 0 -31.897499670533648 -92.388415295979939 0 0 0 0 54.890784624798812 27.355577225671823 0 27.355577225671823 -153.25030195699219 0 0 0 0 3.0777897867528776 6.2425895089704717 0 6.2425895089704717 -84.791200750644805 0 0 0 0 3.4422756119837032 -0.86839446759670125 0 -0.86839446759670125 -15.668805091960749 0 0 0 0 -7.4361837352695801 39.068411214244023 0 39.068411214244023 -29.742777666724884 0 0 0 0 26.288682555965352 60.096619276742786 0 60.096619276742786 -70.671886591768271 0 0 0 0 -47.117656151148594 -113.36477812878593 0 -113.36477812878593 -228.02181186467351 0 0 0 0 -221.12431061087227 108.8908152700169 0 108.8908152700169 52.404100517355346 0 0 0 0 -3.5400943613724856 3.3317874487611903 0 3.3317874487611903 -3.9288855920216292 0 0 0 0 -37.451048699333114 -305.25123491140766 0 -305.25123491140766 -386.21095337083534 0 0 0 0 79.855130757881852 39.78826458592448 0 39.78826458592448 -176.88288459029536 0 0 0 0 28.33710640731897 -0.44083899961333373 0 -0.44083899961333373 -154.67406564825069 0 0 0 0 5.2849966605422196 27.442129242695955 0 27.442129242695955 -172.50424311624374 0 0 0 0 -15.984283491988226 39.86341108048429 0 39.86341108048429 -32.209201088657807 0 0 0 0 -483.16649042302924 329.66233688785724 0 329.66233688785724 147.15664587189531 0 0 0 0 2.544300680619962 -28.662281413547134 0 -28.662281413547134 -53.059981647540361 0 0 0 0 -13.032364229771702 17.09227823222318 0 17.09227823222318 -119.23078976856414 0 0 0 0 -19.984320534767903 -1.2417157208292338 0 -1.2417157208292338 -105.69572330105802 0 0 0 0 7.6481046846667944 -31.396550505268188 0 -31.396550505268188 -36.877993322517781 0 0 0 0 66.875957147751251 -48.337874940043548 0 -48.337874940043548 -133.32429806293658 0 0 0 0 -5.7732139558575 36.760845453623915 0 36.760845453623915 -117.33504950162387 0 0 0 0 98.98138192409715 8.9156217130221194 0 8.9156217130221194 -293.93471422840594 0 0 0 0 -28.933302790912421 96.251267601834115 0 96.251267601834115 -334.97340178298327 0 0 0 0 73.95976776657335 -96.955055272865138 0 -96.955055272865138 -395.08242841019091 0 0 0 0 -110.25178642287904 141.41353877234167 0 141.41353877234167 -122.94717799081263 0 0 0 0 51.403767054395416 -51.344011383044062 0 -51.344011383044062 -160.88896238453162 0 0 0 0 -1.5217593771685902 7.5642470070779204 0 7.5642470070779204 -4.6483347077851533 0 0 0 0 47.434747595060799 27.740187269620947 0 27.740187269620947 -129.80647189929005 0 0 0 0 -86.963569773521158 102.6204039857621 0 102.6204039857621 -61.743376434569655 0 0 0 0 -32.985572929359478 129.51386131189429 0 129.51386131189429 -245.62641483003063 0 0 0 0 -39.15504460838406 -19.110757393627864 0 -19.110757393627864 -35.737730458851729 0 0 0 0 -4.9115677518338998 13.281299718204536 0 13.281299718204536 -76.816200089619088 0 0 0 0 -7.9240422714553915 -18.721849590005391 0 -18.721849590005391 -31.223751178200359 0 0 0 0 -17.342902329263097 17.143961600505463 0 17.143961600505463 -81.383516850648448 0 0 0 0 -19.614041900631037 10.039077369105144 0 10.039077369105144 -85.416127128810331 0 0 0 0 -25.299826165204649 -28.661063949737581 0 -28.661063949737581 -76.873184065960231 0 0 0 0 46.324556443033543 -11.610595221911353 0 -11.610595221911353 -87.431787373414409 0 0 0 0 -8.3818246097586382 -24.594166923673995 0 -24.594166923673995 -22.433252037010547 0 0 0 0 70.167702668531092 50.003141127301205 0 50.003141127301205 -135.34412331094063 0 0 0 0 -23.766684284835719 77.558984085091652 0 77.558984085091652 -95.132338407580392 0 0 0 0 -162.22890886163032 259.50280994374134 0 259.50280994374134 -187.8156378481799 0 0 0 0 -20.629144190123043 100.66400170857014 0 100.66400170857014 -33.777879505316378 0 0 0 0 232.60502803625059 -236.58368340645393 0 -236.58368340645393 -375.38280849080911 0 0 0 0 140.27075974051695 139.34742792124598 0 139.34742792124598 -509.56111794131721 0 0 0 0 77.68303313294382 18.821146460817545 0 18.821146460817545 -70.106789622979704 0 0 0 0 121.20576651785996 -323.06786394869414 0 -323.06786394869414 25.527169574672371 0 0 0 0 -11.323920798377657 -19.441774334040716 0 -19.441774334040716 -40.602029167846297 0 0 0 0 -7.895933826192703 2.4491609040851472 0 2.4491609040851472 -145.51508123413441 0 0 0 0 -3.8421241450396337 36.125222610466153 0 36.125222610466153 -112.70827420026399 0 0 0 0 -1.8880585610135281 -16.795897135451554 0 -16.795897135451554 -32.505382502926807 0 0 0 0 -8.8810076735842713 20.416330647183301 0 20.416330647183301 -35.933850007286516 0 0 0 0 -8.5153857118680207 -8.8648984282117453 0 -8.8648984282117453 -142.15026975798173 0 0 0 0 -9.5430575110740392 8.3115406195647665 0 8.3115406195647665 -151.57006547832862 0 0 0 0 -28.289253146717783 6.0963855442605563 0 6.0963855442605563 -93.860634374941583 0 0 0 0 -14.880943091997766 -41.332123374463634 0 -41.332123374463634 -53.472667198649305 0 0 0 0 -8.0404116197209987 -47.501394316343067 0 -47.501394316343067 -239.4209057663611 0 0 0 0 -2.2136615688439578 45.839842830289456 0 45.839842830289456 -46.047724805337054 0 0 0 0 -6.4410970864441879 11.621213545513456 0 11.621213545513456 -104.02487593488149 0 0 0 0 -4.5497979405072329 -68.049746989810956 0 -68.049746989810956 -512.4267214537831 0 0 0 0 -193.47897881950666 -164.83392087227548 0 -164.83392087227548 -417.31318409426603 0 0 0 0 -37.300401855838572 -43.759798345039599 0 -43.759798345039599 -345.33393771578267 0 0 0 0 -1.3079014784712211 38.668113693072655 0 38.668113693072655 -28.574011928002022 0 0 0 0 16.592625430268757 9.0418378387097817 0 9.0418378387097817 -34.987937502470487 0 0 0 0 22.649704386405915 40.637100943473342 0 40.637100943473342 -250.63137282710522 0 0 0 0 20.104928025086338 18.370342985785101 0 18.370342985785101 -422.22679876213988 0 0 0 0 -20.592423438906508 9.0310238077472604 0 9.0310238077472604 -120.09760071594792 0 0 0 0 -43.767332779539174 -12.975773309895885 0 -12.975773309895885 -93.498666975152446 0 0 0 0 -16.041448713419868 31.749199661295279 0 31.749199661295279 -250.55029828983243 0 0 0 0 -14.252903265011406 -39.55542382832364 0 -39.55542382832364 -42.05954788503972 0 0 0 0 -91.190076507460617 -14.737770655134227 0 -14.737770655134227 -33.853777728771092 0 0 0 0 -31.750566709553823 -54.632517939462559 0 -54.632517939462559 -49.343999082469963 0 0 0 0 -86.747579372322434 48.940287520890706 0 48.940287520890706 -56.017732713808073 0 0 0 0 -95.022853433426008 173.29653812765901 0 173.29653812765901 -206.36178119489341 0 0 0 0 -61.605457081334066 78.182316206759651 0 78.182316206759651 133.91153103185206 0 0 0 0 -276.26742919038554 117.65029750525355 0 117.65029750525355 154.49051459431939 0 0 0 0 -43.734385788168311 51.477839362143641 0 51.477839362143641 96.570358118595323 0 0 0 0 -22.025284093919538 33.345665513856147 0 33.345665513856147 96.663539706001757 0 0 0 0 -65.895513545965628 -74.550422876332959 0 -74.550422876332959 119.37986087046738 0 0 0 0 6.4752467808434204 -2.3163793289694752 0 -2.3163793289694752 -37.407848692405025 0 0 0 0 3.1185675629087228 -12.820760052063903 0 -12.820760052063903 -25.552368298264071 0 0 0 0 -124.3475936956097 -169.4258409667309 0 -169.4258409667309 121.3273609369644 0 0 0 0 116.7863109879695 -171.52500211667029 0 -171.52500211667029 112.90850122277334 0 0 0 0 -8.5259569905570061 -7.8902516553971509 0 -7.8902516553971509 -68.703782893699099 0 0 0 0 -23.386217784743167 22.062066479184978 0 22.062066479184978 -62.44616169163055 0 0 0 0 -5.4115015431352731 -19.049733403724531 0 -19.049733403724531 -41.921854815467668 0 0 0 0 3.2397943027962643 -12.78772146868728 0 -12.78772146868728 -34.700765278828044 0 0 0 0 394.34554515392085 -12.417275987881339 0 -12.417275987881339 -54.513429458886094 0 0 0 0 4.1683509718822158 -8.0689464937460826 0 -8.0689464937460826 -11.656670574200078 0 0 0 0 173.03762609642581 -291.07799515835359 0 -291.07799515835359 145.48190264760183 0 0 0 0 29.320186476794333 -121.02881007202814 0 -121.02881007202814 150.62139234931965 0 0 0 0 496.92800838282528 -357.77984321799158 0 -357.77984321799158 -102.38837238593987 0 0 0 0 -342.70205139256996 -172.96108901609114 0 -172.96108901609114 145.08376255615076 0 0 0 0 -168.92882792914543 -536.43466138192889 0 -536.43466138192889 93.623928218844412 0 0 0 0 389.21131306692689 -297.66031575643638 0 -297.66031575643638 -41.032236262020888 0 0 0 0 -371.70730967295623 -43.554444893205073 0 -43.554444893205073 105.46470248193509 0 0 0 0 -186.11403153636232 -202.24034352273884 0 -202.24034352273884 135.12961729143717 0 0 0 0 -437.34017372312962 -179.63994341081707 0 -179.63994341081707 -91.5774930117841 0 0 0 0 -1205.8886745977406 22.253833129274426 0 22.253833129274426 -103.04732500597561 0 0 0 0 -403.39316506204341 -457.27375407575892 0 -457.27375407575892 -848.72354815331346 0 0 0 0 -204.84532008631641 184.06424965288898 0 184.06424965288898 -250.21606180572417 0 0 0 0 -619.77479634269775 187.93744446611527 0 187.93744446611527 -240.1121725459052 0 0 0 0 -534.44907182232475 352.30690350870282 0 352.30690350870282 -878.80388567606133 0 0 0 0 -665.59932972616934 188.69975819971842 0 188.69975819971842 112.21670525701484 0 0 0 0 -282.45200924096616 97.26471037563897 0 97.26471037563897 132.78114887116681 0 0 0 0 -6.4486823035185807 36.759125285778282 0 36.759125285778282 -111.90393743857567 0 0 0 0 -7.0940096330868982 17.026854191826374 0 17.026854191826374 -32.682879042281755 0 0 0 0 -3.7412227353070193 15.343334175555356 0 15.343334175555356 -24.969928522681585 0 0 0 0 -6.5603624109826342 9.0174850461662572 0 9.0174850461662572 -43.692218229454738 0 0 0 0 0.68104245768709859 6.3729045772322763 0 6.3729045772322763 -25.102573840052401 0 0 0 0 -10.630004761995224 5.949078041339817 0 5.949078041339817 -25.086841522308532 0 0 0 0 -5.2208618197117325 9.501247894541379 0 9.501247894541379 -26.227984536603415 0 0 0 0 -5.7060185332338733 11.495061032070225 0 11.495061032070225 -41.04381972172996 0 0 0 0 -9.5720816957842807 10.882739295472085 0 10.882739295472085 -24.265639484921252 0 0 0 0 -9.9594343953740463 4.7433425692579476 0 4.7433425692579476 -27.433766150656083 0 0 0 0 -7.230968576442713 4.9154231172056271 0 4.9154231172056271 -27.993940984004354 0 0 0 0 -2.6540067195238635 -1.8978564903741244 0 -1.8978564903741244 -46.167879936896497 0 0 0 0 -4.9358367597487813 1.541655687509774 0 1.541655687509774 -32.024912682682043 0 0 0 0 -2.470776340215469 0.33922996846951747 0 0.33922996846951747 -32.357226715907842 0 0 0 0 -3.8604372157844011 2.879551588385965 0 2.879551588385965 -33.945507657962949 0 0 0 0 -2.607200705766445 -0.8625083858059952 0 -0.8625083858059952 -54.558157300310995 0 0 0 0 -83.606638704399302 -184.6352160237077 0 -184.6352160237077 -35.807999365086289 0 0 0 0 -6.3564330343575008 9.100511445010099 0 9.100511445010099 -40.852963579400381 0 0 0 0 -107.47786197854475 114.61642365833177 0 114.61642365833177 -73.211822817895154 0 0 0 0 -5.7574763611935893 -5.2033640023130801 0 -5.2033640023130801 -42.780356601607963 0 0 0 0 4.1857746663517901 -8.2393766945897369 0 -8.2393766945897369 -69.159324304164329 0 0 0 0 5.5316781980517646 -0.65023736522476838 0 -0.65023736522476838 -15.102242982366334 0 0 0 0 25.793281559264869 -84.988142710310058 0 -84.988142710310058 216.60037475373247 0 0 0 0 -29.629605280082615 1.8956335791608581 0 1.8956335791608581 -82.387697793616098 0 0 0 0 -3.7877044727956672 21.841647568624467 0 21.841647568624467 -96.20741008522964 0 0 0 0 10.231735473977722 -26.384405467152114 0 -26.384405467152114 -37.847314965731172 0 0 0 0 1.1199032074469457 -16.785673481730043 0 -16.785673481730043 -22.862285098120061 0 0 0 0 -29.825899426610704 5.9195203255658271 0 5.9195203255658271 -117.11197819164227 0 0 0 0 -9.6448271872905025 26.520633633350371 0 26.520633633350371 -105.01768689222808 0 0 0 0 -2.7953472175195202 24.849874382984126 0 24.849874382984126 -110.5698959803558 0 0 0 0 -0.1643732357091281 -20.145332846898299 0 -20.145332846898299 -13.126228371946134 0 0 0 0 -27.890459246606042 9.986318360450241 0 9.986318360450241 -42.646734619291237 0 0 0 0 0.25674022385646822 7.022549888897629 0 7.022549888897629 -43.068264156441728 0 0 0 0 -11.829696077624249 -15.712097741761681 0 -15.712097741761681 -80.354086614450352 0 0 0 0 -7.774650104297443 13.732273881547812 0 13.732273881547812 -16.716565598274116 0 0 0 0 3.5468503715854283 2.4372451759885578 0 2.4372451759885578 -14.996664988374263 0 0 0 0 -7.6664045662400895 18.903979154569242 0 18.903979154569242 -37.509439712805033 0 0 0 0 -11.717894377673474 10.549338605271259 0 10.549338605271259 -54.734297763643553 0 0 0 0 5.2352596435484884 45.075777708552778 0 45.075777708552778 -35.355871870269766 0 0 0 0 10.418448920823721 7.090256034367485 0 7.090256034367485 -35.676898894987971 0 0 0 0 -6.0763609571813504 -3.0938230002952878 0 -3.0938230002952878 -87.704742316767806 0 0 0 0 -6.2315471471996666 11.701089816621689 0 11.701089816621689 -30.05907373226448 0 0 0 0 -13.444711822813588 3.4481668474018079 0 3.4481668474018079 -35.855891791885369 0 0 0 0 0.71549604886240559 22.807452928624116 0 22.807452928624116 -88.793872664501578 0 0 0 0 78.530543291504728 -80.753788293925027 0 -80.753788293925027 -45.92058366733545 0 0 0 0 7.3548885101599737 2.651356494275463 0 2.651356494275463 -77.164133541054866 0 0 0 0 2.4558526755245111 36.281425468063389 0 36.281425468063389 -52.744662513447111 0 0 0 0 -17.344740384025499 24.945038423029473 0 24.945038423029473 -83.828834676140104 0 0 0 0 14.871379425778489 -17.79586277678235 0 -17.79586277678235 -71.255300554384149 0 0 0 0 103.6054659913425 -127.77093394847907 0 -127.77093394847907 -56.137795869319234 0 0 0 0 109.46664137323751 -110.58727860529325 0 -110.58727860529325 -23.36982949929552 0 0 0 0 -6.0800368762622519 6.1407606912079302 0 6.1407606912079302 -6.8050756185230625 0 0 0 0 -203.64313495422539 -78.12522463217465 0 -78.12522463217465 -62.424498670719913 0 0 0 0 503.17260066793278 177.51888527367191 0 177.51888527367191 -64.087193589213712 0 0 0 0 -41.59780786129204 50.272399303289149 0 50.272399303289149 22.575665416326956 0 0 0 0 1.5911984235044514 -0.3267340732943893 0 -0.3267340732943893 -3.6145621928480836 0 0 0 0 89.629258923825546 -3.293323484598659 0 -3.293323484598659 -100.33417964225373 0 0 0 0 -34.003175675741659 80.97880682599498 0 80.97880682599498 -65.318727177633264 0 0 0 0 122.59715205595785 143.23291602780046 0 143.23291602780046 -80.005236777549726 0 0 0 0 -259.18521154644259 -83.594915781279269 0 -83.594915781279269 185.49838831299348 0 0 0 0 6.7975000329795918 7.290965720277562 0 7.290965720277562 -19.768091104883283 0 0 0 0 -13.534370669246528 -7.5407483119797689 0 -7.5407483119797689 -114.19483207536541 0 0 0 0 8.3280772135540246 23.351067050814891 0 23.351067050814891 -86.704714357880221 0 0 0 0 -7.2017661835973215 7.4798416580716562 0 7.4798416580716562 -12.612046569875119 0 0 0 0 -7.186157927608626 9.7097398019457728 0 9.7097398019457728 -14.568609794603162 0 0 0 0 14.519825846755339 26.384090846440813 0 26.384090846440813 -33.653275341530389 0 0 0 0 -5.1718925270579348 6.9745416887926694 0 6.9745416887926694 -12.932259559485829 0 0 0 0 -13.761009533251126 13.646827764220689 0 13.646827764220689 -40.844658262223675 0 0 0 0 -13.566268959829213 3.2828083421283907 0 3.2828083421283907 -83.554458393129607 0 0 0 0 -9.0836587581276191 -2.6893511757563004 0 -2.6893511757563004 -29.646742119613187 0 0 0 0 -14.634619905522236 18.647408283624912 0 18.647408283624912 -32.709236796916265 0 0 0 0 -11.606107022615106 155.36019903141278 0 155.36019903141278 47.412140682904635 0 0 0 0 1.6437463778396548 36.074281828781835 0 36.074281828781835 -57.01054842933047 0 0 0 0 -17.949061546057692 28.242034885534395 0 28.242034885534395 -38.769351628749064 0 0 0 0 -32.561354303675671 114.81988314957835 0 114.81988314957835 -6.527586644027906 0 0 0 0 -32.146237603348709 -10.512837509446854 0 -10.512837509446854 102.73483617955026 0 0 0 0 -1.9281665143511706 15.432012661316936 0 15.432012661316936 -5.9435800719680163 0 0 0 0 -16.165274092338677 24.827396572234193 0 24.827396572234193 -32.516195055059143 0 0 0 0 -17.823485344490109 23.437023178023992 0 23.437023178023992 -31.619829718624715 0 0 0 0 -13.544376782376197 5.2677773146535642 0 5.2677773146535642 3.1344634602287851 0 0 0 0 -14.783983288868455 20.300941374249533 0 20.300941374249533 -38.921731720734897 0 0 0 0 -15.92755834176819 16.918951315089998 0 16.918951315089998 -22.679443068442197 0 0 0 0 -25.139028977005768 6.7180506747596738 0 6.7180506747596738 -6.1431467082340703 0 0 0 0 -9.951291103235004 11.58990812753505 0 11.58990812753505 -18.851854872499345 0 0 0 0 -13.243434809874088 18.683232856012182 0 18.683232856012182 -26.912124841455807 0 0 0 0 -14.928070087999004 11.897206348496184 0 11.897206348496184 -36.327202793469041 0 0 0 0 -13.711522665230339 16.678466220790142 0 16.678466220790142 -22.762417808928291 0 0 0 0 -12.797214872152836 8.6242240255196521 0 8.6242240255196521 -30.596880334484013 0 0 0 0 -11.856523613092719 -3.327870870971342 0 -3.327870870971342 -8.770354978562878 0 0 0 0 -8.7800395424725011 1.4476118474892772 0 1.4476118474892772 -12.896022826573571 0 0 0 0 -7.1218599373059988 -1.6195873423639569 0 -1.6195873423639569 -27.340902545933204 0 0 0 0 -5.0800596262880759 -6.7834725239524687 0 -6.7834725239524687 -21.94281912587774 0 0 0 0 -9.5687922190243953 2.2071599047955388 0 2.2071599047955388 -20.670680146668253 0 0 0 0 -16.261745946823794 9.4915581483510323 0 9.4915581483510323 -26.041921477764845 0 0 0 0 -32.21280771660895 -5.7265304105476389 0 -5.7265304105476389 -13.314041352397908 0 0 0 0 -20.838458071290006 20.563011366564751 0 20.563011366564751 -15.801174833113691 0 0 0 0 -24.449196426957315 28.121183520305294 0 28.121183520305294 -16.022393856983399 0 0 0 0 -17.502542888992135 14.577101650594116 0 14.577101650594116 -20.049420712965087 0 0 0 0 -20.768057873840007 23.24174702754317 0 23.24174702754317 -22.909590148834468 0 0 0 0 -72.247116575810651 -1.5718801226284995 0 -1.5718801226284995 -13.742739686060304 0 0 0 0 -53.215492772935249 38.110254453820744 0 38.110254453820744 -34.785277929971926 0 0 0 0 -24.513404833105596 49.106955405124609 0 49.106955405124609 -45.503375192121894 0 0 0 0 -49.018183026513725 31.243955313315382 0 31.243955313315382 -25.171894404335035 0 0 0 0 -53.474136090822867 -21.584714514367079 0 -21.584714514367079 -24.01647075220535 0 0 0 0 -105.52663527962068 57.380736092341976 0 57.380736092341976 -40.352643547799744 0 0 0 0 -2.5099801656597123 2.4756498680146812 0 2.4756498680146812 -4.2408616644573058 0 0 0 0 -204.93009654893831 -32.627176835583668 0 -32.627176835583668 8.163287735224003 0 0 0 0 -183.18010394297744 3.8347140191581275 0 3.8347140191581275 -5.1517955479212105 0 0 0 0 -4.0268525403928059 0.81862782666125611 0 0.81862782666125611 -10.094005172481275 0 0 0 0 -50.396718843039707 -21.192203601814981 0 -21.192203601814981 -44.630410887184553 0 0 0 0 70.324649042540841 -75.953523187494284 0 -75.953523187494284 -77.143043944248348 0 0 0 0 67.517307558435277 3.8967190032090002 0 3.8967190032090002 -49.956916033872403 0 0 0 0 10.756355454675031 22.101693443736167 0 22.101693443736167 62.097031417626567 0 0 0 0 -91.32066550478703 146.67334172089522 0 146.67334172089522 -76.02485207576683 0 0 0 0 -20.785679621512827 -5.1525904103527864 0 -5.1525904103527864 -19.137869820435299 0 0 0 0 1.1711804453589139 -38.862739844233147 0 -38.862739844233147 -40.511746508047509 0 0 0 0 -3.0064730388754839 -2.5565587811230372 0 -2.5565587811230372 -2.281442350244248 0 0 0 0 -20.52644348333888 50.845226950770666 0 50.845226950770666 -35.401308962417716 0 0 0 0 -37.12501872197052 27.958845725478447 0 27.958845725478447 -20.427316513919543 0 0 0 0 -60.536098717162531 60.967077877461634 0 60.967077877461634 -16.192627582817749 0 0 0 0 -41.323235205949459 25.525211908190613 0 25.525211908190613 4.0432808509649476 0 0 0 0 -3.4311310118380334 46.045825199576029 0 46.045825199576029 11.648322245746385 0 0 0 0 -16.237174345882522 13.958922563579108 0 13.958922563579108 -59.3489306381598 0 0 0 0 -35.138220938322775 57.521420993827633 0 57.521420993827633 -44.596335879337857 0 0 0 0 -51.802555806193141 16.137390699291132 0 16.137390699291132 0.67083832871139748 0 0 0 0 -3.7189026335653512 3.7171668549378971 0 3.7171668549378971 0.26706966010580402 0 0 0 0 -23.313055687674847 11.993425458393348 0 11.993425458393348 -5.9285407261656573 0 0 0 0 -11.351075446469622 11.785887021253075 0 11.785887021253075 -11.6033703863759 0 0 0 0 -11.874088536596618 15.137162966282553 0 15.137162966282553 -15.705790247615383 0 0 0 0 -1.7939274889577064 35.803945282375935 0 35.803945282375935 -39.891000801057089 0 0 0 0 -18.357763261735876 13.744234958648423 0 13.744234958648423 -17.672696005603463 0 0 0 0 -14.442817972898503 14.042237123250743 0 14.042237123250743 -16.239861470951737 0 0 0 0 -44.651265684478858 24.437649844123371 0 24.437649844123371 -20.001697804796095 0 0 0 0 -5.3821722580968832 3.2858407478491563 0 3.2858407478491563 -3.7492591171735157 0 0 0 0 -16.369950341143522 30.199055249813227 0 30.199055249813227 -33.275634135404289 0 0 0 0 -35.881040758747986 36.532783505152111 0 36.532783505152111 -30.104432727894164 0 0 0 0 -24.669287145568887 21.278282781836424 0 21.278282781836424 -40.447404738961268 0 0 0 0 -21.340112047774198 10.625993623360472 0 10.625993623360472 5.7578870192941114 0 0 0 0 -33.317148235889363 23.76156407799499 0 23.76156407799499 -21.830555027430819 0 0 0 0 -24.833013868028587 28.493624489623585 0 28.493624489623585 -27.364515439971001 0 0 0 0 -22.178695163437965 31.090117314803138 0 31.090117314803138 -44.570323621704574 0 0 0 0 -23.988506792881481 31.324653495179859 0 31.324653495179859 -39.334698859394848 0 0 0 0 -3.3933855443077539 17.168170462655464 0 17.168170462655464 -29.131080383272575 0 0 0 0 -31.242752749663168 38.968850278394711 0 38.968850278394711 -42.720789868252723 0 0 0 0 -29.404269496596726 33.020164577243577 0 33.020164577243577 -39.225981314948967 0 0 0 0 -19.863745469756239 7.4906965360572109 0 7.4906965360572109 10.478146123402366 0 0 0 0 -38.216629666448625 40.716023016449071 0 40.716023016449071 -41.930784496995329 0 0 0 0 -33.407999381792024 41.087543645709502 0 41.087543645709502 -20.890752114399447 0 0 0 0 -4.8650476169114754 1.4612840465940979 0 1.4612840465940979 -3.8549834162586833 0 0 0 0 -80.686743042909256 69.93964309923831 0 69.93964309923831 -16.785467444295136 0 0 0 0 -64.227306739687265 26.637606058982783 0 26.637606058982783 -4.5010288560704339 0 0 0 0 -65.012795497798834 81.220568662864935 0 81.220568662864935 -90.326293201824228 0 0 0 0 -2.9176795092297709 2.7286509347739134 0 2.7286509347739134 -3.3874765324358194 0 0 0 0 -74.477312570693357 5.2887869276764832 0 5.2887869276764832 -21.707392821853318 0 0 0 0 -120.95280551612905 78.484927997955083 0 78.484927997955083 -55.776368592004019 0 0 0 0 -66.109426999684189 39.060008591952766 0 39.060008591952766 -42.823518996807252 0 0 0 0 -64.546652369035655 93.981204278542464 0 93.981204278542464 -65.665593493178676 0 0 0 0 -67.721090805250014 30.487596584306175 0 30.487596584306175 -30.830422255359736 0 0 0 0 16.080576768278483 1.6909202224881437 0 1.6909202224881437 -18.123331480455516 0 0 0 0 -5.147369656326191 29.095450497656202 0 29.095450497656202 -98.390990312065242 0 0 0 0 -76.908843458708816 42.822496293556469 0 42.822496293556469 -29.877675341901636 0 0 0 0 -77.146336518866974 52.020151798619736 0 52.020151798619736 -42.063388177489401 0 0 0 0 -99.032515803469551 36.598432900147827 0 36.598432900147827 -29.368707455909316 0 0 0 0 -127.77929516329732 28.3703240959087 0 28.3703240959087 -28.086410830569548 0 0 0 0 -27.106790651399763 25.982076540224853 0 25.982076540224853 -43.374381425991032 0 0 0 0 -74.702248986672458 32.634511739119375 0 32.634511739119375 -25.543994358893542 0 0 0 0 -63.540676112033566 48.77232943042236 0 48.77232943042236 -65.282273092054083 0 0 0 0 -62.709744448192623 54.634383279271788 0 54.634383279271788 -37.879399553551821 0 0 0 0 -76.94070152274918 24.887099581398957 0 24.887099581398957 -51.785600534667537 0 0 0 0 -29.911818646879965 56.897283754312866 0 56.897283754312866 -78.797479046268563 0 0 0 0 -96.941238695983884 47.329784476572058 0 47.329784476572058 -12.792823170973861 0 0 0 0 -60.322488521686864 1.686928814600833 0 1.686928814600833 -31.804288537416141 0 0 0 0 10.008519938578106 9.4355147987963228 0 9.4355147987963228 -19.293830397317862 0 0 0 0 -5.7943985431067437 18.576915707302348 0 18.576915707302348 -19.651912464717846 0 0 0 0 -54.815138342443788 37.232081698054571 0 37.232081698054571 0.74773975763673661 0 0 0 0 -56.58329420274822 42.015348050240846 0 42.015348050240846 -12.096638637225169 0 0 0 0 -34.099895430674223 38.16136801803259 0 38.16136801803259 -57.11118595087828 0 0 0 0 -36.276927271146832 31.443965276124313 0 31.443965276124313 -27.765326708460368 0 0 0 0 -50.393829044732087 51.735035533613541 0 51.735035533613541 -49.890253315509653 0 0 0 0 -96.107075744157555 73.328977001467138 0 73.328977001467138 31.873121846598224 0 0 0 0 -60.344552823520189 65.001486725852374 0 65.001486725852374 -43.923599415764102 0 0 0 0 -60.577986823918003 48.687784652316466 0 48.687784652316466 -36.245071901661518 0 0 0 0 -15.611566982829522 12.317547474700239 0 12.317547474700239 -5.0432502773298324 0 0 0 0 -75.081993098363455 -18.452594756711733 0 -18.452594756711733 -87.090915175602277 0 0 0 0 -77.473917107323359 46.633816815004167 0 46.633816815004167 -61.43158723029137 0 0 0 0 -58.267241201872366 70.40468061595584 0 70.40468061595584 -79.089800713793011 0 0 0 0 -61.220887250388159 63.23817005159367 0 63.23817005159367 -46.164921396904901 0 0 0 0 -59.080933300276911 96.154021278254731 0 96.154021278254731 -34.401028437432615 0 0 0 0 -82.264667620763703 71.750833542513192 0 71.750833542513192 -48.621807192262168 0 0 0 0 -97.789567663507114 83.250322387691995 0 83.250322387691995 -6.051523813737731 0 0 0 0 -53.06753154450098 74.979926346921957 0 74.979926346921957 -58.973939329007408 0 0 0 0 -62.720748074216942 48.341439091713532 0 48.341439091713532 -37.389492625520617 0 0 0 0 -63.694470758207899 221.03081609500077 0 221.03081609500077 170.47852300451632 0 0 0 0 -243.46971721324371 56.699326404745079 0 56.699326404745079 158.40529615183141 0 0 0 0 -473.36134306141412 -107.7727506422807 0 -107.7727506422807 -1.2977895897784038 0 0 0 0 -143.33564193258644 29.340786668879446 0 29.340786668879446 -9.3886294544718112 0 0 0 0 -63.525419085444682 49.165077099247711 0 49.165077099247711 -31.657432882809996 0 0 0 0 33.178882056638486 340.36407212890663 0 340.36407212890663 180.69474166607688 0 0 0 0 45.122736004297622 204.8564914530034 0 204.8564914530034 193.22478198494355 0 0 0 0 75.928657014239434 200.2742018814115 0 200.2742018814115 45.232496591590461 0 0 0 0 -216.78709049239842 49.970375707172934 0 49.970375707172934 38.395170497402432 0 0 0 0 -94.904207058127213 274.97886094038404 0 274.97886094038404 167.34428969131841 0 0 0 0 -157.22083509143886 -106.92995521910052 0 -106.92995521910052 -101.76842769500945 0 0 0 0 -161.08094352445096 -112.37996962803481 0 -112.37996962803481 -90.817691850490519 0 0 0 0 -117.93299046931543 -0.79282402912735961 0 -0.79282402912735961 -0.22890708245176938 0 0 0 0 -275.29968230164377 -32.28560760315122 0 -32.28560760315122 66.691762661288521 0 0 0 0 -199.79280694661793 -144.5490699528691 0 -144.5490699528691 -73.110109654207918 0 0 0 0 -154.17857226587421 -229.63574905137193 0 -229.63574905137193 -259.11324594644611 0 0 0 0 -67.983259972039377 -139.95378996888212 0 -139.95378996888212 -174.05546045381925 0 0 0 0 -59.983375744767727 -120.1531027632459 0 -120.1531027632459 -167.87014992031618 0 0 0 0 -59.326001730314601 -82.530446464181296 0 -82.530446464181296 -141.36452955173263 0 0 0 0 -130.93107356502151 -127.19744561781226 0 -127.19744561781226 -101.10889156575922 0 0 0 0 -74.280358313411853 -50.664523397916128 0 -50.664523397916128 -86.503504277254251 0 0 0 0 -78.98820748806429 -90.600326234334716 0 -90.600326234334716 -212.10056956442713 0 0 0 0 -15.023118015640648 83.480323725809285 0 83.480323725809285 35.535676957359101 0 0 0 0 -65.87359993154314 -23.362609337737013 0 -23.362609337737013 -172.52207050661855 0 0 0 0 180.42489701984232 11.799296203133053 0 11.799296203133053 -140.920314418212 0 0 0 0 114.81711883644311 179.45757354578018 0 179.45757354578018 157.92641964557151 0 0 0 0 127.21793864085339 -71.179719892885259 0 -71.179719892885259 -43.849575162945257 0 0 0 0 304.24892227342934 -8.8787069736699777 0 -8.8787069736699777 -230.97768902654934 0 0 0 0 -129.36511043713108 -131.46173420664854 0 -131.46173420664854 49.901414896307642 0 0 0 0 -94.042639721608793 -79.420962361717102 0 -79.420962361717102 -102.72503794527802 0 0 0 0 -292.62532778780587 -219.52770226743996 0 -219.52770226743996 -162.97629103398867 0 0 0 0 -41.950366236811533 -65.279302344502867 0 -65.279302344502867 -477.28606257450883 0 0 0 0 152.11511145801342 -59.391603170299277 0 -59.391603170299277 -470.91523455431161 0 0 0 0 13.471888308591588 55.743963700290806 0 55.743963700290806 -534.26750173559049 0 0 0 0 72.231903136958863 -124.04225650158696 0 -124.04225650158696 -168.13818226533658 0 0 0 0 55.877492455843822 -106.51611697409317 0 -106.51611697409317 -258.3130837559147 0 0 0 0 -2.7050774137686915 2.3530924311262922 0 2.3530924311262922 -0.81225045121324513 0 0 0 0 7.6554133215831826 -249.01298828817016 0 -249.01298828817016 -458.47578115212309 0 0 0 0 -59.923502536566957 -115.17463197129473 0 -115.17463197129473 -7.3909749080557958 0 0 0 0 -26.883873015714926 22.850259762642963 0 22.850259762642963 -22.796833738932037 0 0 0 0 -127.02907820502878 84.257746209395918 0 84.257746209395918 -38.280611876507464 0 0 0 0 -118.55240999722173 97.61458058422204 0 97.61458058422204 -144.11757185239549 0 0 0 0 -198.87592685627169 20.851044170776731 0 20.851044170776731 17.063315942090412 0 0 0 0 -69.424085514823673 16.523436293869963 0 16.523436293869963 -125.02241463971586 0 0 0 0 -116.80468855944855 -5.4735224808173371 0 -5.4735224808173371 -14.380603044519376 0 0 0 0 -74.258643557117466 45.725822448515828 0 45.725822448515828 -46.003127092400064 0 0 0 0 -79.99301671624562 1.6901092256775883 0 1.6901092256775883 -59.197585711823763 0 0 0 0 -37.770119350017922 3.9236804128204312 0 3.9236804128204312 -164.398691370292 0 0 0 0 -54.17405319872887 -4.724449436791474 0 -4.724449436791474 -41.671522598824595 0 0 0 0 -89.479621346148633 -42.398862170079155 0 -42.398862170079155 -51.086244453870677 0 0 0 0 -73.730729318713202 -115.88575441417561 0 -115.88575441417561 -218.59062253153024 0 0 0 0 -36.295157027809182 -17.746421295372784 0 -17.746421295372784 -142.75111363745054 0 0 0 0 10.624196401811389 97.805392333575583 0 97.805392333575583 -127.08362238018526 0 0 0 0 14.552542280444641 -15.150885922979796 0 -15.150885922979796 -14.964066356842523 0 0 0 0 64.500460015763906 -24.269493374769809 0 -24.269493374769809 -183.63414932497835 0 0 0 0 7.5300375712502614 1.5339605694753118 0 1.5339605694753118 -47.881866630953482 0 0 0 0 0.07514534773386565 -0.074344211207069577 0 -0.074344211207069577 -2.6872080095335491 0 0 0 0 0.0026682729684252126 0.18794634104415309 0 0.18794634104415309 -1.391153638047399 0 0 0 0 -3.3116101991150337 7.6208544489782071 0 7.6208544489782071 -21.39787108307064 0 0 0 0 -10.75593081479451 54.660670266690431 0 54.660670266690431 -51.91722100600964 0 0 0 0 -0.32814065278510995 -0.20579611839727363 0 -0.20579611839727363 -1.1131598417821209 0 0 0 0 0.27237811619723912 -0.63684250251026242 0 -0.63684250251026242 -3.8352719867834821 0 0 0 0 -3.1913212876924035 3.6804471876821481 0 3.6804471876821481 -9.8179196436394705 0 0 0 0 0.049489660336040714 0.66193992907231802 0 0.66193992907231802 -1.0599108026079875 0 0 0 0 0.00079737639386452447 0.16336756477923894 0 0.16336756477923894 -2.5533560898620635 0 0 0 0 -0.029548789851455114 -0.49488723685411173 0 -0.49488723685411173 -2.4873566922070296 0 0 0 0 2.8634164124159724 1.0273169852807769 0 1.0273169852807769 -4.5958897490418167 0 0 0 0 3.9084137442073086 0.14638871274291887 0 0.14638871274291887 -7.5115777372266166 0 0 0 0 -19.05001054000445 2.8259059259944479 0 2.8259059259944479 1.58017297344486 0 0 0 0 -2.1534266857892135 -5.787556076553301 0 -5.787556076553301 -6.4527103563086712 0 0 0 0 -29.10256626673447 12.284646451691515 0 12.284646451691515 -3.4971342270437162 0 0 0 0 -8.9494732738563698 4.4802415377635043 0 4.4802415377635043 -13.194233709138643 0 0 0 0 -3.1297852143114824 17.749761028586363 0 17.749761028586363 -16.885833007538167 0 0 0 0 -21.601561366608735 35.398378871454042 0 35.398378871454042 -46.182759354851441 0 0 0 0 -15.888731515011159 17.430941011938557 0 17.430941011938557 -16.702359729941236 0 0 0 0 7.500394892457166 5.1662731811738922 0 5.1662731811738922 -74.652236327703577 0 0 0 0 -15.250725472536971 -16.315499792288392 0 -16.315499792288392 -35.625998765710392 0 0 0 0 -0.38292944026698672 0.010754226581099147 0 0.010754226581099147 0.085000383958188763 0 0 0 0 -76.264679354664452 62.311426083186234 0 62.311426083186234 -129.60967712067941 0 0 0 0 13.646656283741322 -15.7110825535201 0 -15.7110825535201 -147.87072712289228 0 0 0 0 -28.476677155421925 7.1657491204096004 0 7.1657491204096004 6.4947291093849344 0 0 0 0 -22.146108290062728 -39.829357076501765 0 -39.829357076501765 -35.025607410614612 0 0 0 0 9.9147392022945269 -36.264907730586856 0 -36.264907730586856 -31.719210258663225 0 0 0 0 -21.003058303152784 4.7464413304260233 0 4.7464413304260233 -33.027614349834039 0 0 0 0 0.11255647951535241 -11.616719208063273 0 -11.616719208063273 -8.8089804792536768 0 0 0 0 -3.1840834476745385 14.879242838051141 0 14.879242838051141 -48.298308092882507 0 0 0 0 5.3350008569699092 -8.0152829631655891 0 -8.0152829631655891 -10.820798864602239 0 0 0 0 -13.580555106121039 -2.6946612408573856 0 -2.6946612408573856 -21.100634748992888 0 0 0 0 1.5425406239313588 -7.7438375990604982 0 -7.7438375990604982 13.3634209319207 0 0 0 0 0.73519274166218418 -2.1024134664506491 0 -2.1024134664506491 -1.3465875267478395 0 0 0 0 0.21210967339440956 0.15582004797138183 0 0.15582004797138183 -1.1839599022846414 0 0 0 0 96.561033734085996 -41.813071333661355 0 -41.813071333661355 -45.832249418337597 0 0 0 0 11.589551128094797 80.395380956040754 0 80.395380956040754 -72.133055826154305 0 0 0 0 -0.00067804111261807729 0.18150168844294967 0 0.18150168844294967 -1.4022022739518434 0 0 0 0 54.080992823675189 30.993300022164476 0 30.993300022164476 -151.29193923430284 0 0 0 0 -0.025744712308025157 0.3005307489417568 0 0.3005307489417568 -1.0026438614563631 0 0 0 0 -92.885840552803344 106.01794338747732 0 106.01794338747732 -65.083009872905677 0 0 0 0 0.35670508239535542 0.54369668385950831 0 0.54369668385950831 -2.4381599524572835 0 0 0 0 -0.42458035511570441 -105.35086815312388 0 -105.35086815312388 31.21968487623235 0 0 0 0 -0.0030516466918332459 -1.5172659819727414 0 -1.5172659819727414 -14.499379136141215 0 0 0 0 5.7996653895757646 5.1421477553449222 0 5.1421477553449222 -25.11808305872546 0 0 0 0 14.122451555841963 -8.2792371499090223 0 -8.2792371499090223 -32.617224147878005 0 0 0 0 4.4743934986148801 -0.27014248234633698 0 -0.27014248234633698 -17.524824566565826 0 0 0 0 10.417093461544141 12.625261596334894 0 12.625261596334894 -28.22241706836212 0 0 0 0 9.023397799072427 7.6013119986164384 0 7.6013119986164384 -13.806069479309372 0 0 0 0 5.8048097836547186 29.70932431712572 0 29.70932431712572 1.6657144507698831 0 0 0 0 6.9468225812617321 0.39050008703270578 0 0.39050008703270578 -16.866771389410133 0 0 0 0 2.1888363689110473 3.6678162933248046 0 3.6678162933248046 -13.763848499853111 0 0 0 0 1.1231465051642182 0.41193394380823634 0 0.41193394380823634 -4.2473705578207159 0 0 0 0 -0.0027456800311005183 3.162364864248957 0 3.162364864248957 -8.3132286031031981 0 0 0 0 -2.5913191586947399 2.8441009250600473 0 2.8441009250600473 -4.4076775094144978 0 0 0 0 -1.6368026679108008 1.0001762077336309 0 1.0001762077336309 -3.527284467034292 0 0 0 0 -14.689630595228977 39.365471925828388 0 39.365471925828388 -172.62217211954703 0 0 0 0 0.04465511926341037 74.827502924417786 0 74.827502924417786 -158.1422538871775 0 0 0 0 -7.4974410603546975 4.0119842336429201 0 4.0119842336429201 -3.0662927167802252 0 0 0 0 12.152552810931525 63.994445716456539 0 63.994445716456539 -247.98193015391007 0 0 0 0 -114.71035649486055 242.04766024322453 0 242.04766024322453 -353.70002886213479 0 0 0 0 -0.0017067683096151586 0.85390277033729944 0 0.85390277033729944 -3.1797757431486389 0 0 0 0 91.67869067966717 2.7984949468518607 0 2.7984949468518607 -385.39632852417708 0 0 0 0 -0.12126502844957447 0.17559644039740618 0 0.17559644039740618 -1.2898541774968066 0 0 0 0 68.118721562753763 -108.80664762206652 0 -108.80664762206652 -223.05370799983211 0 0 0 0 -200.28184792281752 108.98051387294981 0 108.98051387294981 -63.35043023457547 0 0 0 0 54.024907098081002 42.95054543837432 0 42.95054543837432 -554.05235240998445 0 0 0 0 -3.2927735487492105 0.80782325836105429 0 0.80782325836105429 -0.31642852498501384 0 0 0 0 -94.37801271335411 21.769817408763629 0 21.769817408763629 41.262476527037506 0 0 0 0 -163.48926543473135 166.78738421156413 0 166.78738421156413 -110.12036864778929 0 0 0 0 -66.718416648935374 47.044223955723282 0 47.044223955723282 -46.057932759576943 0 0 0 0 -31.229207369110327 50.354118380964792 0 50.354118380964792 -67.649701620393898 0 0 0 0 -22.939306526710538 -5.6157851729367394 0 -5.6157851729367394 -26.723817408672403 0 0 0 0 23.118637502922766 13.887656861825235 0 13.887656861825235 -33.340855708098388 0 0 0 0 -30.02694691631541 18.166171412609401 0 18.166171412609401 -35.783998962513579 0 0 0 0 -22.983644730615197 39.287608778395224 0 39.287608778395224 -80.390970141015714 0 0 0 0 -50.285963089695997 42.086552218224824 0 42.086552218224824 -72.306791080365656 0 0 0 0 -30.031897680468205 59.564314165723772 0 59.564314165723772 -115.10668786606402 0 0 0 0 -26.857256177452655 54.656352001460618 0 54.656352001460618 -123.51625305018024 0 0 0 0 -34.813684423727864 52.77344750269549 0 52.77344750269549 -67.243977778434783 0 0 0 0 64.14508286422074 67.509332756737422 0 67.509332756737422 -336.59801478023292 0 0 0 0 46.472461125545578 10.207610459252464 0 10.207610459252464 -109.15924890576571 0 0 0 0 34.432392255419245 21.115588774508069 0 21.115588774508069 -113.45655587129295 0 0 0 0 27.183180497131616 -145.93449149668595 0 -145.93449149668595 -14.56381866549782 0 0 0 0 -433.53573271063976 611.37754157843165 0 611.37754157843165 -779.48767279175809 0 0 0 0 -0.52503799842370336 -7.5314015351359931 0 -7.5314015351359931 -2.4247718672519909 0 0 0 0 -13.059592997149593 -98.462862958760525 0 -98.462862958760525 -602.36987537072127 0 0 0 0 16.021926083818471 -25.998712156266265 0 -25.998712156266265 -74.684366709676397 0 0 0 0 5.3962164658775791 -28.153524835445864 0 -28.153524835445864 -33.953191435405273 0 0 0 0 20.481607593522313 -17.202119120993302 0 -17.202119120993302 -85.02747092815116 0 0 0 0 1.9503370675008052 -3.5117151690626018 0 -3.5117151690626018 -57.933759837872856 0 0 0 0 12.952177232121358 22.453372091484198 0 22.453372091484198 -86.77152366946757 0 0 0 0 -0.90760489121521459 -8.7025084684501053 0 -8.7025084684501053 -67.319912336773996 0 0 0 0 0.93186139847373894 1.0208018456449395 0 1.0208018456449395 -8.4366174165775476 0 0 0 0 -47.173108241559021 50.524301948440552 0 50.524301948440552 -70.001981583292945 0 0 0 0 0.86529845311573228 0.056433732714768592 0 0.056433732714768592 -52.912299896757929 0 0 0 0 -74.381637213237809 45.406065447234141 0 45.406065447234141 -51.319650671750423 0 0 0 0 -0.50133754104401196 -2.2457696502383664 0 -2.2457696502383664 -14.645464687972947 0 0 0 0 -73.810985575397808 48.300524873098766 0 48.300524873098766 -61.893865389225539 0 0 0 0 -83.066453159527555 54.713978310552193 0 54.713978310552193 -33.363020921227871 0 0 0 0 -0.11947796069689809 0.89633857918970783 0 0.89633857918970783 -5.233712349992345 0 0 0 0 -365.31545841085972 213.75195038908714 0 213.75195038908714 -115.60882758420485 0 0 0 0 -211.23950481055726 86.481724226861843 0 86.481724226861843 -40.933202380518196 0 0 0 0 21.525061930145966 92.478391245167586 0 92.478391245167586 -68.925595899636392 0 0 0 0 47.334397090667153 82.945281371634337 0 82.945281371634337 -92.204248563881265 0 0 0 0 -12.074568254392943 71.991607775227749 0 71.991607775227749 -75.151756040402688 0 0 0 0 -45.038942637071159 151.73550692611025 0 151.73550692611025 -174.80090430405471 0 0 0 0 34.946628586863881 0.091141314158448949 0 0.091141314158448949 -148.01921915393541 0 0 0 0 21.895613739405235 68.024147395975888 0 68.024147395975888 -93.677661972935311 0 0 0 0 -37.18404432447187 93.387801693177607 0 93.387801693177607 -92.149033769228936 0 0 0 0 -11.610350821672682 43.503302369445009 0 43.503302369445009 -78.594139053340768 0 0 0 0 -84.449978688754982 61.609053074087569 0 61.609053074087569 -54.128485869034193 0 0 0 0 -18.025350413675824 46.389458691737673 0 46.389458691737673 -79.214388386222709 0 0 0 0 -29.950153359864544 24.358190071725403 0 24.358190071725403 -54.556467625850928 0 0 0 0 -13.286588889537029 20.732645518619393 0 20.732645518619393 -62.991829350110493 0 0 0 0 -3.5551466570655066 8.7592413357269834 0 8.7592413357269834 -53.595590144337621 0 0 0 0 -11.980958613949042 -6.0665225424454547 0 -6.0665225424454547 -68.966539087239653 0 0 0 0 -5.5814925380162865 -12.787655549664407 0 -12.787655549664407 -12.301024800796029 0 0 0 0 46.945840751472758 24.514218676606561 0 24.514218676606561 -86.328885749244364 0 0 0 0 -3.2074518263219369 9.6603131523514065 0 9.6603131523514065 -20.356166953494494 0 0 0 0 7.498384596861797 -3.4194461015431443 0 -3.4194461015431443 -40.404942691788165 0 0 0 0 8.3352325073704492 -1.3237063702690648 0 -1.3237063702690648 -49.713155936158728 0 0 0 0 -14.02660723948209 25.209301773531479 0 25.209301773531479 2.2577046272781445 0 0 0 0 -30.179314292864717 3.8932702469101059 0 3.8932702469101059 -1.4330527427846391 0 0 0 0 -30.377556406585086 8.6723875532479724 0 8.6723875532479724 -7.7277373336510209 0 0 0 0 254.62402136132914 -282.01676940385005 0 -282.01676940385005 -447.27252421912272 0 0 0 0 -82.427631156630014 182.14877022204018 0 182.14877022204018 -408.40986512022209 0 0 0 0 -18.993041395448017 -196.91163748502731 0 -196.91163748502731 34.435341294636601 0 0 0 0 -17.62804240793885 1.2406567067791912 0 1.2406567067791912 -3.8277118090118165 0 0 0 0 107.74011490894554 83.170035490773444 0 83.170035490773444 48.199130462351604 0 0 0 0 -16.104821384324111 -2.8322587483141319 0 -2.8322587483141319 -3.2080344810673296 0 0 0 0 -7.914089417346986 -4.181478239945136 0 -4.181478239945136 -2.5984976166873821 0 0 0 0 -2.5030613035452998 -2.7535948243416044 0 -2.7535948243416044 -2.7584857121418906 0 0 0 0 -31.04636656578748 -7.2319031023689604 0 -7.2319031023689604 -1.7459145529355737 0 0 0 0 52.195262411733893 23.920443680341123 0 23.920443680341123 -186.71308167500683 0 0 0 0 30.493292087200416 -8.7251821949921577 0 -8.7251821949921577 -157.53264061038499 0 0 0 0 -5.012291920097935 0.52694062008635001 0 0.52694062008635001 -3.283822305470153 0 0 0 0 -346.41452925580597 365.20506076943639 0 365.20506076943639 -7.0851234027650207 0 0 0 0 64.821605881512369 -15.840320969829918 0 -15.840320969829918 -388.8826710614594 0 0 0 0 59.242780772387505 12.540678334135009 0 12.540678334135009 -170.30775318246742 0 0 0 0 -108.91783980990385 -27.670855092030251 0 -27.670855092030251 168.25737474890775 0 0 0 0 -20.503375973323699 -3.1159525110354593 0 -3.1159525110354593 0.14136935913421667 0 0 0 0 -21.22550282776783 -6.4132935606657213 0 -6.4132935606657213 -3.0097741791031751 0 0 0 0 -46.274254197584924 13.319141883846896 0 13.319141883846896 -18.279788250518322 0 0 0 0 -54.102965671278071 51.226815055480984 0 51.226815055480984 -72.091341295723396 0 0 0 0 3.8541450817210716 35.653671911721176 0 35.653671911721176 -111.01528897882235 0 0 0 0 42.658521773211191 -62.069622466884539 0 -62.069622466884539 -29.063323377049528 0 0 0 0 101.07586725372084 41.418739354041463 0 41.418739354041463 -486.61171638435917 0 0 0 0 -159.5640647901314 51.801615502277855 0 51.801615502277855 -30.436032884696033 0 0 0 0 -245.55752971413199 24.214179067763325 0 24.214179067763325 244.13435488621326 0 0 0 0 -4.7046256471605812 -16.838213525605454 0 -16.838213525605454 -16.543242114117618 0 0 0 0 -51.265522164668255 -32.296930928767324 0 -32.296930928767324 66.277512421285792 0 0 0 0 -5.2800304310701325 -17.288587465489144 0 -17.288587465489144 -17.2757289916687 0 0 0 0 -55.02182653591899 -98.733562169087236 0 -98.733562169087236 -123.68050988612958 0 0 0 0 -122.9503818505741 -6.7369352566020098 0 -6.7369352566020098 -3.7606369373243069 0 0 0 0 5.7624814020473423 -74.156036170476 0 -74.156036170476 -3.0708565979148261 0 0 0 0 24.867670556509438 -32.329793855060416 0 -32.329793855060416 -69.172931516179233 0 0 0 0 39.34239238425198 40.873577407670382 0 40.873577407670382 -178.91621554452286 0 0 0 0 -36.349781832861481 6.397609071493207 0 6.397609071493207 21.819675548409577 0 0 0 0 40.426398286271137 32.612132168520475 0 32.612132168520475 -163.29555356950732 0 0 0 0 -15.63167433103024 -65.510697777424866 0 -65.510697777424866 -149.69951268547447 0 0 0 0 -1.224472822271224 -12.150939212451334 0 -12.150939212451334 -22.015893056248615 0 0 0 0 -3.5521993465279706 1.2516195784412503 0 1.2516195784412503 22.052947250922443 0 0 0 0 9.7214330481332354 -6.5190965739161584 0 -6.5190965739161584 -63.616604718947201 0 0 0 0 19.802915142587153 -16.157189071534958 0 -16.157189071534958 -57.181772488365823 0 0 0 0 22.661359678132555 9.2902046623935348 0 9.2902046623935348 -93.121486506322981 0 0 0 0 -13.145330557427947 -15.417388433212722 0 -15.417388433212722 -10.852651529048302 0 0 0 0 -8.6400360869100119 27.692596916132203 0 27.692596916132203 -69.369829855022545 0 0 0 0 -8.9333918939473733 -4.2977714995322458 0 -4.2977714995322458 -56.378630389670434 0 0 0 0 -2.015677808578733 -8.0267146395849238 0 -8.0267146395849238 -16.487709415059513 0 0 0 0 9.5023651173245298 5.3857546551507767 0 5.3857546551507767 -68.811645900364965 0 0 0 0 -14.867468787019789 265.43284264445901 0 265.43284264445901 -665.96937092872395 0 0 0 0 -14.368548930645829 305.75493078127329 0 305.75493078127329 -858.28899303919752 0 0 0 0 -118.88162964293497 241.75326948618749 0 241.75326948618749 -471.507297187738 0 0 0 0 -77.926801819150569 641.90609700849745 0 641.90609700849745 -837.11353618867361 0 0 0 0 64.475531840093936 594.82298976548191 0 594.82298976548191 -1207.9538579478976 0 0 0 0 -72.617971606414358 137.80980592258129 0 137.80980592258129 -934.96877753839362 0 0 0 0 -315.87825383529707 347.43302634563952 0 347.43302634563952 -760.43896660015162 0 0 0 0 87.321583761322472 196.60293654806446 0 196.60293654806446 -763.3417790760833 0 0 0 0 -55.680814525949245 54.410781379585387 0 54.410781379585387 -476.6060052281864 0 0 0 0 -69.754172047320026 276.6018879922467 0 276.6018879922467 -575.96426862098451 0 0 0 0 -21.236369045279993 -19.842692902542652 0 -19.842692902542652 -13.918654504418257 0 0 0 0 13.088907409723106 -238.89425697261322 0 -238.89425697261322 -359.09377932282223 0 0 0 0 14.968251698641325 23.682199739349016 0 23.682199739349016 -70.767124369791418 0 0 0 0 9.0346749473187629 52.575602170887578 0 52.575602170887578 -204.84618287165358 0 0 0 0 -273.25839121205536 -30.32395366162018 0 -30.32395366162018 92.193440253351582 0 0 0 0 153.39908055916385 25.157788410644571 0 25.157788410644571 -342.92494296622317 0 0 0 0 -23.019317462477225 -20.281163704792846 0 -20.281163704792846 -13.665949205522068 0 0 0 0 -151.02735148858301 -268.19372601225768 0 -268.19372601225768 1.0518809904242516 0 0 0 0 -4.5044042304780305 -64.210715221597638 0 -64.210715221597638 -52.441536300226289 0 0 0 0 61.212268491783107 -163.00009922983008 0 -163.00009922983008 -985.67755742608279 0 0 0 0 -86.162662734694095 382.84011800776352 0 382.84011800776352 -418.7452843234023 0 0 0 0 8.258613403650088 2.577731417150062 0 2.577731417150062 -1113.918635242313 0 0 0 0 -167.49535364029794 676.33383746234767 0 676.33383746234767 -1490.3232902071322 0 0 0 0 62.971707930099001 -365.08954271298717 0 -365.08954271298717 -2310.799236420582 0 0 0 0 131.9329791588134 691.41520686123113 0 691.41520686123113 622.2492529273004 0 0 0 0 -2.5356516472280433 4.386418165839018 0 4.386418165839018 -4.6083759669991906 0 0 0 0 216.91408274994865 -14.148775467321684 0 -14.148775467321684 183.81003517124918 0 0 0 0 222.58172410742191 926.55631372856806 0 926.55631372856806 -592.12022990899277 0 0 0 0 2.1471277734635805 -210.29504008190634 0 -210.29504008190634 -990.59186362859327 0 0 0 0 -5.3470219141828892 11.730103616480392 0 11.730103616480392 -10.770941232664754 0 0 0 0 -144.69850561112253 -13.340009882042068 0 -13.340009882042068 -917.18262239676551 0 0 0 0 -18.796192122511002 -169.20930654248878 0 -169.20930654248878 -1038.3878017124516 0 0 0 0 -191.63138474996413 97.19411590584059 0 97.19411590584059 -1314.8599839004382 0 0 0 0 61.038847570405778 -33.379630794534023 0 -33.379630794534023 -1495.9071993339385 0 0 0 0 -226.66966337891608 -203.88463987899013 0 -203.88463987899013 -979.52076607114032 0 0 0 0 -284.88526438305325 654.78051588888229 0 654.78051588888229 -1411.8334544300524 0 0 0 0 -111.98391443171568 -78.590518550969136 0 -78.590518550969136 -3.0744227895484073 0 0 0 0 -1.6955900274476932 -2.492243693192961 0 -2.492243693192961 -4.600064280401341 0 0 0 0 -64.948832299602145 -278.79349167267355 0 -278.79349167267355 -603.85576971408591 0 0 0 0 -25.701611002908521 292.02679720271772 0 292.02679720271772 -1231.3111315418064 0 0 0 0 -116.6456172076978 -47.936635657846637 0 -47.936635657846637 120.8647140714238 0 0 0 0 7.6644526864643012 208.41884967815804 0 208.41884967815804 -216.37635604132083 0 0 0 0 27.808250887366171 18.038028410885772 0 18.038028410885772 -104.15491979311628 0 0 0 0 -16.257447361611412 62.959656086735777 0 62.959656086735777 -58.385724167044827 0 0 0 0 -28.786176878491915 12.45879080117993 0 12.45879080117993 -57.606425102741923 0 0 0 0 -34.922755955616594 23.909604673521244 0 23.909604673521244 -59.84849516297254 0 0 0 0 -26.405920207311283 14.385732406066381 0 14.385732406066381 -73.44737503293436 0 0 0 0 -16.495175286107951 18.529604595889396 0 18.529604595889396 -76.547590148638847 0 0 0 0 -17.343283465023113 -17.30754775973007 0 -17.30754775973007 -11.068858183040149 0 0 0 0 -19.5457522225297 31.593337278944091 0 31.593337278944091 -98.931801581336913 0 0 0 0 -147.16621658154054 175.72480529806489 0 175.72480529806489 -184.12467711867066 0 0 0 0 -0.48505067558856396 -0.98555425003819153 0 -0.98555425003819153 -2.8774787524133956 0 0 0 0 -29.455939090745687 38.885555176668277 0 38.885555176668277 -74.223940979216422 0 0 0 0 -1.0008093323183171 -3.1477606223529833 0 -3.1477606223529833 -8.5902230784208768 0 0 0 0 -10.140530188723005 11.46752483569071 0 11.46752483569071 -6.4036191256745951 0 0 0 0 -6.9162001856411734 -11.09391236895317 0 -11.09391236895317 -9.9511712404510035 0 0 0 0 -47.525918737799657 45.144798141533101 0 45.144798141533101 -72.143403668558676 0 0 0 0 -36.26776769013486 24.960197855354636 0 24.960197855354636 -36.637280708062463 0 0 0 0 -35.766294279743306 10.193689902484039 0 10.193689902484039 -42.071483096049633 0 0 0 0 -2.7689404680725183 -14.850382758430513 0 -14.850382758430513 -22.113030816915796 0 0 0 0 -5.1932662900909126 -8.4679736912247989 0 -8.4679736912247989 -9.283697416159697 0 0 0 0 -11.380792814546112 -21.218374402582413 0 -21.218374402582413 18.895974663799279 0 0 0 0 0.53750876326232344 -9.7377191850130203 0 -9.7377191850130203 -55.78219177282881 0 0 0 0 -24.786485523439296 14.709633818027214 0 14.709633818027214 -68.687305822706548 0 0 0 0 -8.6928065169143203 -8.3025445292046385 0 -8.3025445292046385 -14.065293054779715 0 0 0 0 -1.2458742685739708 -5.3539234428826603 0 -5.3539234428826603 -42.195636102609569 0 0 0 0 -0.7613334444583284 -11.85694754173327 0 -11.85694754173327 -29.845360992502151 0 0 0 0 -25.673761053634735 13.339970348424686 0 13.339970348424686 -49.809406859254523 0 0 0 0 -25.569542012513011 19.241757678108115 0 19.241757678108115 -46.605646326637611 0 0 0 0 -27.762479577091199 16.03826547587596 0 16.03826547587596 -49.523279903100047 0 0 0 0 -25.179883811755644 11.446146978261822 0 11.446146978261822 -46.742339797667228 0 0 0 0 -28.469765599489619 17.291910196639947 0 17.291910196639947 -57.12105107835032 0 0 0 0 -31.842132120280894 13.096841459610005 0 13.096841459610005 -46.948128310672473 0 0 0 0 -35.860755308760417 11.165571861631179 0 11.165571861631179 -47.861645871755172 0 0 0 0 -39.173042600737972 42.55510978482198 0 42.55510978482198 -79.517602548497962 0 0 0 0 -24.547101709724096 -8.8885484763343072 0 -8.8885484763343072 -10.931093925039022 0 0 0 0 -0.67405946013612272 -6.4562502282427658 0 -6.4562502282427658 -37.642138814803701 0 0 0 0 -18.123926764193129 12.150590813798772 0 12.150590813798772 -91.723242443078561 0 0 0 0 -32.633081300009508 20.308326182363089 0 20.308326182363089 -95.217261973011773 0 0 0 0 -6.8533183003374365 4.9241685562916473 0 4.9241685562916473 -34.575023136431497 0 0 0 0 -25.293183519469721 -5.9708585772496008 0 -5.9708585772496008 -67.635923365556664 0 0 0 0 -12.719237886323754 6.1981316256642458 0 6.1981316256642458 -125.05796466261381 0 0 0 0 7.8029635363730856 -11.984068715176079 0 -11.984068715176079 -10.119753581846169 0 0 0 0 -4.5473335426087029 -21.327686382220826 0 -21.327686382220826 -47.901311938945753 0 0 0 0 -51.403687299018202 -11.345879567103111 0 -11.345879567103111 -63.485986774991034 0 0 0 0 -7.3937439462654311 -13.429599436783974 0 -13.429599436783974 -41.497402105786023 0 0 0 0 -13.913760717749028 12.195942867678241 0 12.195942867678241 -45.711590644081298 0 0 0 0 -13.763927125062697 -4.6346319605647182 0 -4.6346319605647182 -19.894760689826086 0 0 0 0 -45.763633930664128 25.729108719471697 0 25.729108719471697 -45.319917608008836 0 0 0 0 -29.313518470434701 33.961529117099417 0 33.961529117099417 -92.69538857457519 0 0 0 0 -12.636881629806339 -10.682210830967961 0 -10.682210830967961 -54.74539704550989 0 0 0 0 -39.316456036863201 11.820122789882589 0 11.820122789882589 -66.929921696559177 0 0 0 0 -15.508753179009716 15.519304745330373 0 15.519304745330373 -75.22303425334394 0 0 0 0 -37.920384178499262 -50.609515390155138 0 -50.609515390155138 32.420693562857196 0 0 0 0 -24.266497725466976 -9.427648216235724 0 -9.427648216235724 -2.824312699015195 0 0 0 0 -26.135997310596395 32.236223747771874 0 32.236223747771874 -119.64610019745305 0 0 0 0 0.87950597774795369 12.526867361613768 0 12.526867361613768 -235.35443086766463 0 0 0 0 11.489239053938263 -5.831527718286452 0 -5.831527718286452 -299.16801313142059 0 0 0 0 -55.46156785983203 -35.557364214793779 0 -35.557364214793779 -172.74551997351955 0 0 0 0 -60.61783045416405 36.222674934841052 0 36.222674934841052 -335.07208193530096 0 0 0 0 -31.795814570341918 -62.758603857713751 0 -62.758603857713751 -299.11732362268958 0 0 0 0 -127.54675142182896 -43.881005081166222 0 -43.881005081166222 -217.65787373729108 0 0 0 0 -22.407980633983698 -31.296958847262431 0 -31.296958847262431 -254.12945646022854 0 0 0 0 -42.064427519962152 -68.090823152379016 0 -68.090823152379016 -222.74833000285435 0 0 0 0 -46.709202886852836 -0.50395847573236097 0 -0.50395847573236097 -194.39941260893829 0 0 0 0 -25.564807876586428 -88.951468623425171 0 -88.951468623425171 -110.11442813518806 0 0 0 0 -41.022387707124835 -40.33970567479264 0 -40.33970567479264 -1.9158169134752825 0 0 0 0 11.444820743382706 -52.544250262897549 0 -52.544250262897549 -170.03618346016447 0 0 0 0 -8.0309634630448272 5.9147962897113757 0 5.9147962897113757 -144.42330921917164 0 0 0 0 40.697583370683333 -64.265580724488245 0 -64.265580724488245 -145.20966528457939 0 0 0 0 -13.670033606474769 -7.2599202086273067 0 -7.2599202086273067 13.664029022099555 0 0 0 0 14.233310216413884 -58.579165704388288 0 -58.579165704388288 -231.07279678640771 0 0 0 0 23.418307578385793 -10.814350875414675 0 -10.814350875414675 -191.15446222435276 0 0 0 0 20.428826225758712 -61.954570123081794 0 -61.954570123081794 -162.05789721777546 0 0 0 0 39.93152532821307 -25.253490051711196 0 -25.253490051711196 -268.30123737207032 0 0 0 0 31.282444810572088 -62.360100562509615 0 -62.360100562509615 -342.79493755669682 0 0 0 0 15.882407303291075 -76.133149696339387 0 -76.133149696339387 -347.68042248850907 0 0 0 0 -9.0228936287417127 -97.736075784705463 0 -97.736075784705463 -298.78122295638968 0 0 0 0 23.006691062561003 53.155469349083432 0 53.155469349083432 41.859514794159622 0 0 0 0 -9.6028800516796622 42.093675935248115 0 42.093675935248115 -30.171635982007729 0 0 0 0 -40.333700260310252 37.660045507996983 0 37.660045507996983 147.48487630378077 0 0 0 0 -41.991789619994961 77.800599586742464 0 77.800599586742464 -317.06308798692407 0 0 0 0 14.834930627937865 -63.73396006506664 0 -63.73396006506664 -174.10656865951023 0 0 0 0 12.195729481692752 114.4071836904136 0 114.4071836904136 -65.485824562616472 0 0 0 0 -50.347052679983506 153.83783538255693 0 153.83783538255693 -64.457197511575941 0 0 0 0 206.29167489621886 338.72881394027354 0 338.72881394027354 5.8879579110471241 0 0 0 0 -166.68818476774777 69.123671409062808 0 69.123671409062808 60.605614891126606 0 0 0 0 -240.42021085545957 309.09887977918788 0 309.09887977918788 250.25102322934254 0 0 0 0 2.2769744171619202 -0.34448760965389624 0 -0.34448760965389624 0.25586151393495982 0 0 0 0 47.665085505814204 511.38497341488255 0 511.38497341488255 848.23959519445634 0 0 0 0 119.68543341010854 94.913072587181887 0 94.913072587181887 -603.92292306794116 0 0 0 0 32.336952095391098 88.357181886680337 0 88.357181886680337 -292.72493227873929 0 0 0 0 233.49615726239244 276.78869120989111 0 276.78869120989111 -21.194502334699791 0 0 0 0 144.75417178413136 278.91247074607963 0 278.91247074607963 -15.740490874915849 0 0 0 0 -197.0954808712977 83.310543123079697 0 83.310543123079697 -176.58290815152577 0 0 0 0 236.78728094682356 467.8968612628214 0 467.8968612628214 -100.8685292917944 0 0 0 0 -96.169662743690878 4.8436525021679699 0 4.8436525021679699 -725.64499097863154 0 0 0 0 21.419657062114766 3.9441531848460727 0 3.9441531848460727 -15.569857218390098 0 0 0 0 11.571323191118031 8.4484844266822776 0 8.4484844266822776 -29.522860237526032 0 0 0 0 31.110867121883757 -2.04857252399961 0 -2.04857252399961 -54.600640591466799 0 0 0 0 270.49415678739069 174.37435409227328 0 174.37435409227328 -18.796297314496769 0 0 0 0 213.08954141416802 268.96791822868545 0 268.96791822868545 253.50704915491224 0 0 0 0 7.4799620418128052 1.6085859863682153 0 1.6085859863682153 -16.094414264803362 0 0 0 0 14.150598248609661 -5.891555041902393 0 -5.891555041902393 -14.808747489927157 0 0 0 0 8.0760133320551759 -0.82103243017789396 0 -0.82103243017789396 -2.8947286622774371 0 0 0 0 2.0543848944927907 1.0298210971497035 0 1.0298210971497035 -0.83545020812326243 0 0 0 0 -72.409319774234973 124.8756532157422 0 124.8756532157422 -187.969518668604 0 0 0 0 56.203067748550893 -10.106267552986537 0 -10.106267552986537 -313.61629225871002 0 0 0 0 -82.069650018425818 -27.541078006666794 0 -27.541078006666794 125.4019567117939 0 0 0 0 97.682376940141694 80.820403145000455 0 80.820403145000455 -435.76699691284739 0 0 0 0 96.115809203343815 93.383266170792922 0 93.383266170792922 -342.50392388181353 0 0 0 0 -39.768936945043151 -48.601400403056687 0 -48.601400403056687 -35.972781597782159 0 0 0 0 5.4159554777649239 -6.7235691218944709 0 -6.7235691218944709 -13.417407017567967 0 0 0 0 -147.02820512529661 206.68292100237477 0 206.68292100237477 -280.05425187306537 0 0 0 0 -135.07329200452295 107.91952710420446 0 107.91952710420446 -162.18520490155788 0 0 0 0 -164.03089340188671 249.56140245148708 0 249.56140245148708 667.90264188983383 0 0 0 0 664.51737985219461 489.98068482532472 0 489.98068482532472 -1704.3707688307913 0 0 0 0 124.78895889645901 141.3922788772943 0 141.3922788772943 -624.85824102073093 0 0 0 0 14.043835771968247 152.32773109775417 0 152.32773109775417 -384.18014562394819 0 0 0 0 20.587470804320787 231.62590605806417 0 231.62590605806417 -528.9015714104753 0 0 0 0 184.89291918210165 47.464136241429514 0 47.464136241429514 -506.3518634425709 0 0 0 0 -327.17870095601393 -1398.8932500917726 0 -1398.8932500917726 157.01619263674365 0 0 0 0 -59.114556635554436 138.62900733017887 0 138.62900733017887 -278.17299798898603 0 0 0 0 26.462190995378023 -27.626165282475995 0 -27.626165282475995 -58.531910864941892 0 0 0 0 123.98836979682346 106.18231634700351 0 106.18231634700351 -51.595340578236573 0 0 0 0 -43.654432271042424 -105.14109449437819 0 -105.14109449437819 -491.88281501501478 0 0 0 0 -6.5248137644698918 1.1509115445616658 0 1.1509115445616658 18.239861096683001 0 0 0 0 -14.054788731488241 13.52884610649528 0 13.52884610649528 -15.755008889537081 0 0 0 0 -2.7026496323746585 32.560052225762604 0 32.560052225762604 -25.351244042756036 0 0 0 0 -43.226270657183704 -3.367684459881275 0 -3.367684459881275 -42.531404472567374 0 0 0 0 6.2404395148589629 -37.664034919231199 0 -37.664034919231199 -311.95472530161351 0 0 0 0 -40.962043800083848 -40.584576406807173 0 -40.584576406807173 -278.19768137608116 0 0 0 0 21.403814185538067 -18.868083284709428 0 -18.868083284709428 -290.38735045362409 0 0 0 0 8.7826301156255795 -52.8772786563095 0 -52.8772786563095 -271.39359679026529 0 0 0 0 43.497436597592696 31.948406962801528 0 31.948406962801528 -233.12068141138661 0 0 0 0 -8.8174232087303608 -17.05451696630189 0 -17.05451696630189 -71.483242985607831 0 0 0 0 -6.3938236923445881 13.072620474882086 0 13.072620474882086 -5.9275809356109619 0 0 0 0 -0.75291682357061518 13.443385263672454 0 13.443385263672454 -17.848315228419494 0 0 0 0 -6.9901879243006988 12.194273071057978 0 12.194273071057978 -70.315028576005716 0 0 0 0 214.64478150023069 322.65768825417035 0 322.65768825417035 -154.94778367730032 0 0 0 0 -16.946457279387687 -12.38777994827251 0 -12.38777994827251 -51.310238764097448 0 0 0 0 8.7376356679275595 18.573723324796703 0 18.573723324796703 -28.059979195594167 0 0 0 0 -0.96655365296461326 12.499124121792974 0 12.499124121792974 -41.865278682557971 0 0 0 0 -12.400025730534253 -62.535135380487191 0 -62.535135380487191 -112.21155064001505 0 0 0 0 10.755751606999183 -67.652906504954444 0 -67.652906504954444 -215.04299808527867 0 0 0 0 -3.8825621041250997 -66.339892896801757 0 -66.339892896801757 31.128028030972928 0 0 0 0 52.696347322768816 41.806523405655753 0 41.806523405655753 47.361033067281824 0 0 0 0 -6.1093601048455639 -55.272676381566271 0 -55.272676381566271 162.65695398702519 0 0 0 0 37.53765724918776 -39.672443650866626 0 -39.672443650866626 7.8656088440329768 0 0 0 0 1.1695147457012354 32.407516236940864 0 32.407516236940864 149.51526172552258 0 0 0 0 -22.179986527309666 -3.6922656980459578 0 -3.6922656980459578 -62.817339469649596 0 0 0 0 -5.7718643324610639 -21.79696793200128 0 -21.79696793200128 -64.993671429465394 0 0 0 0 63.520394792038587 -48.249095220118761 0 -48.249095220118761 -54.891024606098654 0 0 0 0 45.58853793113758 -98.13499646645505 0 -98.13499646645505 77.047356243507238 0 0 0 0 60.117374546837709 8.5394800152425887 0 8.5394800152425887 -121.48092861678015 0 0 0 0 54.029379063987335 -21.971285679152061 0 -21.971285679152061 -136.53167883908463 0 0 0 0 -0.54012759771194396 -5.2458681322459597 0 -5.2458681322459597 -34.499530854824116 0 0 0 0 -8.7563277563889415 -12.716377202603326 0 -12.716377202603326 -73.25361621326374 0 0 0 0 36.089122307393836 -12.706517012393306 0 -12.706517012393306 -87.442544984078268 0 0 0 0 8.2898200048267334 -1.2119909668195277 0 -1.2119909668195277 -9.9276447680108788 0 0 0 0 0.41346741280449351 -43.561033474717988 0 -43.561033474717988 -49.073036937094002 0 0 0 0 31.327043560123379 -6.175515740410745 0 -6.175515740410745 -4.5506519222266775 0 0 0 0 68.821554511400223 -20.033635831725405 0 -20.033635831725405 -82.118435552074516 0 0 0 0 28.185264065285537 -7.314651372435037 0 -7.314651372435037 -63.332864235868328 0 0 0 0 3.0965456150506725 -45.13673361952533 0 -45.13673361952533 -68.079510380834108 0 0 0 0 17.927885033531197 -4.2806194649165263 0 -4.2806194649165263 -40.711221087272861 0 0 0 0 -8.3452190343558641 -8.7505197556001804 0 -8.7505197556001804 -45.36807767348364 0 0 0 0 6.8590172362370723 -3.4522505173255524 0 -3.4522505173255524 -33.833080415626 0 0 0 0 1.9932191889696411 -0.24596600810640723 0 -0.24596600810640723 -42.557032864602832 0 0 0 0 4.1520924186369319 -9.1428037198942889 0 -9.1428037198942889 -35.530386059440872 0 0 0 0 -38.548673751733986 -17.326048281000112 0 -17.326048281000112 -75.388312308088643 0 0 0 0 -7.139317803752192 -16.471756793063832 0 -16.471756793063832 -75.916944416341721 0 0 0 0 8.4307691423908953 -7.9124202094316445 0 -7.9124202094316445 -32.343184164114788 0 0 0 0 10.285814214073396 12.887861079957815 0 12.887861079957815 -37.165000710445838 0 0 0 0 0.82228505503462657 -18.112736691444297 0 -18.112736691444297 -65.53117745941563 0 0 0 0 -4.2286240144416265 -18.495984695206928 0 -18.495984695206928 -35.210262247822016 0 0 0 0 0.3137151147179793 -7.6270417353189259 0 -7.6270417353189259 -51.16297301947634 0 0 0 0 5.1580871712456391 6.6616907383631769 0 6.6616907383631769 -21.88253585249214 0 0 0 0 1.4623331835181865 -0.35263696285750257 0 -0.35263696285750257 -6.8790438075217537 0 0 0 0 1.3946240475891782 -2.953215255073788 0 -2.953215255073788 -30.759937039393776 0 0 0 0 -15.506000192382089 1.2097186285027419 0 1.2097186285027419 14.667410425463459 0 0 0 0 -0.34499262324412427 0.86893595524750822 0 0.86893595524750822 -8.1910917297188917 0 0 0 0 27.133990321397505 15.174775625244365 0 15.174775625244365 -144.85952540746075 0 0 0 0 1.0399061949260613 13.288909428199986 0 13.288909428199986 -79.343870393378893 0 0 0 0 -172.75707878503363 -40.163003104426025 0 -40.163003104426025 -9.0967888942977879 0 0 0 0 -276.15157191771902 -144.93383228120911 0 -144.93383228120911 -96.618865195225226 0 0 0 0 -7.8007473731495125 -2.7078480780642167 0 -2.7078480780642167 -47.055430273037928 0 0 0 0 -91.776851569257815 100.45800650504316 0 100.45800650504316 -110.68785213800402 0 0 0 0 1.7095206324397196 9.284436906278728 0 9.284436906278728 -11.553536320361033 0 0 0 0 41.418030447362071 5.5273163432357251 0 5.5273163432357251 -392.39648212242173 0 0 0 0 0.051695252711093431 -0.077101992720727708 0 -0.077101992720727708 -6.2390544161405046 0 0 0 0 -301.7066702222545 -4.890378178728497 0 -4.890378178728497 55.604992434658925 0 0 0 0 57.549800965883378 143.75584007827274 0 143.75584007827274 49.960690860410978 0 0 0 0 -30.118224606449076 -43.794707029082929 0 -43.794707029082929 -99.957740159150489 0 0 0 0 -99.876749198151629 -222.00659402989731 0 -222.00659402989731 -377.12535943411058 0 0 0 0 -21.422688390051462 -66.024136869840731 0 -66.024136869840731 -103.05056526916451 0 0 0 0 -7.0844120732558622 -84.730364983974141 0 -84.730364983974141 -251.06000643134394 0 0 0 0 -2.6454524517462232 -45.061172740381153 0 -45.061172740381153 -152.67294388449955 0 0 0 0 -6.7178604268760864 -6.2035090240424324 0 -6.2035090240424324 -120.52899904106016 0 0 0 0 -45.58834372633919 -56.820259820931824 0 -56.820259820931824 -46.908286559104454 0 0 0 0 -9.0562994346843197 -5.800224577789777 0 -5.800224577789777 -14.329907874780474 0 0 0 0 -44.092317709042391 -33.750206775359402 0 -33.750206775359402 75.777344550959242 0 0 0 0 -22.737941866830532 -8.4649723965663668 0 -8.4649723965663668 -3.0801737164801182 0 0 0 0 -34.18183575241676 37.278095634312649 0 37.278095634312649 -63.833579542479129 0 0 0 0 -56.846334629919056 -12.859427365583542 0 -12.859427365583542 63.260248766331642 0 0 0 0 -20.629335713424098 39.399173808014893 0 39.399173808014893 65.164067443765816 0 0 0 0 -6.3911640779794832 1.2643779511621887 0 1.2643779511621887 -1.9999113861777573 0 0 0 0 -112.03881456200338 -39.520223120052833 0 -39.520223120052833 41.909576779900817 0 0 0 0 -24.242969705668216 1.8211146557296161 0 1.8211146557296161 -4.079159678913129 0 0 0 0 -54.663415069353618 15.933915011879435 0 15.933915011879435 3.9147349690465489 0 0 0 0 -74.874141299945165 34.034088054118911 0 34.034088054118911 15.018832761787053 0 0 0 0 -74.990311686239124 -7.3591718977259006 0 -7.3591718977259006 -5.6593229822119611 0 0 0 0 -1.6867029001012122 2.8757069077010016 0 2.8757069077010016 -2.8419885584972349 0 0 0 0 -17.120688904887871 14.643788557685184 0 14.643788557685184 -38.79873469886661 0 0 0 0 0.34729250723336236 54.373358040436869 0 54.373358040436869 -16.004985993597074 0 0 0 0 -0.2466190704728195 7.8967573921877516 0 7.8967573921877516 -19.14678725064735 0 0 0 0 -16.623586426290331 -38.179573559471464 0 -38.179573559471464 -49.600473033169692 0 0 0 0 22.761075607686337 29.62236520069564 0 29.62236520069564 -70.41976043581235 0 0 0 0 -0.0060481595949034572 0.14391117544880672 0 0.14391117544880672 -0.37813738122244445 0 0 0 0 80.983742751803732 55.11300968053547 0 55.11300968053547 -33.793658316222718 0 0 0 0 91.197277423266286 15.33129002622627 0 15.33129002622627 -15.106704584497493 0 0 0 0 44.293188094177253 36.008256824687123 0 36.008256824687123 12.962826217013571 0 0 0 0 0.61718995562298096 -2.0226834295710745 0 -2.0226834295710745 -5.3913875826817161 0 0 0 0 -0.96189034650521421 78.545781013712258 0 78.545781013712258 -2.6462393194669858 0 0 0 0 16.246766777689771 87.811637689788768 0 87.811637689788768 25.186813364227419 0 0 0 0 13.340177948916377 56.898321226180997 0 56.898321226180997 -1.6866580658388557 0 0 0 0 -85.661426083601782 114.93958420782292 0 114.93958420782292 -7.6327050948275428 0 0 0 0 61.311506171056749 13.343833177303168 0 13.343833177303168 -9.7291795592464041 0 0 0 0 165.26376097648381 44.349451421381673 0 44.349451421381673 -35.430779698930564 0 0 0 0 62.356643556305585 114.33234160751454 0 114.33234160751454 -10.951912915203138 0 0 0 0 118.73563579538887 -79.953299192158738 0 -79.953299192158738 -12.851869673468173 0 0 0 0 0.072222150200685453 0.72241625228606665 0 0.72241625228606665 0.43933629830615928 0 0 0 0 305.2171530017124 -26.27619414441142 0 -26.27619414441142 -108.11975617293501 0 0 0 0 -18.098977500134197 43.343939394522749 0 43.343939394522749 -14.677344329218613 0 0 0 0 233.80758849380391 48.720543892704882 0 48.720543892704882 75.220854435065121 0 0 0 0 1.3188529521008012 0.53293014517012693 0 0.53293014517012693 -2.0272832296332695 0 0 0 0 199.66381333297363 -11.873453069099924 0 -11.873453069099924 4.6902556523455132 0 0 0 0 -31.418696566158275 30.514423051488848 0 30.514423051488848 -37.436658859922318 0 0 0 0 42.24817490306242 113.83329169220087 0 113.83329169220087 -69.604617657823837 0 0 0 0 54.075567349716437 -35.970354521137779 0 -35.970354521137779 -71.462167040848385 0 0 0 0 -0.65470810971838356 1.0032668982127149 0 1.0032668982127149 -2.0598546559229476 0 0 0 0 -211.12780823380058 159.25931296499039 0 159.25931296499039 -116.74027147438028 0 0 0 0 -327.34194128426452 -26.189883177641605 0 -26.189883177641605 6.4202884505648399 0 0 0 0 187.4486607770711 111.75961615423148 0 111.75961615423148 -404.97300932074722 0 0 0 0 -147.41408648885459 -28.398312915145652 0 -28.398312915145652 -15.389071303376113 0 0 0 0 -88.392895213201882 -143.36295943008008 0 -143.36295943008008 -384.98385105631314 0 0 0 0 -181.7542780905892 -208.12319140582986 0 -208.12319140582986 -235.94875102491642 0 0 0 0 -115.6428043641418 -80.256716945303197 0 -80.256716945303197 -184.14450529847818 0 0 0 0 -84.517864320815363 -150.58191027872454 0 -150.58191027872454 -148.50614593389037 0 0 0 0 -130.69730631758739 -170.11298755551979 0 -170.11298755551979 -108.6559953672695 0 0 0 0 -81.940839702491417 -145.79787722489709 0 -145.79787722489709 -97.463002663338557 0 0 0 0 -154.38876550672558 -111.17156832782348 0 -111.17156832782348 -109.74798787062173 0 0 0 0 -80.03564279974853 -172.23170355163165 0 -172.23170355163165 -62.439513420846197 0 0 0 0 3.664064730037353 -138.26753169225412 0 -138.26753169225412 -170.08197622190346 0 0 0 0 -32.491661228786143 -38.704024248247151 0 -38.704024248247151 -36.486742580978898 0 0 0 0 -75.184605751343042 -137.23936557960405 0 -137.23936557960405 -122.54595657352183 0 0 0 0 -121.1858442280718 -61.177829606436717 0 -61.177829606436717 -176.84324963559629 0 0 0 0 -211.63191591559371 -88.529704180255067 0 -88.529704180255067 34.408543331097462 0 0 0 0 -89.546782701379016 -143.21625972991751 0 -143.21625972991751 -97.911061758466531 0 0 0 0 -53.283875761619925 -168.62448138890613 0 -168.62448138890613 -142.43072826269781 0 0 0 0 35.43044761481633 -103.26862565135525 0 -103.26862565135525 -64.213662207999732 0 0 0 0 -33.707898066259432 -172.35180489199956 0 -172.35180489199956 -149.8118017570232 0 0 0 0 61.672826634903686 -99.978110700074467 0 -99.978110700074467 -153.10120783223101 0 0 0 0 64.841635434402747 -66.224686140711128 0 -66.224686140711128 -80.872128346629324 0 0 0 0 19.667392551069042 15.489060321211582 0 15.489060321211582 -25.341720524558696 0 0 0 0 71.626371845261929 -31.169770451982913 0 -31.169770451982913 -72.41348961085896 0 0 0 0 -0.81076057149493863 -2.0865319681470282 0 -2.0865319681470282 -21.280525965656125 0 0 0 0 4.5971501224686087 -2.5095722500090289 0 -2.5095722500090289 -9.1411388229697366 0 0 0 0 -25.632274997478817 -81.875924282474443 0 -81.875924282474443 -94.586217204050627 0 0 0 0 -18.018946568443482 -91.307610398906036 0 -91.307610398906036 -88.408602587820496 0 0 0 0 -280.96272931340422 -189.56718426400039 0 -189.56718426400039 4.340955206556373 0 0 0 0 -46.107010083613943 132.04503612158078 0 132.04503612158078 -197.6922232186771 0 0 0 0 -1.160217539371998 -2.2515710547355994 0 -2.2515710547355994 -4.7946690829274417 0 0 0 0 83.143204141718456 -188.85009773776255 0 -188.85009773776255 -428.25203515759495 0 0 0 0 -142.04515222166054 -323.15775888392091 0 -323.15775888392091 -220.31549129052291 0 0 0 0 -85.66985387871685 -159.78173040041384 0 -159.78173040041384 -90.813604147711885 0 0 0 0 -44.361533312083708 -204.09132175431296 0 -204.09132175431296 -78.25830652427976 0 0 0 0 22.83951758395483 -26.893911515340733 0 -26.893911515340733 -0.70155341188069542 0 0 0 0 131.54403676400034 -88.506557743810845 0 -88.506557743810845 -75.732769146852661 0 0 0 0 -1.9852860440374829 -5.2268296344314606 0 -5.2268296344314606 -13.462671011467705 0 0 0 0 -77.108608712771229 -169.74841190801453 0 -169.74841190801453 -79.826670728885802 0 0 0 0 13.300200324041157 -62.078021904468187 0 -62.078021904468187 -83.451763331324855 0 0 0 0 24.83739303383669 48.355388112504443 0 48.355388112504443 -284.58433731466357 0 0 0 0 65.398036220648919 42.011209957548999 0 42.011209957548999 -39.163154146895977 0 0 0 0 54.756554908225439 -112.850356119965 0 -112.850356119965 -81.573944553267211 0 0 0 0 140.95289698944919 -4.8829388052254217 0 -4.8829388052254217 -22.59441121898999 0 0 0 0 228.46269176773762 75.516820994467707 0 75.516820994467707 -39.947706983177341 0 0 0 0 10.880787282646565 -23.283148915281345 0 -23.283148915281345 -15.734138594096294 0 0 0 0 77.083365979494602 -2.9994329457877029 0 -2.9994329457877029 -39.921239678922575 0 0 0 0 -1.5731475252995186 -7.2983352537416977 0 -7.2983352537416977 -20.098384808717242 0 0 0 0 -0.43592057481870228 -24.532099097744322 0 -24.532099097744322 -10.135408266825834 0 0 0 0 -6.402809991049395 -13.811595467333973 0 -13.811595467333973 -13.394627749104984 0 0 0 0 -8.6324279306404037 -14.460125463621807 0 -14.460125463621807 -12.371598190162331 0 0 0 0 -6.4028099910730703 -13.811595467326697 0 -13.811595467326697 -13.394627749061328 0 0 0 0 -6.4028099910344736 -13.811595467326697 0 -13.811595467326697 -13.394627749104984 0 0 0 0 -3.4824189275728372 -11.496604790154379 0 -11.496604790154379 -14.22244130668696 0 0 0 0 -9.6914396506261085 -16.931278010015376 0 -16.931278010015376 -18.873740151087986 0 0 0 0 -16.820230565172011 -11.180859926811536 0 -11.180859926811536 -13.819443452593987 0 0 0 0 -7.5585398934456407 -1.0752601225685794 0 -1.0752601225685794 -30.933329534011136 0 0 0 0 -10.082207829228821 -12.380628577790048 0 -12.380628577790048 -45.409035051401588 0 0 0 0 23.084575390042048 -5.2674393320121453 0 -5.2674393320121453 -50.957171719477628 0 0 0 0 -11.333658045602249 -8.8379493113388889 0 -8.8379493113388889 -4.3922762201145815 0 0 0 0 -17.627268891588585 -13.279781730343529 0 -13.279781730343529 -47.476692048374389 0 0 0 0 11.84248235893017 4.0118931013312249 0 4.0118931013312249 -149.40250326076784 0 0 0 0 -15.0666989799048 26.044964249769691 0 26.044964249769691 -72.361303488574777 0 0 0 0 14.426162337752373 -23.896490442180948 0 -23.896490442180948 -145.40587385818799 0 0 0 0 0.021595449487963596 -30.663932194293011 0 -30.663932194293011 -123.81417111264818 0 0 0 0 4.3589478656926914 -11.345700796580786 0 -11.345700796580786 -75.632317951778532 0 0 0 0 8.9590749306720951 -4.5978162763349246 0 -4.5978162763349246 -105.50445716907052 0 0 0 0 -6.3212748947716833 -1.6121963346595294 0 -1.6121963346595294 -26.249439623599756 0 0 0 0 -0.0039483136583642548 -24.84554877078655 0 -24.84554877078655 -60.949774130349397 0 0 0 0 -9.2422860188239113 6.6785770167878127 0 6.6785770167878127 -61.980597772198962 0 0 0 0 -6.9514881073245149 -16.789488444403105 0 -16.789488444403105 -32.201414429044235 0 0 0 0 0.009808826628328958 -0.59065931773207581 0 -0.59065931773207581 -0.68648137892498085 0 0 0 0 -9.4388089643380759 -3.5303460290342628 0 -3.5303460290342628 -14.726097028367803 0 0 0 0 -3.9320562905952006 4.9668598115677014 0 4.9668598115677014 18.282186656419071 0 0 0 0 -14.860531196657465 -3.2466288935038392 0 -3.2466288935038392 -14.701807651988929 0 0 0 0 -0.013903690818978567 -1.0751591888983967 0 -1.0751591888983967 1.2218660240978352 0 0 0 0 0.077996329070173107 -0.020858098365749811 0 -0.020858098365749811 -0.0061157541302634399 0 0 0 0 1.0646809054619353 -6.1235639964288566 0 -6.1235639964288566 -13.243039674460306 0 0 0 0 -2.6423462652958047 -15.765500715810049 0 -15.765500715810049 -17.608092438269523 0 0 0 0 1.9624175758804279 -3.0938166645937599 0 -3.0938166645937599 -30.363436468411237 0 0 0 0 0.010430014826077687 -0.23314951867359923 0 -0.23314951867359923 -34.443338886805577 0 0 0 0 -1.1920287946050436 -8.8171721302205697 0 -8.8171721302205697 -65.430237300564841 0 0 0 0 -11.88152430468006 -0.57406587392324582 0 -0.57406587392324582 -65.03650495322654 0 0 0 0 6.328003958435839 -3.4486706188181415 0 -3.4486706188181415 -50.143649226949492 0 0 0 0 4.7067768178845837 -0.7009250632909243 0 -0.7009250632909243 -54.263653398578754 0 0 0 0 -8.2928912160632375 -23.280091203967459 0 -23.280091203967459 -34.714627303837915 0 0 0 0 -7.0410031923932639 -26.700834362585738 0 -26.700834362585738 -65.641715015750378 0 0 0 0 -0.095331704762581904 -6.2280703697761055 0 -6.2280703697761055 -20.3788844608207 0 0 0 0 -9.0932568614362719 -15.025706428394187 0 -15.025706428394187 -4.2295991845603567 0 0 0 0 -0.64531132857608497 -2.3109329391882056 0 -2.3109329391882056 -10.471722930727992 0 0 0 0 -1.1707799479666747 -3.71538041258313 0 -3.71538041258313 -2.1956064402006064 0 0 0 0 2.3278968240255153 -13.568024059335585 0 -13.568024059335585 -12.734613583306782 0 0 0 0 9.1596820373785928 30.38318659147626 0 30.38318659147626 6.1728761617996497 0 0 0 0 1.4952629770581771 0.29282929593199469 0 0.29282929593199469 -5.9952128503455242 0 0 0 0 0.962754071488511 -0.64303491657260281 0 -0.64303491657260281 -10.013032881314075 0 0 0 0 0.74086352085237195 -1.5502200094924774 0 -1.5502200094924774 -12.391608861362329 0 0 0 0 5.7485052664898149 -5.0583719236674369 0 -5.0583719236674369 -8.9021635508688632 0 0 0 0 0.68834587400033342 0.56943773321108893 0 0.56943773321108893 -4.7413471803301945 0 0 0 0 0.24301468347754057 -0.47705762543390051 0 -0.47705762543390051 -8.6978302240473795 0 0 0 0 3.4216719193997385 2.0756888687917581 0 2.0756888687917581 -10.989036048520688 0 0 0 0 1.4519390487976125 -0.81328862314694561 0 -0.81328862314694561 -12.225267776684632 0 0 0 0 0.76563083399596454 -0.50395644715845123 0 -0.50395644715845123 -11.175741751459043 0 0 0 0 56.145573402460798 4.0714308737078682 0 4.0714308737078682 -47.399921229865868 0 0 0 0 1.990578470100614 1.2617659934202408 0 1.2617659934202408 -14.482903821581374 0 0 0 0 -62.754250259973134 0.86595031197066419 0 0.86595031197066419 8.721389228656335 0 0 0 0 -3.8757833588799571 28.413099419762148 0 28.413099419762148 -56.068541118729627 0 0 0 0 -36.080448280264775 4.0059662581043085 0 4.0059662581043085 -2.7624839826312382 0 0 0 0 -55.372393109413963 -56.453003071830608 0 -56.453003071830608 -56.997746455745073 0 0 0 0 124.14784950250986 55.836109482115717 0 55.836109482115717 -15.464740923023783 0 0 0 0 -0.86520376064912308 -0.14919369556542961 0 -0.14919369556542961 0.32348034699174377 0 0 0 0 -3.2238152404602758 -8.834792837194982 0 -8.834792837194982 -190.08337842999026 0 0 0 0 -16.684070322083279 46.315134088188643 0 46.315134088188643 -155.14599644133705 0 0 0 0 -0.38995006358412448 -0.20767774876298972 0 -0.20767774876298972 -0.14302439073404116 0 0 0 0 -27.753104165412424 -18.384217953596817 0 -18.384217953596817 -8.451050612013205 0 0 0 0 -1.7149976766664186 -1.6935308988435764 0 -1.6935308988435764 0.054590531973076395 0 0 0 0 1.5203928232302246 -30.822451317391824 0 -30.822451317391824 -39.354115850981543 0 0 0 0 8.1445263960716829 -17.95881989082045 0 -17.95881989082045 -35.626426159607945 0 0 0 0 -0.7901794086145203 -4.6444365203450459 0 -4.6444365203450459 -24.808712542552882 0 0 0 0 -0.33296063669067077 2.3374908223784061 0 2.3374908223784061 -1.3840978057006623 0 0 0 0 -10.519978533525261 -1.2150448831162066 0 -1.2150448831162066 -6.201895921229152 0 0 0 0 -2.5425833094836889 -1.8232310418279667 0 -1.8232310418279667 -8.1434297820669599 0 0 0 0 -2.5307895173742816 -5.162283961463018 0 -5.162283961463018 -3.0779886816308135 0 0 0 0 3.0209441533262407 -2.2181360414033406 0 -2.2181360414033406 -8.9912095359613886 0 0 0 0 2.6638644013654016 -0.8699570468525053 0 -0.8699570468525053 -5.796610365556262 0 0 0 0 -6.0731733814302737 -3.7797151034756098 0 -3.7797151034756098 10.973428456665715 0 0 0 0 -0.1988399317136238 -0.26382928360908409 0 -0.26382928360908409 -1.3680855664970295 0 0 0 0 -0.00092998761807746742 -2.6937144194234861 0 -2.6937144194234861 -25.348901223216671 0 0 0 0 -0.15206915130142404 -1.2589035746274249 0 -1.2589035746274249 -3.6711574427058622 0 0 0 0 -5.4424909371525594 -7.46452736309584 0 -7.46452736309584 -12.697178414382506 0 0 0 0 -0.019235662283015702 -0.28897781905952158 0 -0.28897781905952158 -0.075167346329180873 0 0 0 0 -7.1420716190796201 3.6997544719197322 0 3.6997544719197322 -25.128404223767575 0 0 0 0 4.8491022730692048 10.353335694377165 0 10.353335694377165 -36.435747940733563 0 0 0 0 6.9921324467456918 5.0958919465265353 0 5.0958919465265353 -38.842096102482174 0 0 0 0 4.3830089963683694 10.964992598746903 0 10.964992598746903 -43.844421748559398 0 0 0 0 1.5418099169212569 -3.8824851388199022 0 -3.8824851388199022 -28.436366241861833 0 0 0 0 -0.57823911104487169 -2.3772370752760565 0 -2.3772370752760565 -3.4659117938682016 0 0 0 0 4.407425488829178 9.0131221685442142 0 9.0131221685442142 -65.966091509725629 0 0 0 0 -31.213980978343788 39.119855218261364 0 39.119855218261364 4.5056589048326714 0 0 0 0 5.1874759482775659 4.1825233629861032 0 4.1825233629861032 -38.855271041422384 0 0 0 0 0.18025030771535511 3.2534911676084448 0 3.2534911676084448 -916.45355242231381 0 0 0 0 -211.01621395936195 99.128109607016086 0 99.128109607016086 -959.89125331503601 0 0 0 0 -101.4654061414706 -65.526318727388571 0 -65.526318727388571 -777.1050410393218 0 0 0 0 3.979415507408969 -16.390699125513493 0 -16.390699125513493 -831.48763204200804 0 0 0 0 42.162490572703135 -98.723536034405697 0 -98.723536034405697 -664.43361772680146 0 0 0 0 106.37058101069171 -23.02203607742922 0 -23.02203607742922 -666.63040297718544 0 0 0 0 30.849310505661766 -137.37523295398023 0 -137.37523295398023 -765.18117462785449 0 0 0 0 -12.39116591329136 -19.744580724756815 0 -19.744580724756815 -35.088297568170674 0 0 0 0 -63.052956228594716 -173.74298595502478 0 -173.74298595502478 -736.88779394532321 0 0 0 0 26.423034117160391 -135.08724646469818 0 -135.08724646469818 -696.06343965609267 0 0 0 0 -0.40199476742361973 4.127086857698373 0 4.127086857698373 -4.0355753379876518 0 0 0 0 -24.566378515537906 -49.144688618434884 0 -49.144688618434884 -84.471215980665875 0 0 0 0 -57.148197626470441 -168.73135879797337 0 -168.73135879797337 -1142.0072631960356 0 0 0 0 -0.014912885689447347 1.3001596852914759 0 1.3001596852914759 -2.353876905621533 0 0 0 0 -0.052635262975103993 -30.478478972101584 0 -30.478478972101584 -71.070374354771047 0 0 0 0 -2.9935871616949186 -61.244806808299472 0 -61.244806808299472 -127.71368220217846 0 0 0 0 -0.0022049967967766454 -40.478516607035999 0 -40.478516607035999 -89.888062737045402 0 0 0 0 1.45816684474417 -51.795216619710118 0 -51.795216619710118 -127.04313588954392 0 0 0 0 0.020724668657030147 -41.19758777727111 0 -41.19758777727111 -144.94998755152483 0 0 0 0 3.9833148162551595 -58.301465723656293 0 -58.301465723656293 -146.10982010291627 0 0 0 0 17.195277862780589 -33.861808893409943 0 -33.861808893409943 -175.48138533199381 0 0 0 0 15.838008949300125 -29.329403658081901 0 -29.329403658081901 -137.08189647775725 0 0 0 0 25.150861668189606 -86.204646780728581 0 -86.204646780728581 -416.80990808646311 0 0 0 0 34.400868919202537 -29.393080198555253 0 -29.393080198555253 -189.88444966396492 0 0 0 0 7.7386958351796125 -82.284541939516203 0 -82.284541939516203 -214.07573001992023 0 0 0 0 -127.24938445839372 -79.767575502257387 0 -79.767575502257387 -99.010259355702146 0 0 0 0 -32.901351957366643 -59.142830665165093 0 -59.142830665165093 -57.861742806686379 0 0 0 0 -17.377873809711446 -62.132469744305126 0 -62.132469744305126 -101.47212260727247 0 0 0 0 -1.0260432266167543 6.1693157584181222 0 6.1693157584181222 -5.1017458770175068 0 0 0 0 -76.442456562738684 15.069499215474934 0 15.069499215474934 25.649703363389563 0 0 0 0 7.2835003341314533 75.361147720705276 0 75.361147720705276 -5.5480533402223955 0 0 0 0 16.759746542237849 -11.816110599849708 0 -11.816110599849708 -183.92477056707139 0 0 0 0 -49.767981373033649 61.943665171174871 0 61.943665171174871 50.251014345238218 0 0 0 0 0.12193089314414068 0.63884076910784415 0 0.63884076910784415 -1.2114782146817902 0 0 0 0 -14.743818077192714 -111.48872381910041 0 -111.48872381910041 -217.78629789162915 0 0 0 0 -74.58207674955672 -26.753149122570903 0 -26.753149122570903 -74.845194122812245 0 0 0 0 185.28632920323062 113.43113512272976 0 113.43113512272976 -351.65590485709254 0 0 0 0 -392.68209821049322 -187.30259481335088 0 -187.30259481335088 -32.900933572251233 0 0 0 0 15.84520975771045 28.336502268941331 0 28.336502268941331 -86.269649457783089 0 0 0 0 -0.65727245993614503 -4.362328115973753 0 -4.362328115973753 -8.4292103433561181 0 0 0 0 -8.1418593607118055 -110.83513541337743 0 -110.83513541337743 -107.28677417898143 0 0 0 0 59.252546875581743 177.44239428671426 0 177.44239428671426 20.935596216193517 0 0 0 0 1.9020351716732973 1.4070124337667096 0 1.4070124337667096 -1.1410328685917079 0 0 0 0 23.241154228312098 -86.893844841310056 0 -86.893844841310056 -26.902756605457398 0 0 0 0 -1.7348126250412861 -6.1512551940904814 0 -6.1512551940904814 -105.63844005374995 0 0 0 0 29.067531643093844 5.2589765546599665 0 5.2589765546599665 -52.339304923283635 0 0 0 0 4.5425734361007262 2.0528967166080179 0 2.0528967166080179 -7.0630467810121758 0 0 0 0 16.221157822102214 2.1710679520328995 0 2.1710679520328995 -27.328435071220156 0 0 0 0 36.948065187583893 -20.048144792977837 0 -20.048144792977837 -108.57070221912727 0 0 0 0 -9.7658761808420422 -41.378383423674677 0 -41.378383423674677 -73.605983592642588 0 0 0 0 0.41503736978534533 6.6145521990822544 0 6.6145521990822544 -4.4066165852967174 0 0 0 0 -39.541341516951377 181.02258851129591 0 181.02258851129591 -84.767082094185753 0 0 0 0 -172.40254784181604 -22.069833446010307 0 -22.069833446010307 130.53034605170251 0 0 0 0 64.110797643101108 -71.737385416170582 0 -71.737385416170582 -87.789804843647289 0 0 0 0 -204.00715951237595 127.30168401091214 0 127.30168401091214 -198.07449968819128 0 0 0 0 -156.48325941183268 206.45749701337627 0 206.45749701337627 -570.98374906343088 0 0 0 0 -595.75630699838473 -3.6701276608910121 0 -3.6701276608910121 -654.40701351648022 0 0 0 0 110.09729086647872 272.5929461367632 0 272.5929461367632 -1138.4318297097052 0 0 0 0 -2.1181723563217361 -19.77394160458789 0 -19.77394160458789 -424.72397652659129 0 0 0 0 -113.44872184601263 60.757180522457929 0 60.757180522457929 -146.25412949940437 0 0 0 0 105.87484470184975 23.425182255294203 0 23.425182255294203 -629.00435193869635 0 0 0 0 86.238820665289012 -36.752231866310467 0 -36.752231866310467 -536.71833091104054 0 0 0 0 85.65060466168751 52.576942309082369 0 52.576942309082369 -462.25817669857497 0 0 0 0 164.25051198747283 -21.290369400932832 0 -21.290369400932832 -795.34945898328442 0 0 0 0 192.43885255699382 56.372227495397965 0 56.372227495397965 -622.18020339300529 0 0 0 0 168.66945984094659 -226.52006961980078 0 -226.52006961980078 -707.64615585797583 0 0 0 0 182.87905778818947 -89.919537269583088 0 -89.919537269583088 -744.70197433176509 0 0 0 0 188.20000622520536 -73.354109577230702 0 -73.354109577230702 -833.59981811654143 0 0 0 0 131.4550033575342 -50.873887810601445 0 -50.873887810601445 -534.04328904979047 0 0 0 0 109.02469673201094 -92.012572720537719 0 -92.012572720537719 -568.53009630695306 0 0 0 0 47.153477585168595 -62.236577912583016 0 -62.236577912583016 -227.71684052378987 0 0 0 0 83.71693343617433 -204.17578489244988 0 -204.17578489244988 -483.74570612110256 0 0 0 0 99.150434723876032 -122.96082715677767 0 -122.96082715677767 -166.12911079147307 0 0 0 0 -316.7656997495356 410.96479561085948 0 410.96479561085948 -500.07484083890449 0 0 0 0 -0.18420722983549651 1.5984158317016988 0 1.5984158317016988 -10.030787911765799 0 0 0 0 -182.41600002897462 -128.90019425148057 0 -128.90019425148057 19.48148676675919 0 0 0 0 120.19839753587945 -488.42552043847536 0 -488.42552043847536 -1024.1730260281765 0 0 0 0 180.15038552635156 365.22884107440768 0 365.22884107440768 -1340.0997124900605 0 0 0 0 210.1217038031923 140.03660821965605 0 140.03660821965605 -1616.9533593922533 0 0 0 0 189.95710327491224 622.17839730886044 0 622.17839730886044 -2505.786986815714 0 0 0 0 60.390850337448441 -50.663884419263923 0 -50.663884419263923 -1450.7249169550905 0 0 0 0 159.68613339418323 310.09998230601195 0 310.09998230601195 -1392.0946493639731 0 0 0 0 182.83069617103891 163.41420033380928 0 163.41420033380928 -883.62270708853612 0 0 0 0 -258.67322786816879 140.44362208662642 0 140.44362208662642 154.39825514984113 0 0 0 0 -63.749077123724192 -317.55122020973795 0 -317.55122020973795 -473.67927422832872 0 0 0 0 -593.17900028717236 3252.4954486442221 0 3252.4954486442221 555.49505441579731 0 0 0 0 16.514009443902637 -309.05861204128996 0 -309.05861204128996 -1588.6941815839818 0 0 0 0 -9.4541941861814607 16.810290312822673 0 16.810290312822673 -23.856592106005678 0 0 0 0 0.80534138604480177 -311.07486522678664 0 -311.07486522678664 -887.71012460911879 0 0 0 0 -360.22313019379976 1282.1111037444207 0 1282.1111037444207 2272.1178194792592 0 0 0 0 -4.4406279514123668 13.012435269457782 0 13.012435269457782 -28.643954692028444 0 0 0 0 167.59236151617444 -126.87398616937571 0 -126.87398616937571 -1004.1964348752954 0 0 0 0 -311.0300260036916 18.884730093792314 0 18.884730093792314 -616.93141715744423 0 0 0 0 -64.055100282645896 397.642212083083 0 397.642212083083 -1747.1088373203529 0 0 0 0 -165.56520327646564 -523.34423949215125 0 -523.34423949215125 -55.592720931323129 0 0 0 0 -269.08614437590813 -2.3636087442282587 0 -2.3636087442282587 -663.77949246659409 0 0 0 0 -394.4619403160072 -236.88652054316481 0 -236.88652054316481 -73.018431205389788 0 0 0 0 -356.33445081473235 -164.52284807625983 0 -164.52284807625983 -671.02457373719517 0 0 0 0 -445.44610693544342 68.320786538301036 0 68.320786538301036 -428.56265176361194 0 0 0 0 -1024.1210179166537 -288.59647352318279 0 -288.59647352318279 -64.703742031255388 0 0 0 0 -579.28091306613157 199.99649054601105 0 199.99649054601105 -392.39400921000924 0 0 0 0 -383.15919111847086 -421.65448172079323 0 -421.65448172079323 -308.79657088345266 0 0 0 0 -45.667666685000839 65.601190438225331 0 65.601190438225331 -381.99917796425871 0 0 0 0 313.97969137536091 342.23422126148216 0 342.23422126148216 -179.67841780543677 0 0 0 0 -316.34424143781138 -78.835090676937398 0 -78.835090676937398 367.95803535930463 0 0 0 0 -21.434103927514123 364.02826272136508 0 364.02826272136508 166.16053891737829 0 0 0 0 900.26641948390079 -2169.1060198783962 0 -2169.1060198783962 -4908.1379394197138 0 0 0 0 -820.73086332683852 1091.613804059918 0 1091.613804059918 -787.06401136217755 0 0 0 0 -4.7580843491667579 22.458580388321529 0 22.458580388321529 -69.189486362212193 0 0 0 0 1994.3287322052083 718.57507815780264 0 718.57507815780264 -1673.3220309374447 0 0 0 0 -98.851877159813739 408.60787237676413 0 408.60787237676413 -558.38543820515042 0 0 0 0 -123.60002791984425 558.29645719396649 0 558.29645719396649 -31.749191978073213 0 0 0 0 -69.883227326921769 331.14477126048587 0 331.14477126048587 851.9725351887173 0 0 0 0 271.82894700831639 -462.930113838549 0 -462.930113838549 878.07250424521953 0 0 0 0 72.826831988715639 -69.854392561130226 0 -69.854392561130226 170.9112247947196 0 0 0 0 -181.49662601168643 256.66759771409124 0 256.66759771409124 -169.48991660343017 0 0 0 0 -86.818816712479929 -36.480478724930435 0 -36.480478724930435 610.54093148867832 0 0 0 0 -775.31364631066549 -366.34727655278766 0 -366.34727655278766 154.61539787863148 0 0 0 0 -287.24205336604211 193.79524386456615 0 193.79524386456615 -44.355354898907535 0 0 0 0 -1.1980173180612517 -3.7702779672422722 0 -3.7702779672422722 -6.253930122191349 0 0 0 0 68.399833070550585 -189.16424118223767 0 -189.16424118223767 51.739908882620512 0 0 0 0 -381.3762520290602 -153.53772891444532 0 -153.53772891444532 160.41211963689057 0 0 0 0 -124.4262380800152 -4.1338520884746686 0 -4.1338520884746686 180.29000785169774 0 0 0 0 -1.8308373365200095 6.8331951915435898 0 6.8331951915435898 -23.095530187839728 0 0 0 0 12.610562646546214 160.1796677007369 0 160.1796677007369 -48.013677646471479 0 0 0 0 476.79403060411607 -501.11520905029465 0 -501.11520905029465 -557.70787182394997 0 0 0 0 -3.0021007347691246 13.622637192344413 0 13.622637192344413 -81.833829173946356 0 0 0 0 847.59120897829803 -119.1140972804933 0 -119.1140972804933 -114.92123147851089 0 0 0 0 145.50770618719969 34.655594868156186 0 34.655594868156186 -108.91800371173304 0 0 0 0 -66.247926434677083 -139.93674033023126 0 -139.93674033023126 -249.08462388861517 0 0 0 0 -466.39743060644895 -1216.4615453959473 0 -1216.4615453959473 -758.4421329855395 0 0 0 0 -79.952678027263346 2.139200840232661 0 2.139200840232661 -536.50915613472171 0 0 0 0 -388.17407084702984 -3.9938695805822135 0 -3.9938695805822135 -306.48067322149291 0 0 0 0 227.67220549034027 -374.6839900254563 0 -374.6839900254563 306.34049001743551 0 0 0 0 25.801444033453663 -209.74701691653172 0 -209.74701691653172 67.814738155546365 0 0 0 0 100.34709710811467 -135.42993850722269 0 -135.42993850722269 -10.165099443256622 0 0 0 0 721.94875508208406 -478.10791102814255 0 -478.10791102814255 210.30453854371444 0 0 0 0 462.02838120626166 -164.56839880321786 0 -164.56839880321786 -31.452571028494276 0 0 0 0 439.70350716054782 -252.02000318406499 0 -252.02000318406499 -54.984820702615252 0 0 0 0 524.20235264668145 59.678442567035745 0 59.678442567035745 -113.31314301490784 0 0 0 0 297.14665465398866 -138.85628977934539 0 -138.85628977934539 -74.882720048801275 0 0 0 0 192.19769359088559 -283.28957707775407 0 -283.28957707775407 -0.27933516778284684 0 0 0 0 86.652791544428965 -181.63988487273309 0 -181.63988487273309 -55.19230622224859 0 0 0 0 -45.480620804934915 -101.26086499154917 0 -101.26086499154917 -3.81442851270549 0 0 0 0 -197.94005762268341 -125.21477081724152 0 -125.21477081724152 -92.009833558695391 0 0 0 0 -53.179194912122512 -119.47041897807503 0 -119.47041897807503 -99.740306621497439 0 0 0 0 -132.49871295148944 11.956711125349102 0 11.956711125349102 -332.86931762174936 0 0 0 0 -87.594792757532787 -129.04730117589497 0 -129.04730117589497 0.26769856087048538 0 0 0 0 -242.24383633505568 160.4490285464708 0 160.4490285464708 -206.47203883709153 0 0 0 0 86.071142607535648 288.78780890574126 0 288.78780890574126 -1257.8613745837793 0 0 0 0 -130.86028053677956 -102.25904808699852 0 -102.25904808699852 201.66428362218721 0 0 0 0 -138.66550719807242 139.86479844052519 0 139.86479844052519 -358.96492898745055 0 0 0 0 -159.85536889172874 142.28360970813083 0 142.28360970813083 -296.66552102437709 0 0 0 0 -298.79013262660828 641.82851699413732 0 641.82851699413732 -714.24627362987667 0 0 0 0 -316.64308829988249 336.58256649661053 0 336.58256649661053 -42.57106825763185 0 0 0 0 -74.845437874965455 99.153229431132786 0 99.153229431132786 -905.50385732745781 0 0 0 0 104.21769233098672 194.41515418490962 0 194.41515418490962 -894.07589450331579 0 0 0 0 -330.30990579674642 -82.52018945063719 0 -82.52018945063719 -393.77173520677024 0 0 0 0 -123.98285053364685 -97.325049172131912 0 -97.325049172131912 -148.13483541189635 0 0 0 0 -187.03919546538282 75.577957446774235 0 75.577957446774235 -303.34004924510373 0 0 0 0 -123.68807449777159 -16.137236498761922 0 -16.137236498761922 -54.125963500075159 0 0 0 0 -166.06456377899394 -101.30603833719579 0 -101.30603833719579 -14.374505752814002 0 0 0 0 -102.43630656639539 -83.16264353407314 0 -83.16264353407314 22.96263533772435 0 0 0 0 -33.518751798577341 -104.85843587314594 0 -104.85843587314594 -14.342160356276509 0 0 0 0 -56.299562459990057 -52.360681425285293 0 -52.360681425285293 -40.605062995076878 0 0 0 0 24.565586292803346 -209.71863074395515 0 -209.71863074395515 -29.749942851281958 0 0 0 0 -60.905645409075987 -135.53325754130492 0 -135.53325754130492 -39.071697961480822 0 0 0 0 -32.465009433380146 -172.23252886158298 0 -172.23252886158298 -20.958081421165843 0 0 0 0 -81.415117214244674 -160.13581263931701 0 -160.13581263931701 -62.219519894642872 0 0 0 0 -62.776466027203242 -138.2408894461405 0 -138.2408894461405 8.3681629730563145 0 0 0 0 -32.374619229150994 -149.21626267972169 0 -149.21626267972169 -19.354647118943831 0 0 0 0 -58.18684581611933 -128.94245455351484 0 -128.94245455351484 -22.714264099777211 0 0 0 0 -21.434430392161175 -137.16354804048024 0 -137.16354804048024 -25.560374124965165 0 0 0 0 44.444067172839539 -156.73661984344653 0 -156.73661984344653 -38.688629214419052 0 0 0 0 -15.917580658848237 -87.546856284927344 0 -87.546856284927344 -51.85313106320973 0 0 0 0 21.408932146645384 -83.724210968677653 0 -83.724210968677653 -53.877798418747261 0 0 0 0 -8.1263336844267542 -122.93861740845023 0 -122.93861740845023 -22.096426146170415 0 0 0 0 -31.647786885951518 -113.45227720785624 0 -113.45227720785624 -1.0157993727916619 0 0 0 0 -51.662127646408862 -120.72805139298725 0 -120.72805139298725 5.6224232023523655 0 0 0 0 -47.781703391173323 -58.571338232199196 0 -58.571338232199196 -33.442918807304522 0 0 0 0 -71.455313551070049 39.337104296864709 0 39.337104296864709 136.11756470899036 0 0 0 0 119.23012116176778 -98.448589287087088 0 -98.448589287087088 58.928750379331177 0 0 0 0 39.835423200974219 -47.799866935703903 0 -47.799866935703903 28.463873873854027 0 0 0 0 -33.882535198647702 -146.80702760415443 0 -146.80702760415443 39.387220781354699 0 0 0 0 -0.65955190724444868 -2.7568160587005055 0 -2.7568160587005055 0.35193925907958601 0 0 0 0 -105.16314309299605 -52.584217972529586 0 -52.584217972529586 91.931298344075913 0 0 0 0 30.452940791210949 -10.776554006100923 0 -10.776554006100923 -71.501790369555238 0 0 0 0 0.49388763354161264 -12.303996788391238 0 -12.303996788391238 -36.742464052283935 0 0 0 0 13.950483200741019 -17.086022251925897 0 -17.086022251925897 -51.804529886998353 0 0 0 0 -3.9299606989836082 -14.696053756503261 0 -14.696053756503261 6.4899979865223116 0 0 0 0 2.135144960352136 -16.63549232963851 0 -16.63549232963851 -42.080046920207678 0 0 0 0 5.5862976964884581 -28.837229784647661 0 -28.837229784647661 -57.015308992296923 0 0 0 0 -4.9217556441881243 -35.470694650502992 0 -35.470694650502992 -72.407839905645233 0 0 0 0 14.309727977165494 -8.8410891487146728 0 -8.8410891487146728 -48.678240320681653 0 0 0 0 4.7891115355759695 -14.534777323045091 0 -14.534777323045091 -31.995742382307071 0 0 0 0 9.8426332685453417 -12.818014448945178 0 -12.818014448945178 -42.410290769650601 0 0 0 0 6.0395048758541634 -9.7798804366448167 0 -9.7798804366448167 -42.203935185621958 0 0 0 0 19.759961060368369 -13.548090402691741 0 -13.548090402691741 -47.10114364157198 0 0 0 0 0.67085938555325586 -11.426712004204713 0 -11.426712004204713 -40.054599256554525 0 0 0 0 -9.0319417313285157 -51.149849779263604 0 -51.149849779263604 -66.004859240738369 0 0 0 0 6.2553583013032039 -0.14558877458330244 0 -0.14558877458330244 -30.870584176387638 0 0 0 0 -0.72002679501736466 -2.0723256204816778 0 -2.0723256204816778 -4.3982788203328056 0 0 0 0 -6.4781237522302035 17.908236587711144 0 17.908236587711144 -45.243357898267277 0 0 0 0 -1.7262931976562501 -25.952408740447225 0 -25.952408740447225 -28.684670105652629 0 0 0 0 -59.023400529683499 -54.157181175149162 0 -54.157181175149162 -81.623006773617817 0 0 0 0 -15.813898948581937 -46.198912433246733 0 -46.198912433246733 12.738611369626597 0 0 0 0 58.433270299667129 10.012129076014389 0 10.012129076014389 -9.4660032030951697 0 0 0 0 272.95040843308925 38.041554202267434 0 38.041554202267434 -38.062026552390307 0 0 0 0 48.884082969622796 -7.6910753292177105 0 -7.6910753292177105 -24.966764159937156 0 0 0 0 70.211478241523082 -24.962197510103579 0 -24.962197510103579 -56.091254216851667 0 0 0 0 17.394232840253153 -12.993144005624345 0 -12.993144005624345 -9.2837391084176488 0 0 0 0 17.160976030465847 -16.501885366354145 0 -16.501885366354145 -56.278160922709503 0 0 0 0 -0.76929432246930674 -27.417526184872258 0 -27.417526184872258 -46.203651251853444 0 0 0 0 3.8116478870165658 -20.963157568218151 0 -20.963157568218151 -26.457950169078941 0 0 0 0 9.0082165389057991 0.60008050437318161 0 0.60008050437318161 -43.755064419223345 0 0 0 0 45.102849489856908 -15.220188568091544 0 -15.220188568091544 -130.49725963098172 0 0 0 0 1.5287609465858623 -39.474325613162364 0 -39.474325613162364 -77.903553879557876 0 0 0 0 1.0716832727708185 5.4392610391177598 0 5.4392610391177598 -1.7446931604486053 0 0 0 0 -60.055252062555383 -64.483496784165254 0 -64.483496784165254 -87.992170181038091 0 0 0 0 7.0744293385015551 -17.087473220384055 0 -17.087473220384055 -3.7066421381110786 0 0 0 0 53.849372959217362 -42.597047472168924 0 -42.597047472168924 -110.38111945262062 0 0 0 0 111.88660413601428 -6.5433817357115913 0 -6.5433817357115913 -72.598615018789133 0 0 0 0 45.49616094628891 232.17344672381296 0 232.17344672381296 59.324681827521999 0 0 0 0 -7.3882076360789029 36.57343688201945 0 36.57343688201945 -26.108204136631684 0 0 0 0 7.4986790154302447 21.719572488670721 0 21.719572488670721 -38.62338405212266 0 0 0 0 215.65433052698086 432.62069881260686 0 432.62069881260686 414.18373681680532 0 0 0 0 -8.7025080345301831 156.10512070682307 0 156.10512070682307 204.8588357331173 0 0 0 0 418.94599953952093 121.2067237586889 0 121.2067237586889 -194.35287089447957 0 0 0 0 63.045164487672082 -69.887320501555223 0 -69.887320501555223 -69.992661741038319 0 0 0 0 7.093967129077936 0.5332870991396419 0 0.5332870991396419 -15.3668426912283 0 0 0 0 48.942409179615424 279.01384431157203 0 279.01384431157203 647.04074131604284 0 0 0 0 -778.53690060178587 232.34928049778682 0 232.34928049778682 605.35612737064366 0 0 0 0 474.77877274308867 446.85760062755435 0 446.85760062755435 -637.17329719272675 0 0 0 0 171.33975756108094 -257.44485660640566 0 -257.44485660640566 -743.22696859238204 0 0 0 0 -277.44748191335839 -282.55937672812252 0 -282.55937672812252 -234.04366244765697 0 0 0 0 172.45996709122028 -54.386282195948297 0 -54.386282195948297 -286.83195257185434 0 0 0 0 339.52859912857048 169.22813753821174 0 169.22813753821174 13.184168290995785 0 0 0 0 -1.1816293535937894 3.8123495548615267 0 3.8123495548615267 -8.8107798987619788 0 0 0 0 4.9009605705867738 -6.7457255281960151 0 -6.7457255281960151 -88.059189812398898 0 0 0 0 -137.57101703393209 81.031048360244313 0 81.031048360244313 32.514214896276826 0 0 0 0 58.30794148539178 -51.257195537273219 0 -51.257195537273219 -93.596175048907753 0 0 0 0 41.35736919660485 -79.54071283590747 0 -79.54071283590747 -55.015608748901286 0 0 0 0 -26.965667183358846 -51.557314017654789 0 -51.557314017654789 -64.981615923694335 0 0 0 0 143.4669887819382 -35.187170548248105 0 -35.187170548248105 -87.71581952329143 0 0 0 0 78.542269988945918 -30.544468098276411 0 -30.544468098276411 -76.360291037955903 0 0 0 0 41.82567759230551 -95.233980110206176 0 -95.233980110206176 -65.328181208693422 0 0 0 0 60.153282780145219 -89.44271565336021 0 -89.44271565336021 -66.696782728598919 0 0 0 0 109.87956877641773 -105.55847408319823 0 -105.55847408319823 -63.856528577794961 0 0 0 0 43.073234144687063 -128.72782233948328 0 -128.72782233948328 -59.731861885811668 0 0 0 0 161.69305533143506 -41.582810305451858 0 -41.582810305451858 -102.33306573948357 0 0 0 0 194.32864689402959 -94.277540915238205 0 -94.277540915238205 -98.677901758936059 0 0 0 0 99.128086586527388 -84.997038729066844 0 -84.997038729066844 -99.481316420831718 0 0 0 0 349.93854743736483 -58.48546217972762 0 -58.48546217972762 -120.62154501790064 0 0 0 0 209.99636331287729 -169.34985414272523 0 -169.34985414272523 -78.909385086535622 0 0 0 0 159.65544146609591 -49.622773792463704 0 -49.622773792463704 -120.77324986760505 0 0 0 0 163.83038267868233 -137.9502758266317 0 -137.9502758266317 -78.393123968591681 0 0 0 0 125.86094199614854 -150.86030287016183 0 -150.86030287016183 -80.92106495788903 0 0 0 0 0.33566178711223804 -0.89474365155052737 0 -0.89474365155052737 -33.392250013228136 0 0 0 0 608.39801305942842 529.32056088476565 0 529.32056088476565 138.19008439831669 0 0 0 0 144.25076385243642 9.495416789133742 0 9.495416789133742 -84.591736241825856 0 0 0 0 33.622208413805765 -76.572449335653801 0 -76.572449335653801 -32.488263710094543 0 0 0 0 -0.57444949367860043 2.6521650841087165 0 2.6521650841087165 -10.017038298238333 0 0 0 0 -9.2895163964765572 205.58225273591188 0 205.58225273591188 378.68469935949543 0 0 0 0 -84.405715087891963 -226.3211035741333 0 -226.3211035741333 -293.60915835454944 0 0 0 0 -1.7052589776864873 3.6948762539885109 0 3.6948762539885109 -76.917027098315089 0 0 0 0 576.48707368860482 -109.54911640494538 0 -109.54911640494538 -19.307312928227475 0 0 0 0 226.88020547989254 42.908283738091995 0 42.908283738091995 -106.24473205918912 0 0 0 0 -38.996345596051484 888.75512895710517 0 888.75512895710517 548.81923223804915 0 0 0 0 -9.7656077270202104 -186.83219579116849 0 -186.83219579116849 -501.59559510686086 0 0 0 0 -10.71585947217568 -182.34362625310314 0 -182.34362625310314 -338.90379715739982 0 0 0 0 10.398026319196504 -160.29705889464822 0 -160.29705889464822 -318.2462233822298 0 0 0 0 30.50432483323948 -174.3524199757303 0 -174.3524199757303 -406.94179819745477 0 0 0 0 31.734419477297138 -156.82610966618813 0 -156.82610966618813 -344.21583346441912 0 0 0 0 25.61288066971747 -187.00993652279431 0 -187.00993652279431 -331.24555787925055 0 0 0 0 19.250323097623323 -156.05541773556615 0 -156.05541773556615 -282.82017518786597 0 0 0 0 -8.3155540163212152 -192.12438213139831 0 -192.12438213139831 -180.20662032358814 0 0 0 0 -81.492121042346071 -197.19136249809526 0 -197.19136249809526 -109.56419129142887 0 0 0 0 5.3167342664543185 -198.8504953081283 0 -198.8504953081283 -301.22790879264357 0 0 0 0 47.871613811007137 -245.90241198783042 0 -245.90241198783042 -323.89251741428598 0 0 0 0 -103.84738958644175 -233.03828683589381 0 -233.03828683589381 -308.44459680164437 0 0 0 0 3.738837596582016 -172.36831653823901 0 -172.36831653823901 -329.54572411366098 0 0 0 0 36.766848725556429 -147.73608756859903 0 -147.73608756859903 -318.92550814645074 0 0 0 0 78.960008599045977 -105.87016591960128 0 -105.87016591960128 -251.6483653865107 0 0 0 0 18.406482175952505 -170.00119160106146 0 -170.00119160106146 -283.32347319142718 0 0 0 0 157.80507498143629 -276.67501091549821 0 -276.67501091549821 -301.17629041544569 0 0 0 0 -79.859284099936303 -265.48748934175819 0 -265.48748934175819 -296.74692067287833 0 0 0 0 12.80234066084904 -107.98683987026016 0 -107.98683987026016 -215.26452480665466 0 0 0 0 49.732683151100218 57.281866132849245 0 57.281866132849245 -258.06850508137359 0 0 0 0 -85.546773373310316 140.9023247257719 0 140.9023247257719 -177.33391392099293 0 0 0 0 217.28110398150915 121.50764576914662 0 121.50764576914662 -132.12992295269214 0 0 0 0 -2.2765910973547232 8.9521602254047181 0 8.9521602254047181 -28.74545894594155 0 0 0 0 -76.153642359788819 -84.547299839534389 0 -84.547299839534389 108.31601707910886 0 0 0 0 8.5227216491866784 -99.381015679726261 0 -99.381015679726261 -172.16905692934233 0 0 0 0 6.0082996266285136 90.53390798647888 0 90.53390798647888 56.882982784347405 0 0 0 0 372.74864148549329 487.70523987434035 0 487.70523987434035 -266.78997880406678 0 0 0 0 21.033965403905086 112.29801256563223 0 112.29801256563223 1.7246575528743051 0 0 0 0 130.47136649930053 -297.85747080956935 0 -297.85747080956935 134.93935631032218 0 0 0 0 -559.86974129867826 -605.06476149353512 0 -605.06476149353512 56.256999803474173 0 0 0 0 -110.22681445542935 -38.242422901297687 0 -38.242422901297687 43.967646408709697 0 0 0 0 135.26395288654123 -17.684530508813623 0 -17.684530508813623 -103.31810278422199 0 0 0 0 -236.80339076548694 121.5961765460961 0 121.5961765460961 -22.549622132151853 0 0 0 0 623.06758645697983 -436.55867724281052 0 -436.55867724281052 -79.867509926058119 0 0 0 0 -0.099476052148900873 -0.9779186589820128 0 -0.9779186589820128 1.5785325779519894 0 0 0 0 344.48769466290014 89.128826611406112 0 89.128826611406112 32.901988336867362 0 0 0 0 342.4662829803417 129.8732645634982 0 129.8732645634982 5.3967476361867739 0 0 0 0 0.87932168856040294 7.9856316378529399 0 7.9856316378529399 0.46888309460723576 0 0 0 0 643.65832343686725 18.929241281795839 0 18.929241281795839 -193.99990205224458 0 0 0 0 286.81505452509191 -51.786020057665155 0 -51.786020057665155 -41.10081278879079 0 0 0 0 0.85737438708303815 11.342899079282876 0 11.342899079282876 -43.559966812379969 0 0 0 0 83.297662938977737 -49.003432817422436 0 -49.003432817422436 -13.673145410750294 0 0 0 0 118.90695743958167 16.345422102269367 0 16.345422102269367 -51.08152386371512 0 0 0 0 -109.60909812670297 14.888052831054665 0 14.888052831054665 102.53204225140507 0 0 0 0 51.549557967394549 6.3094433663245582 0 6.3094433663245582 47.664447695220588 0 0 0 0 -173.4963530707459 -385.67927299405574 0 -385.67927299405574 -1260.1153763900802 0 0 0 0 -258.18581251865908 -95.541896349670424 0 -95.541896349670424 -423.91141182280808 0 0 0 0 205.6839346475299 174.98305384394553 0 174.98305384394553 -501.52912990190089 0 0 0 0 330.37215050958991 196.64247279699157 0 196.64247279699157 -314.89654475034331 0 0 0 0 61.34066442789026 32.57882765224349 0 32.57882765224349 -172.63091712187088 0 0 0 0 92.12736917342454 -31.880352908060559 0 -31.880352908060559 -584.68208716038498 0 0 0 0 517.2058095640582 -206.85621020415419 0 -206.85621020415419 -375.82637891410559 0 0 0 0 338.82279527296464 19.749456849781382 0 19.749456849781382 -325.87029138189973 0 0 0 0 17.24238724350289 -224.72134951366024 0 -224.72134951366024 -83.415090074078762 0 0 0 0 9.2106496017361223 -165.36900645347487 0 -165.36900645347487 -386.06908973889949 0 0 0 0 -1014.7493608469401 -928.22582000068451 0 -928.22582000068451 -727.73942244177306 0 0 0 0 -734.27933685253447 -249.12744058637327 0 -249.12744058637327 -264.56716133074951 0 0 0 0 -381.73785370787664 -438.4541684438409 0 -438.4541684438409 -469.01595360264764 0 0 0 0 -338.47892907210689 -308.13120592004998 0 -308.13120592004998 -479.48813170783978 0 0 0 0 128.80910915366454 29.113281370209052 0 29.113281370209052 -199.50057588164054 0 0 0 0 -557.99467433498057 -575.70684709562192 0 -575.70684709562192 -267.68070875904959 0 0 0 0 0.64895173452589461 3.5430631207017811 0 3.5430631207017811 -18.904043680073926 0 0 0 0 -238.76442632772159 -340.9590057128662 0 -340.9590057128662 -162.63723281102648 0 0 0 0 86.164491720914157 -96.577100380985939 0 -96.577100380985939 -206.9168117922527 0 0 0 0 -230.82163919023787 -474.7113077247559 0 -474.7113077247559 -263.53576502214855 0 0 0 0 -100.57554916143908 -236.73791468139825 0 -236.73791468139825 -314.85790639589356 0 0 0 0 -420.14590528918643 -190.82747613695392 0 -190.82747613695392 -162.20632057500188 0 0 0 0 -189.87654297564222 -191.27166834528543 0 -191.27166834528543 -314.06561876900378 0 0 0 0 127.17494693817162 60.380417083932116 0 60.380417083932116 -49.313498903502477 0 0 0 0 31.670369674916401 -9.7362852938385913 0 -9.7362852938385913 -46.123500386794831 0 0 0 0 73.725291178031867 -59.748877771833691 0 -59.748877771833691 13.351894136416377 0 0 0 0 27.203801721165291 5.7914153717210866 0 5.7914153717210866 11.044974138161933 0 0 0 0 82.906937102346689 -42.359419726871238 0 -42.359419726871238 -60.061507872844231 0 0 0 0 85.118734840712534 4.1805878037595221 0 4.1805878037595221 -52.15199692780152 0 0 0 0 -5.3006137495322037 17.13741834353641 0 17.13741834353641 -53.160299220632623 0 0 0 0 37.084262137194173 -30.634228124865331 0 -30.634228124865331 -80.159601975843543 0 0 0 0 22.317053345776763 -16.680898771715789 0 -16.680898771715789 -35.272307813227656 0 0 0 0 15.363367692548309 44.307956040895078 0 44.307956040895078 -84.119249777737423 0 0 0 0 19.642409704229976 -42.89862789648032 0 -42.89862789648032 31.328317870167666 0 0 0 0 -167.71585732394101 -235.56185559753067 0 -235.56185559753067 -297.20034437329741 0 0 0 0 26.853067053727329 11.453124819611276 0 11.453124819611276 -80.345994308976515 0 0 0 0 3.9741487611790891 7.5156628574123232 0 7.5156628574123232 -35.007357464847303 0 0 0 0 21.699594449970391 -26.320648267439537 0 -26.320648267439537 -21.098532187934325 0 0 0 0 -96.247608154048976 -184.18617045650899 0 -184.18617045650899 -321.12169945198139 0 0 0 0 -8.0992982306931935 -165.16229655874486 0 -165.16229655874486 -321.4581152440951 0 0 0 0 54.377608249693822 -199.46250534270075 0 -199.46250534270075 -306.488991002072 0 0 0 0 -12.618318642137865 -131.51651646434766 0 -131.51651646434766 -317.20021381504193 0 0 0 0 4.2152016285465148 -1.0043475616260054 0 -1.0043475616260054 -7.9244859540082473 0 0 0 0 -105.1785248879969 -168.47584086690767 0 -168.47584086690767 -329.63111507426947 0 0 0 0 -7.2098092648749912 -114.3054205806402 0 -114.3054205806402 -351.52877350340714 0 0 0 0 13.353459912776543 -101.24125659096171 0 -101.24125659096171 -387.06440030675367 0 0 0 0 30.421103323952138 -152.19647889822227 0 -152.19647889822227 -357.46637812090921 0 0 0 0 23.500677560473832 -137.13571677505388 0 -137.13571677505388 -348.32560467891744 0 0 0 0 17.743021891314299 -132.10850557695812 0 -132.10850557695812 -301.45009460995789 0 0 0 0 15.159067781988597 -163.56449579137552 0 -163.56449579137552 -322.46979473046667 0 0 0 0 -65.915445479639914 -129.12751108167868 0 -129.12751108167868 -220.27715475208242 0 0 0 0 9.9771642151889495 -165.06975468424207 0 -165.06975468424207 -289.76384282077197 0 0 0 0 -66.093703063458307 -130.10489917108907 0 -130.10489917108907 -99.945721008989494 0 0 0 0 -63.034907931701127 2.3951480325340526 0 2.3951480325340526 -283.33858129206055 0 0 0 0 -94.278727102306334 -317.27223468660668 0 -317.27223468660668 -9.5369621485442622 0 0 0 0 -185.9454098147985 -146.11181760887848 0 -146.11181760887848 -98.039024230994983 0 0 0 0 -113.88139359017111 -221.57116427675646 0 -221.57116427675646 -23.179107914009364 0 0 0 0 84.701196672346668 -278.38797421478375 0 -278.38797421478375 -143.31641668916564 0 0 0 0 -27.044432211162189 -212.48278489505174 0 -212.48278489505174 -183.50397691017861 0 0 0 0 -28.517525932401213 -217.18626615015091 0 -217.18626615015091 -165.46563234581845 0 0 0 0 -85.409921020506772 -317.53351238237519 0 -317.53351238237519 -99.818704572142451 0 0 0 0 241.81987901267212 -295.81578413465468 0 -295.81578413465468 -94.216504232455918 0 0 0 0 162.30878892187928 -365.90228062764618 0 -365.90228062764618 -123.4709934128914 0 0 0 0 119.16855585427777 -193.16712037303296 0 -193.16712037303296 -106.87655261525651 0 0 0 0 -336.23866001444128 -434.10612876044615 0 -434.10612876044615 66.102382435667096 0 0 0 0 119.22865861408218 0.57983823144604685 0 0.57983823144604685 -66.0991824843004 0 0 0 0 23.233566388794316 -39.863559357872873 0 -39.863559357872873 20.06701684332802 0 0 0 0 11.673721710930526 -14.728410703339371 0 -14.728410703339371 -0.47295091164380665 0 0 0 0 -92.641194580901356 -46.025578974367818 0 -46.025578974367818 33.690655243699439 0 0 0 0 -25.6736027900306 -223.64190488688473 0 -223.64190488688473 -195.10381549503654 0 0 0 0 10.645779487186246 -227.98129035513557 0 -227.98129035513557 -113.81950571673224 0 0 0 0 53.031091390653501 -135.7237569350691 0 -135.7237569350691 -99.461084627197124 0 0 0 0 121.55626674462292 -45.222799679359014 0 -45.222799679359014 -27.307727021572646 0 0 0 0 185.67432360931707 -96.298253931992804 0 -96.298253931992804 -111.66337400636621 0 0 0 0 144.23932022673307 -185.08017549870419 0 -185.08017549870419 -124.10605743425549 0 0 0 0 161.11283421701455 -198.42456384561956 0 -198.42456384561956 -121.60437248845119 0 0 0 0 137.67263344377079 -201.03120424601366 0 -201.03120424601366 -107.01757649684441 0 0 0 0 368.3350897351811 -197.16810811654432 0 -197.16810811654432 -106.9529159576814 0 0 0 0 247.02965527807299 -145.2355345267988 0 -145.2355345267988 -69.699907548085321 0 0 0 0 600.33098963886187 119.68368492822628 0 119.68368492822628 62.953691519098356 0 0 0 0 230.45075045924932 106.66888111956814 0 106.66888111956814 27.453537916881032 0 0 0 0 551.28967866544008 275.75626098635257 0 275.75626098635257 -8.1090078491251916 0 0 0 0 404.20033727528562 122.10036213716376 0 122.10036213716376 120.90460480138427 0 0 0 0 1.7523217086026688 -1.6339601290665655 0 -1.6339601290665655 -0.46731001699717467 0 0 0 0 411.06016350892412 -346.32910837268719 0 -346.32910837268719 24.538420728815254 0 0 0 0 610.5545074517413 -84.935628701379756 0 -84.935628701379756 -63.189556633442407 0 0 0 0 1056.8361259952774 -303.36002646605834 0 -303.36002646605834 -4.7671701350773219 0 0 0 0 1041.4184145423317 188.17135707457783 0 188.17135707457783 39.529264051518112 0 0 0 0 -1.8452220542642377 -2.0544656964354502 0 -2.0544656964354502 3.2895917500844405 0 0 0 0 396.81782399599888 -532.3164775651021 0 -532.3164775651021 615.07031871457002 0 0 0 0 -26.740931104096859 -117.3138855967336 0 -117.3138855967336 706.21246959042037 0 0 0 0 22.652178130637452 8.4273467368584534 0 8.4273467368584534 478.65190043323673 0 0 0 0 -189.21162125896768 -318.04320934935822 0 -318.04320934935822 -57.50316702148848 0 0 0 0 -321.19618029381428 -542.76214957645425 0 -542.76214957645425 -198.00552889937535 0 0 0 0 220.6895324100758 -235.15594410179619 0 -235.15594410179619 16.036580095533282 0 0 0 0 -59.354068283623747 -535.92221933480687 0 -535.92221933480687 112.52465869154548 0 0 0 0 370.91735512433911 325.0415021351655 0 325.0415021351655 315.96803314356657 0 0 0 0 231.07336145932715 -413.97936892314465 0 -413.97936892314465 843.26089349786344 0 0 0 0 57.222822392990111 -5.5266385756403906 0 -5.5266385756403906 -30.536094344992307 0 0 0 0 -298.51640231725537 -200.20561467967491 0 -200.20561467967491 124.08183862607984 0 0 0 0 -62.270009320131237 262.46512452391471 0 262.46512452391471 -118.39968578762273 0 0 0 0 -51.987402379872947 93.422803329420276 0 93.422803329420276 202.48697271845595 0 0 0 0 356.17318006201435 -47.481491237522278 0 -47.481491237522278 -103.81454955186928 0 0 0 0 -3.9298671591619723 179.59140196118096 0 179.59140196118096 -202.48186585304211 0 0 0 0 -249.83708841464681 389.88994331065624 0 389.88994331065624 -431.16189918054442 0 0 0 0 -473.08374840568843 84.708625406443389 0 84.708625406443389 -180.99076549662277 0 0 0 0 55.85492938609309 -104.48751010932028 0 -104.48751010932028 118.4880372238913 0 0 0 0 275.44480578337425 -312.04363977854518 0 -312.04363977854518 287.82873409680906 0 0 0 0 735.04976652328537 120.08413738148374 0 120.08413738148374 -34.780029526329599 0 0 0 0 246.92028937552959 2.3803301146454032 0 2.3803301146454032 -282.60789946712612 0 0 0 0 152.14870281413292 -188.87166655377223 0 -188.87166655377223 -6.7285449091868941 0 0 0 0 72.819194533330119 -53.019481962494865 0 -53.019481962494865 -209.33445049467264 0 0 0 0 58.425692542639695 -159.6600567582791 0 -159.6600567582791 -2.1573626621684525 0 0 0 0 82.207777687654243 -126.67949321701599 0 -126.67949321701599 12.541090980470472 0 0 0 0 20.147279804612708 -145.32348821887717 0 -145.32348821887717 293.37782908638474 0 0 0 0 110.73674170984759 -115.42219471637509 0 -115.42219471637509 -0.49053068353532581 0 0 0 0 43.43704888697448 -66.792191640903184 0 -66.792191640903184 69.017928146509803 0 0 0 0 24.56866362928713 -206.42099139434322 0 -206.42099139434322 124.33587997680297 0 0 0 0 -4.7650198803000023 -4.4366153232035686 0 -4.4366153232035686 -2.7807209174909815 0 0 0 0 42.654923567396054 -70.42455140220045 0 -70.42455140220045 70.718443683159421 0 0 0 0 42.209114297024371 -70.179069948604592 0 -70.179069948604592 73.218753361536073 0 0 0 0 -8.3809546784677877 -90.104344902109005 0 -90.104344902109005 299.31457317553577 0 0 0 0 21.394529983392204 -30.242558411220671 0 -30.242558411220671 16.343460051901275 0 0 0 0 15.738390675205665 -31.605292823260243 0 -31.605292823260243 29.689909016755337 0 0 0 0 -7.3048786870329341 -5.7984171453976785 0 -5.7984171453976785 -2.8507509543283618 0 0 0 0 -78.677374685330506 6.7345977713630418 0 6.7345977713630418 -317.80610400656587 0 0 0 0 -34.450100406823594 9.7871790268000041 0 9.7871790268000041 -376.86892913567135 0 0 0 0 7.1781567371785684 -7.9067333706952923 0 -7.9067333706952923 -397.56334263071767 0 0 0 0 -114.0058646386982 139.44586975182028 0 139.44586975182028 -474.21689813978446 0 0 0 0 -129.65569049672013 144.44421823649463 0 144.44421823649463 -483.47961008616403 0 0 0 0 -127.58462411773189 23.419352009630529 0 23.419352009630529 -324.47976598479727 0 0 0 0 32.634745901005317 -97.506580281351489 0 -97.506580281351489 -303.96118944507907 0 0 0 0 -9.4700208662170553 7.3408300190058071 0 7.3408300190058071 -388.00191308780632 0 0 0 0 -49.061812931472559 -67.327666689547186 0 -67.327666689547186 -255.14673027105164 0 0 0 0 -14.642358822243068 -103.87641411059303 0 -103.87641411059303 -161.44617657830531 0 0 0 0 1.3112441891739763 -65.797092139284359 0 -65.797092139284359 74.853589794533036 0 0 0 0 51.29937971721165 -66.142380589451932 0 -66.142380589451932 -268.87881944975379 0 0 0 0 82.603686247244013 -119.2200952171479 0 -119.2200952171479 -162.9237764813879 0 0 0 0 -7.2686520839138211 -124.21283148637303 0 -124.21283148637303 -0.95421990419708891 0 0 0 0 52.207139329688744 -63.467336206922482 0 -63.467336206922482 -310.84776840135328 0 0 0 0 -46.074223888881761 -23.281067371623067 0 -23.281067371623067 -228.69935034457012 0 0 0 0 83.903966277587301 -113.54532962679514 0 -113.54532962679514 -204.35353216488147 0 0 0 0 15.547155282054746 -39.131240905240702 0 -39.131240905240702 -136.45803688082378 0 0 0 0 76.740589329974767 -33.771813327337441 0 -33.771813327337441 -328.11911761878582 0 0 0 0 20.985293054520184 -47.037297487717296 0 -47.037297487717296 -202.17075625955476 0 0 0 0 20.872333123011231 160.98264866374998 0 160.98264866374998 -338.93203133948555 0 0 0 0 -197.03338586315567 227.94354171160376 0 227.94354171160376 -433.78043450209225 0 0 0 0 -86.810794754296751 60.169688640417007 0 60.169688640417007 -339.54243876527744 0 0 0 0 -200.97318707260035 335.7220079490362 0 335.7220079490362 -430.28354256527382 0 0 0 0 -12.426886381833356 144.5764509045257 0 144.5764509045257 -336.55281308406848 0 0 0 0 -91.74527964522008 95.591785605807672 0 95.591785605807672 -374.42522055206064 0 0 0 0 -341.51604493143441 258.77072983471589 0 258.77072983471589 -438.65303272860183 0 0 0 0 -373.96380890425769 361.49535842684236 0 361.49535842684236 -491.1453227326565 0 0 0 0 -570.9649370802922 281.85391132853692 0 281.85391132853692 -483.69295981143659 0 0 0 0 -290.26761995252195 160.26468922629283 0 160.26468922629283 -474.77787761934451 0 0 0 0 -444.17447469622721 132.60464849514392 0 132.60464849514392 -653.52473465402727 0 0 0 0 -251.61097634123968 261.43116122063657 0 261.43116122063657 -571.4441633474853 0 0 0 0 -506.03938339764818 314.4353851171536 0 314.4353851171536 -506.48028147430159 0 0 0 0 -40.144565465335631 120.08671833263361 0 120.08671833263361 -499.64694884812343 0 0 0 0 -252.60923609180031 171.50246505604446 0 171.50246505604446 -475.65710340385704 0 0 0 0 -159.30906304129758 224.33748709745123 0 224.33748709745123 -683.85179108109151 0 0 0 0 -176.30553017135077 119.51303675059899 0 119.51303675059899 -452.09664302966848 0 0 0 0 -269.24367871193635 235.6658118356936 0 235.6658118356936 -634.37939170336904 0 0 0 0 -215.51268948011287 379.53573707775649 0 379.53573707775649 -888.37847438223253 0 0 0 0 -205.256494627758 285.39994515373883 0 285.39994515373883 -654.76004267131793 0 0 0 0 -345.61083477254601 181.5067293770262 0 181.5067293770262 -1048.5029851923609 0 0 0 0 -742.82810098916661 153.63107747801405 0 153.63107747801405 -611.61567596783425 0 0 0 0 -289.09663338057453 314.4503213524149 0 314.4503213524149 -773.46153587730078 0 0 0 0 -197.8180005222024 508.73881580083253 0 508.73881580083253 -1333.9859659431677 0 0 0 0 -264.04645835884367 353.22272669856102 0 353.22272669856102 -956.21568631990522 0 0 0 0 -199.87788715887712 512.6640351324022 0 512.6640351324022 -923.74792473962589 0 0 0 0 -261.12505855874474 502.57055314321769 0 502.57055314321769 -798.26205571283936 0 0 0 0 -261.64776526119738 527.31921704116758 0 527.31921704116758 -903.75459058496926 0 0 0 0 -402.74437291402774 576.03492470292986 0 576.03492470292986 -685.4033189735419 0 0 0 0 -347.61990908899247 514.86384925470338 0 514.86384925470338 -724.91508921464265 0 0 0 0 -302.13620919973755 388.5989063218658 0 388.5989063218658 -500.81450576534553 0 0 0 0 -250.21090635894961 307.09343556540989 0 307.09343556540989 -521.14284811420657 0 0 0 0 -213.5721206909534 302.79920193950966 0 302.79920193950966 -632.42962028338661 0 0 0 0 -108.02401406597869 118.57590661658469 0 118.57590661658469 -573.88571029227751 0 0 0 0 -136.14252752113407 3.8358781246370199 0 3.8358781246370199 -252.75656810701184 0 0 0 0 -80.005387240546042 77.482659247070842 0 77.482659247070842 -451.60798513407644 0 0 0 0 -294.87199697284484 190.1186956007241 0 190.1186956007241 -324.19934929013834 0 0 0 0 -303.11963281328076 105.7265865340687 0 105.7265865340687 -180.81227665756887 0 0 0 0 -226.92385990106641 200.36001275887247 0 200.36001275887247 -425.02109465117974 0 0 0 0 -464.91154631103859 372.40599466842832 0 372.40599466842832 -297.1471865016938 0 0 0 0 -425.72222528491784 468.55720311533878 0 468.55720311533878 -473.52191286901507 0 0 0 0 -685.0037985008164 656.36054924980999 0 656.36054924980999 -271.58419777079689 0 0 0 0 -414.93837749167881 653.77073785683751 0 653.77073785683751 -615.37846112071566 0 0 0 0 -706.29418243170471 1033.4063881986658 0 1033.4063881986658 -915.92019605685346 0 0 0 0 -256.28277121693293 932.70972797675859 0 932.70972797675859 -1355.1647073310014 0 0 0 0 -408.50097964681441 1067.6236146512174 0 1067.6236146512174 -1396.0706068890722 0 0 0 0 -960.96152278123714 1453.3046721402534 0 1453.3046721402534 -1094.2658997331164 0 0 0 0 -359.6209819448232 963.19763242146928 0 963.19763242146928 -2624.6578233153632 0 0 0 0 -1163.735026625211 795.9107339141483 0 795.9107339141483 -2473.2934116541401 0 0 0 0 68.391421622883286 1127.826508651764 0 1127.826508651764 -1919.6258679143621 0 0 0 0 62.059531993711353 379.2994825133037 0 379.2994825133037 -3492.3291905584992 0 0 0 0 -204.18490822864709 105.60778865300017 0 105.60778865300017 -3192.5855498663223 0 0 0 0 898.98111169889182 267.2847760432669 0 267.2847760432669 -1143.4195526582371 0 0 0 0 675.32633274191039 1307.4025049105912 0 1307.4025049105912 -3493.4095280610709 0 0 0 0 361.4938690351828 -760.03803801033098 0 -760.03803801033098 -117.32461292170046 0 0 0 0 1.7602610990141838 -1.3355119434803981 0 -1.3355119434803981 -10.225704819887738 0 0 0 0 362.69038073833269 -397.80842878772091 0 -397.80842878772091 -2189.7105155041863 0 0 0 0 199.67732363677237 925.88249059424561 0 925.88249059424561 -1389.7222217616618 0 0 0 0 208.575582051081 845.44245094652752 0 845.44245094652752 -1960.8241089338844 0 0 0 0 1350.3067650322828 -1088.3562481328554 0 -1088.3562481328554 -1297.4931492301548 0 0 0 0 938.68946715194306 -868.80599905945564 0 -868.80599905945564 -947.63441523719666 0 0 0 0 1.5099460958576598 -2.0289144194624384 0 -2.0289144194624384 -9.136125434794792 0 0 0 0 -12.253407302567211 102.89061421294173 0 102.89061421294173 -2142.3843064328685 0 0 0 0 28.146836433766794 479.2378715053128 0 479.2378715053128 -1275.8260651457531 0 0 0 0 202.59137074672634 784.33565428537986 0 784.33565428537986 -1681.7210938598801 0 0 0 0 16.716318733303524 604.8452870954934 0 604.8452870954934 -1517.1820648746216 0 0 0 0 -188.80909608428351 797.25755279928853 0 797.25755279928853 -1096.1149998839537 0 0 0 0 -182.90859519876506 785.94882311241236 0 785.94882311241236 -1265.9084759551333 0 0 0 0 -250.92451723573495 686.35350677118822 0 686.35350677118822 -1098.0437770822755 0 0 0 0 -221.0847490410647 676.84262282502459 0 676.84262282502459 -1132.2390395289622 0 0 0 0 -343.14373482563025 792.24778477749351 0 792.24778477749351 -1094.6141299648589 0 0 0 0 -267.7769658867623 639.858731468521 0 639.858731468521 -845.3188331286874 0 0 0 0 -236.31221639311173 464.21497387345153 0 464.21497387345153 -705.22503994499857 0 0 0 0 -223.0587414339584 479.85058937490976 0 479.85058937490976 -1255.9864006342686 0 0 0 0 -219.45820771385391 635.16998024248574 0 635.16998024248574 -915.80604181162198 0 0 0 0 -190.04386796223685 802.35705081590822 0 802.35705081590822 -817.84194637801556 0 0 0 0 -206.28794881305566 736.13816905139538 0 736.13816905139538 -1086.8052328675185 0 0 0 0 440.30798197922104 -31.115767311748641 0 -31.115767311748641 -355.51524298706681 0 0 0 0 -4.7460665190137661 881.88533729359915 0 881.88533729359915 -84.189510644338952 0 0 0 0 69.233759960651895 231.39172723334673 0 231.39172723334673 -482.45256021001842 0 0 0 0 75.048210910344096 503.30350710186758 0 503.30350710186758 -1021.8034625045984 0 0 0 0 406.00629219973302 60.297691732714156 0 60.297691732714156 6.4017941935380804 0 0 0 0 367.52584423693247 -68.760352844165027 0 -68.760352844165027 -359.97925451528863 0 0 0 0 430.36035113955904 -415.33507647431543 0 -415.33507647431543 -1789.5477981894728 0 0 0 0 7.0999105450434792 -4.1994817798286732 0 -4.1994817798286732 0.32348502559623427 0 0 0 0 308.12404694004181 -316.17843428444394 0 -316.17843428444394 159.90241726257955 0 0 0 0 -110.62288931135936 -13.299622527487372 0 -13.299622527487372 3.6017264577167225 0 0 0 0 -325.70750044296437 118.13865570208873 0 118.13865570208873 -708.99145897522976 0 0 0 0 695.58554632737378 -501.59273354462493 0 -501.59273354462493 -132.42412222499843 0 0 0 0 1179.1806394192845 -198.28060225002992 0 -198.28060225002992 -996.52825218095677 0 0 0 0 1071.0206908574646 -705.72305877341569 0 -705.72305877341569 -1233.1248136719712 0 0 0 0 371.62629118630639 582.82279589259269 0 582.82279589259269 -1189.4504360352585 0 0 0 0 772.63689356899295 -345.05701102736748 0 -345.05701102736748 -1693.8630880598939 0 0 0 0 325.06112911291245 -517.93360791695886 0 -517.93360791695886 -1705.9045836642254 0 0 0 0 1024.0620078389757 -838.24472459182653 0 -838.24472459182653 -1603.2470041318738 0 0 0 0 -154.23320956497287 -468.56822721337812 0 -468.56822721337812 -1650.1070399285964 0 0 0 0 336.94114270742432 -339.37263002393706 0 -339.37263002393706 -1958.4822852486104 0 0 0 0 352.98944705742883 -674.1910188012007 0 -674.1910188012007 -2191.5095717388758 0 0 0 0 968.55844956551562 263.08690438732447 0 263.08690438732447 -2495.0675703306006 0 0 0 0 962.60167619039703 -386.99825966384378 0 -386.99825966384378 -3502.4110033206307 0 0 0 0 54.213366337642583 214.44859645994438 0 214.44859645994438 -264.88496533388388 0 0 0 0 -1342.8802666001443 -822.1190732474106 0 -822.1190732474106 -127.02376136115345 0 0 0 0 -7.3632836869597362 -6.450587239069506 0 -6.450587239069506 -12.332090295551922 0 0 0 0 320.30974480667476 -708.99854540061642 0 -708.99854540061642 -1898.3260260044917 0 0 0 0 -535.20143273676194 -2309.711404462978 0 -2309.711404462978 -3491.634133127633 0 0 0 0 20.111874456055226 -6.7298201585383737 0 -6.7298201585383737 -5.7874460513753192 0 0 0 0 -152.68322165173981 -506.90027524208426 0 -506.90027524208426 -947.7354853060242 0 0 0 0 -566.59147749666283 -1254.9970562232702 0 -1254.9970562232702 -1687.2088540639506 0 0 0 0 1.2368199149824388 24.94016187484165 0 24.94016187484165 -17.089548773241106 0 0 0 0 -127.12577125547159 316.90214978596123 0 316.90214978596123 -208.8956637904339 0 0 0 0 4.0222986985003386 2.3650800004941743 0 2.3650800004941743 -0.85794472698825075 0 0 0 0 136.52206912443143 -85.547304235221418 0 -85.547304235221418 -840.15810931801389 0 0 0 0 146.0481932063463 -136.70480594793662 0 -136.70480594793662 -839.72043356444919 0 0 0 0 376.27375152364857 -40.054451912619697 0 -40.054451912619697 -874.32432780318777 0 0 0 0 101.40194186707322 58.825066973346111 0 58.825066973346111 -160.1257599281671 0 0 0 0 -9.9489173828546846 27.899973415311592 0 27.899973415311592 -34.741014805957718 0 0 0 0 -331.48566461750136 -896.40992707031182 0 -896.40992707031182 -1125.4704317014257 0 0 0 0 180.43735852071006 -287.18316990773747 0 -287.18316990773747 -825.94069836136487 0 0 0 0 -6.0748415064713646 14.605277046856244 0 14.605277046856244 -25.72871195781903 0 0 0 0 214.56129611063011 -271.60818308658054 0 -271.60818308658054 -1153.2599295014807 0 0 0 0 775.15102255884108 -496.32463415268285 0 -496.32463415268285 -1078.0063935853686 0 0 0 0 355.35278426173033 -151.92898097521538 0 -151.92898097521538 -498.11833304974425 0 0 0 0 916.29426495559824 -15.590164064416967 0 -15.590164064416967 -800.27916806115536 0 0 0 0 1172.4064553404755 17.674617356311501 0 17.674617356311501 -162.09508220757562 0 0 0 0 606.81721632977053 309.77260084902809 0 309.77260084902809 -253.58905109752959 0 0 0 0 -155.97544059225152 192.70211405073496 0 192.70211405073496 -793.56814946403756 0 0 0 0 585.33406631352682 -248.53637875618733 0 -248.53637875618733 -572.04634511156837 0 0 0 0 329.59373722122945 -600.71192063621288 0 -600.71192063621288 -1192.538790289138 0 0 0 0 -231.60003992427801 -437.75666968956648 0 -437.75666968956648 -1069.931050054307 0 0 0 0 -570.66152295796746 380.12245078949491 0 380.12245078949491 -2043.5309203767072 0 0 0 0 -869.01753828786354 -1416.7184322261146 0 -1416.7184322261146 -2130.9427620766874 0 0 0 0 -2.1472296107959297 4.5831283971268846 0 4.5831283971268846 -9.532639932620242 0 0 0 0 61.236346600102706 753.69763417520517 0 753.69763417520517 -1479.518488105663 0 0 0 0 -424.41738282954475 -63.784398600022541 0 -63.784398600022541 -1866.1251502229352 0 0 0 0 -1126.7477909320605 98.984917247966223 0 98.984917247966223 -747.31532927055378 0 0 0 0 -701.67480054580938 214.74250864444184 0 214.74250864444184 -729.27406980355863 0 0 0 0 -840.70515141366468 399.50950849121 0 399.50950849121 -571.74045996450513 0 0 0 0 -304.06536326433047 -396.72828424847103 0 -396.72828424847103 -757.89298191019043 0 0 0 0 -211.81026177325361 -177.27412228571484 0 -177.27412228571484 -51.209554522953113 0 0 0 0 -997.14539798824978 603.39830775613154 0 603.39830775613154 -260.72393274633214 0 0 0 0 -1245.8945561158566 383.20259312137932 0 383.20259312137932 159.22266226487409 0 0 0 0 -968.00184138925601 175.71699936218101 0 175.71699936218101 -311.97635691003234 0 0 0 0 -807.8240404781393 457.08171314436186 0 457.08171314436186 -253.30699231650578 0 0 0 0 -756.27609025624088 490.7764825511149 0 490.7764825511149 -407.94702772659366 0 0 0 0 -479.38365747482601 462.44408871468841 0 462.44408871468841 -470.67487836215878 0 0 0 0 -602.28901483827474 661.71072175235531 0 661.71072175235531 -948.06536233126826 0 0 0 0 -427.59294911989764 342.60236867651474 0 342.60236867651474 -374.28687749290111 0 0 0 0 -756.08174900557151 693.52212005438923 0 693.52212005438923 -268.05119435469624 0 0 0 0 -1688.712183867975 1783.5134015647891 0 1783.5134015647891 -1530.148665825458 0 0 0 0 -2662.6385846941835 379.21225542285538 0 379.21225542285538 471.58650534853223 0 0 0 0 504.54515476334791 -1888.1998890698815 0 -1888.1998890698815 118.05427856092138 0 0 0 0 2852.5679760261291 -190.52020806984365 0 -190.52020806984365 -880.38440320905647 0 0 0 0 92.653676502585313 -393.06234647094971 0 -393.06234647094971 338.42955080297907 0 0 0 0 -5.5999500672948379 27.259643392144383 0 27.259643392144383 -55.932851824020702 0 0 0 0 1.8593956391679143 -4.5311085111588909 0 -4.5311085111588909 17.255055218323832 0 0 0 0 18.059785340980824 172.57761537029 0 172.57761537029 96.907264323388517 0 0 0 0 2676.962680903805 1503.1329503365123 0 1503.1329503365123 -72.73344860416546 0 0 0 0 771.39010369835 590.43767004751862 0 590.43767004751862 905.40175810204528 0 0 0 0 1013.6332422597386 -30.995397223137843 0 -30.995397223137843 -224.05286236949905 0 0 0 0 29.354653114739676 363.80472424212348 0 363.80472424212348 -109.83413232501334 0 0 0 0 173.40427618597408 246.95209502705984 0 246.95209502705984 310.83213677527965 0 0 0 0 123.08516655673138 110.26395704954484 0 110.26395704954484 -4.1487541614333168 0 0 0 0 81.62679508916159 78.070692074106773 0 78.070692074106773 -6.4113763164205011 0 0 0 0 179.41786595097719 129.55692983018525 0 129.55692983018525 -26.733480706621776 0 0 0 0 26.917318930508145 -3.4126428926974768 0 -3.4126428926974768 -33.826569966577154 0 0 0 0 0.055118550650054055 1.9410196898572361 0 1.9410196898572361 -25.196498085745418 0 0 0 0 28.574030397796108 -22.707277207830884 0 -22.707277207830884 16.883453339629341 0 0 0 0 8.9234422972365337 -31.862489623366855 0 -31.862489623366855 68.617836277306196 0 0 0 0 164.74333531501847 84.251015885223751 0 84.251015885223751 -219.29647857943201 0 0 0 0 305.13426504663977 -39.109692251055094 0 -39.109692251055094 -120.16611311319866 0 0 0 0 38.260377404895934 73.749736081037554 0 73.749736081037554 -110.27049245742091 0 0 0 0 164.49308604971617 -1.6514090712461424 0 -1.6514090712461424 -262.98031459496997 0 0 0 0 105.81898715211398 74.19889006917947 0 74.19889006917947 -397.06965184988803 0 0 0 0 32.616176624500042 54.515123372861126 0 54.515123372861126 -156.56643016135786 0 0 0 0 72.261845143915593 88.689754705206724 0 88.689754705206724 -403.19116779759497 0 0 0 0 9.0721066395987862 152.90306869949563 0 152.90306869949563 -156.90019078532239 0 0 0 0 0.56291993833511356 162.9074495367895 0 162.9074495367895 -41.631306000199402 0 0 0 0 55.520913490802059 114.48410175484605 0 114.48410175484605 -124.05890371428177 0 0 0 0 82.073137403358473 78.933911425112456 0 78.933911425112456 -78.050342546077445 0 0 0 0 21.427205190781024 113.45025921540946 0 113.45025921540946 -45.723070273830672 0 0 0 0 9.3476701689567676 106.15199818097244 0 106.15199818097244 -21.472672788484488 0 0 0 0 11.99759937441846 115.88425935338091 0 115.88425935338091 -46.207852267471026 0 0 0 0 -21.525921845140488 92.774658435060701 0 92.774658435060701 -62.00300095941202 0 0 0 0 -25.814527375824781 89.219935217581224 0 89.219935217581224 39.40949586906936 0 0 0 0 -23.802340134227563 179.89754421592806 0 179.89754421592806 -28.164634843080421 0 0 0 0 -554.41268768890768 872.77122976961982 0 872.77122976961982 -977.28032319367048 0 0 0 0 18.58647245422075 28.029820249041165 0 28.029820249041165 16.911722280755129 0 0 0 0 1.4637744610490842 136.308455400198 0 136.308455400198 -97.520362834351545 0 0 0 0 -43.887009921767458 1002.8125011879893 0 1002.8125011879893 -2072.8225045773434 0 0 0 0 -25.241249076865913 57.087020062837837 0 57.087020062837837 -92.862044886947842 0 0 0 0 78.362938127864197 63.505181010819797 0 63.505181010819797 -151.18890232380363 0 0 0 0 63.133529102085333 61.588766021013726 0 61.588766021013726 -138.4670219687323 0 0 0 0 95.370535912805849 46.081158275279449 0 46.081158275279449 -142.74376636608213 0 0 0 0 124.50750156609894 109.99081774894148 0 109.99081774894148 -16.251149144140072 0 0 0 0 57.962901683818274 117.12774883995007 0 117.12774883995007 -53.832719570287736 0 0 0 0 75.105755823948243 74.790360194208915 0 74.790360194208915 -59.693144568134812 0 0 0 0 175.95889017042902 19.468781526702514 0 19.468781526702514 -49.991274431231432 0 0 0 0 153.99435158968808 67.275629420062614 0 67.275629420062614 -62.155482824629871 0 0 0 0 102.1806044595171 104.86115551750845 0 104.86115551750845 -54.986197932215873 0 0 0 0 0.69457828881233408 8.3424968676504907 0 8.3424968676504907 -33.88110315521476 0 0 0 0 269.94190595707204 82.98952358400129 0 82.98952358400129 -92.781063242800883 0 0 0 0 4.5252169278984962 9.3291025191708883 0 9.3291025191708883 -60.027113552114884 0 0 0 0 1259.4922267899751 568.64323604544688 0 568.64323604544688 -230.50622022050084 0 0 0 0 17.287266432931119 20.986571757439378 0 20.986571757439378 -32.084642402520785 0 0 0 0 29.823891214239381 10.02590209475602 0 10.02590209475602 -160.99124543979997 0 0 0 0 8.2533891574965565 -1.1682553364835222 0 -1.1682553364835222 -86.287130078702745 0 0 0 0 789.95622672812738 185.48147590897861 0 185.48147590897861 79.315590199723374 0 0 0 0 715.2785791761371 -154.76863040768876 0 -154.76863040768876 -328.98819427366834 0 0 0 0 8.2298360397224037 -11.955971476786445 0 -11.955971476786445 -19.24653373899514 0 0 0 0 295.82227919796514 623.19627120328369 0 623.19627120328369 -3064.1798943779577 0 0 0 0 774.20069082093073 -515.02924847449754 0 -515.02924847449754 194.24430162858334 0 0 0 0 0.51107125253097152 0.8603940598891171 0 0.8603940598891171 -14.913463003969838 0 0 0 0 -8.1718774962118914 966.68727644313185 0 966.68727644313185 -2242.2747197204953 0 0 0 0 -61.912632713299899 50.910547299914469 0 50.910547299914469 -1663.404422843174 0 0 0 0 19.548192355121905 33.515512077283887 0 33.515512077283887 12.852300311422866 0 0 0 0 -25.027538682936552 -285.07569459586102 0 -285.07569459586102 -378.03000310469361 0 0 0 0 -586.00255633228744 315.07302466267356 0 315.07302466267356 -317.08099283951742 0 0 0 0 -67.389332896737869 388.73069779790239 0 388.73069779790239 -30.888839545135852 0 0 0 0 -484.08746258989004 485.67980171709132 0 485.67980171709132 -971.84336867727689 0 0 0 0 161.94256434098315 -91.843427188381611 0 -91.843427188381611 -1012.5353134199845 0 0 0 0 132.50409519618097 -45.910670968252816 0 -45.910670968252816 -108.22542360560328 0 0 0 0 1.5524601750548683 18.268596337331218 0 18.268596337331218 -19.217853117203731 0 0 0 0 -14.185193060573894 -19.418843372644801 0 -19.418843372644801 -35.437455378691595 0 0 0 0 -42.729908179773702 24.039159798223409 0 24.039159798223409 18.953570873803983 0 0 0 0 122.01379758807616 228.4265034953205 0 228.4265034953205 -436.65723449148936 0 0 0 0 -275.66607789334375 313.34016826451261 0 313.34016826451261 207.28768126339128 0 0 0 0 -619.3676257819377 1252.0673611744569 0 1252.0673611744569 -2922.3048259070201 0 0 0 0 -6.9600636244437242 -0.90159252142515811 0 -0.90159252142515811 -15.29182973203725 0 0 0 0 -1044.6169618763665 1904.5969222577842 0 1904.5969222577842 -3919.5238129491481 0 0 0 0 -1020.7512087105317 1820.6607651993982 0 1820.6607651993982 -2924.3716649562484 0 0 0 0 -1152.4593335847953 2184.1165123334576 0 2184.1165123334576 -3498.8912534107621 0 0 0 0 -432.7593618460707 1086.481404370159 0 1086.481404370159 -2904.403105826219 0 0 0 0 -460.52613796163962 1250.3316562755426 0 1250.3316562755426 -3174.1261035439165 0 0 0 0 -915.76411420767135 1645.0435607027648 0 1645.0435607027648 -3499.4871526511051 0 0 0 0 -1699.8407097600248 1588.1543009543093 0 1588.1543009543093 -2930.1919530888554 0 0 0 0 -1467.807158815094 555.98258448495471 0 555.98258448495471 -283.22376888592953 0 0 0 0 -414.38316323000618 1501.9286951463073 0 1501.9286951463073 -2425.7057552182778 0 0 0 0 -534.53160193512895 1045.4290649347749 0 1045.4290649347749 -2690.8299940529687 0 0 0 0 -156.63431220782689 1364.7262242374418 0 1364.7262242374418 -2829.5861394944077 0 0 0 0 -641.19039680845094 1245.6768305447986 0 1245.6768305447986 -1370.036825099749 0 0 0 0 -7.5255260092139373 -15.196193558646115 0 -15.196193558646115 -30.53166938800058 0 0 0 0 173.92065590894344 676.27067946991883 0 676.27067946991883 -1291.3762179948244 0 0 0 0 -578.66856937132252 382.99086107809853 0 382.99086107809853 -1404.9310676621099 0 0 0 0 -189.93413645756982 -5.8996265500973095 0 -5.8996265500973095 -806.31563745965832 0 0 0 0 -410.36287226634249 653.3720175585695 0 653.3720175585695 -1429.007650808031 0 0 0 0 -9.8715938290385861 -23.3125828964465 0 -23.3125828964465 -33.310689246003989 0 0 0 0 -420.07362146837619 481.59486813367039 0 481.59486813367039 -791.77810326639155 0 0 0 0 -187.21372692203425 657.26561135505472 0 657.26561135505472 -1431.5396323907371 0 0 0 0 -124.87778439108234 428.183453142301 0 428.183453142301 -1632.7268022320786 0 0 0 0 -151.17268308596488 871.2838058956404 0 871.2838058956404 -2234.5533735555509 0 0 0 0 -97.129003793297258 995.13418760549484 0 995.13418760549484 -2301.6867766150099 0 0 0 0 205.10113003811324 575.3382887806074 0 575.3382887806074 -2759.3095790181178 0 0 0 0 425.0533242083514 658.59869175036147 0 658.59869175036147 -3498.7860127059321 0 0 0 0 244.76778396277166 864.26992201502435 0 864.26992201502435 -2906.157680291104 0 0 0 0 153.0404507597629 1105.3895124550618 0 1105.3895124550618 -3499.7349772239249 0 0 0 0 0.004310323069106602 0.82283977267047703 0 0.82283977267047703 -6.5773278224566667 0 0 0 0 -0.0061994866594111252 3.8983679512570784 0 3.8983679512570784 -3496.6970175798633 0 0 0 0 342.93732739689079 346.21805433455302 0 346.21805433455302 -3341.8973330833251 0 0 0 0 339.40088482985993 403.55410429561744 0 403.55410429561744 -2966.6941464699994 0 0 0 0 220.17360860887166 684.88352913791778 0 684.88352913791778 -2855.5406606756296 0 0 0 0 98.958009564130521 340.52157374889794 0 340.52157374889794 -2331.6484897738628 0 0 0 0 47.479638398524742 494.83378843667015 0 494.83378843667015 -2276.3302774141339 0 0 0 0 -0.26030708109113621 205.82413005397393 0 205.82413005397393 -2776.5257192826466 0 0 0 0 0.22552874932024228 238.02532688086649 0 238.02532688086649 -2036.2913302630986 0 0 0 0 14.056181224570992 535.65166223492997 0 535.65166223492997 -2155.7856405804996 0 0 0 0 -114.40102996140918 472.03782008001872 0 472.03782008001872 -1410.5506945985107 0 0 0 0 -3.5112446611259429 482.94095676152938 0 482.94095676152938 -1409.6737102338229 0 0 0 0 -0.20643679592647204 178.98058291610394 0 178.98058291610394 -856.82461032505671 0 0 0 0 -190.04830934239925 397.17517072529154 0 397.17517072529154 -538.1449417932381 0 0 0 0 -0.35683597553740815 81.64383982984873 0 81.64383982984873 -296.55165329053125 0 0 0 0 -786.33149636258224 2527.5973762818248 0 2527.5973762818248 -1869.5826461431971 0 0 0 0 1.7494509862490308 -8.3030886833774389 0 -8.3030886833774389 -21.030333639882912 0 0 0 0 -100.33881617762493 164.09839191718311 0 164.09839191718311 -583.20516282162862 0 0 0 0 -279.46619862226788 387.74667473962472 0 387.74667473962472 -629.89572659047553 0 0 0 0 -160.63486951968707 763.45913275692146 0 763.45913275692146 -2089.5590005779522 0 0 0 0 -355.6051026658065 1039.8848620559438 0 1039.8848620559438 -2168.5976360050081 0 0 0 0 -4.3438020693746449 -19.257028680649711 0 -19.257028680649711 -32.905024708955125 0 0 0 0 13.000582970038916 18.758324761424319 0 18.758324761424319 9.5959069884616071 0 0 0 0 -390.16594564345542 590.38268380388035 0 590.38268380388035 -1722.5938780313008 0 0 0 0 -758.00221438134167 928.74818997083639 0 928.74818997083639 -1586.6006161647347 0 0 0 0 -40.806089055994619 105.99787007539999 0 105.99787007539999 135.29068803641712 0 0 0 0 84.265698143123672 122.83134897940181 0 122.83134897940181 64.122910709353164 0 0 0 0 32.527957238155835 170.87802290886611 0 170.87802290886611 79.706177298794501 0 0 0 0 -11.860821270781798 134.8610492671869 0 134.8610492671869 52.050618005683646 0 0 0 0 -210.31806498548318 -19.623312563227955 0 -19.623312563227955 969.62780469961581 0 0 0 0 -981.57844558333318 1831.4983464899924 0 1831.4983464899924 -3250.2537080181355 0 0 0 0 4.7121731618660156 6.4460954806509676 0 6.4460954806509676 1.5630389129262028 0 0 0 0 -217.47974768002308 762.29396981904574 0 762.29396981904574 429.65646982238104 0 0 0 0 151.6958543391892 266.98688641790795 0 266.98688641790795 -496.25678707179031 0 0 0 0 -7.5778819424622412 188.17038272600621 0 188.17038272600621 -435.50350899015029 0 0 0 0 28.62075265941121 182.83153385516925 0 182.83153385516925 -196.02824092595256 0 0 0 0 -7.1723500327415195 247.24339926657558 0 247.24339926657558 -17.763754468345724 0 0 0 0 6.4776673039740444 187.10823520172562 0 187.10823520172562 118.74169457169774 0 0 0 0 72.471453388778798 150.74304551215027 0 150.74304551215027 -362.50483265108051 0 0 0 0 89.713564145727275 399.55503479221443 0 399.55503479221443 -175.94102201849455 0 0 0 0 68.698026272789718 147.37888907649176 0 147.37888907649176 -187.83759216112958 0 0 0 0 126.78365491568862 33.655256091777119 0 33.655256091777119 -744.95344101050432 0 0 0 0 77.824648970958776 20.615941375173861 0 20.615941375173861 -487.08722393214703 0 0 0 0 117.95706808989692 196.05442238420073 0 196.05442238420073 -440.64348078766488 0 0 0 0 0.49172297958809352 -41.203370799518325 0 -41.203370799518325 -778.94819466902118 0 0 0 0 143.74099371913678 147.52888099844859 0 147.52888099844859 -623.15806610847358 0 0 0 0 -10.58802256337235 88.085386009341164 0 88.085386009341164 -573.94063697909587 0 0 0 0 -364.40829190868266 89.060852781418362 0 89.060852781418362 -724.49341276650011 0 0 0 0 42.830497533958521 242.8620383356174 0 242.8620383356174 -784.16126445178816 0 0 0 0 -132.07345231940133 251.63530414884553 0 251.63530414884553 -1201.7841171901455 0 0 0 0 -2.0575750102356976 86.225453995950375 0 86.225453995950375 -991.99919845689146 0 0 0 0 1.3121937993553947 -0.15263992496164747 0 -0.15263992496164747 -5.8514605574711993 0 0 0 0 -1128.1342772443954 1324.1017089202505 0 1324.1017089202505 -1253.7749384927884 0 0 0 0 -755.20052528384019 860.72301589386188 0 860.72301589386188 -1486.4911428120613 0 0 0 0 -1413.7348412355382 -253.96011175577587 0 -253.96011175577587 -1910.4093510474586 0 0 0 0 -184.35875847396363 970.58397493035955 0 970.58397493035955 -993.19795872655232 0 0 0 0 -226.62370562348906 61.307278818494524 0 61.307278818494524 -836.98788140766555 0 0 0 0 103.14665243083527 -88.66397799519757 0 -88.66397799519757 -388.92106875079048 0 0 0 0 -124.60350577852887 -201.27217862354701 0 -201.27217862354701 -164.3789744466651 0 0 0 0 -216.89420245335236 -65.340849312169382 0 -65.340849312169382 -340.54685330517214 0 0 0 0 -178.50443395947991 56.649019405088438 0 56.649019405088438 -199.58713000287253 0 0 0 0 154.52633958741899 2.4773838169248847 0 2.4773838169248847 -258.92800244054774 0 0 0 0 16.277138194276404 99.323844193777973 0 99.323844193777973 -315.15440672924797 0 0 0 0 188.20753045667493 101.98754976087548 0 101.98754976087548 -142.945475689982 0 0 0 0 226.18357598353464 36.261970897653327 0 36.261970897653327 -211.64969737104229 0 0 0 0 183.91330899092475 58.364940479081781 0 58.364940479081781 -52.887767251331752 0 0 0 0 164.87433196300333 -37.045455272216373 0 -37.045455272216373 -58.453613002529437 0 0 0 0 122.11893326118138 -13.59830815241321 0 -13.59830815241321 -59.437838090238074 0 0 0 0 157.6948819122324 -76.096004092487874 0 -76.096004092487874 -199.82933536028872 0 0 0 0 114.97810900654333 -30.127951434332573 0 -30.127951434332573 -147.27874349511967 0 0 0 0 158.35528832468481 -143.54873181428115 0 -143.54873181428115 -160.51620493817654 0 0 0 0 62.021067178405929 -124.36068250787321 0 -124.36068250787321 -104.43655207136248 0 0 0 0 149.40005743365225 -166.7989972703997 0 -166.7989972703997 -83.836734782111307 0 0 0 0 -60.469396118970593 -241.36825897989303 0 -241.36825897989303 -98.895752384786192 0 0 0 0 87.786544029697268 -187.35207176733297 0 -187.35207176733297 -141.59969914714253 0 0 0 0 2.3010857965087044 -0.20810080024084332 0 -0.20810080024084332 -0.33110354706084277 0 0 0 0 61.65310567265999 -54.025701558477635 0 -54.025701558477635 -198.68672303075095 0 0 0 0 7.608109286114086 -70.670499285088226 0 -70.670499285088226 -111.58183654006518 0 0 0 0 -73.023790651122226 -38.475092589895439 0 -38.475092589895439 -56.415663567704996 0 0 0 0 5.90328860711635 0.25253336297261963 0 0.25253336297261963 -0.24158655852688204 0 0 0 0 4.5364641715511311 32.859857060277136 0 32.859857060277136 -297.07262186733942 0 0 0 0 95.404031008984958 -63.564597748672441 0 -63.564597748672441 -377.57276349454014 0 0 0 0 25.155146756451472 33.808243024489457 0 33.808243024489457 -320.02702735523758 0 0 0 0 7.7611975002145606 0.59125210649205284 0 0.59125210649205284 -2.2741863534775622 0 0 0 0 -1.4950184041964576 53.307159421901133 0 53.307159421901133 -301.34200666315974 0 0 0 0 -4.208357360293542 -5.4894054337633058 0 -5.4894054337633058 -5.5129958201103371 0 0 0 0 34.41181179741352 -19.659079401067231 0 -19.659079401067231 -25.263806222083758 0 0 0 0 12.457872054921836 18.480832769255926 0 18.480832769255926 -22.669776464317238 0 0 0 0 0.66785134403620683 -3.549862506425991 0 -3.549862506425991 -5.5734472704074749 0 0 0 0 149.26078367494551 -65.141392309449515 0 -65.141392309449515 9.3073679857122897 0 0 0 0 -16.625225950539402 67.045552830440101 0 67.045552830440101 -388.73689609589837 0 0 0 0 236.65132626264551 10.968084617063539 0 10.968084617063539 -193.63227599726997 0 0 0 0 79.896156182846426 44.598481387306947 0 44.598481387306947 -149.61545279930084 0 0 0 0 0.0019454702045194061 -1.0011021488008232 0 -1.0011021488008232 -3.2401891518352448 0 0 0 0 -15.349773148745498 76.872995899293983 0 76.872995899293983 -330.88705183102979 0 0 0 0 -48.583920076780714 71.51786965160457 0 71.51786965160457 -211.97616294055453 0 0 0 0 -19.904769581978826 107.56686646664804 0 107.56686646664804 -269.95973192676558 0 0 0 0 35.970662863782536 27.521319305904228 0 27.521319305904228 -166.40250081955244 0 0 0 0 67.489780973612369 109.2672084098412 0 109.2672084098412 -319.24247809702092 0 0 0 0 99.981947333772268 139.15405626037659 0 139.15405626037659 -295.60051624685207 0 0 0 0 14.712745693542047 164.0655283309402 0 164.0655283309402 -346.12756654905695 0 0 0 0 33.766738765497053 143.18276959777927 0 143.18276959777927 -340.18809057437932 0 0 0 0 -6.2274100262878846 105.34651084717419 0 105.34651084717419 -275.73531907016149 0 0 0 0 -42.405087423887835 151.74512186113969 0 151.74512186113969 -322.69857416195993 0 0 0 0 -87.681086128597144 119.57044053370726 0 119.57044053370726 -345.15348385600385 0 0 0 0 -5.1243117290364353 137.64104595330053 0 137.64104595330053 -370.35853763243193 0 0 0 0 -20.334236541363566 155.28730580100887 0 155.28730580100887 -340.06148502826909 0 0 0 0 -26.697719295736533 152.82434930374046 0 152.82434930374046 -349.68561692600019 0 0 0 0 0.80652236088076279 171.89684527452948 0 171.89684527452948 -344.15739952330296 0 0 0 0 -86.043449310731035 119.5002217410829 0 119.5002217410829 -561.60308812674475 0 0 0 0 -1.9327787463230588 -1.7904511509600916 0 -1.7904511509600916 -2.2022282340478858 0 0 0 0 -105.22160841442889 -76.478375835629677 0 -76.478375835629677 17.322279713084527 0 0 0 0 -85.672229456542937 155.79654853549806 0 155.79654853549806 -276.83619617820932 0 0 0 0 -44.464167349190504 117.88335088897665 0 117.88335088897665 -394.21614711982625 0 0 0 0 -82.203551665078407 56.446653803054915 0 56.446653803054915 -399.87974744561154 0 0 0 0 -188.97969638514815 -66.509946179680355 0 -66.509946179680355 -460.01393579533396 0 0 0 0 -227.43290888221134 56.010753709345636 0 56.010753709345636 -402.14791532776974 0 0 0 0 -168.8471205825208 -3.7393579485895998 0 -3.7393579485895998 -356.74083397277491 0 0 0 0 -169.77779967186234 68.816864650741451 0 68.816864650741451 -348.76123894555531 0 0 0 0 -175.41867994123686 26.260699575915623 0 26.260699575915623 -379.25642132427902 0 0 0 0 -147.9078502359547 -16.057834154318925 0 -16.057834154318925 -524.512924855336 0 0 0 0 -205.1172543009308 42.333537714508218 0 42.333537714508218 -387.88884142164966 0 0 0 0 -248.73839081810956 430.23517811822876 0 430.23517811822876 -668.88063267753114 0 0 0 0 -200.53995091143167 -10.97118862905814 0 -10.97118862905814 -497.82468730979463 0 0 0 0 -43.050620981453676 146.02411846194241 0 146.02411846194241 -319.27624092767758 0 0 0 0 -19.556277786756368 138.59738184772237 0 138.59738184772237 -331.01856297192523 0 0 0 0 -53.380224387324006 121.47517561540039 0 121.47517561540039 -358.71595243205343 0 0 0 0 -134.14256586332476 107.43143586038411 0 107.43143586038411 -290.54129248269112 0 0 0 0 53.849148289877292 -1.001221580117317 0 -1.001221580117317 -595.90531165650475 0 0 0 0 -1.960795231842043 -1.6688180111622928 0 -1.6688180111622928 -1.8218112643343272 0 0 0 0 -132.90686817227055 66.608786343229497 0 66.608786343229497 -197.64426305484005 0 0 0 0 -165.98941152678594 -8.0748307664651975 0 -8.0748307664651975 -365.3057568663387 0 0 0 0 42.81797239942307 113.04945339162509 0 113.04945339162509 -254.19003753425659 0 0 0 0 46.729930532763092 35.407315631990457 0 35.407315631990457 -322.66131376340127 0 0 0 0 -149.79100403276516 -172.70678711175651 0 -172.70678711175651 -229.03337996211008 0 0 0 0 -273.79901485577318 50.419129925435016 0 50.419129925435016 -179.19410322437852 0 0 0 0 7.8385575990970437 14.568839485996023 0 14.568839485996023 -194.41468029285807 0 0 0 0 -20.163573243991038 -39.645990862789176 0 -39.645990862789176 -174.59924041898046 0 0 0 0 -48.96029309505235 65.554554011341679 0 65.554554011341679 15.626086071097234 0 0 0 0 -60.673469560039308 8.2927512341016154 0 8.2927512341016154 117.31740716610193 0 0 0 0 -169.05924465787461 94.909038037250752 0 94.909038037250752 -59.972244907755339 0 0 0 0 -22.356753348861766 7.9329588064695988 0 7.9329588064695988 6.623414855867285 0 0 0 0 -83.147338698753288 -84.096089405489352 0 -84.096089405489352 -44.877717884678304 0 0 0 0 14.476005748497835 -0.19199089600079056 0 -0.19199089600079056 -20.417628158434699 0 0 0 0 -59.530546496619991 58.972318505384237 0 58.972318505384237 -59.368186082114335 0 0 0 0 -2.1016505631956761 45.975060714720257 0 45.975060714720257 -97.36878408973098 0 0 0 0 -15.745537924013661 -16.243157600834706 0 -16.243157600834706 -21.984115755034736 0 0 0 0 0.30787366312463149 -0.73191293408344205 0 -0.73191293408344205 -2.0993898186547648 0 0 0 0 -16.558166834749137 -30.826831631123937 0 -30.826831631123937 -283.36582269814335 0 0 0 0 -44.44239784415845 102.6913379066923 0 102.6913379066923 -606.82284135385987 0 0 0 0 -160.27898046887708 158.0664519088707 0 158.0664519088707 -33.251539063911878 0 0 0 0 -3.7720843427471311 5.4970382166530252 0 5.4970382166530252 -4.8428377865741243 0 0 0 0 -24.489631381868332 5.7728111668037387 0 5.7728111668037387 8.8009110122744278 0 0 0 0 -52.352663312478398 20.708579421215745 0 20.708579421215745 50.122967226534229 0 0 0 0 -55.686621187258616 65.409957781355899 0 65.409957781355899 -44.339535310823976 0 0 0 0 -14.32606389243756 27.718277082355371 0 27.718277082355371 -46.110923474406263 0 0 0 0 0.18247076575089238 19.336372310445569 0 19.336372310445569 -41.220465994490269 0 0 0 0 -19.401527549847287 34.152636259138262 0 34.152636259138262 -50.268253144817891 0 0 0 0 -1.5475862115004007 -1.3393575576412453 0 -1.3393575576412453 -8.5141689824668276 0 0 0 0 -1227.2524924780573 -315.57664929057592 0 -315.57664929057592 689.64942698044615 0 0 0 0 -1.0937636555710415 3.016795249653061 0 3.016795249653061 -5.1829626779810676 0 0 0 0 -16.594621811700904 18.612127487723711 0 18.612127487723711 -31.987837671612397 0 0 0 0 -2.3880036544300083 -585.77715655386692 0 -585.77715655386692 -1637.2590800633216 0 0 0 0 -1101.0693163083306 -175.84296447987435 0 -175.84296447987435 -1759.6939394216461 0 0 0 0 -5.3328064797912447 7.0898179410983584 0 7.0898179410983584 -6.7237818341153215 0 0 0 0 -49.735114259706279 639.48417522403224 0 639.48417522403224 748.73512491860311 0 0 0 0 -37.325157515274896 409.58038590782826 0 409.58038590782826 448.6300584232763 0 0 0 0 -52.213872637843224 933.33144228363699 0 933.33144228363699 -445.46287021522039 0 0 0 0 -55.545932685866546 778.31502673791942 0 778.31502673791942 448.8544821386804 0 0 0 0 181.86491715710235 238.4763426106565 0 238.4763426106565 246.34271393111158 0 0 0 0 -0.37879049010654064 -3.0991123131010578 0 -3.0991123131010578 -4.3167668351374804 0 0 0 0 -155.64389403304654 162.49083603127065 0 162.49083603127065 -518.99067452954876 0 0 0 0 464.68352556467289 279.7015701395585 0 279.7015701395585 -507.83187129501857 0 0 0 0 1027.6464926566975 620.89166915197347 0 620.89166915197347 -1892.6249413974433 0 0 0 0 -23.503070982345776 1020.692960312036 0 1020.692960312036 -390.21879575913863 0 0 0 0 -51.412395706691768 532.9172839198975 0 532.9172839198975 -427.41429777097335 0 0 0 0 -72.154871169526587 42.164240937617706 0 42.164240937617706 -316.80550521135712 0 0 0 0 15.330320543625703 405.31020235813537 0 405.31020235813537 -195.11228627945593 0 0 0 0 241.42786925310656 122.26334511810683 0 122.26334511810683 -25.01631024712367 0 0 0 0 52.303736013774596 388.31967518030592 0 388.31967518030592 98.821687389789076 0 0 0 0 158.8469849616572 250.77177918497978 0 250.77177918497978 431.12215386029857 0 0 0 0 55.071659148426534 150.11884429594352 0 150.11884429594352 -7.1937407107216131 0 0 0 0 57.985529401494887 181.40288985145224 0 181.40288985145224 -216.69568167319403 0 0 0 0 240.19082497041427 111.46810565125429 0 111.46810565125429 -189.07880430691694 0 0 0 0 79.529365939179343 111.65082608748628 0 111.65082608748628 -152.96960108202848 0 0 0 0 38.332010962986089 -15.474104490369285 0 -15.474104490369285 -258.14644027480108 0 0 0 0 -226.21879074606034 87.064449745733896 0 87.064449745733896 -176.60441673208061 0 0 0 0 194.29502509016083 154.91666603821466 0 154.91666603821466 -11.714599717512328 0 0 0 0 232.90020659127748 164.68491280631744 0 164.68491280631744 -31.328433740170112 0 0 0 0 207.24689180146294 84.08043472384486 0 84.08043472384486 -126.64226980596322 0 0 0 0 198.36882889642902 153.18859081716778 0 153.18859081716778 -3.0674575723805901 0 0 0 0 283.74895408722341 210.37388888482246 0 210.37388888482246 -67.047417646610256 0 0 0 0 -12.666397981622119 13.878905026546528 0 13.878905026546528 -18.175404974070425 0 0 0 0 280.48162287987037 298.92763631037326 0 298.92763631037326 195.88604781543199 0 0 0 0 253.57586969040585 163.32506242140676 0 163.32506242140676 19.66645993401562 0 0 0 0 328.28187113694412 350.4008373906745 0 350.4008373906745 213.27401982126361 0 0 0 0 310.85762298169084 207.10010284273949 0 207.10010284273949 -30.817145802816185 0 0 0 0 454.03534684526721 239.32902257926844 0 239.32902257926844 120.47454455498701 0 0 0 0 468.68433403200288 167.46374666182874 0 167.46374666182874 230.71467696988657 0 0 0 0 226.95768787008126 261.0708861872655 0 261.0708861872655 121.36415871653298 0 0 0 0 -5.3490036587957119 1.1056073947304697 0 1.1056073947304697 -0.69301622873775415 0 0 0 0 227.12834777354146 268.21993984069468 0 268.21993984069468 228.44151743917655 0 0 0 0 -375.44379996210137 -552.24356788337923 0 -552.24356788337923 -795.32742270450035 0 0 0 0 237.1227548850095 253.68549229635295 0 253.68549229635295 202.15447555578521 0 0 0 0 46.915052001912954 -30.942130595210983 0 -30.942130595210983 -41.381911909819792 0 0 0 0 0.95420301805597951 1.0484134174120965 0 1.0484134174120965 -10.477304960048302 0 0 0 0 -13.336791923039835 10.534735903281362 0 10.534735903281362 -16.288191421849334 0 0 0 0 -2.4702695269184005 9.5552409819938475 0 9.5552409819938475 -11.922314093404566 0 0 0 0 -2.9303053261197647 6.3557255553387222 0 6.3557255553387222 -22.580568956556817 0 0 0 0 -12.204663667409328 3.2768815230177033 0 3.2768815230177033 -19.250193958309346 0 0 0 0 0.47874557681889929 1.5344017984795002 0 1.5344017984795002 -40.076096632558276 0 0 0 0 -126.69068246246934 -156.69965584222518 0 -156.69965584222518 -301.78788506874662 0 0 0 0 -339.41383379917488 -401.28411439801948 0 -401.28411439801948 -505.59845984902495 0 0 0 0 -6.851778652979192 -233.76432692433627 0 -233.76432692433627 -779.69891171973359 0 0 0 0 -39.06099480995681 -51.07036819025052 0 -51.07036819025052 -967.16967807407127 0 0 0 0 -166.2244741057566 -417.35510455443546 0 -417.35510455443546 -990.69193934806754 0 0 0 0 -75.771867898039091 -63.663935039793614 0 -63.663935039793614 -837.30196371761895 0 0 0 0 -11.53512151828545 139.53481608135098 0 139.53481608135098 -608.90637069683999 0 0 0 0 -11.57284460719643 -34.844995336051738 0 -34.844995336051738 -501.08215444611415 0 0 0 0 -30.393178696451287 -161.75335501228801 0 -161.75335501228801 -784.07940893738487 0 0 0 0 -50.599215175515383 95.149427081572867 0 95.149427081572867 -616.06829236182784 0 0 0 0 283.54661958935321 79.415903130311563 0 79.415903130311563 611.5036002052384 0 0 0 0 301.91789470250887 -701.52623718107861 0 -701.52623718107861 -763.02566291629728 0 0 0 0 -321.2902776149208 -131.25456345936618 0 -131.25456345936618 -795.75334211610971 0 0 0 0 958.88348030735369 -375.50248077135984 0 -375.50248077135984 -2695.2402469571798 0 0 0 0 -200.71434264205334 430.86802635594927 0 430.86802635594927 -925.10174565780108 0 0 0 0 -188.73428104930008 129.44882300435802 0 129.44882300435802 2.3968609516796278 0 0 0 0 -61.838590087926832 274.37829033452863 0 274.37829033452863 -488.25641762241139 0 0 0 0 -48.861732558527365 -171.50436776530205 0 -171.50436776530205 119.20000233998053 0 0 0 0 -60.072030738487229 22.161349829021674 0 22.161349829021674 -312.45393470157251 0 0 0 0 -147.34467447756833 0.28810824848096672 0 0.28810824848096672 -93.277803665538158 0 0 0 0 -33.426463983811118 149.03306763363412 0 149.03306763363412 -280.04109450918622 0 0 0 0 -57.285346644641322 49.769976207407126 0 49.769976207407126 27.867954098345081 0 0 0 0 117.13451154244922 60.358143783212427 0 60.358143783212427 -257.43006895570761 0 0 0 0 7.6039520887807157 44.523633413760763 0 44.523633413760763 -246.56703295430498 0 0 0 0 86.472869577085476 -55.726545411474945 0 -55.726545411474945 -471.57478952215661 0 0 0 0 50.308908311422783 25.242668902541482 0 25.242668902541482 -534.25508581110807 0 0 0 0 35.818643037429865 -58.378096147240285 0 -58.378096147240285 -458.14351373894351 0 0 0 0 -30.57008529415225 -191.22928013733099 0 -191.22928013733099 -548.43011835361904 0 0 0 0 53.83997962884041 -129.80404849588831 0 -129.80404849588831 -652.12504884645386 0 0 0 0 11.665264313885018 -51.813765826215786 0 -51.813765826215786 -193.11738573357616 0 0 0 0 62.09353146666399 168.20269573460769 0 168.20269573460769 -131.75296255094327 0 0 0 0 3.8779889845069704 34.032814695635381 0 34.032814695635381 -55.339671076352047 0 0 0 0 -89.579379472743312 261.51363747156938 0 261.51363747156938 -27.11529044263898 0 0 0 0 4.5373289611334267 16.687523461272967 0 16.687523461272967 -67.065933649302011 0 0 0 0 169.62502975889038 -883.95185875241805 0 -883.95185875241805 -86.304421733114395 0 0 0 0 -4.7724619314151369 -186.95779517384062 0 -186.95779517384062 -235.27394822212227 0 0 0 0 -174.48732985209676 1125.3901060834201 0 1125.3901060834201 -355.21516531772795 0 0 0 0 249.9479309574599 -36.28210803944603 0 -36.28210803944603 -103.24365388225851 0 0 0 0 257.954871248985 -145.08446746213303 0 -145.08446746213303 -98.150871370467939 0 0 0 0 147.06500615970435 -130.52725475930492 0 -130.52725475930492 -59.542227373727656 0 0 0 0 137.94723167228631 -62.355015059393281 0 -62.355015059393281 -82.980083715898218 0 0 0 0 226.76062473103957 -36.32560440243833 0 -36.32560440243833 -75.49977691906679 0 0 0 0 212.64899459822573 -80.775841145612503 0 -80.775841145612503 -181.76550621735805 0 0 0 0 118.97276793055698 262.27458648886022 0 262.27458648886022 8.3533300494905234 0 0 0 0 206.83928327265312 7.2360674693045439 0 7.2360674693045439 -113.75814908607572 0 0 0 0 208.85299009367372 -19.338256309267308 0 -19.338256309267308 -9.2351620821136748 0 0 0 0 11.271104295660848 24.745740625648139 0 24.745740625648139 -70.687603295146801 0 0 0 0 46.167770934935561 -22.661586995016705 0 -22.661586995016705 -412.91893104820338 0 0 0 0 -25.989468753074107 -70.018458487848875 0 -70.018458487848875 -429.84769964447196 0 0 0 0 -2.5878045158200473 0.060269359612812323 0 0.060269359612812323 -102.02479002101151 0 0 0 0 49.961795768531147 -228.71244827319924 0 -228.71244827319924 -769.33776497411964 0 0 0 0 -3.7852168033443796 -2.782382560289804 0 -2.782382560289804 -16.96113016511184 0 0 0 0 -121.94138504843795 335.65543521366635 0 335.65543521366635 -332.0665668772599 0 0 0 0 -109.20227142310478 -10.194867521749984 0 -10.194867521749984 35.461783424014357 0 0 0 0 -35.38031499115241 18.110128718447385 0 18.110128718447385 -15.635989427320549 0 0 0 0 -18.314239970947032 -10.793178505711252 0 -10.793178505711252 -16.256953911897 0 0 0 0 -18.393765162020941 -18.324815955272925 0 -18.324815955272925 -32.789184361638036 0 0 0 0 -26.72977423798875 -3.8096445971987123 0 -3.8096445971987123 -33.678083494269231 0 0 0 0 -17.591639361901827 3.0826366772663221 0 3.0826366772663221 1.1109534747388921 0 0 0 0 -16.153187230831804 -7.3044232885856317 0 -7.3044232885856317 -10.513259996834677 0 0 0 0 -68.066044171977865 -53.857861833781499 0 -53.857861833781499 -93.349383287400997 0 0 0 0 -20.404370047060183 -18.178435904857906 0 -18.178435904857906 -38.976661152941233 0 0 0 0 2.7957871138102064 -82.70726364154325 0 -82.70726364154325 -161.50731466511934 0 0 0 0 3.3158449846366267 9.8566992648120504 0 9.8566992648120504 -26.425322395926742 0 0 0 0 -1.2418158495114424 10.140555948924362 0 10.140555948924362 -33.960604246478596 0 0 0 0 5.7142784279430554 6.1481711234829701 0 6.1481711234829701 -39.700000078399938 0 0 0 0 6.8575309286743504 -19.061726438174446 0 -19.061726438174446 -94.792549201920338 0 0 0 0 -12.182399689030291 -1.331764324468466 0 -1.331764324468466 -2.3581013613004629 0 0 0 0 -19.46366333098192 -17.059070903903375 0 -17.059070903903375 -69.028191648878419 0 0 0 0 -8.0139221470017219 -152.12594415010608 0 -152.12594415010608 -514.86872701138236 0 0 0 0 -21.180349179534687 -29.574467568512773 0 -29.574467568512773 -68.166707634914928 0 0 0 0 -18.846229722889579 -6.2391047797966692 0 -6.2391047797966692 -1.3728969041518724 0 0 0 0 -5.1747096156742485 -2.0145748715621252 0 -2.0145748715621252 -40.395934520867399 0 0 0 0 -96.69434999920918 -223.04005352269746 0 -223.04005352269746 -556.53863364565768 0 0 0 0 -9.8662994197086391 -152.36508758831542 0 -152.36508758831542 -512.09921253012726 0 0 0 0 21.648551243225484 -62.517155145656943 0 -62.517155145656943 -529.48628804934742 0 0 0 0 271.02940117987646 137.57386735230466 0 137.57386735230466 -85.01038566958232 0 0 0 0 0.10886299696192214 0.49664329889684211 0 0.49664329889684211 -6.4736093368331922 0 0 0 0 198.86639619748482 -218.50920840026174 0 -218.50920840026174 -1296.5946009899344 0 0 0 0 -372.33465193401844 170.08015189962316 0 170.08015189962316 -804.73034472545987 0 0 0 0 -498.72777639289961 -157.04060356337413 0 -157.04060356337413 -1247.6023023694579 0 0 0 0 -160.09412541493498 509.20883238009264 0 509.20883238009264 -1665.5290038095991 0 0 0 0 -150.24456317980219 -183.80423556432834 0 -183.80423556432834 -162.29367708990321 0 0 0 0 -761.35417114698726 681.96343364801214 0 681.96343364801214 -403.66256407187757 0 0 0 0 -0.25227553485199961 1.5335828027454301 0 1.5335828027454301 -15.843533873398997 0 0 0 0 65.808307109502948 395.07904739563674 0 395.07904739563674 -728.7258522793345 0 0 0 0 -526.90454160572835 373.97263505229057 0 373.97263505229057 -180.51933037733397 0 0 0 0 383.11697171070864 333.08555106095446 0 333.08555106095446 -753.69233991202782 0 0 0 0 -165.88829998987921 311.27890325558826 0 311.27890325558826 -350.85327532075462 0 0 0 0 685.49329549343838 -115.12339487935242 0 -115.12339487935242 -490.12260072045319 0 0 0 0 363.60276270532813 217.47298028509249 0 217.47298028509249 -625.43061293074425 0 0 0 0 265.96300345260443 -123.65024382081083 0 -123.65024382081083 -313.92430037927988 0 0 0 0 289.63718787464131 -11.287199194528512 0 -11.287199194528512 -233.85294315127976 0 0 0 0 233.45474304395702 28.823487084373483 0 28.823487084373483 -259.1064296234108 0 0 0 0 119.85337759663707 194.61712180364702 0 194.61712180364702 -119.10393570559972 0 0 0 0 82.611942027786426 369.96092390939521 0 369.96092390939521 -268.77291219267863 0 0 0 0 40.541476609398842 304.0358012660854 0 304.0358012660854 -363.35693785986223 0 0 0 0 136.41450348826038 278.52541051528533 0 278.52541051528533 -404.24662263414939 0 0 0 0 102.79725781768866 449.92878386717712 0 449.92878386717712 -439.2752374969923 0 0 0 0 -28.371393650857499 283.83624549202432 0 283.83624549202432 -632.28918096693087 0 0 0 0 -61.899557130089562 -279.55415249867247 0 -279.55415249867247 -393.81808828576322 0 0 0 0 -96.394269769016006 3.1583722129616945 0 3.1583722129616945 103.37641878468276 0 0 0 0 -6.4580443261417635 13.627048877672841 0 13.627048877672841 -14.68620713251951 0 0 0 0 -2.372634470653125 117.64955915209521 0 117.64955915209521 -89.460854424425634 0 0 0 0 68.756622834460643 28.054439959400042 0 28.054439959400042 -237.9725198763299 0 0 0 0 44.793042964703545 46.932075440421613 0 46.932075440421613 -87.468596684768272 0 0 0 0 2.8845352085426148 3.569590338709812 0 3.569590338709812 -44.207590959268458 0 0 0 0 72.068072186291829 17.271603940265777 0 17.271603940265777 -87.985957766861247 0 0 0 0 7.6159634509942862 21.615757680941897 0 21.615757680941897 -41.346508509283012 0 0 0 0 -38.422993185516134 70.009453028505959 0 70.009453028505959 -64.675130995881773 0 0 0 0 0.78801468293497479 3.8359681809521291 0 3.8359681809521291 -4.0531683368533038 0 0 0 0 8.858038000681745 -0.20549920529083465 0 -0.20549920529083465 -13.976195350071066 0 0 0 0 -43.253260789032311 7.6414997259598749 0 7.6414997259598749 1.901366454687377 0 0 0 0 -37.708151612617712 -23.795576958633319 0 -23.795576958633319 139.36171063587244 0 0 0 0 0.76499576853746798 -5.4474209151825939 0 -5.4474209151825939 -44.847064099879788 0 0 0 0 42.317459271784173 -38.020331007087407 0 -38.020331007087407 -37.343345982881146 0 0 0 0 38.977168277888296 -43.240188702136038 0 -43.240188702136038 -43.373766024880752 0 0 0 0 31.188939057408788 -23.390770320416777 0 -23.390770320416777 -38.890978180250386 0 0 0 0 42.262677950132229 -44.304438495320937 0 -44.304438495320937 14.300781860736606 0 0 0 0 0.4489410508408076 -0.91124402516966541 0 -0.91124402516966541 -6.5670887884548961 0 0 0 0 74.203592482260106 11.483390771244544 0 11.483390771244544 -22.806098595283402 0 0 0 0 57.731435504251749 0.49227769099888974 0 0.49227769099888974 -66.95315347259384 0 0 0 0 4.5969676681179417 12.515810910496327 0 12.515810910496327 -23.477117163186819 0 0 0 0 12.072524607468267 -1.386162918577611 0 -1.386162918577611 -39.134951755893781 0 0 0 0 -13.926826665049248 28.022639280481599 0 28.022639280481599 -43.222294618564774 0 0 0 0 -74.863302715740701 15.109574860141947 0 15.109574860141947 48.714374745002715 0 0 0 0 46.573417351095372 34.010439494910315 0 34.010439494910315 -70.505915224806813 0 0 0 0 -0.44122259182308543 -2.7553885470156239 0 -2.7553885470156239 -24.248805383241091 0 0 0 0 122.60591399206305 -78.614100642764242 0 -78.614100642764242 -130.54273115645083 0 0 0 0 0.49117008308166987 -13.418145573266884 0 -13.418145573266884 -16.824061013914616 0 0 0 0 2.4667743777139712 1.0841827981402021 0 1.0841827981402021 -42.135554269141991 0 0 0 0 112.37008244927716 38.778828352213623 0 38.778828352213623 -106.52320369466179 0 0 0 0 -45.8039074078265 73.386237354821787 0 73.386237354821787 -6.3984528916680574 0 0 0 0 15.401997827869423 5.7946768588572013 0 5.7946768588572013 -32.315741294223699 0 0 0 0 -215.04924909551232 88.583203757740193 0 88.583203757740193 -61.82290681017912 0 0 0 0 7.4135387274072855 -26.350519345403882 0 -26.350519345403882 -322.43017432503621 0 0 0 0 -185.95742368317769 -133.22921886893891 0 -133.22921886893891 -84.704430283454712 0 0 0 0 -42.606421219980348 -92.081518476152269 0 -92.081518476152269 -81.99849278975671 0 0 0 0 -109.91265694442041 -83.04552146718197 0 -83.04552146718197 -51.388815918504406 0 0 0 0 -0.50808642819470151 -21.160388745101955 0 -21.160388745101955 -239.64877909509232 0 0 0 0 182.3401174422761 156.70200735985236 0 156.70200735985236 -85.733847929601325 0 0 0 0 -48.696206166676802 -110.23254146454201 0 -110.23254146454201 -103.98535322602766 0 0 0 0 -344.58908140372023 -360.58178557078463 0 -360.58178557078463 -201.86667217108334 0 0 0 0 -0.32179028747150595 -0.33376830917177447 0 -0.33376830917177447 -8.0930486174710552 0 0 0 0 -273.88047414922903 486.78859991696481 0 486.78859991696481 424.63083300213475 0 0 0 0 883.64130809417293 -149.26789282317623 0 -149.26789282317623 -1023.3960093027563 0 0 0 0 -47.256700958112219 -121.09180203112192 0 -121.09180203112192 -31.197277108069102 0 0 0 0 -28.318363991353294 -48.869888006682231 0 -48.869888006682231 -29.940426310473413 0 0 0 0 1.1422351287423691 -16.608796537775476 0 -16.608796537775476 -48.436721157256528 0 0 0 0 53.260702309227668 -27.488130814539545 0 -27.488130814539545 -54.761120109258627 0 0 0 0 128.08069868831444 -84.909040614875266 0 -84.909040614875266 -210.09216233955885 0 0 0 0 21.467592104550487 -14.385355000000601 0 -14.385355000000601 -48.470187239329022 0 0 0 0 69.939121160153263 -124.9669013369712 0 -124.9669013369712 173.93746776489206 0 0 0 0 62.326713941940397 -115.7671438560792 0 -115.7671438560792 174.96047403958255 0 0 0 0 43.044844829539215 -65.181080012305756 0 -65.181080012305756 74.409507228687289 0 0 0 0 20.835850650414407 -17.862428287061846 0 -17.862428287061846 -32.125123527014892 0 0 0 0 32.192334869514752 12.800933191043441 0 12.800933191043441 -88.486940397335275 0 0 0 0 11.900132668197784 -3.8423991661147738 0 -3.8423991661147738 -39.490785983918158 0 0 0 0 25.475582935664988 82.155021915298676 0 82.155021915298676 28.896362544622207 0 0 0 0 4.91213517621979 20.182636094414974 0 20.182636094414974 -63.708313796494693 0 0 0 0 146.70508515775487 -15.567434402711115 0 -15.567434402711115 -141.47650790819171 0 0 0 0 151.73520553275034 53.708879172287197 0 53.708879172287197 43.884637516107432 0 0 0 0 221.33747065489672 104.10371066888547 0 104.10371066888547 -26.463720184097156 0 0 0 0 202.70062272080975 66.051531718954948 0 66.051531718954948 -55.946760667335866 0 0 0 0 -1.7621321809313764 14.774988617418691 0 14.774988617418691 -18.931980771068147 0 0 0 0 34.451056763136876 -56.539875479715192 0 -56.539875479715192 -156.17037944978802 0 0 0 0 10.603545086498965 7.7177824612663564 0 7.7177824612663564 -59.366667951696868 0 0 0 0 57.205368288858381 18.927027203384569 0 18.927027203384569 -107.40385095145393 0 0 0 0 19.491507504820902 -36.07275691984978 0 -36.07275691984978 -175.96027714025695 0 0 0 0 -22.153124584738862 -27.934821990354976 0 -27.934821990354976 -173.25680382360588 0 0 0 0 -75.681733627373433 -26.102228612209728 0 -26.102228612209728 -153.22730406977644 0 0 0 0 -69.473787661551796 -65.602015292650321 0 -65.602015292650321 -124.25243778434742 0 0 0 0 -104.42001527274476 -47.437509581919585 0 -47.437509581919585 -121.3539177296916 0 0 0 0 -26.829059275910822 -67.302723966407939 0 -67.302723966407939 -139.62225333950482 0 0 0 0 -84.919908351808999 -147.82917377062404 0 -147.82917377062404 -254.0542663626693 0 0 0 0 -92.737252445453123 -61.664461136992031 0 -61.664461136992031 -36.129847816602705 0 0 0 0 -3.6646886465749495 -0.12357864729167289 0 -0.12357864729167289 -4.0977575828985167 0 0 0 0 -242.24751558268306 2.5472414781584121 0 2.5472414781584121 -51.75476296616398 0 0 0 0 -10.762069260750309 -76.479496980555268 0 -76.479496980555268 -288.02053941459781 0 0 0 0 -76.866203200987115 72.235391631587845 0 72.235391631587845 -226.09544427596575 0 0 0 0 -38.07067407877355 -40.30528577795485 0 -40.30528577795485 -40.922478759086516 0 0 0 0 67.505531481251296 104.74852407322578 0 104.74852407322578 -88.031645225028115 0 0 0 0 -35.169482992864573 6.7239102344537969 0 6.7239102344537969 -143.78769779888444 0 0 0 0 5.3200535973799958 -32.428394433417452 0 -32.428394433417452 -96.609744789086108 0 0 0 0 -13.39478466523002 92.066085458778616 0 92.066085458778616 -22.073343772842236 0 0 0 0 -82.813578036368398 -4.0915809114421791 0 -4.0915809114421791 -53.82340064530581 0 0 0 0 -26.316014234123941 -13.571154912948259 0 -13.571154912948259 -95.016292673626594 0 0 0 0 -10.319858994942251 24.537015468664322 0 24.537015468664322 -40.174714429162123 0 0 0 0 1.3325505709647951 25.679501856358399 0 25.679501856358399 -72.008322625068473 0 0 0 0 170.91803514711307 374.30511121111067 0 374.30511121111067 -153.59762929722456 0 0 0 0 154.49702172276181 -9.600559248582897 0 -9.600559248582897 -91.724425852540662 0 0 0 0 -0.81690946910480022 1.8713326529752101 0 1.8713326529752101 -4.6173477232391207 0 0 0 0 166.94311619544746 -125.8566451732986 0 -125.8566451732986 -262.59642233480076 0 0 0 0 -367.80871965436381 -16.988331870185448 0 -16.988331870185448 24.119826478229243 0 0 0 0 -1.9828270806546002 4.8156515174113146 0 4.8156515174113146 -13.81732403316758 0 0 0 0 92.869531547103179 172.91527442980623 0 172.91527442980623 54.574073870764551 0 0 0 0 -97.960385418236456 117.67901283579886 0 117.67901283579886 167.41205901971534 0 0 0 0 -124.74821346770887 -3.1600580830013314 0 -3.1600580830013314 103.1082954278354 0 0 0 0 254.10798903803828 123.77682051445061 0 123.77682051445061 -27.333918989633275 0 0 0 0 -29.762647201600771 -84.125379845061389 0 -84.125379845061389 -20.098431333613007 0 0 0 0 94.39008094993882 5.0780785375908408 0 5.0780785375908408 26.264775997755351 0 0 0 0 151.4880421926706 -9.4239123946961172 0 -9.4239123946961172 -0.63577998818141168 0 0 0 0 -30.46549788754362 151.75294279867171 0 151.75294279867171 85.835122583683642 0 0 0 0 5.366668776600136 -75.398054547734716 0 -75.398054547734716 -76.466755818061756 0 0 0 0 -260.53172116380301 -185.643535282215 0 -185.643535282215 -113.44240348110861 0 0 0 0 42.113490516698562 115.18905241174696 0 115.18905241174696 -593.99299424227638 0 0 0 0 -1.487200161489318 -2.0037879964938732 0 -2.0037879964938732 -4.8841916525691289 0 0 0 0 -128.5115350512051 -113.98130026536023 0 -113.98130026536023 -90.238019452625849 0 0 0 0 -222.12909142378402 1.8327038591314704 0 1.8327038591314704 -10.070475302675732 0 0 0 0 6.6287676698091218 -62.966675521147863 0 -62.966675521147863 -557.47724976944801 0 0 0 0 126.66766685117909 7.9196000548513439 0 7.9196000548513439 85.85482795421126 0 0 0 0 -35.777888234391583 322.51781974190135 0 322.51781974190135 -519.79557804215256 0 0 0 0 227.15567018818808 136.52553056315014 0 136.52553056315014 -217.62549672074329 0 0 0 0 2.5440422997428995 23.689091579439975 0 23.689091579439975 -85.998885924132338 0 0 0 0 -0.59290992037381329 37.053779243644385 0 37.053779243644385 -46.298110190749867 0 0 0 0 -31.624031742094758 -86.079138137665723 0 -86.079138137665723 167.30922479182664 0 0 0 0 -4.539306143327499 -43.930210020226184 0 -43.930210020226184 -68.945598685698215 0 0 0 0 152.38455897769353 -201.22799737917217 0 -201.22799737917217 -72.802154592455736 0 0 0 0 140.57197498664061 -258.19811855775015 0 -258.19811855775015 -343.19657323309229 0 0 0 0 435.10592789577009 -326.55085531804252 0 -326.55085531804252 -1088.3911659012883 0 0 0 0 -162.0114074369294 35.272554735493031 0 35.272554735493031 185.43747519144654 0 0 0 0 -16.379756530248187 114.00592139684886 0 114.00592139684886 -63.327136367050116 0 0 0 0 -0.87701517014602359 -60.174483509483252 0 -60.174483509483252 -461.8707625548559 0 0 0 0 0.57278860061177284 266.72089994366343 0 266.72089994366343 -85.266571393491176 0 0 0 0 -149.78866048560508 35.455908219902994 0 35.455908219902994 -77.590569756284822 0 0 0 0 -79.388410045829005 -116.38212925618791 0 -116.38212925618791 -564.10806188664719 0 0 0 0 -495.09212939285794 -213.02393576995382 0 -213.02393576995382 -387.23951156937801 0 0 0 0 -79.510862624904803 258.19504250742466 0 258.19504250742466 217.01970403672385 0 0 0 0 -332.41434845568062 -930.00361950229717 0 -930.00361950229717 -960.74914480783627 0 0 0 0 -0.74857746959388649 2.9956539736474141 0 2.9956539736474141 -6.3457855696171777 0 0 0 0 -44.400894077779867 356.54144599069332 0 356.54144599069332 150.69753288754509 0 0 0 0 -7.4564987958560778 161.67434495095949 0 161.67434495095949 -276.12991910218989 0 0 0 0 -45.208692889199483 363.3963513106828 0 363.3963513106828 152.33855198468518 0 0 0 0 214.52882153056817 421.42516232093476 0 421.42516232093476 -37.280519036779879 0 0 0 0 354.47637589891389 172.32552455608311 0 172.32552455608311 -491.33372873174085 0 0 0 0 40.824541895719449 -83.212032849900424 0 -83.212032849900424 4.5003421611909289 0 0 0 0 71.367366711565694 154.6739718150202 0 154.6739718150202 11.117291635520814 0 0 0 0 3.4569794518159997 -43.785604787106436 0 -43.785604787106436 -63.066144418528481 0 0 0 0 0.61373325367480902 -41.503387290778846 0 -41.503387290778846 68.204753217016332 0 0 0 0 -57.681785856146575 33.859156831570388 0 33.859156831570388 -3.498694134710604 0 0 0 0 -749.98655946949748 -517.13787828243221 0 -517.13787828243221 -395.1167115465505 0 0 0 0 -6.3274740017989188 -48.679594986082051 0 -48.679594986082051 -61.653795436733205 0 0 0 0 -27.87288402254913 -254.25311460344892 0 -254.25311460344892 104.12226983655933 0 0 0 0 65.051245777796339 -146.1583788867938 0 -146.1583788867938 -207.65961620290182 0 0 0 0 24.708817142306543 -89.769128071115119 0 -89.769128071115119 -256.63794608692842 0 0 0 0 78.037780945931445 -105.78220858736313 0 -105.78220858736313 -170.71587171443025 0 0 0 0 65.256406162357052 -151.45743637469059 0 -151.45743637469059 -217.27686171328241 0 0 0 0 91.927860268955556 -31.742756482257391 0 -31.742756482257391 -187.82375895528821 0 0 0 0 89.740254862520715 -43.954826154074908 0 -43.954826154074908 -253.51838525908533 0 0 0 0 72.90278459350111 -129.96233095540629 0 -129.96233095540629 -278.54266164473665 0 0 0 0 61.532065617752778 -146.81380116717628 0 -146.81380116717628 -239.17029142017418 0 0 0 0 -0.89058876683814248 -2.3518019933036953 0 -2.3518019933036953 -1.9320040473499205 0 0 0 0 100.31475101385604 -79.764699794512126 0 -79.764699794512126 -342.74776551320974 0 0 0 0 67.737630935496782 -161.77457600393973 0 -161.77457600393973 -307.14032940820107 0 0 0 0 -23.750117044090985 -91.312413048141025 0 -91.312413048141025 -177.58260897066793 0 0 0 0 147.66530367195082 -33.173306228098227 0 -33.173306228098227 -182.86420550142066 0 0 0 0 111.52950292970672 -111.09178740456991 0 -111.09178740456991 -229.62396888290641 0 0 0 0 72.435042503407203 -88.107130805270572 0 -88.107130805270572 -168.65208631393034 0 0 0 0 211.83226825436941 20.072320256425883 0 20.072320256425883 -150.34992570109171 0 0 0 0 138.70109565700477 91.686655907804379 0 91.686655907804379 -58.609712508761731 0 0 0 0 148.53720035468177 18.000634473130049 0 18.000634473130049 -172.2528529457195 0 0 0 0 109.57745854954192 -5.9186236354726134 0 -5.9186236354726134 -133.88702833455682 0 0 0 0 91.916885524090503 10.071339343106956 0 10.071339343106956 -164.35418479224609 0 0 0 0 15.179116899144946 -47.372381152868527 0 -47.372381152868527 -66.200837692597773 0 0 0 0 89.700854773590436 -357.94729884678145 0 -357.94729884678145 -122.48212436989706 0 0 0 0 -1239.534541328263 -1086.7201036628394 0 -1086.7201036628394 -1032.2964633954689 0 0 0 0 125.03291097012334 -14.396188566206547 0 -14.396188566206547 -176.56695829945784 0 0 0 0 12.206612137225354 -34.424832090417084 0 -34.424832090417084 -80.352878958113209 0 0 0 0 124.98169758511449 -12.086494259048777 0 -12.086494259048777 -154.88038963146391 0 0 0 0 -4.560661976810934 -5.6978879008838703 0 -5.6978879008838703 -45.003467532849754 0 0 0 0 9.5315340372858373 14.420799071554939 0 14.420799071554939 266.70483089730442 0 0 0 0 235.07608186302559 274.79916679064627 0 274.79916679064627 150.95964456000365 0 0 0 0 1.2916699532395222 -13.537288242727445 0 -13.537288242727445 -6.9276447407326742 0 0 0 0 -40.666091692197369 -78.799034908759495 0 -78.799034908759495 110.97660979082866 0 0 0 0 5.8458261243277576 25.709277671696185 0 25.709277671696185 -93.916662187719481 0 0 0 0 6.2145406324887951 -19.140142104199086 0 -19.140142104199086 -57.043534007535186 0 0 0 0 11.892726566423544 2.9415252590830718 0 2.9415252590830718 -91.530104508066273 0 0 0 0 35.333505743612477 -13.040000330423936 0 -13.040000330423936 -66.441004023203277 0 0 0 0 46.064178788938079 -29.204640151117928 0 -29.204640151117928 -133.21754681149469 0 0 0 0 95.644735348334507 28.232458704122109 0 28.232458704122109 -66.793193516234169 0 0 0 0 23.209499487776611 1.85971745763527 0 1.85971745763527 -19.213583414602908 0 0 0 0 95.119865918599089 125.01923311603605 0 125.01923311603605 -91.366761842757114 0 0 0 0 -6.8286317003703516 152.76190049167053 0 152.76190049167053 -69.493810598656637 0 0 0 0 -6.2293689505318213 13.394191499543236 0 13.394191499543236 -46.035920536147955 0 0 0 0 21.882885565689776 54.480937872642244 0 54.480937872642244 28.470530276052159 0 0 0 0 -132.72113372697095 -193.25255606916107 0 -193.25255606916107 -159.83939425293738 0 0 0 0 81.451525178421889 -98.486991400734041 0 -98.486991400734041 -348.06169186069747 0 0 0 0 56.350418824988992 27.134419774542039 0 27.134419774542039 -84.216160225931162 0 0 0 0 0.60630333412884152 2.9768026103378489 0 2.9768026103378489 -33.358641025634682 0 0 0 0 -7.9001654356968043 12.147991969001538 0 12.147991969001538 -35.389653525678341 0 0 0 0 -16.043421708785445 -34.432504508704369 0 -34.432504508704369 -42.232372944883537 0 0 0 0 253.14312347237683 105.90741474309471 0 105.90741474309471 -97.223181392386323 0 0 0 0 274.56107290647628 -2.95662452261422 0 -2.95662452261422 -105.75472742781858 0 0 0 0 173.25875599323444 28.592436274208012 0 28.592436274208012 -108.06010125929606 0 0 0 0 217.53175750167429 -39.673174547686358 0 -39.673174547686358 -180.26177846032806 0 0 0 0 133.56231316978631 -48.966938912406022 0 -48.966938912406022 -91.578850569858332 0 0 0 0 262.0851310488797 56.203649350907654 0 56.203649350907654 -182.89016856737726 0 0 0 0 -9.606195246184452 16.653229046256186 0 16.653229046256186 -23.672491165544756 0 0 0 0 507.93721186547009 417.4188480291923 0 417.4188480291923 13.278106714531532 0 0 0 0 589.89633381695876 175.98089374426854 0 175.98089374426854 -296.36106182659205 0 0 0 0 203.62001064672586 62.539334093082289 0 62.539334093082289 171.38070411384979 0 0 0 0 155.58433891040977 -22.734782945150073 0 -22.734782945150073 -9.2939776921703015 0 0 0 0 127.59359043557561 56.0813911692494 0 56.0813911692494 -223.43830944978981 0 0 0 0 -59.753711413744895 -79.788194901266252 0 -79.788194901266252 -137.87048629825222 0 0 0 0 -12.822319368386161 -34.985535314852314 0 -34.985535314852314 -301.43387107741 0 0 0 0 -18.393583925893836 -63.744358257426939 0 -63.744358257426939 -142.40492068374442 0 0 0 0 136.65982681560075 -77.609941076242421 0 -77.609941076242421 -242.36095444987586 0 0 0 0 -1090.1435548246059 753.61611919284769 0 753.61611919284769 158.18612619092664 0 0 0 0 -6.1855728670292232 7.4086750616391939 0 7.4086750616391939 -10.879367167060593 0 0 0 0 123.662081259562 -206.14302905435034 0 -206.14302905435034 -2.6563660577667179 0 0 0 0 -529.2339379886273 239.18527122795149 0 239.18527122795149 -84.565155064730789 0 0 0 0 -94.754723815964098 43.889456202356087 0 43.889456202356087 190.93087646143249 0 0 0 0 -613.18962929627423 -244.19919182023295 0 -244.19919182023295 148.81790475304297 0 0 0 0 -512.87299269058019 542.4177894444274 0 542.4177894444274 -2477.2130801060703 0 0 0 0 -165.25222292201215 -459.9370984076395 0 -459.9370984076395 -1419.9654496928561 0 0 0 0 71.385121320711278 -521.20352035076212 0 -521.20352035076212 -721.28163028100971 0 0 0 0 -635.86292599766239 -735.2283571199514 0 -735.2283571199514 -477.72248499766283 0 0 0 0 -115.15174068627584 -835.21953270241647 0 -835.21953270241647 -1029.008797450897 0 0 0 0 -374.70993849955062 -1659.4459891067581 0 -1659.4459891067581 408.08994897949742 0 0 0 0 674.7709566271933 -399.85845355463243 0 -399.85845355463243 -2371.7236276153417 0 0 0 0 137.08014564334553 -373.92930557318323 0 -373.92930557318323 -802.84575971637241 0 0 0 0 -0.073211259631815739 0.76600202746397272 0 0.76600202746397272 -11.952936061970235 0 0 0 0 -61.36691528823917 -68.174559339237931 0 -68.174559339237931 96.005954187523457 0 0 0 0 366.46350180172976 -3.3449510958726023 0 -3.3449510958726023 -243.81814754597144 0 0 0 0 -239.47951302819638 -232.85454183956608 0 -232.85454183956608 -139.42590164640205 0 0 0 0 -541.17304173987918 -493.85955789631316 0 -493.85955789631316 -353.29721578946919 0 0 0 0 26.104399636964445 52.267125727812527 0 52.267125727812527 -606.61995834001573 0 0 0 0 92.589137627820151 166.78709022547082 0 166.78709022547082 -1.33443576269201 0 0 0 0 -6.3539622091957852 16.162225425932917 0 16.162225425932917 -24.824709155289071 0 0 0 0 193.91576886365976 68.107131267401201 0 68.107131267401201 -147.74973426174256 0 0 0 0 1.7946248445769861 2.6926151905277038 0 2.6926151905277038 -5.8495044407700831 0 0 0 0 169.15774586509883 -470.07916940965879 0 -470.07916940965879 -2851.343165735896 0 0 0 0 71.555344952584164 -21.423609462564855 0 -21.423609462564855 -131.72843986976659 0 0 0 0 26.78672334673513 -248.59697105572195 0 -248.59697105572195 -2768.7457859765418 0 0 0 0 -136.48758522557506 61.296135890574078 0 61.296135890574078 62.587525132497831 0 0 0 0 316.71291393069811 -51.033871678966534 0 -51.033871678966534 -3499.8231351614122 0 0 0 0 -168.67413938242214 383.51322028051072 0 383.51322028051072 -3729.5321013971188 0 0 0 0 -650.35262215510534 105.59205871742415 0 105.59205871742415 -3500.3171558564754 0 0 0 0 236.71770275042098 -537.63191529855976 0 -537.63191529855976 -3989.8781503285027 0 0 0 0 -202.34705910228115 -838.67977922604769 0 -838.67977922604769 -2740.9117090794243 0 0 0 0 -148.9662944090914 -843.51163640016694 0 -843.51163640016694 -4519.4434731951696 0 0 0 0 -5.6870520112402039 8.3625096695853927 0 8.3625096695853927 -13.949928187769459 0 0 0 0 -804.63279427112388 709.19149204020869 0 709.19149204020869 180.43633980058803 0 0 0 0 -1052.0361799799578 1359.9345493471192 0 1359.9345493471192 -1478.1024501906559 0 0 0 0 -1885.2186812568289 1074.8653387794002 0 1074.8653387794002 -4245.8622884266542 0 0 0 0 -977.53719020970527 618.17281017432106 0 618.17281017432106 -3501.5643785326856 0 0 0 0 -1523.4629913880758 339.02862322363399 0 339.02862322363399 -3590.019043187116 0 0 0 0 -922.73523038972974 1884.5067122403984 0 1884.5067122403984 -2725.816153557942 0 0 0 0 -1090.2641862650521 987.55280902859522 0 987.55280902859522 -3752.4044815349334 0 0 0 0 -170.955596541624 400.22763111841414 0 400.22763111841414 -712.05182632395702 0 0 0 0 0.37315866716474133 1.2062195370160396 0 1.2062195370160396 2.224247175126699 0 0 0 0 571.04329312164509 -309.89462726273632 0 -309.89462726273632 1206.0605734999699 0 0 0 0 -122.0640412026404 126.71386886877735 0 126.71386886877735 -826.87771449175489 0 0 0 0 28.491229657641995 -37.042886047005595 0 -37.042886047005595 -700.48469355937357 0 0 0 0 47.019053164319303 59.91240426368131 0 59.91240426368131 -174.23168877343414 0 0 0 0 8.0139463239315774 -76.247037125473071 0 -76.247037125473071 -105.88643758858234 0 0 0 0 -48.601766642210677 -30.984973738422923 0 -30.984973738422923 -117.2785367437391 0 0 0 0 886.65288190301737 521.56900283601863 0 521.56900283601863 18.309889621465118 0 0 0 0 24.003371554967089 -52.187639922634844 0 -52.187639922634844 -119.91531204031844 0 0 0 0 1.5262998118692421 -2.576064667746401 0 -2.576064667746401 -24.893785219566659 0 0 0 0 -366.84583736569471 720.62337440321062 0 720.62337440321062 846.82755894432921 0 0 0 0 135.61137448933891 -217.24258335174818 0 -217.24258335174818 -667.4197880429947 0 0 0 0 0.80127383589276935 1.5500352863445812 0 1.5500352863445812 -1.402751972112938 0 0 0 0 -204.74447979026445 -93.164469301449572 0 -93.164469301449572 -146.45519845729905 0 0 0 0 -47.637648413021452 -47.878150564589305 0 -47.878150564589305 154.49872610519924 0 0 0 0 -208.5206065406328 100.5362873050799 0 100.5362873050799 21.435109109595942 0 0 0 0 67.307492898517921 103.63994862036998 0 103.63994862036998 -240.72676741326723 0 0 0 0 228.63615018094379 -45.54768121349116 0 -45.54768121349116 -106.48294375489058 0 0 0 0 -2.4222323049137167 10.153891247983246 0 10.153891247983246 -17.400700731694457 0 0 0 0 -289.83038318883177 -538.02589324117798 0 -538.02589324117798 -593.48325214567126 0 0 0 0 227.17630181031109 237.76707204729246 0 237.76707204729246 37.538569250413275 0 0 0 0 -144.53754762032713 -12.511725494907296 0 -12.511725494907296 112.25639217372463 0 0 0 0 2.4595821722919693 4.4715332729525343 0 4.4715332729525343 -5.9423502784437545 0 0 0 0 119.2782828850934 -146.73744779980188 0 -146.73744779980188 -292.28553119027856 0 0 0 0 78.811726868968435 1097.3232750603493 0 1097.3232750603493 -833.79234151457786 0 0 0 0 99.168569219140295 199.62348527485119 0 199.62348527485119 -1546.1389986910799 0 0 0 0 44.73370396065684 102.9567674372156 0 102.9567674372156 -124.91939379528048 0 0 0 0 -180.23418840658087 137.42347878492728 0 137.42347878492728 -814.01890107439613 0 0 0 0 140.90230359493307 562.80586240364937 0 562.80586240364937 -2023.0355547059371 0 0 0 0 227.88354972601519 -704.42264275248635 0 -704.42264275248635 -1937.6582453291521 0 0 0 0 523.68929592772247 38.294880953953907 0 38.294880953953907 -3462.8733341417937 0 0 0 0 560.28764240662701 271.63897264639309 0 271.63897264639309 -2709.5369599443202 0 0 0 0 603.90837120711456 116.30577056589482 0 116.30577056589482 -2202.5034463424672 0 0 0 0 580.51640637172011 772.71022435920531 0 772.71022435920531 -3500.0043153585275 0 0 0 0 371.20399185781304 704.13586252019741 0 704.13586252019741 -1797.6472555881628 0 0 0 0 -192.31214076488209 922.10860677095297 0 922.10860677095297 -1651.3943200741633 0 0 0 0 -202.57405770035666 564.18890843114423 0 564.18890843114423 -1354.2072095401309 0 0 0 0 -321.7474975995919 243.31801396747096 0 243.31801396747096 -646.11143998762782 0 0 0 0 4.4041883156762793 5.2008172305869493 0 5.2008172305869493 -10.323348484287408 0 0 0 0 -49.465790446506837 1574.1708285662808 0 1574.1708285662808 -3494.4559136693788 0 0 0 0 -530.38587413282505 -555.20225672358174 0 -555.20225672358174 -620.44736050158281 0 0 0 0 -2001.2777392698663 1782.0031823226655 0 1782.0031823226655 -1174.1259781560802 0 0 0 0 -4.4423640203670542 1.4026138136269179 0 1.4026138136269179 -15.480513458193954 0 0 0 0 -15.632985514217721 -13.674022012788223 0 -13.674022012788223 -28.935525784393608 0 0 0 0 485.66035807761119 545.39488497048296 0 545.39488497048296 -3489.0816029839734 0 0 0 0 -11.57621848009757 -6.3448240991795508 0 -6.3448240991795508 -6.3075697871863454 0 0 0 0 -2374.1940946346863 -488.64371636752884 0 -488.64371636752884 571.39152990886942 0 0 0 0 167.15298353676735 152.43607963523664 0 152.43607963523664 -356.1191234901089 0 0 0 0 -198.74173210500794 -18.775091407074797 0 -18.775091407074797 -313.05226362926351 0 0 0 0 -1291.251085353282 -365.29774291308513 0 -365.29774291308513 -189.23810230333402 0 0 0 0 -48.857828677899533 -39.51775516450698 0 -39.51775516450698 -456.26249223494233 0 0 0 0 -67.208950098231071 14.57934395025859 0 14.57934395025859 -431.30197631187912 0 0 0 0 -3.3169789407556793 -13.352774979360447 0 -13.352774979360447 -77.303050697531205 0 0 0 0 14.241893484120737 183.29169273018942 0 183.29169273018942 -91.338620489170808 0 0 0 0 269.37200060514192 -524.7741852877798 0 -524.7741852877798 217.67036376967735 0 0 0 0 102.33259624425062 -1137.9169446047749 0 -1137.9169446047749 -2018.1181418045444 0 0 0 0 -385.47059875135739 -2121.8229499690888 0 -2121.8229499690888 -3493.9537237389559 0 0 0 0 -2513.7524197931962 -2249.2649939722551 0 -2249.2649939722551 -986.97272808804337 0 0 0 0 -819.52201114429397 -761.55300397900692 0 -761.55300397900692 -626.73864682518069 0 0 0 0 -635.35334383111331 -737.29981859116015 0 -737.29981859116015 -907.97329369042507 0 0 0 0 -490.26171167732946 -1225.7999492337112 0 -1225.7999492337112 -1840.2699043240013 0 0 0 0 -234.51822855651767 -606.30710172983117 0 -606.30710172983117 -899.85909768815418 0 0 0 0 -463.43174643652026 -391.96468695333624 0 -391.96468695333624 -356.62324810285463 0 0 0 0 -252.7415871693841 -594.31829287751975 0 -594.31829287751975 -905.91477759025111 0 0 0 0 -467.02151964096493 -672.84437167338001 0 -672.84437167338001 -816.33139346515236 0 0 0 0 -323.18936837224715 -328.11190907264881 0 -328.11190907264881 -613.03267765630153 0 0 0 0 -121.15376477137761 -184.9056237306886 0 -184.9056237306886 -431.0666908648991 0 0 0 0 -759.98206358898346 -290.86313279563137 0 -290.86313279563137 -339.45551077326309 0 0 0 0 -96.322789229695445 -118.44451010450393 0 -118.44451010450393 -291.66815470612346 0 0 0 0 -480.30159626674163 -183.67626953072249 0 -183.67626953072249 -212.48297784214992 0 0 0 0 57.431111321272056 -157.65643141040846 0 -157.65643141040846 -167.13371631353539 0 0 0 0 -178.6631027345652 -105.80644767080776 0 -105.80644767080776 123.07906256870956 0 0 0 0 -287.34669943623544 -106.46979634725221 0 -106.46979634725221 -116.54707905796568 0 0 0 0 -161.05050727762622 -312.22973355735326 0 -312.22973355735326 -425.86916957619542 0 0 0 0 -251.66303083586908 -326.33718232004594 0 -326.33718232004594 -461.00140813128382 0 0 0 0 -85.498731282668359 -168.06362754076417 0 -168.06362754076417 -207.57381096012068 0 0 0 0 -250.41699810419345 -175.01724575352637 0 -175.01724575352637 -146.95620724922992 0 0 0 0 -211.69960020494963 -396.26678933562044 0 -396.26678933562044 -393.17567435595447 0 0 0 0 632.96177127836893 -263.04203199890338 0 -263.04203199890338 -680.01625118021548 0 0 0 0 -414.54070302812852 -46.321547080044638 0 -46.321547080044638 135.85475349932676 0 0 0 0 -316.52704218255894 220.55930296769475 0 220.55930296769475 269.2432147773734 0 0 0 0 -1.0072087415974238 68.625417865914642 0 68.625417865914642 -92.488202043412457 0 0 0 0 63.545122201510821 358.43392137393494 0 358.43392137393494 82.977829364366698 0 0 0 0 -20.949596936454327 30.606623140578449 0 30.606623140578449 -427.35061356030201 0 0 0 0 49.14116397502039 -36.850155340200217 0 -36.850155340200217 -458.58162811707007 0 0 0 0 -215.50133981612362 -97.590074929187722 0 -97.590074929187722 -311.25927562666948 0 0 0 0 75.089755092005362 -256.59885290593502 0 -256.59885290593502 -225.3046410066745 0 0 0 0 -247.43054574445569 -50.130725010296828 0 -50.130725010296828 78.877509312855182 0 0 0 0 111.02882980763752 0.8152864942621818 0 0.8152864942621818 -420.62756247221705 0 0 0 0 -252.39934787974744 -306.46078738323013 0 -306.46078738323013 -244.69289643300726 0 0 0 0 4.1068097194067565 1.1416735048981117 0 1.1416735048981117 -6.55428889643958 0 0 0 0 9.9060380213253545 -8.312647683647949 0 -8.312647683647949 5.0905516661680572 0 0 0 0 -38.313338852036395 222.96237602487327 0 222.96237602487327 80.325481413547095 0 0 0 0 27.134598959774848 131.27903295543365 0 131.27903295543365 -82.497841532810071 0 0 0 0 105.92926105959486 155.7649093737964 0 155.7649093737964 158.44896196070476 0 0 0 0 25.372071943782203 -29.466647398285886 0 -29.466647398285886 -34.477730976142084 0 0 0 0 231.99490863998653 139.11869171303806 0 139.11869171303806 -291.17892572526125 0 0 0 0 11.111588073604949 3.8867411590300165 0 3.8867411590300165 -16.781597667613141 0 0 0 0 313.27096758656717 244.41503523838992 0 244.41503523838992 -5.8238515143875702 0 0 0 0 3.7773263632713321 -11.211273400339957 0 -11.211273400339957 -88.639958403312974 0 0 0 0 4.5723020188688679 -36.392717145979077 0 -36.392717145979077 -68.102821404083443 0 0 0 0 8.5393411193240496 2.9536994295012464 0 2.9536994295012464 -21.574990499598115 0 0 0 0 51.566554010967138 -66.154269624024892 0 -66.154269624024892 -135.93050528242748 0 0 0 0 133.2693734823406 117.37870297999962 0 117.37870297999962 127.15430851469182 0 0 0 0 1.7081315944840036 -15.115358458300562 0 -15.115358458300562 0.96876802737982359 0 0 0 0 0.19014165455428156 -18.589434451359693 0 -18.589434451359693 -15.41787008043957 0 0 0 0 26.888263438038436 -13.980586111741845 0 -13.980586111741845 -42.024167839042818 0 0 0 0 27.233812152839334 -41.55118755566059 0 -41.55118755566059 -5.5006379459300661 0 0 0 0 20.285664104333819 -23.385337784106468 0 -23.385337784106468 -39.46181319840889 0 0 0 0 0.55903147612276816 -6.1664368065290605 0 -6.1664368065290605 -14.015787776779341 0 0 0 0 4.8267642229771894 -15.654987885756327 0 -15.654987885756327 34.559098514891957 0 0 0 0 -39.085493194905268 63.323768081957496 0 63.323768081957496 -16.408236083751035 0 0 0 0 2.2588541497905958 -1.1116732429727176 0 -1.1116732429727176 -4.1413703464185563 0 0 0 0 53.275111516483392 -214.39498806641859 0 -214.39498806641859 84.114700394542524 0 0 0 0 4.7559303592078983 -4.4994596171931995 0 -4.4994596171931995 3.7348874833477961 0 0 0 0 13.835401420320295 82.008757520096879 0 82.008757520096879 3.5374953608190935 0 0 0 0 -82.220550554192585 -186.9800670371219 0 -186.9800670371219 -244.59688371327593 0 0 0 0 -160.31690140246974 -96.169227469205453 0 -96.169227469205453 -21.598505297677548 0 0 0 0 42.99206024904629 -111.47490883164937 0 -111.47490883164937 -88.155723402713647 0 0 0 0 238.74375877977261 55.440482471448604 0 55.440482471448604 -18.824237336683836 0 0 0 0 -108.56042328556988 -60.139474304521173 0 -60.139474304521173 -37.950961834991176 0 0 0 0 1.9324115457968449 -1.5868668214968475 0 -1.5868668214968475 0.98347879188805898 0 0 0 0 -77.193972511464494 -95.434359304014833 0 -95.434359304014833 25.867162449078023 0 0 0 0 33.333010671705324 45.678483932779955 0 45.678483932779955 -126.35833307785788 0 0 0 0 91.785266662527619 -75.660904864249233 0 -75.660904864249233 -50.556400261375529 0 0 0 0 25.180676595898746 -89.993980540981056 0 -89.993980540981056 -185.37780974185989 0 0 0 0 64.168211814209883 -27.516170578730907 0 -27.516170578730907 -87.185826206929505 0 0 0 0 36.360163618707482 -139.37443265082618 0 -139.37443265082618 -9.8626394116372467 0 0 0 0 50.676267489244886 -18.449373362258086 0 -18.449373362258086 -286.27126463904324 0 0 0 0 200.85172432089726 -126.68004481672938 0 -126.68004481672938 -242.90186978897668 0 0 0 0 11.366708385747444 -114.08450564883435 0 -114.08450564883435 -168.4656558623974 0 0 0 0 198.32895740629948 -124.78382065774315 0 -124.78382065774315 -290.68265147996408 0 0 0 0 133.02034813565172 -21.771126752300688 0 -21.771126752300688 -229.85141527554003 0 0 0 0 72.204423526711764 -192.62045503382308 0 -192.62045503382308 -663.87867919798373 0 0 0 0 -52.402431856112742 169.05683616651243 0 169.05683616651243 -386.37611311912906 0 0 0 0 23.563596841890103 1.5261071669576722 0 1.5261071669576722 -20.478612684384188 0 0 0 0 60.177608378254376 14.697162479833537 0 14.697162479833537 -255.96033527774171 0 0 0 0 43.215304694208612 -167.6966838292625 0 -167.6966838292625 -329.03031863912429 0 0 0 0 57.127384263119666 -113.37727222732292 0 -113.37727222732292 -678.92972568407004 0 0 0 0 0.94071248039278998 -354.93186005688767 0 -354.93186005688767 -465.83216738012652 0 0 0 0 -322.57061802299268 -18.033565158282045 0 -18.033565158282045 -833.75734383224506 0 0 0 0 33.740721519890542 -394.16316957733 0 -394.16316957733 -445.87905273796832 0 0 0 0 175.19585687890793 -313.29844704018501 0 -313.29844704018501 -1138.0337406529832 0 0 0 0 18.039567447745128 96.934828950255849 0 96.934828950255849 -403.10396644299863 0 0 0 0 -10.611173563749162 261.36035254981499 0 261.36035254981499 -1069.1750416361076 0 0 0 0 23.713529193408249 50.20789971111094 0 50.20789971111094 -578.01877330748994 0 0 0 0 15.992521826975235 54.701467117227821 0 54.701467117227821 -367.50407804677479 0 0 0 0 13.730631336055211 30.873407052651601 0 30.873407052651601 -362.1128907844768 0 0 0 0 33.725485014863239 10.748650277981369 0 10.748650277981369 -404.10195330244801 0 0 0 0 59.394325163953056 -45.558917356503343 0 -45.558917356503343 -282.38866804720584 0 0 0 0 -25.377444318949529 -169.30387193482329 0 -169.30387193482329 8.9605363597499945 0 0 0 0 118.82177047904828 33.244386317834085 0 33.244386317834085 -202.29177705896518 0 0 0 0 -6.862806058680718 -162.93162598248182 0 -162.93162598248182 -310.19169302126261 0 0 0 0 -58.995189113841036 -326.11943556836195 0 -326.11943556836195 -215.44161960094061 0 0 0 0 -110.90864239408921 -297.94650921633297 0 -297.94650921633297 -122.04143471161115 0 0 0 0 -129.04739975074534 -242.64326580486522 0 -242.64326580486522 -36.917904617991553 0 0 0 0 177.08733964229799 -256.27860192166509 0 -256.27860192166509 -112.45189773078459 0 0 0 0 -211.3922369274552 -292.40143129138687 0 -292.40143129138687 -188.99845059877862 0 0 0 0 67.283686396033886 -141.03910182241975 0 -141.03910182241975 -145.48736532577459 0 0 0 0 -98.838308240969241 -383.66441096002313 0 -383.66441096002313 -431.68298536641487 0 0 0 0 -147.54421197885748 -330.02455884240453 0 -330.02455884240453 -369.3969338522611 0 0 0 0 -205.65865099364481 -327.19668952925258 0 -327.19668952925258 -189.28598038353766 0 0 0 0 -130.26823930295882 -367.39425282132106 0 -367.39425282132106 -166.29330948024926 0 0 0 0 -177.86941624209805 -406.39060905572137 0 -406.39060905572137 -198.22188502485733 0 0 0 0 -79.530885391233795 -363.40743870016956 0 -363.40743870016956 -306.06500354393029 0 0 0 0 -109.81670538129174 -429.92452318582173 0 -429.92452318582173 -164.93795955640417 0 0 0 0 -63.646973275226969 -506.97285236808966 0 -506.97285236808966 -385.75122226575604 0 0 0 0 46.315276044114171 -420.85466361663021 0 -420.85466361663021 -125.23483927221696 0 0 0 0 -87.613233101220544 -538.56545625111494 0 -538.56545625111494 1.7790310637510629 0 0 0 0 -113.36024566829343 -412.96068256317187 0 -412.96068256317187 -43.51074352577416 0 0 0 0 59.895765191845499 -199.52574044876246 0 -199.52574044876246 -176.73768151779313 0 0 0 0 105.09535147906831 -52.58330308152108 0 -52.58330308152108 -581.64410863064541 0 0 0 0 -68.907601093881681 -309.48035375963013 0 -309.48035375963013 -270.57690185922775 0 0 0 0 -88.883839027234444 -239.1763304766796 0 -239.1763304766796 -431.32934788773673 0 0 0 0 -82.300550349386072 -373.47033428757118 0 -373.47033428757118 -744.92103688811949 0 0 0 0 -38.881107708608965 -44.112583108624221 0 -44.112583108624221 -849.36394450625664 0 0 0 0 -52.857976458659664 -196.1718872045476 0 -196.1718872045476 -704.32416391236166 0 0 0 0 205.52897874306274 1.2678934258976824 0 1.2678934258976824 -1197.2770277221434 0 0 0 0 -239.85467574966617 -401.18104828326204 0 -401.18104828326204 -393.96922272090501 0 0 0 0 -186.17665619898173 -279.08742895624346 0 -279.08742895624346 -484.7769315201258 0 0 0 0 33.716769983656178 -430.79273862373464 0 -430.79273862373464 -1462.3651455268327 0 0 0 0 -60.339187332909432 -302.1269709605649 0 -302.1269709605649 -965.42004252065544 0 0 0 0 -194.48691916688153 -540.67042342530203 0 -540.67042342530203 -814.23770253080875 0 0 0 0 -70.73269834018646 -733.58874789489232 0 -733.58874789489232 -1707.9411780898909 0 0 0 0 85.016332231325805 -602.13840975456515 0 -602.13840975456515 -1752.175536613242 0 0 0 0 516.24429874854809 -471.73920380304571 0 -471.73920380304571 -2812.9881640543408 0 0 0 0 578.87487622283982 -267.81239175856842 0 -267.81239175856842 -2434.0637391515702 0 0 0 0 105.55428242362545 -1116.9474889108553 0 -1116.9474889108553 -2667.4457922020774 0 0 0 0 657.42659798070599 -856.90944379838129 0 -856.90944379838129 -3500.4358842975666 0 0 0 0 56.242605213760271 553.07124542025667 0 553.07124542025667 -1041.7417782288808 0 0 0 0 334.11975478998409 244.69012688085257 0 244.69012688085257 -2294.761572327403 0 0 0 0 276.56089334043702 256.32751660426584 0 256.32751660426584 -1735.2714258396638 0 0 0 0 852.59583188089016 265.94337008713524 0 265.94337008713524 -3497.846849602412 0 0 0 0 727.71152095105901 795.42969355664536 0 795.42969355664536 -2267.3388809597532 0 0 0 0 813.94100132917129 926.1076355422274 0 926.1076355422274 -3281.3549536234204 0 0 0 0 168.99710410275293 1643.8917711069639 0 1643.8917711069639 -1733.8560707204315 0 0 0 0 -514.81496254227534 1543.7960931169 0 1543.7960931169 -3501.337344645096 0 0 0 0 389.64487098892744 221.82074184845396 0 221.82074184845396 -796.1924823492941 0 0 0 0 154.95449113549193 321.15322058168022 0 321.15322058168022 -597.63227552906255 0 0 0 0 384.3095742242715 194.01406465324999 0 194.01406465324999 -200.20595717065225 0 0 0 0 418.66682399205763 52.243555897696979 0 52.243555897696979 12.418216462403052 0 0 0 0 -139.66087457958005 -1321.757898305968 0 -1321.757898305968 -3501.6692234519528 0 0 0 0 -1.9771876310863188 8.1357081368071462 0 8.1357081368071462 -8.8752023341829798 0 0 0 0 -214.64702249181596 -685.25606479436146 0 -685.25606479436146 -5010.7660736076832 0 0 0 0 184.54730937080822 1169.6527346435003 0 1169.6527346435003 661.18746938899335 0 0 0 0 -318.2468413360773 -922.09971143485291 0 -922.09971143485291 -2657.6268769923954 0 0 0 0 -1432.390855875326 -1113.7035368558873 0 -1113.7035368558873 -3499.1447444855394 0 0 0 0 -245.21780021371731 -1353.2900583694293 0 -1353.2900583694293 -4115.5802710419721 0 0 0 0 -2.2899785685768395 0.51674882452816817 0 0.51674882452816817 -15.774290732616087 0 0 0 0 244.78379552958575 57.543234734124781 0 57.543234734124781 -4111.1752013256501 0 0 0 0 -209.57876651765878 172.37682285966821 0 172.37682285966821 -2495.7368564154913 0 0 0 0 291.23144307402026 160.3937223383391 0 160.3937223383391 -4.1244179524246647 0 0 0 0 -4.4355597668018945 17.304916731257084 0 17.304916731257084 -26.398652699916621 0 0 0 0 440.79136802010458 61.140701585730767 0 61.140701585730767 -182.56556524755297 0 0 0 0 331.46128259039699 24.849758278859099 0 24.849758278859099 42.55166389906617 0 0 0 0 537.81658654822456 -30.961561818027803 0 -30.961561818027803 -123.06025786912687 0 0 0 0 9.0641885690370145 -8.0468807674528762 0 -8.0468807674528762 -68.414886320062578 0 0 0 0 4.2314524081110694 2.4361315264540284 0 2.4361315264540284 -11.288651690393728 0 0 0 0 -2.2610511508415811 -13.093331754022074 0 -13.093331754022074 -81.120003338668539 0 0 0 0 8.3056821604100328 13.170028658788869 0 13.170028658788869 -23.234475248287815 0 0 0 0 -3.2734961954261053 -11.556711931552854 0 -11.556711931552854 -76.77606053017962 0 0 0 0 2.7208155867774253 -11.104546478370434 0 -11.104546478370434 -55.184802755679677 0 0 0 0 -1.8589357736527745 -14.287536676628406 0 -14.287536676628406 -77.573890977386327 0 0 0 0 -16.781046570310323 38.908525525946914 0 38.908525525946914 -46.239816659216558 0 0 0 0 19.334471953145965 2.1920155047657772 0 2.1920155047657772 -125.23063789237176 0 0 0 0 3.6409233669319785 -0.37492813752198062 0 -0.37492813752198062 -20.94893917532152 0 0 0 0 -2.2265229940498728 6.0833823731955761 0 6.0833823731955761 -74.533951518044205 0 0 0 0 563.68811468317483 -162.93875448530684 0 -162.93875448530684 -144.75200844183018 0 0 0 0 505.74308846587144 -47.762137599377184 0 -47.762137599377184 -72.79807205221357 0 0 0 0 192.41732603441108 -361.0681352257343 0 -361.0681352257343 -193.00533337574569 0 0 0 0 333.68179176110306 -3.1147289437774361 0 -3.1147289437774361 -233.77554256445532 0 0 0 0 195.10304744322423 161.77699243248412 0 161.77699243248412 -487.14155237935756 0 0 0 0 158.1246192034356 -228.31959558022231 0 -228.31959558022231 -520.53511477415395 0 0 0 0 519.80460639014996 41.606231970520412 0 41.606231970520412 -415.02997161646408 0 0 0 0 395.15841532079008 -185.55353068581809 0 -185.55353068581809 -218.50320033804292 0 0 0 0 -547.43075102996568 -426.86387252316308 0 -426.86387252316308 -1808.3674776959015 0 0 0 0 -489.23272000749745 -593.34586567224142 0 -593.34586567224142 -2169.0189303460502 0 0 0 0 -128.26557525856276 83.214293095086759 0 83.214293095086759 -2782.934045198539 0 0 0 0 31.604901924829473 -383.98165221320232 0 -383.98165221320232 -3498.3854056622949 0 0 0 0 -1.0301758515700961 -565.81315520878616 0 -565.81315520878616 -2834.3552418168401 0 0 0 0 -260.73707731562251 -895.18276486014656 0 -895.18276486014656 -2838.0731469035854 0 0 0 0 -464.60224492981632 -649.2148429213762 0 -649.2148429213762 -2346.3458080984383 0 0 0 0 -528.52551884369518 -942.43410071332619 0 -942.43410071332619 -2093.698090767517 0 0 0 0 -527.59073453643452 -940.03894050146482 0 -940.03894050146482 -2160.204107362315 0 0 0 0 -335.79110501792042 -1480.0528691143727 0 -1480.0528691143727 -2078.4217923310425 0 0 0 0 -206.3376595162149 -1093.3855468090414 0 -1093.3855468090414 -3069.0009778138083 0 0 0 0 -263.19008257707139 -1085.4134922433877 0 -1085.4134922433877 -2382.6311440319168 0 0 0 0 -40.605404867112441 -847.98115991015902 0 -847.98115991015902 -3500.1933903811678 0 0 0 0 -318.09631878290054 -1042.8439216515635 0 -1042.8439216515635 -3035.4753682861847 0 0 0 0 -444.26988426211926 -640.85077501113483 0 -640.85077501113483 -3493.3105067844026 0 0 0 0 1.4181730956092 7.7742307474862749 0 7.7742307474862749 -19.681427283372873 0 0 0 0 -247.10011648290282 -1322.0643591930384 0 -1322.0643591930384 -3184.9550670476401 0 0 0 0 -1616.0371240927534 -1026.3337184417701 0 -1026.3337184417701 -702.85896766018595 0 0 0 0 -4.1214705758802666 -9.6440708157006156 0 -9.6440708157006156 -80.533084794335537 0 0 0 0 -15.445514900771741 -17.752426267190458 0 -17.752426267190458 -84.996946847841173 0 0 0 0 7.4814534019708301 16.752565565241952 0 16.752565565241952 -14.181269169678888 0 0 0 0 16.137899076558369 24.591813213923842 0 24.591813213923842 -155.84195773045212 0 0 0 0 1.3014117785878088 6.6412872989382699 0 6.6412872989382699 -36.668366183509121 0 0 0 0 -22.126470711534239 -21.067558319542513 0 -21.067558319542513 -82.176849113869139 0 0 0 0 -637.98255622796842 -988.33842804902997 0 -988.33842804902997 -1480.5200048424431 0 0 0 0 -6.1576792293637634 9.8460455577008261 0 9.8460455577008261 -22.434733517058572 0 0 0 0 -11.668140562852841 -21.637591297424933 0 -21.637591297424933 -88.425462563898691 0 0 0 0 -173.80706667919367 -508.94414529488131 0 -508.94414529488131 -1795.2989078003593 0 0 0 0 -460.70107026168523 -977.58128354827204 0 -977.58128354827204 -2142.3950416848056 0 0 0 0 -565.97574378841603 -1036.8323371419406 0 -1036.8323371419406 -2128.4646234847751 0 0 0 0 -645.75674146396352 -922.14310526350164 0 -922.14310526350164 -2059.6244763029226 0 0 0 0 -575.04746852219273 -1019.8365809726729 0 -1019.8365809726729 -1954.0745543711528 0 0 0 0 -760.31352597372552 -1325.228636273052 0 -1325.228636273052 -2138.0799411812686 0 0 0 0 -6.3857025179170996 -0.3484041085947176 0 -0.3484041085947176 -0.14734704246896513 0 0 0 0 -676.75227870750859 -1071.6066356722677 0 -1071.6066356722677 -1848.2223641737346 0 0 0 0 -35.539804705644201 -53.167504873970756 0 -53.167504873970756 -75.628680089008412 0 0 0 0 7.740754103827002 -6.0457888931547421 0 -6.0457888931547421 -64.619073929391519 0 0 0 0 -33.90039719381771 -6.236991019989425 0 -6.236991019989425 0.78543724571490259 0 0 0 0 -139.68349246242678 24.748973049197957 0 24.748973049197957 7.7429507530905539 0 0 0 0 8.9959967218319434 -96.207345162402817 0 -96.207345162402817 -148.23913792934763 0 0 0 0 -686.87316455277119 -1204.0812379550061 0 -1204.0812379550061 -2395.028099370109 0 0 0 0 -664.91976855702899 -1048.8286546606978 0 -1048.8286546606978 -1874.2466624422377 0 0 0 0 -673.47890528740163 -1022.8299795297789 0 -1022.8299795297789 -1953.0351286775331 0 0 0 0 -669.0318931869291 -950.2451046599399 0 -950.2451046599399 -1918.4231647698325 0 0 0 0 -798.2319506862674 -902.69796770233188 0 -902.69796770233188 -1648.0527008937061 0 0 0 0 221.95926761209194 52.290467757240549 0 52.290467757240549 -299.84232579413947 0 0 0 0 45.83627690706345 14.095710623455872 0 14.095710623455872 -20.410193460954119 0 0 0 0 -24.683612796816305 -33.427276879032433 0 -33.427276879032433 -109.96830116563069 0 0 0 0 14.818690338093681 -8.9216288409778617 0 -8.9216288409778617 -85.729638599506714 0 0 0 0 0.76129382253115807 -1.929837711806826 0 -1.929837711806826 -36.836965947606785 0 0 0 0 -2.664836833082191 -6.1665290947510911 0 -6.1665290947510911 -23.917365054220156 0 0 0 0 -26.847662429550837 29.175183858038508 0 29.175183858038508 -531.492097252245 0 0 0 0 -30.785096872859867 261.17054348951615 0 261.17054348951615 -874.19404161856437 0 0 0 0 -33.615026005556501 20.633115013511087 0 20.633115013511087 -156.15945135470974 0 0 0 0 -167.51547487105381 281.75955124430038 0 281.75955124430038 -663.61423124844441 0 0 0 0 -50.882832370068741 11.080461449386576 0 11.080461449386576 -280.17387762161252 0 0 0 0 12.871001959834496 -4.9634715838975296 0 -4.9634715838975296 -113.22910209524602 0 0 0 0 -15.188839417349811 51.043393205118491 0 51.043393205118491 -336.75148768477072 0 0 0 0 23.14932531424644 18.856282336463892 0 18.856282336463892 -231.89006871178913 0 0 0 0 -15.051552163167742 55.163600550467891 0 55.163600550467891 -262.15249054449498 0 0 0 0 15.359504931722256 -15.575648987368595 0 -15.575648987368595 -314.45643846202029 0 0 0 0 17.864612616930685 5.3826277562861833 0 5.3826277562861833 -279.00909166333599 0 0 0 0 -31.865041671986148 30.27268757908746 0 30.27268757908746 -278.09106244312943 0 0 0 0 65.703807680591225 38.107572278730331 0 38.107572278730331 -277.33545546220012 0 0 0 0 41.780360387817723 39.355421901345835 0 39.355421901345835 -241.56551549553996 0 0 0 0 16.060306258346241 -24.433141849910463 0 -24.433141849910463 -219.88192673517028 0 0 0 0 86.037287260267419 35.61945362031264 0 35.61945362031264 -290.96090346461665 0 0 0 0 80.672889483914332 38.797035333608846 0 38.797035333608846 -277.3080462992242 0 0 0 0 35.481401301284158 26.992277026560572 0 26.992277026560572 -237.55932454003414 0 0 0 0 133.11683438083742 -56.691972450851964 0 -56.691972450851964 -143.49434291196451 0 0 0 0 39.634787427484241 3.1936810564803011 0 3.1936810564803011 -106.25911595333582 0 0 0 0 -3.7323549451838622 -4.8357664166115208 0 -4.8357664166115208 -6.9025991606033443 0 0 0 0 -154.60033732597003 -229.43651503066849 0 -229.43651503066849 25.683940246761665 0 0 0 0 -323.19515752685004 877.06738724736169 0 877.06738724736169 -2230.8327277420522 0 0 0 0 -103.57746351398578 213.54667018518751 0 213.54667018518751 100.30271903570519 0 0 0 0 -494.55841881835505 651.27901801029316 0 651.27901801029316 -1153.0974848815504 0 0 0 0 -219.4785303637243 570.37708575774923 0 570.37708575774923 -1143.4635662858782 0 0 0 0 -228.28219739747328 538.67196104177538 0 538.67196104177538 -1243.4639856249569 0 0 0 0 -11.846899162751093 -13.90757906638229 0 -13.90757906638229 -17.059080481238301 0 0 0 0 10.154839222381584 3.3435666251951757 0 3.3435666251951757 -7.7686410795051062 0 0 0 0 3.7416600144642871 14.945844638441486 0 14.945844638441486 -94.502404347302218 0 0 0 0 -45.403733509771428 445.1797306836479 0 445.1797306836479 -1229.2147977816085 0 0 0 0 1.3352208782084265 5.8168105919933524 0 5.8168105919933524 -32.463600450619914 0 0 0 0 3.2274769012886511 -23.400517508519641 0 -23.400517508519641 -54.268527133250913 0 0 0 0 -16.266943469887792 446.04962217214097 0 446.04962217214097 -1065.0554076416247 0 0 0 0 -151.49996901830787 363.07039361961051 0 363.07039361961051 -1056.1144571909717 0 0 0 0 38.78122227697304 260.77884580722503 0 260.77884580722503 -902.76047073151358 0 0 0 0 -59.548042189871467 454.96348349024356 0 454.96348349024356 -1111.7143303104558 0 0 0 0 -2.6282633278143965 34.37040214004918 0 34.37040214004918 -88.129037246164401 0 0 0 0 116.26072161190075 315.44968287282245 0 315.44968287282245 -1282.2689566235495 0 0 0 0 314.60614207460503 237.87150674789882 0 237.87150674789882 -1257.2764826380117 0 0 0 0 -176.96814455418496 126.78065276713721 0 126.78065276713721 -160.37536127215742 0 0 0 0 -213.01796374917365 271.76612401495339 0 271.76612401495339 -452.77845251240598 0 0 0 0 47.571863991725195 -312.46709950870036 0 -312.46709950870036 370.15488366639966 0 0 0 0 207.44474793108725 -709.92309417974832 0 -709.92309417974832 -616.73521890703591 0 0 0 0 228.45859518806969 -838.11702286164223 0 -838.11702286164223 73.367112754625964 0 0 0 0 0.091468981856337894 -2.1881886779297033 0 -2.1881886779297033 -6.9215450835955803 0 0 0 0 530.49130233487563 -90.378596664893394 0 -90.378596664893394 -43.628498554509861 0 0 0 0 -67.446758141269129 84.267682974666627 0 84.267682974666627 -184.29335951696476 0 0 0 0 692.87791912448392 -473.14194329428801 0 -473.14194329428801 70.634726574999092 0 0 0 0 1.5756382495117793 -4.5703019051122915 0 -4.5703019051122915 -15.411468259125925 0 0 0 0 18.715665304633262 94.059683973877043 0 94.059683973877043 -242.45122481333487 0 0 0 0 -76.543423185644883 89.81629384927021 0 89.81629384927021 -64.067582002468399 0 0 0 0 68.426398390432496 56.206303127440876 0 56.206303127440876 -283.81793188093025 0 0 0 0 23.761191078425441 74.210525975008977 0 74.210525975008977 -197.74268881938599 0 0 0 0 89.347038199982308 114.62542279964759 0 114.62542279964759 -376.03434694064026 0 0 0 0 111.14605844360062 55.984126883904537 0 55.984126883904537 -286.26453542485478 0 0 0 0 -34.170129470691109 221.43345396997864 0 221.43345396997864 -496.10725347274331 0 0 0 0 4.6971160154845393 119.49796671111869 0 119.49796671111869 -252.68288921811424 0 0 0 0 -1.2570450157024879 4.1654713769966065 0 4.1654713769966065 -463.3147240867894 0 0 0 0 35.969946629964511 57.23074030123297 0 57.23074030123297 -443.02827016165872 0 0 0 0 185.40575156063824 -3.7527224793653886 0 -3.7527224793653886 -571.60826385711823 0 0 0 0 3.5310485891991901 1.2769224234854586 0 1.2769224234854586 0.87481014458372197 0 0 0 0 49.40710989061995 -121.14331953901922 0 -121.14331953901922 3.8229278455110034 0 0 0 0 151.65802702972201 -143.41438190453437 0 -143.41438190453437 -109.41306388210432 0 0 0 0 242.92964262077612 -94.250106449599116 0 -94.250106449599116 -460.11371064165223 0 0 0 0 135.6953260776861 -44.811488601708788 0 -44.811488601708788 -315.19059576965503 0 0 0 0 101.32290575090065 -37.211120253261015 0 -37.211120253261015 -329.08941108134786 0 0 0 0 -41.450763045049371 -11.817307744010463 0 -11.817307744010463 -318.19641285703347 0 0 0 0 -112.57012265054482 -279.68515959729325 0 -279.68515959729325 -238.33128711526058 0 0 0 0 253.31948191248091 -575.15184371023804 0 -575.15184371023804 -1267.9903278667703 0 0 0 0 28.054296750403637 -335.90330531752096 0 -335.90330531752096 -998.24925552599461 0 0 0 0 -35.087898152847629 -483.96126275460938 0 -483.96126275460938 -331.23788651324435 0 0 0 0 -75.37389450504395 -397.70162609266561 0 -397.70162609266561 -659.50521304158565 0 0 0 0 10.182118157559671 -365.76049578410709 0 -365.76049578410709 -859.37783997110444 0 0 0 0 -49.541733493167385 -428.93345599656743 0 -428.93345599656743 -919.77238456442774 0 0 0 0 -152.06036555910009 -167.7775204160618 0 -167.7775204160618 -996.14326117542191 0 0 0 0 -86.851921194260285 -316.47604160016289 0 -316.47604160016289 -765.4650926837104 0 0 0 0 16.209239832554886 93.550761812182401 0 93.550761812182401 -1079.2226180334933 0 0 0 0 -215.80426201018551 364.19775758653793 0 364.19775758653793 -1324.8237546361599 0 0 0 0 -359.70235204490223 -386.56751070745582 0 -386.56751070745582 -1171.4879709408056 0 0 0 0 -481.90199166150069 -259.61761030467244 0 -259.61761030467244 -1165.7814715624554 0 0 0 0 -104.64391596435735 -365.95000404981295 0 -365.95000404981295 158.7377242814315 0 0 0 0 -0.73585305289244141 -1.4693012087996884 0 -1.4693012087996884 -2.2784465175126631 0 0 0 0 -107.78945189268973 94.988032060732706 0 94.988032060732706 -1269.8127348430189 0 0 0 0 -119.7260050441032 -481.06531901988626 0 -481.06531901988626 -365.788226757757 0 0 0 0 85.979461255000388 98.98830353488097 0 98.98830353488097 10.823908776117236 0 0 0 0 -46.093011165234884 1.8266526984394318 0 1.8266526984394318 -247.59890324260573 0 0 0 0 81.608382374381108 152.85915647287584 0 152.85915647287584 -292.30708513452549 0 0 0 0 -10.478476405534764 -55.459273218175468 0 -55.459273218175468 -211.74659456333711 0 0 0 0 -87.30012162195419 -106.84219025248166 0 -106.84219025248166 -626.58273451449509 0 0 0 0 -127.37345189737607 -103.28051872689065 0 -103.28051872689065 -382.18415351865224 0 0 0 0 -61.257074757201735 -76.243563018258556 0 -76.243563018258556 -591.78258827148341 0 0 0 0 -29.034075902892369 155.22893478979785 0 155.22893478979785 -422.25854563959962 0 0 0 0 -83.445675578868645 152.67184166902803 0 152.67184166902803 -688.52382968895267 0 0 0 0 -69.380697939500294 93.441137647558378 0 93.441137647558378 -505.8934648269543 0 0 0 0 -144.29400499070653 203.9374955093748 0 203.9374955093748 -396.69570349851392 0 0 0 0 -7.195695377117886 102.95354532332908 0 102.95354532332908 -313.29840333006001 0 0 0 0 62.429992504187339 182.10888548732294 0 182.10888548732294 -404.49373328296861 0 0 0 0 -19.139067623059645 190.20685053415809 0 190.20685053415809 -351.70633743737653 0 0 0 0 32.82952230755393 176.81329287945874 0 176.81329287945874 -352.13278165901141 0 0 0 0 -22.614951342952509 220.89176351170903 0 220.89176351170903 -372.73261032382243 0 0 0 0 -46.596200515086537 199.37471664120449 0 199.37471664120449 -346.88205228653482 0 0 0 0 -170.75362866207104 169.53489985837797 0 169.53489985837797 -336.17088015904574 0 0 0 0 -66.17206328665236 240.99063519722449 0 240.99063519722449 -435.27683720234376 0 0 0 0 -62.065962584437784 229.16632759096751 0 229.16632759096751 -350.53949023046721 0 0 0 0 -120.42854181551945 209.99912969186474 0 209.99912969186474 -230.4962041346117 0 0 0 0 -82.492537259065216 140.52171585492056 0 140.52171585492056 -205.11120653173487 0 0 0 0 -78.341192929020281 173.00088527792849 0 173.00088527792849 -300.23192929059638 0 0 0 0 -35.493880730419392 192.79112399955079 0 192.79112399955079 -303.72119839653533 0 0 0 0 -3.5802141695484462 -1.1674838291829446 0 -1.1674838291829446 -0.83492021534313121 0 0 0 0 -295.77969733585371 255.28433203302893 0 255.28433203302893 -243.04528660486642 0 0 0 0 -177.23533774174678 -22.52210870100987 0 -22.52210870100987 -191.98462191738344 0 0 0 0 -84.612764461041081 230.0919349021359 0 230.0919349021359 -322.5367300315699 0 0 0 0 -262.99308545471263 251.72751416661561 0 251.72751416661561 -407.69521088087924 0 0 0 0 -239.23040307563747 74.081259332597256 0 74.081259332597256 -338.40836786976968 0 0 0 0 -573.47946632319486 179.36245937219542 0 179.36245937219542 -260.06733823637069 0 0 0 0 -535.23302410492079 136.94241684349117 0 136.94241684349117 -261.46261980608188 0 0 0 0 -337.58733107927657 225.61979418242868 0 225.61979418242868 -906.40569675127153 0 0 0 0 -525.72156940147624 352.74391154682985 0 352.74391154682985 -444.77459314315411 0 0 0 0 -473.0989661614779 157.16932559134452 0 157.16932559134452 -285.51778059349454 0 0 0 0 -510.12296573358424 262.0819210102876 0 262.0819210102876 -468.88135488331568 0 0 0 0 -333.05078433503377 130.01707136057075 0 130.01707136057075 -532.55441913487493 0 0 0 0 -233.19286658488613 256.12798379168453 0 256.12798379168453 -712.71718526042514 0 0 0 0 -132.14610116951394 171.90236662321195 0 171.90236662321195 -533.9387477595692 0 0 0 0 -186.09727372192015 160.33580821255214 0 160.33580821255214 -518.00858179218449 0 0 0 0 -65.629837102902115 -36.357346052053231 0 -36.357346052053231 -948.57048035574326 0 0 0 0 34.064768200611951 -138.07909613063299 0 -138.07909613063299 -848.60847062728635 0 0 0 0 -728.13848897205037 162.9697342575671 0 162.9697342575671 -868.17339932518757 0 0 0 0 -30.581311640960394 219.48344613888321 0 219.48344613888321 -1721.3418419794511 0 0 0 0 -353.76754767293664 -18.066824520405135 0 -18.066824520405135 -1873.4367796245497 0 0 0 0 -177.07364219395521 270.6403624618988 0 270.6403624618988 -1505.3462707853143 0 0 0 0 -469.76718904035573 257.2363005869513 0 257.2363005869513 -848.30360872127176 0 0 0 0 -352.26331767113004 136.1144415029363 0 136.1144415029363 -200.32273214047268 0 0 0 0 -215.43360774162352 238.36670317051517 0 238.36670317051517 -745.51483080540538 0 0 0 0 -50.753175983355504 332.51087187199892 0 332.51087187199892 -1182.746661833999 0 0 0 0 26.757452272674527 322.86001212842939 0 322.86001212842939 -716.14975760189577 0 0 0 0 -213.78859374763482 59.314864721228105 0 59.314864721228105 -813.66625758688951 0 0 0 0 41.623933820484126 335.66153721975684 0 335.66153721975684 -666.7474575963779 0 0 0 0 -10.816675942706725 33.109521771164111 0 33.109521771164111 -88.145733178695423 0 0 0 0 -77.85003094973456 276.69784253961348 0 276.69784253961348 -698.17091607909697 0 0 0 0 183.80223892481081 109.62446934603724 0 109.62446934603724 -738.10948726205402 0 0 0 0 -0.12415910447259648 79.586643635983819 0 79.586643635983819 -124.41428920861244 0 0 0 0 3.4886456547334923 6.9882325103539875 0 6.9882325103539875 -17.809876244013633 0 0 0 0 62.116839888534514 -48.85552745845655 0 -48.85552745845655 -314.41640288420604 0 0 0 0 -7.5735575522805902 75.987425427606581 0 75.987425427606581 -82.208001093273197 0 0 0 0 -9.8948426661709163 28.769107734916361 0 28.769107734916361 -110.9266668778447 0 0 0 0 -3.238182242327639 55.616475205419022 0 55.616475205419022 -76.797202973429194 0 0 0 0 -48.664256340009672 70.050837507001688 0 70.050837507001688 -186.94206653121046 0 0 0 0 -39.66945825531252 36.880247857171184 0 36.880247857171184 -98.139508792578454 0 0 0 0 -10.435155108991694 -9.7153718456002025 0 -9.7153718456002025 -162.42021274013098 0 0 0 0 -1.5398913567578347 -30.31069095094972 0 -30.31069095094972 -157.15960074462066 0 0 0 0 -6.8337990330710454 19.2618180035347 0 19.2618180035347 -158.37569153312324 0 0 0 0 -12.2089008878811 -31.942263215574712 0 -31.942263215574712 -115.20840847880936 0 0 0 0 17.239992143748168 21.917784859273524 0 21.917784859273524 -86.405908432782212 0 0 0 0 -5.7610066741780201 28.702462887807371 0 28.702462887807371 -81.299373879915038 0 0 0 0 177.96722566155074 -179.80301135815199 0 -179.80301135815199 -169.23223454901847 0 0 0 0 -417.40870647463237 384.94610511789529 0 384.94610511789529 -14.212854922681345 0 0 0 0 0.86644577262327527 -4.1137778649797481 0 -4.1137778649797481 -3.0648784456825844 0 0 0 0 -68.378784304104101 44.373113312409487 0 44.373113312409487 -202.05434849436858 0 0 0 0 -37.946767252793279 73.59583092437731 0 73.59583092437731 -229.62620340230205 0 0 0 0 -0.89511263929317231 -1.6384682795755463 0 -1.6384682795755463 -2.9087940141393647 0 0 0 0 -588.563600941711 -296.32397786699357 0 -296.32397786699357 170.80012189457241 0 0 0 0 -83.484253894860331 104.54008044980969 0 104.54008044980969 -245.19693998585535 0 0 0 0 9.0556477249950262 161.17003741357539 0 161.17003741357539 -627.83218847058993 0 0 0 0 33.015065847757569 -4.8306530103911882 0 -4.8306530103911882 -435.24530119658266 0 0 0 0 -22.886524460899182 40.001981322505571 0 40.001981322505571 -251.67727496544421 0 0 0 0 1.7318720305925126 -25.104645743822175 0 -25.104645743822175 -183.98310013341688 0 0 0 0 6.3512249218897523 -47.89817080788589 0 -47.89817080788589 -170.9189324055892 0 0 0 0 15.879198406613796 -47.002190155658809 0 -47.002190155658809 -211.21772947926388 0 0 0 0 -4.9589735403681061 -29.979391476147384 0 -29.979391476147384 -126.17259101458376 0 0 0 0 -31.06049762460475 -22.353087497534034 0 -22.353087497534034 -65.325387197402847 0 0 0 0 -46.201772180366788 -75.687054987445208 0 -75.687054987445208 -122.32025667720882 0 0 0 0 -11.120179659935244 1.8579894890852258 0 1.8579894890852258 -2.4973165547409883 0 0 0 0 -7.8879769112074882 -138.79517092747335 0 -138.79517092747335 -98.176773380396298 0 0 0 0 -99.552566732893524 13.803226596911571 0 13.803226596911571 0.69088137939866101 0 0 0 0 -5.7498746531387717 -0.2857370655828646 0 -0.2857370655828646 1.3394751070169248 0 0 0 0 23.304471767768518 -55.453217342301969 0 -55.453217342301969 -232.45516377925469 0 0 0 0 15.270597159261342 -36.432201198656912 0 -36.432201198656912 -193.31888250097563 0 0 0 0 -1.6224219873918173 -67.280056714795705 0 -67.280056714795705 -167.73107202434949 0 0 0 0 -2.0105941251504191 -30.716972646666818 0 -30.716972646666818 -120.86135885261046 0 0 0 0 4.8701014604871489 -29.260400904982362 0 -29.260400904982362 -163.63001415636882 0 0 0 0 14.799181159710656 -36.626756608383289 0 -36.626756608383289 -175.66323021528615 0 0 0 0 1.4707456009209636 -12.305412557371255 0 -12.305412557371255 -180.63589836740493 0 0 0 0 9.1586207333089078 -29.788085753353926 0 -29.788085753353926 -174.19821495330564 0 0 0 0 -10.917245759825164 -25.066005176945851 0 -25.066005176945851 -133.92498593703931 0 0 0 0 -0.98417154623393799 -28.839453420288805 0 -28.839453420288805 -133.21228618773802 0 0 0 0 5.6211510228549741 -22.520545807928443 0 -22.520545807928443 -122.10168344303793 0 0 0 0 2.5828733247458331 -16.32756867029866 0 -16.32756867029866 -67.583047566416553 0 0 0 0 -0.84902761690682382 0.027341191615164462 0 0.027341191615164462 -121.61429361136652 0 0 0 0 15.416631171257904 -11.027926728977263 0 -11.027926728977263 -190.72495327059971 0 0 0 0 -8.4642050192542229 19.169140132731172 0 19.169140132731172 -148.88411078354966 0 0 0 0 -75.228161153336259 11.627577335834758 0 11.627577335834758 32.275271769071878 0 0 0 0 -16.668086628129458 14.522688981027841 0 14.522688981027841 -49.016537557181437 0 0 0 0 20.791751343400847 4.4644314451902574 0 4.4644314451902574 -151.37319484002728 0 0 0 0 1.7146195331933995 52.081595674068922 0 52.081595674068922 -193.99236511032723 0 0 0 0 22.925223228784489 24.483159881545021 0 24.483159881545021 -271.06113048284897 0 0 0 0 -24.049208512560654 65.417374297851893 0 65.417374297851893 -196.89962489319987 0 0 0 0 -12.785829655070302 2.4400059383879125 0 2.4400059383879125 -35.395510417766218 0 0 0 0 33.365220920514616 78.118991114692108 0 78.118991114692108 -24.472855474727112 0 0 0 0 5.2132468985101568 -16.690209452521007 0 -16.690209452521007 -70.948181970941533 0 0 0 0 123.689824162082 -82.917786194463133 0 -82.917786194463133 58.095776874784406 0 0 0 0 -19.947343167389135 -41.165292484151337 0 -41.165292484151337 -28.168202645220845 0 0 0 0 -6.7242323557955688 -10.830500020537718 0 -10.830500020537718 -0.51041597192970611 0 0 0 0 -15.939749666849821 -17.011066223585772 0 -17.011066223585772 -61.288635126789814 0 0 0 0 -12.82356204219559 -4.9496050725219902 0 -4.9496050725219902 -30.339460122077526 0 0 0 0 -10.153786029184801 -6.7041833141458849 0 -6.7041833141458849 -6.3698570185192196 0 0 0 0 -13.499933995888568 -4.8325977973358931 0 -4.8325977973358931 -25.949387429503986 0 0 0 0 -1.3573409271315597 -11.870988537159985 0 -11.870988537159985 -21.762705138429574 0 0 0 0 -5.6506113222330896 23.771397113140665 0 23.771397113140665 -57.541662436532533 0 0 0 0 -30.553636952266061 -13.623094259379286 0 -13.623094259379286 -30.124820149430889 0 0 0 0 -5.4471131107252901 -7.1128293684695763 0 -7.1128293684695763 -25.169551429991696 0 0 0 0 3.8124444066718528 -14.443349731283988 0 -14.443349731283988 -33.532286282889018 0 0 0 0 -27.018192952698882 -133.10607178894134 0 -133.10607178894134 -138.36457874871849 0 0 0 0 -16.394166935626799 33.318827283386781 0 33.318827283386781 1.6957103713975812 0 0 0 0 -40.909543978926422 -25.562793301511192 0 -25.562793301511192 -124.95836530440283 0 0 0 0 -1.5398280230565433 -5.740058206491419 0 -5.740058206491419 -24.137946858449709 0 0 0 0 -18.191494123717348 -7.3987748363811079 0 -7.3987748363811079 -21.149514564093352 0 0 0 0 -18.096593070345989 -8.481093436628953 0 -8.481093436628953 -21.905826439089651 0 0 0 0 -6.901797533305043 -6.6472747327351058 0 -6.6472747327351058 -16.091179125073772 0 0 0 0 -16.093147363489159 -3.9213191555811444 0 -3.9213191555811444 1.4265658104535275 0 0 0 0 -17.643340453063502 -8.4427056454287595 0 -8.4427056454287595 -23.435404381064018 0 0 0 0 -17.864820775701446 -7.5314862550617363 0 -7.5314862550617363 -22.673849448253804 0 0 0 0 -19.690737042356886 -2.8186785532307113 0 -2.8186785532307113 -26.379181039557011 0 0 0 0 -17.195996137794282 -7.9379759536227539 0 -7.9379759536227539 -29.156842708743852 0 0 0 0 -13.341715740119071 -3.0118948123017617 0 -3.0118948123017617 -26.295403247219383 0 0 0 0 -5.8763667464729039 -7.7082581126479415 0 -7.7082581126479415 -21.856695954963271 0 0 0 0 -8.1633895591747212 -0.90777796401168986 0 -0.90777796401168986 -5.1573491142351946 0 0 0 0 -13.23272068641927 9.3657780719920538 0 9.3657780719920538 -16.378741896559632 0 0 0 0 -11.211658293977052 -27.862653238995364 0 -27.862653238995364 19.789307751728074 0 0 0 0 -11.907077874903052 -15.896086583145745 0 -15.896086583145745 -18.759868223627223 0 0 0 0 28.382313466518099 -21.012095902885505 0 -21.012095902885505 -19.343839396229388 0 0 0 0 24.228321665756539 -41.803153580756053 0 -41.803153580756053 -95.695891105282556 0 0 0 0 40.545836065148251 28.550887800975829 0 28.550887800975829 -99.975354573322079 0 0 0 0 7.6639421575514461 -80.586414404634752 0 -80.586414404634752 -20.27098808751407 0 0 0 0 33.892593034433389 -23.578478160308585 0 -23.578478160308585 -113.05729825756214 0 0 0 0 7.0825023847007742 -19.414024874187874 0 -19.414024874187874 -65.714706399064198 0 0 0 0 -340.97696521597663 -119.82203843508069 0 -119.82203843508069 -73.674828871881772 0 0 0 0 -135.65021569089186 -121.48944179642854 0 -121.48944179642854 -75.715907057162497 0 0 0 0 -325.61956246295995 10.149942677517402 0 10.149942677517402 -7.718289215670211 0 0 0 0 -336.11468931024365 -0.17418186072796971 0 -0.17418186072796971 -17.69621281736795 0 0 0 0 -168.23809528413994 92.103782956796294 0 92.103782956796294 -59.87328583054159 0 0 0 0 -418.98588623261503 248.14138064506835 0 248.14138064506835 -146.61178949950204 0 0 0 0 -1.0824814434992476 2.6682911378579006 0 2.6682911378579006 -5.2088753034395969 0 0 0 0 57.754376992863172 99.092904194621553 0 99.092904194621553 -395.62595003718297 0 0 0 0 25.449895168238982 43.403864587305065 0 43.403864587305065 -429.79463525376218 0 0 0 0 -2.6348084736915434 2.4731919144404042 0 2.4731919144404042 -5.3642784061099906 0 0 0 0 -411.64032018313083 81.405537349818815 0 81.405537349818815 -43.333049174775169 0 0 0 0 -426.24716260922924 -9.3206520154107579 0 -9.3206520154107579 -606.81560523679491 0 0 0 0 -81.370178048522575 -73.957246144175429 0 -73.957246144175429 -451.02132917365878 0 0 0 0 -554.87192526032868 106.35439803880683 0 106.35439803880683 -274.86673609646414 0 0 0 0 -45.998902615185216 14.272963634226869 0 14.272963634226869 -325.34367488742839 0 0 0 0 -3.3345095979553747 0.40720579937016321 0 0.40720579937016321 0.82130355087832974 0 0 0 0 -234.62935309982277 199.89773672287382 0 199.89773672287382 -185.09325214192495 0 0 0 0 -656.30862603817877 170.55063837280795 0 170.55063837280795 -81.81005481244938 0 0 0 0 -417.47106910026014 218.71842814423729 0 218.71842814423729 -132.99194284349119 0 0 0 0 -490.86922433626387 32.591915251162803 0 32.591915251162803 -541.3005356100366 0 0 0 0 -395.92359806025269 365.78250072506228 0 365.78250072506228 -267.56777537923546 0 0 0 0 98.191286050013787 158.26330946598148 0 158.26330946598148 -465.84887510168414 0 0 0 0 -312.42598057723353 343.92206936494426 0 343.92206936494426 -411.23343103116105 0 0 0 0 38.126973357158477 47.588542102885469 0 47.588542102885469 -317.36686423730208 0 0 0 0 -16.379383592894101 -142.6518448596704 0 -142.6518448596704 -154.1495195442989 0 0 0 0 -140.98674054094818 34.495637142512095 0 34.495637142512095 -187.21823162447453 0 0 0 0 -45.443112304878468 81.220312773475655 0 81.220312773475655 -273.70432109987752 0 0 0 0 -28.827590848465164 112.31231644416285 0 112.31231644416285 -282.95104299658846 0 0 0 0 -39.218437013467195 148.38075167507938 0 148.38075167507938 -295.56216204092817 0 0 0 0 -6.0522116525630363 -3.6824582031644595 0 -3.6824582031644595 -2.6809380543554289 0 0 0 0 -7.5379266395721842 -3.2610812673841472 0 -3.2610812673841472 -1.8883151485989287 0 0 0 0 -406.49036446301545 28.834806262296297 0 28.834806262296297 18.830662049856869 0 0 0 0 -117.83347745644062 384.05663259489688 0 384.05663259489688 -470.29500521935506 0 0 0 0 -123.10312039135664 378.22452805015092 0 378.22452805015092 -412.53074177451094 0 0 0 0 -95.909437504867356 334.90191798792875 0 334.90191798792875 -467.34161057683207 0 0 0 0 -232.64239357547513 -213.50031234145297 0 -213.50031234145297 -250.38051850120576 0 0 0 0 18.381306033988039 25.278332278804328 0 25.278332278804328 -2.264533875307734 0 0 0 0 -4.4459579262318663 1.4387447253605923 0 1.4387447253605923 -0.45431292965047043 0 0 0 0 -88.700262989942985 347.75103441675924 0 347.75103441675924 -521.14244235583055 0 0 0 0 -140.99839743330995 -17.761240745001203 0 -17.761240745001203 33.919056659433352 0 0 0 0 -409.75731863795772 214.29407481727117 0 214.29407481727117 -111.24671986593491 0 0 0 0 55.768772005584196 8.7628022129647434 0 8.7628022129647434 -13.290595272257633 0 0 0 0 14.146129667324658 13.379049511175253 0 13.379049511175253 -16.297493218731688 0 0 0 0 -31.276570219210953 37.820784190345876 0 37.820784190345876 -21.537773735457449 0 0 0 0 9.6835052421797627 36.17622266050239 0 36.17622266050239 -42.375865158810484 0 0 0 0 68.134812671080454 9.9513033947878284 0 9.9513033947878284 -27.952278139993723 0 0 0 0 -0.35358155247561435 0.6404267194623241 0 0.6404267194623241 -9.8265150638751209 0 0 0 0 65.042465202335933 8.6691176513226083 0 8.6691176513226083 -22.701784977864008 0 0 0 0 77.946712399917942 22.107483534076891 0 22.107483534076891 -25.368034383427585 0 0 0 0 92.056288967046612 19.398326573023951 0 19.398326573023951 -71.656237769253494 0 0 0 0 49.325020842157755 71.838777442841092 0 71.838777442841092 62.488027489431261 0 0 0 0 108.97872748683903 92.4973188287222 0 92.4973188287222 -112.02093446684739 0 0 0 0 39.810495294849261 28.197439327388565 0 28.197439327388565 -20.525467409854173 0 0 0 0 51.289384040167533 28.543191605698667 0 28.543191605698667 -26.769922664381738 0 0 0 0 40.607471242018619 26.745150348691823 0 26.745150348691823 -18.595749892141612 0 0 0 0 12.859887944533913 0.81249278277670101 0 0.81249278277670101 -8.2503834105675118 0 0 0 0 124.20086153672219 -75.732818419670366 0 -75.732818419670366 -16.066718212445267 0 0 0 0 4.5804719195501207 -0.1357189432689978 0 -0.1357189432689978 1.2003164763049838 0 0 0 0 10.200808069859249 116.67364541289135 0 116.67364541289135 177.23242437317094 0 0 0 0 2.5969925892945867 -26.545981107199623 0 -26.545981107199623 -27.892465616503614 0 0 0 0 101.63885133429994 11.017270150412514 0 11.017270150412514 -27.736137617772329 0 0 0 0 20.811658665964046 20.648624922989256 0 20.648624922989256 -64.663818134598841 0 0 0 0 -8.3923449312785294 23.075545647175659 0 23.075545647175659 -3.9809129549539648 0 0 0 0 -2.3329374606993269 -0.38377356562922404 0 -0.38377356562922404 1.3480538953435257 0 0 0 0 -6.1777201385638563 7.3262501082612062 0 7.3262501082612062 -14.590402596183537 0 0 0 0 -13.651442824515925 5.8262313501327299 0 5.8262313501327299 33.387314433058236 0 0 0 0 83.242744138104229 -17.684499057527887 0 -17.684499057527887 -58.54991558585607 0 0 0 0 28.887737932427626 20.746406229678541 0 20.746406229678541 -18.049043178856664 0 0 0 0 4.7691606296287627 4.6979289567666216 0 4.6979289567666216 -15.541948083411398 0 0 0 0 -17.14307774261772 -28.724205380516651 0 -28.724205380516651 -92.70260057847554 0 0 0 0 13.946124815067149 4.4660218728270138 0 4.4660218728270138 -40.372323418232412 0 0 0 0 24.913062596984219 21.825543534985627 0 21.825543534985627 -12.710117801992965 0 0 0 0 -12.6851574057557 -22.837342023148267 0 -22.837342023148267 -8.7342312381016391 0 0 0 0 -80.689410533703381 -17.654439749640005 0 -17.654439749640005 60.996339908138907 0 0 0 0 -178.14839747202791 49.702794848170015 0 49.702794848170015 24.444112353259698 0 0 0 0 -14.470407540136648 72.763861793486285 0 72.763861793486285 -142.06449782819254 0 0 0 0 -39.702201757700323 -186.34413633075383 0 -186.34413633075383 -198.57215978654131 0 0 0 0 175.48096429711603 -35.008223301523685 0 -35.008223301523685 -188.19161267576419 0 0 0 0 17.017004820561965 -90.058473762670474 0 -90.058473762670474 -36.952167270610516 0 0 0 0 0.69019556606544485 -20.322801211309198 0 -20.322801211309198 -18.412916411688315 0 0 0 0 2.1360738099180621 11.848212989968729 0 11.848212989968729 -92.53513038481023 0 0 0 0 -8.5333179194986428 -15.869096829832415 0 -15.869096829832415 -78.11038573866108 0 0 0 0 -2.734828914949702 -11.226372923268173 0 -11.226372923268173 -75.644314092336572 0 0 0 0 -8.4694920735219057 -16.404521874526836 0 -16.404521874526836 -76.613274739604094 0 0 0 0 -1.423710680697809 -45.007955869166835 0 -45.007955869166835 -132.31738187318842 0 0 0 0 118.9667167695743 7.5827403556977515 0 7.5827403556977515 -164.73738375152607 0 0 0 0 -1.2576842958457846 1.7396896413119549 0 1.7396896413119549 0.15194916316235929 0 0 0 0 33.788215559505829 -34.947280070548004 0 -34.947280070548004 -186.05861330262269 0 0 0 0 -104.28240038447439 15.488657616439014 0 15.488657616439014 -5.4258061933528552 0 0 0 0 48.380269231563261 10.025774527304748 0 10.025774527304748 -187.12863279644807 0 0 0 0 -2.9934914000748165 0.60203084891666236 0 0.60203084891666236 -24.174880098067188 0 0 0 0 -22.509069313656312 18.711087540348672 0 18.711087540348672 -120.59799316855924 0 0 0 0 -16.025243219344702 -15.531258206254279 0 -15.531258206254279 -75.546253437983978 0 0 0 0 2.0531219793390321 0.52493098583121167 0 0.52493098583121167 -60.735176922781775 0 0 0 0 18.788152194651389 -39.591335741701187 0 -39.591335741701187 -56.65276359751897 0 0 0 0 21.879454048500861 -16.241666647816601 0 -16.241666647816601 -85.319409521558555 0 0 0 0 -18.569818008639004 -11.041957347624702 0 -11.041957347624702 -59.931088246921718 0 0 0 0 -59.584436028552432 -2.74194815658484 0 -2.74194815658484 -33.416698282060679 0 0 0 0 5.426667201961477 -22.229157121718874 0 -22.229157121718874 -56.98647360240701 0 0 0 0 2.513993662608109 1.9529247474475966 0 1.9529247474475966 -22.690130080796791 0 0 0 0 78.421853067536176 -76.178857021299336 0 -76.178857021299336 -86.525594639897463 0 0 0 0 13.815966437588031 12.333823774053599 0 12.333823774053599 123.42491996997705 0 0 0 0 10.76531010256906 -25.179609017292023 0 -25.179609017292023 -54.509395714368111 0 0 0 0 568.97683650192084 -55.525501415139843 0 -55.525501415139843 161.97781942509243 0 0 0 0 -95.883142907176762 168.39646799617958 0 168.39646799617958 -268.21956662291632 0 0 0 0 -7.5434322094833988 111.64418213900467 0 111.64418213900467 -411.12780828195264 0 0 0 0 -104.21680707942687 141.50236976320457 0 141.50236976320457 -130.90971577817481 0 0 0 0 12.327552127987474 60.743171262617352 0 60.743171262617352 -287.59319570994558 0 0 0 0 -77.899004759377931 -253.80905307116427 0 -253.80905307116427 114.79119844984962 0 0 0 0 -80.635555368080531 87.590163146415534 0 87.590163146415534 -11.786208867136338 0 0 0 0 6.2574948431687591 -11.846428374663583 0 -11.846428374663583 -73.808124381101777 0 0 0 0 -0.77095973252967909 -2.2337413522678258 0 -2.2337413522678258 -3.6712119603992548 0 0 0 0 -117.80457280678093 -752.0594705879339 0 -752.0594705879339 -320.34889857099915 0 0 0 0 -35.883021916208236 162.67664996972326 0 162.67664996972326 -465.46638790730503 0 0 0 0 3.8740165229546113 -6.8352483426798472 0 -6.8352483426798472 -68.409796620715866 0 0 0 0 -17.002019167363699 -24.964805881785651 0 -24.964805881785651 -92.079349208892381 0 0 0 0 -0.91155391848098066 -6.3898978039030681 0 -6.3898978039030681 -63.993890368509909 0 0 0 0 -6.071292078565989 6.6436718073273369 0 6.6436718073273369 -100.89672289279406 0 0 0 0 -3.0184200836517054 11.265350275635459 0 11.265350275635459 -84.865935720946936 0 0 0 0 231.51695869382002 114.43189728873722 0 114.43189728873722 -95.2653605802534 0 0 0 0 -1190.4248374239232 -504.92162774551844 0 -504.92162774551844 358.32856868822046 0 0 0 0 -271.63147941089483 145.40089599376461 0 145.40089599376461 156.16981320156356 0 0 0 0 38.731313421380037 -24.785293648323204 0 -24.785293648323204 -642.43863731999636 0 0 0 0 80.854347908145428 183.92436172227417 0 183.92436172227417 -20.23942648542743 0 0 0 0 -42.129799618161996 -62.693795291592778 0 -62.693795291592778 -90.28034347229368 0 0 0 0 -9.5966419552837579 -51.236359676434063 0 -51.236359676434063 -110.69337129285395 0 0 0 0 2.5332923368514457 -128.13876206037867 0 -128.13876206037867 -225.24651389810515 0 0 0 0 44.962956557255893 -70.051876900373372 0 -70.051876900373372 -398.77837331844836 0 0 0 0 11.477070029471633 -25.448217166303721 0 -25.448217166303721 -280.31297347151121 0 0 0 0 8.197258512419852 14.609143874315862 0 14.609143874315862 -39.962412554742741 0 0 0 0 -10.343566979824629 -15.549063036440202 0 -15.549063036440202 -76.426750958602952 0 0 0 0 -9.1518309008255301 -14.677332901039335 0 -14.677332901039335 -83.065779665776063 0 0 0 0 -11.40725114954364 -15.446792766488215 0 -15.446792766488215 -76.141136272440235 0 0 0 0 -5.9388113937229718 10.740206066133396 0 10.740206066133396 -66.911944596588 0 0 0 0 3.6193115984212363 16.530193645949652 0 16.530193645949652 -54.452680139158417 0 0 0 0 7.4399964110994006 38.652884179980902 0 38.652884179980902 -30.952782711474356 0 0 0 0 26.145233934662883 51.327517654955045 0 51.327517654955045 -32.088234895192727 0 0 0 0 43.747231683183827 40.504731168988656 0 40.504731168988656 -105.53193193055631 0 0 0 0 6.1507411095935822 80.541678640227474 0 80.541678640227474 -31.047437408782571 0 0 0 0 -41.323470585415862 56.75727953072419 0 56.75727953072419 -40.817276525958732 0 0 0 0 -10.735940828499185 -11.434716249783499 0 -11.434716249783499 -39.429587267501944 0 0 0 0 60.171772513722772 11.107362214770546 0 11.107362214770546 -64.380691335323377 0 0 0 0 108.0581180164811 -11.067361410945523 0 -11.067361410945523 -111.21025887259748 0 0 0 0 42.829170391342814 61.530865026251377 0 61.530865026251377 -47.915137464860891 0 0 0 0 36.640918688891361 70.841046624392447 0 70.841046624392447 -15.322140776495871 0 0 0 0 1.9382532305203313 8.829482196690833 0 8.829482196690833 -48.470603858087088 0 0 0 0 34.101713614662003 11.612521719569486 0 11.612521719569486 -69.649728034194595 0 0 0 0 27.720500383091803 19.235956451027278 0 19.235956451027278 -8.2162189892969764 0 0 0 0 67.47335967167146 -413.38358477993461 0 -413.38358477993461 -1183.0696047535166 0 0 0 0 -16.606832788087615 92.521433513771626 0 92.521433513771626 -136.34283390688768 0 0 0 0 -321.34355296461581 -471.27414434286766 0 -471.27414434286766 -138.95915020136817 0 0 0 0 -3.953268925624343 -3.8348764038510126 0 -3.8348764038510126 -70.560820260267064 0 0 0 0 -8.6002087646270056 23.924654286588577 0 23.924654286588577 -66.184761722679866 0 0 0 0 -17.583812789179831 3.6745075238368372 0 3.6745075238368372 -72.548952229059068 0 0 0 0 27.800107878096242 15.899377509354963 0 15.899377509354963 -82.509527129455819 0 0 0 0 -10.486208156319663 40.423244328114379 0 40.423244328114379 -56.796455033181701 0 0 0 0 246.76875778394924 198.82073242513434 0 198.82073242513434 29.625772842613515 0 0 0 0 97.459133131746228 -163.36939791648047 0 -163.36939791648047 -155.85789718518208 0 0 0 0 -6.9122485154816991 24.489803997479662 0 24.489803997479662 -83.357174366600688 0 0 0 0 0.11781894157965633 9.9787213119868134 0 9.9787213119868134 -8.2688739229150769 0 0 0 0 62.732688129389317 -161.39819036659901 0 -161.39819036659901 -32.539773459284334 0 0 0 0 84.97457601165388 78.940981785153326 0 78.940981785153326 -86.587415531460465 0 0 0 0 46.627734710687264 -158.08259928973894 0 -158.08259928973894 -101.49202464164409 0 0 0 0 48.65538222993564 -135.5384508843199 0 -135.5384508843199 120.54533996348619 0 0 0 0 31.048661606127098 -95.289429803844541 0 -95.289429803844541 264.3498130904627 0 0 0 0 45.59759773579276 -163.63336305206758 0 -163.63336305206758 -75.049122148077004 0 0 0 0 109.6864947691638 120.00728671243996 0 120.00728671243996 260.57429110547673 0 0 0 0 89.42171460346708 41.55768612860993 0 41.55768612860993 2.4490813132142648 0 0 0 0 -7.0919983274689002 48.495306020078715 0 48.495306020078715 62.641775829499238 0 0 0 0 -73.365144414833594 143.39827849491849 0 143.39827849491849 -44.863672981147829 0 0 0 0 27.850739530798364 -57.012969816447367 0 -57.012969816447367 -160.91354593077267 0 0 0 0 65.091800749601134 22.557577864934956 0 22.557577864934956 -82.676755983142357 0 0 0 0 -253.69356352300588 -8.7220469921485346 0 -8.7220469921485346 -6.8308918215625454 0 0 0 0 -5.6215319615523356 22.739337250991586 0 22.739337250991586 -88.9284159631964 0 0 0 0 -169.33676779398593 22.711903244242421 0 22.711903244242421 -159.07664426086376 0 0 0 0 -202.85636238351981 124.76824306093476 0 124.76824306093476 56.619449498815811 0 0 0 0 -12.467894447373055 -28.740166545718239 0 -28.740166545718239 -83.136583548039198 0 0 0 0 59.814236326772061 82.223877375712618 0 82.223877375712618 -44.187456559757265 0 0 0 0 201.24448779481963 102.3479298257007 0 102.3479298257007 -50.719848530148738 0 0 0 0 86.307376686334919 -17.602448776815436 0 -17.602448776815436 -112.00225971432155 0 0 0 0 -166.203826426251 -49.022023007680218 0 -49.022023007680218 -25.038442426273832 0 0 0 0 -117.25795527516493 -36.035102589114103 0 -36.035102589114103 -73.362013030273374 0 0 0 0 -32.623817724438595 -111.3704823574808 0 -111.3704823574808 -120.0539861410507 0 0 0 0 2.6686309616686166 -2.787521248678928 0 -2.787521248678928 -69.826556257857845 0 0 0 0 85.355627805333825 46.492891503847204 0 46.492891503847204 -82.039181953397929 0 0 0 0 377.48686936818126 -66.898396324838359 0 -66.898396324838359 -200.65600461189024 0 0 0 0 270.45217469325667 -197.15160518195262 0 -197.15160518195262 -204.50287539680721 0 0 0 0 17.085266582010718 -307.54637990174524 0 -307.54637990174524 -133.29654111999844 0 0 0 0 46.167059003103532 25.642113368099672 0 25.642113368099672 -77.755198016209761 0 0 0 0 42.580415461323582 63.466940665219681 0 63.466940665219681 -46.998102979501709 0 0 0 0 59.217865687189033 79.784948244558109 0 79.784948244558109 -74.24931474927871 0 0 0 0 29.865355149142033 74.293698958812456 0 74.293698958812456 -55.75496390589251 0 0 0 0 2.347181923425425 -1.6877220663343415 0 -1.6877220663343415 -52.441881555140228 0 0 0 0 509.83712231674167 50.086255032274494 0 50.086255032274494 -80.64043091829808 0 0 0 0 -45.938640740085475 282.38056867323758 0 282.38056867323758 -452.81758509347128 0 0 0 0 -123.51557606872313 190.24930123344166 0 190.24930123344166 177.47652408743306 0 0 0 0 -26.689504208019002 230.68679161875116 0 230.68679161875116 -654.47588570229709 0 0 0 0 -227.99456333237322 281.63501919688861 0 281.63501919688861 -343.55517995569971 0 0 0 0 -89.480899917152215 217.47912255705796 0 217.47912255705796 -569.30226762632083 0 0 0 0 -298.2681961444905 -49.030229161035095 0 -49.030229161035095 -46.936479623702326 0 0 0 0 1.0635073937331052 9.9109967322406831 0 9.9109967322406831 -32.312565538189148 0 0 0 0 -276.69777133917705 165.6306637051166 0 165.6306637051166 -196.39505595544142 0 0 0 0 -180.40252165719778 -57.718305485569545 0 -57.718305485569545 447.36766831252316 0 0 0 0 -15.150174220619387 -24.967233982264219 0 -24.967233982264219 -34.137177981938066 0 0 0 0 34.172612052343538 95.1361214994904 0 95.1361214994904 -39.262555242079543 0 0 0 0 -214.76062980214874 172.71860821843075 0 172.71860821843075 68.517778778055799 0 0 0 0 290.02338538807396 383.36152204446444 0 383.36152204446444 109.81881235914261 0 0 0 0 -392.05996852909675 292.66187474868275 0 292.66187474868275 240.66301559077328 0 0 0 0 -14.847448978909654 -26.951122636041475 0 -26.951122636041475 -41.100621692079585 0 0 0 0 623.22523456631234 -122.30212606383793 0 -122.30212606383793 -13.59366477025651 0 0 0 0 50.886239936693528 30.552642153765191 0 30.552642153765191 4.2381616201587349 0 0 0 0 105.47853148765398 43.99145670003054 0 43.99145670003054 -38.965788945373788 0 0 0 0 179.04339657853961 -206.89264355980049 0 -206.89264355980049 -60.22513830785465 0 0 0 0 106.55470428427316 18.807688896969921 0 18.807688896969921 -348.27902378125873 0 0 0 0 35.310871445934481 200.42432886493043 0 200.42432886493043 -224.81536769169907 0 0 0 0 -242.90575579167489 -44.119691665626306 0 -44.119691665626306 -58.41906548832776 0 0 0 0 139.59844463218087 -11.769549933749659 0 -11.769549933749659 -290.70727351241658 0 0 0 0 -0.085861482785339838 0.98174525212627728 0 0.98174525212627728 -3.4409275835361086 0 0 0 0 8.2277762775358312 -85.485408475453085 0 -85.485408475453085 -88.332769462191209 0 0 0 0 -167.72219602574725 147.0358036171915 0 147.0358036171915 -111.49404844727542 0 0 0 0 152.45052239814208 45.658557467953869 0 45.658557467953869 -72.974586389951583 0 0 0 0 124.82072549530471 11.802506726151478 0 11.802506726151478 -113.12208442516567 0 0 0 0 224.1751445858381 115.92618586657045 0 115.92618586657045 -177.9143792124014 0 0 0 0 -2.4197917105060043 16.086818360999466 0 16.086818360999466 -59.887838261185266 0 0 0 0 168.11402754451865 156.97237832197425 0 156.97237832197425 68.672704371951113 0 0 0 0 107.94317833620244 60.133751604727877 0 60.133751604727877 -66.71048565874662 0 0 0 0 1.9997164785187884 0.51384142600207383 0 0.51384142600207383 -14.889051352919246 0 0 0 0 2.8335830140169387 1.436665758344752 0 1.436665758344752 -30.830732270735098 0 0 0 0 -147.83533415518946 -218.48128491387251 0 -218.48128491387251 -527.47272642045573 0 0 0 0 -10.363985213674823 20.083580883281684 0 20.083580883281684 -70.182656250855871 0 0 0 0 101.80920663439474 86.101837385907857 0 86.101837385907857 -32.061717422373476 0 0 0 0 130.63937828109169 179.83262484971965 0 179.83262484971965 -50.558440580643946 0 0 0 0 119.11392488709544 174.19483948282868 0 174.19483948282868 -11.102694105538831 0 0 0 0 -89.919233641658138 68.527898084139451 0 68.527898084139451 -29.379838245900828 0 0 0 0 -617.00216882737641 -378.10534036936951 0 -378.10534036936951 -136.22481946057087 0 0 0 0 -1381.6595706997707 -1367.6391655629723 0 -1367.6391655629723 -1413.0267920515907 0 0 0 0 -0.73891580319851613 -0.48187098865857081 0 -0.48187098865857081 -11.74705346208404 0 0 0 0 -219.66516222179098 -797.12159362311286 0 -797.12159362311286 -2400.5740740578985 0 0 0 0 -681.46855780268652 -1457.2334849626714 0 -1457.2334849626714 -3209.0729809831464 0 0 0 0 -623.34653243226967 -2032.563514293066 0 -2032.563514293066 -1139.0057607475756 0 0 0 0 -414.12641593127819 102.87608201132753 0 102.87608201132753 66.196924461866729 0 0 0 0 -110.06940544743338 323.00335114778863 0 323.00335114778863 -43.206968055157631 0 0 0 0 231.76873277158165 318.59930761732539 0 318.59930761732539 -120.21417049464071 0 0 0 0 186.34263224150163 -1091.8927581541902 0 -1091.8927581541902 141.9694518897013 0 0 0 0 -1189.7625488483536 -138.66213990245888 0 -138.66213990245888 341.94166338518062 0 0 0 0 34.845973933313871 -1117.7881238041082 0 -1117.7881238041082 -5481.8735004739647 0 0 0 0 -500.98781731349573 -185.7760214426562 0 -185.7760214426562 -1859.9374407219148 0 0 0 0 -2566.7830937242197 -495.14712471836901 0 -495.14712471836901 -1857.7843024486995 0 0 0 0 870.35199617879277 -93.827103648622142 0 -93.827103648622142 -5101.257700427268 0 0 0 0 -5.5283042668280746 -12.765792463025591 0 -12.765792463025591 -23.110913665266509 0 0 0 0 744.4164960495159 574.96470119314836 0 574.96470119314836 -2570.0252426653897 0 0 0 0 446.14588249317057 602.84914968597809 0 602.84914968597809 -2736.8979191983526 0 0 0 0 -13.157761432982625 -858.4731635106582 0 -858.4731635106582 -4857.8431297412717 0 0 0 0 454.40329358922975 631.43888358564789 0 631.43888358564789 -5828.3601855634915 0 0 0 0 -13.144770674973451 -19.648580045733802 0 -19.648580045733802 -27.282852866066918 0 0 0 0 -907.27487347477836 -2540.1918001514787 0 -2540.1918001514787 -1084.6825321815304 0 0 0 0 -260.57933279324061 402.39705652775228 0 402.39705652775228 801.96854621171769 0 0 0 0 -86.805057960741124 -638.29231431242806 0 -638.29231431242806 -304.61833279863356 0 0 0 0 -1297.9390041618824 238.21291514060431 0 238.21291514060431 -284.36622594497339 0 0 0 0 -6.0691047725705971 465.17142195572615 0 465.17142195572615 -1042.2715729519405 0 0 0 0 117.98776746698604 163.97560867862921 0 163.97560867862921 -1188.8809381295041 0 0 0 0 -596.01578278439774 262.0848291703951 0 262.0848291703951 -1198.0073326233223 0 0 0 0 174.50511858735535 210.89385251480417 0 210.89385251480417 -3913.914609393345 0 0 0 0 57.812278416952267 -91.28505358624534 0 -91.28505358624534 -2529.9580286437558 0 0 0 0 -84.737054530278783 704.08189370037871 0 704.08189370037871 -2156.2332213100599 0 0 0 0 -1908.0579302941665 478.21806559376273 0 478.21806559376273 -2293.5629001839188 0 0 0 0 -98.482385184712939 149.55601447869049 0 149.55601447869049 -2234.1788249900856 0 0 0 0 543.65833691394027 447.56160626836208 0 447.56160626836208 -1573.9250086525444 0 0 0 0 -134.89780963949636 849.89637889813093 0 849.89637889813093 -1477.0079313622846 0 0 0 0 -197.86392205564971 388.96353767608889 0 388.96353767608889 -793.03119365723978 0 0 0 0 71.578528634333225 471.95757768417025 0 471.95757768417025 -795.75960863634828 0 0 0 0 -610.52317124410058 612.36044052563011 0 612.36044052563011 -450.0165919319852 0 0 0 0 -64.157334513122123 233.70646223953554 0 233.70646223953554 -536.27570016869868 0 0 0 0 0.87228647148998939 0.16556700386325929 0 0.16556700386325929 -21.495290575473888 0 0 0 0 -1664.7815514871261 1782.6044442245948 0 1782.6044442245948 -1637.7706889120818 0 0 0 0 -6.4310501357633711 907.06911715857132 0 907.06911715857132 -1275.1902187518644 0 0 0 0 194.34746666214096 480.84932985648629 0 480.84932985648629 -3526.4042282575101 0 0 0 0 1612.0518685818051 -731.20395925507546 0 -731.20395925507546 -1914.0285989228578 0 0 0 0 1167.1014291406746 135.74822380934711 0 135.74822380934711 -3508.2896512289735 0 0 0 0 -236.45051064761901 375.80798327639786 0 375.80798327639786 -1613.4613247140514 0 0 0 0 -401.11512977246002 545.39075078078167 0 545.39075078078167 186.29172193327759 0 0 0 0 361.68212636906355 -598.05866492085988 0 -598.05866492085988 -398.64775289624959 0 0 0 0 -312.83218038591622 14.342001839144359 0 14.342001839144359 -295.09881743290316 0 0 0 0 -1335.3276512243965 653.44907715709996 0 653.44907715709996 -614.30173276001369 0 0 0 0 -252.70107614368953 43.941586501579877 0 43.941586501579877 -2051.9521847768046 0 0 0 0 -1626.7087356193242 1302.775320699282 0 1302.775320699282 -3146.3944434735822 0 0 0 0 208.77243489615557 -366.48810617355775 0 -366.48810617355775 -5065.034836983592 0 0 0 0 -680.81085481188745 -1929.8268026064434 0 -1929.8268026064434 -3026.3282449232938 0 0 0 0 0.55314785414212331 0.60385459720949086 0 0.60385459720949086 -17.174993573495669 0 0 0 0 -584.06259866394794 -194.48557752892339 0 -194.48557752892339 166.49352606385946 0 0 0 0 -574.13959305317621 -1421.5797558891099 0 -1421.5797558891099 -2302.8061014739415 0 0 0 0 -679.1737702659575 -1155.2510459501173 0 -1155.2510459501173 -2397.5014296684421 0 0 0 0 -1169.8311579680449 -1638.3622261196761 0 -1638.3622261196761 -1644.6368816600116 0 0 0 0 -579.27299597451247 -1370.5573898345574 0 -1370.5573898345574 -1818.8569981871551 0 0 0 0 -825.34682767681215 -1039.2485406854103 0 -1039.2485406854103 -2259.6000076823921 0 0 0 0 -72.903291596454778 -1384.4369078439158 0 -1384.4369078439158 -2251.1513312771494 0 0 0 0 -66.484585094804061 303.97019514776912 0 303.97019514776912 -2134.4291939572558 0 0 0 0 -509.4335175504475 -1461.151169485478 0 -1461.151169485478 -1866.1954725053656 0 0 0 0 413.19998307927835 221.3768795674041 0 221.3768795674041 -3516.7040785176505 0 0 0 0 257.5865737428864 -15.033074982028666 0 -15.033074982028666 -2815.0404852161446 0 0 0 0 79.942966398914223 538.99534806441261 0 538.99534806441261 -2864.5279327404714 0 0 0 0 -981.05191036697784 -914.85373504940799 0 -914.85373504940799 -177.81390621095488 0 0 0 0 13.255958418372446 3.9370247192517667 0 3.9370247192517667 2.8255000569817881 0 0 0 0 34.326530169162652 -88.854347153137496 0 -88.854347153137496 -1607.61997321944 0 0 0 0 -582.97448981864886 -1599.6162830577805 0 -1599.6162830577805 -1875.5701633199205 0 0 0 0 -551.61659287737893 -2123.0966271264188 0 -2123.0966271264188 -3554.0176888052592 0 0 0 0 -301.20968441228615 -301.64965009481602 0 -301.64965009481602 -427.83685461453206 0 0 0 0 -713.14411218388273 -1101.4123014110373 0 -1101.4123014110373 -1155.76090230728 0 0 0 0 -177.74001216769102 327.40058685623808 0 327.40058685623808 -596.25345213781111 0 0 0 0 -5.6482148244272077 0.48676360091541682 0 0.48676360091541682 -3.4140987704186614 0 0 0 0 -1428.4813843732902 -1963.63239733503 0 -1963.63239733503 -2219.6225853408541 0 0 0 0 189.83321688099022 -450.86219125966818 0 -450.86219125966818 -741.36214209342143 0 0 0 0 461.63435442283571 -842.06409920099577 0 -842.06409920099577 -1405.4980967466399 0 0 0 0 -242.35080366558395 -412.2491510600812 0 -412.2491510600812 -23.928234882518154 0 0 0 0 55.848394578992156 -638.88770019970252 0 -638.88770019970252 22.914916307927342 0 0 0 0 99.667218042813147 345.89867832212985 0 345.89867832212985 -1652.1449462672826 0 0 0 0 487.02896576880448 38.509102107855142 0 38.509102107855142 -1856.3134446478143 0 0 0 0 -8.249584430910577 0.11213638902257372 0 0.11213638902257372 2.5761794394978352 0 0 0 0 -125.47141607896447 -72.41472783611971 0 -72.41472783611971 56.700028491758985 0 0 0 0 -158.98245225411847 217.44753431603749 0 217.44753431603749 -632.37486776033347 0 0 0 0 -763.75283778311359 -862.64690606002841 0 -862.64690606002841 -1609.85753822628 0 0 0 0 -819.98593006122292 -973.38402537329785 0 -973.38402537329785 -945.27269424360566 0 0 0 0 -877.24361664288563 -1257.677262545425 0 -1257.677262545425 -1566.0867688999165 0 0 0 0 -21.287105279360674 -2.4244786403772167 0 -2.4244786403772167 3.1135863213630017 0 0 0 0 -736.92953636738275 -1572.9583382576457 0 -1572.9583382576457 -2450.483570711247 0 0 0 0 -1190.4566117522745 -1357.0758370349795 0 -1357.0758370349795 -2184.3802708682488 0 0 0 0 -588.48727911978176 -1107.7555750443353 0 -1107.7555750443353 -3231.0556356546585 0 0 0 0 -1188.3950088471438 -1101.8017207930136 0 -1101.8017207930136 -2512.3241589929239 0 0 0 0 -725.54691378317693 -1436.7010686929352 0 -1436.7010686929352 -2386.0148917633742 0 0 0 0 -928.71046556313945 -1079.6746429792565 0 -1079.6746429792565 -1438.2993019406422 0 0 0 0 -667.6818384437787 -1279.1443480929338 0 -1279.1443480929338 -2026.4401748916789 0 0 0 0 -1132.2376915371256 -1503.532211271835 0 -1503.532211271835 -2063.5384227765171 0 0 0 0 -145.8248664511226 -843.25837422890618 0 -843.25837422890618 -1688.860985267791 0 0 0 0 -586.71523750899507 -863.6862380887685 0 -863.6862380887685 -1584.6678727811086 0 0 0 0 -582.19939489176932 -1337.228282605116 0 -1337.228282605116 -1972.400247946287 0 0 0 0 -763.52604765395222 -1362.5806986760745 0 -1362.5806986760745 -1921.7957310319325 0 0 0 0 -591.08529167653978 -1558.5687370620872 0 -1558.5687370620872 -2742.2540769323532 0 0 0 0 -835.00866506472619 -1182.0398004412855 0 -1182.0398004412855 -2047.3905937927921 0 0 0 0 -414.74514616012391 -1128.1300688507927 0 -1128.1300688507927 -2223.6262802203419 0 0 0 0 -443.94829350499799 -739.1798852522279 0 -739.1798852522279 -847.13123211168568 0 0 0 0 -532.16069898227965 -1378.3109061186515 0 -1378.3109061186515 -1229.7724338643711 0 0 0 0 -391.96734028409458 -1042.017463441749 0 -1042.017463441749 -34.680253202219319 0 0 0 0 -482.9453257881637 -679.26091570897188 0 -679.26091570897188 -991.39740801872631 0 0 0 0 951.90463413107705 -412.75969687944962 0 -412.75969687944962 -899.48441349805489 0 0 0 0 136.3466980636008 31.686215255636853 0 31.686215255636853 -561.74252907370465 0 0 0 0 2.4302224097654861 10.51307945636151 0 10.51307945636151 -35.770700112959446 0 0 0 0 -26.179413895457046 168.59387317961045 0 168.59387317961045 617.86557549281133 0 0 0 0 113.99526868949988 -652.082863879059 0 -652.082863879059 -1497.102235734892 0 0 0 0 -363.47794041812858 108.34661035411773 0 108.34661035411773 -431.64456292226532 0 0 0 0 -298.61142456345738 -830.91937751827936 0 -830.91937751827936 -1898.4662546177497 0 0 0 0 -850.05528480792077 -1021.6486826520777 0 -1021.6486826520777 -1295.92598972015 0 0 0 0 -913.13067998303086 -990.84212448576 0 -990.84212448576 -475.66743142088671 0 0 0 0 -79.638045551856521 112.14905872466352 0 112.14905872466352 -140.45832366864488 0 0 0 0 26.789232494590475 1.6983623277543245 0 1.6983623277543245 -9.3669338045723478 0 0 0 0 -335.52643816037113 -502.91932186581471 0 -502.91932186581471 -1265.7883018504253 0 0 0 0 374.89406798346988 -700.31280898556906 0 -700.31280898556906 -3042.112929429175 0 0 0 0 -1202.7448777394977 -2417.756327209856 0 -2417.756327209856 -3247.2418156777239 0 0 0 0 64.615091567792675 -1269.8109738300136 0 -1269.8109738300136 -3500.3829079742354 0 0 0 0 -940.87103386520209 -1342.9747785339132 0 -1342.9747785339132 -1485.6297133854714 0 0 0 0 -466.35902092792406 -499.48043908348336 0 -499.48043908348336 -4556.8857907186029 0 0 0 0 -50.361049359325534 -424.08775229053208 0 -424.08775229053208 -1424.3518749713689 0 0 0 0 6.0340582475237614 7.7486554868046476 0 7.7486554868046476 -33.192698841103649 0 0 0 0 6.3869117154407125 3.4144433545397419 0 3.4144433545397419 -13.741949644643324 0 0 0 0 833.14776183563242 -243.12749447986243 0 -243.12749447986243 22.500108344305772 0 0 0 0 1014.7238219641562 -55.877821715633218 0 -55.877821715633218 -555.26178941091348 0 0 0 0 -136.93515457600043 323.08203114110438 0 323.08203114110438 136.41528532186885 0 0 0 0 -536.91009058856093 -192.18620584925884 0 -192.18620584925884 -518.96468098800688 0 0 0 0 -300.56459346445803 939.00789129652094 0 939.00789129652094 -1372.5239259628215 0 0 0 0 -29.427694028154207 185.16731761036135 0 185.16731761036135 -51.929585271667747 0 0 0 0 -1578.3400366519111 188.21155592243849 0 188.21155592243849 -3501.3027672391872 0 0 0 0 584.56512384313965 1012.0110499478606 0 1012.0110499478606 -3912.0598647011211 0 0 0 0 1.4466170905530191 1677.1390269557887 0 1677.1390269557887 -1088.5279562073338 0 0 0 0 -0.40971680652953224 2.8400944721028658 0 2.8400944721028658 -14.053430321990376 0 0 0 0 -74.221882660154847 417.54922838836865 0 417.54922838836865 -2253.7586548565196 0 0 0 0 -51.208606450639671 337.45313596553206 0 337.45313596553206 -1975.079234634366 0 0 0 0 -599.03365305463058 -338.01438405671433 0 -338.01438405671433 -1926.0093821065823 0 0 0 0 -563.24351058156844 -41.612221947451872 0 -41.612221947451872 -1132.5271263658069 0 0 0 0 109.51364458054968 -187.70237715071016 0 -187.70237715071016 -254.72748292297911 0 0 0 0 -44.307940342083384 -17.226088821826124 0 -17.226088821826124 -9.0765351484265011 0 0 0 0 -189.54257369357765 -209.76973310203903 0 -209.76973310203903 314.87543845573782 0 0 0 0 -37.198748999174889 -53.185424904751926 0 -53.185424904751926 -58.88710449700497 0 0 0 0 -253.37867006016131 326.22480107907177 0 326.22480107907177 120.13642584475019 0 0 0 0 -91.92444161907224 61.976869569884002 0 61.976869569884002 -486.49792023759801 0 0 0 0 -32.74190349227365 389.30941684900608 0 389.30941684900608 -511.67596201607375 0 0 0 0 -32.171370768379845 -45.464015003795637 0 -45.464015003795637 -55.782900175458849 0 0 0 0 712.84200369757718 338.76207480898461 0 338.76207480898461 -40.052183466454153 0 0 0 0 616.22922898524484 -345.80192869542225 0 -345.80192869542225 52.144010978216102 0 0 0 0 -6.5109681624035147 213.5615502756209 0 213.5615502756209 0.039438034395971044 0 0 0 0 4.1580458649305001 66.526763571993797 0 66.526763571993797 -115.25794974436212 0 0 0 0 337.52984028875471 55.120848657674287 0 55.120848657674287 -510.43637612261591 0 0 0 0 199.83384947132237 -40.790383018136708 0 -40.790383018136708 -2113.4152502765573 0 0 0 0 33.65016912858362 5.0939080858648964 0 5.0939080858648964 0.28537153653558767 0 0 0 0 337.23021998161698 -158.72596813552809 0 -158.72596813552809 -2489.5616360496583 0 0 0 0 387.51008360155765 -537.67190036376269 0 -537.67190036376269 -2477.5634800916023 0 0 0 0 581.55113656808862 -40.143631854793057 0 -40.143631854793057 -3498.6475418152004 0 0 0 0 447.55730916601232 772.92508170158544 0 772.92508170158544 -3500.0063330951962 0 0 0 0 542.25335192467855 160.15663131604288 0 160.15663131604288 -2509.4316556155209 0 0 0 0 318.71230874153781 117.84124694037382 0 117.84124694037382 -2508.0071829127774 0 0 0 0 40.062873442610112 4.7053539412520848 0 4.7053539412520848 -14.174021824245417 0 0 0 0 -99.382518008744483 811.78534221224254 0 811.78534221224254 -2083.7751228764901 0 0 0 0 -204.27130488138215 481.13091898391212 0 481.13091898391212 -1379.9171777989832 0 0 0 0 191.63981437474882 773.28701920283856 0 773.28701920283856 -2117.3993240152267 0 0 0 0 -1560.8497828296261 1884.2074112510418 0 1884.2074112510418 -2234.5713523024533 0 0 0 0 -186.02783756085506 1509.5059920901804 0 1509.5059920901804 -3495.5923365707458 0 0 0 0 -53.860461831468058 17.16075271975933 0 17.16075271975933 17.482799815246835 0 0 0 0 -1.7764152938438058 -1.8837732419259083 0 -1.8837732419259083 -11.735491076663607 0 0 0 0 -16.008201392245606 -79.01136048487524 0 -79.01136048487524 -3482.1531933289807 0 0 0 0 -8.7173235813053154 -4.7746256211813716 0 -4.7746256211813716 -4.9090857989512244 0 0 0 0 -113.99582635928164 -101.09544446767541 0 -101.09544446767541 -160.77864825072902 0 0 0 0 6.1860420998600318 -0.096138848439679236 0 -0.096138848439679236 -4.4456580694472985 0 0 0 0 -123.67457202029257 -74.316417370738463 0 -74.316417370738463 -251.80443519489199 0 0 0 0 -108.31602552226872 -269.28411924867123 0 -269.28411924867123 -55.652443182290881 0 0 0 0 -12.289667306669752 -12.253727774526041 0 -12.253727774526041 -20.512646051397297 0 0 0 0 115.29550851504428 20.922563799584168 0 20.922563799584168 -95.869535357462155 0 0 0 0 -290.71108023804754 246.2335764981035 0 246.2335764981035 -415.28631052766286 0 0 0 0 -12.184765232358382 -21.967409615494802 0 -21.967409615494802 -14.986831218377574 0 0 0 0 3.4858077069373614 -14.023151128129186 0 -14.023151128129186 -26.299142353320278 0 0 0 0 8.3339603121246455 -31.434410230838694 0 -31.434410230838694 -6.2724251051258761 0 0 0 0 -7.4616093444347795 -36.125046753263177 0 -36.125046753263177 -57.954364454217341 0 0 0 0 161.64428631098372 -225.95971314939743 0 -225.95971314939743 -326.17327104085416 0 0 0 0 -0.49083838185413686 -2.8538427885452506 0 -2.8538427885452506 5.4496352192210793 0 0 0 0 -60.324930370247785 18.872399553161813 0 18.872399553161813 27.071746343775885 0 0 0 0 -125.79806916533562 -401.17409400573888 0 -401.17409400573888 -319.16853280945179 0 0 0 0 -88.698330233080753 23.57567789114637 0 23.57567789114637 270.52065584764205 0 0 0 0 0.51763691754968022 88.393547106825281 0 88.393547106825281 -372.18499470224651 0 0 0 0 82.332692827039864 -149.43045117082147 0 -149.43045117082147 -1187.0328594257735 0 0 0 0 -51.639075009214139 68.365481358421675 0 68.365481358421675 -130.86174704464065 0 0 0 0 117.39107312087071 189.08163536932989 0 189.08163536932989 -1072.2750351884024 0 0 0 0 -342.43809503709701 -873.67142355067335 0 -873.67142355067335 -932.06949370630173 0 0 0 0 74.02429541582228 -414.3207004046053 0 -414.3207004046053 -1257.1094787761103 0 0 0 0 99.433573256495492 -473.59480915611493 0 -473.59480915611493 -1499.8202582614613 0 0 0 0 76.030710906166405 -179.42022800826817 0 -179.42022800826817 -871.75245970102333 0 0 0 0 -168.96759153731 -567.62398075327656 0 -567.62398075327656 -667.60680517053333 0 0 0 0 -67.084176263788777 -279.59161199838127 0 -279.59161199838127 -355.85910495543067 0 0 0 0 -399.48623160781904 -359.47352737481197 0 -359.47352737481197 294.46833979226358 0 0 0 0 -435.00165128984702 -551.39372898315924 0 -551.39372898315924 -199.55534959863871 0 0 0 0 -219.50950459428648 -420.15292527372003 0 -420.15292527372003 -269.55707134795375 0 0 0 0 -548.46038155423821 -385.83075927991013 0 -385.83075927991013 -41.175713398013613 0 0 0 0 -281.19112773847604 -593.91076744515158 0 -593.91076744515158 -1099.1253712852049 0 0 0 0 -205.96427427722796 -246.57243873024709 0 -246.57243873024709 430.32460682275996 0 0 0 0 -977.01753264578292 -849.32185410323291 0 -849.32185410323291 213.65597191009238 0 0 0 0 -593.25778593859673 26.252601770658657 0 26.252601770658657 -101.82023132660834 0 0 0 0 -609.87479389907014 -2000.9794525111902 0 -2000.9794525111902 -3493.3269101394471 0 0 0 0 -2080.8715241756286 -521.04978665073577 0 -521.04978665073577 173.18946673169194 0 0 0 0 235.72459835366806 -445.67974102938751 0 -445.67974102938751 -1101.8060260252555 0 0 0 0 254.61592473438921 -491.97338722933364 0 -491.97338722933364 -1613.4397506565292 0 0 0 0 620.64334622856506 214.21069236956646 0 214.21069236956646 -1164.8063638414242 0 0 0 0 1044.7204761084017 61.367736383639567 0 61.367736383639567 -3494.5681068673207 0 0 0 0 1.2681790008088911 -5.929047872468292 0 -5.929047872468292 -19.620837436210337 0 0 0 0 -640.10529663150112 -2002.7979154703935 0 -2002.7979154703935 -3492.9289334902496 0 0 0 0 -1986.7498896752863 -2005.0633183844475 0 -2005.0633183844475 -2244.9234089322781 0 0 0 0 -1213.2298875102458 -832.56476525847938 0 -832.56476525847938 -469.12029952385637 0 0 0 0 3.6844713824155608 -3.5448877952617437 0 -3.5448877952617437 -14.300984835291288 0 0 0 0 414.86241272144525 139.14513818092382 0 139.14513818092382 -48.834012057974178 0 0 0 0 398.1456212123378 -745.43183211963333 0 -745.43183211963333 73.165481180341885 0 0 0 0 481.238502513924 517.16597500315402 0 517.16597500315402 -1149.5078914010846 0 0 0 0 673.00785001226996 -485.84009119171969 0 -485.84009119171969 972.96589795977343 0 0 0 0 232.71928878931197 -1249.4166767818006 0 -1249.4166767818006 -3501.656259556119 0 0 0 0 229.75285108046137 -852.24168816956808 0 -852.24168816956808 -2824.061472485424 0 0 0 0 -61.588612407470038 -1221.910544845563 0 -1221.910544845563 -2526.336258876654 0 0 0 0 -15.551268066373867 -1110.1641002532124 0 -1110.1641002532124 -2557.1948387577486 0 0 0 0 -94.143028037839699 -1225.272351202022 0 -1225.272351202022 -2133.1947423473466 0 0 0 0 2.6123913990274716 -4.2619835038110097 0 -4.2619835038110097 2.0384578706662637 0 0 0 0 -226.05159897013581 -532.31613976457083 0 -532.31613976457083 -1421.2232298748058 0 0 0 0 -68.575739526473896 -157.97302776297624 0 -157.97302776297624 -232.92713909419399 0 0 0 0 -72.511510977694115 313.70760605846908 0 313.70760605846908 -1034.3883265372278 0 0 0 0 -106.78923680150842 116.052910881961 0 116.052910881961 -418.47998085845029 0 0 0 0 177.79172023380625 -239.02036391742149 0 -239.02036391742149 -1013.9031167064386 0 0 0 0 252.16299030890377 -223.99286124802165 0 -223.99286124802165 -1358.8441541270222 0 0 0 0 -24.641460932828522 -172.13963792315917 0 -172.13963792315917 -186.98208020639868 0 0 0 0 200.79906555135904 -292.54658064410251 0 -292.54658064410251 -234.32058954167587 0 0 0 0 9.8941793629994166 -12.126954245704795 0 -12.126954245704795 -3.8299599367742871 0 0 0 0 3.7149337445960082 -1.2797576555198269 0 -1.2797576555198269 -49.500671524184241 0 0 0 0 35.204716360825614 -23.554695399845514 0 -23.554695399845514 -124.04384856402976 0 0 0 0 -0.87013343608242888 -0.64768753606806939 0 -0.64768753606806939 -20.177066514462041 0 0 0 0 -333.58084033371074 689.19436497189599 0 689.19436497189599 -905.60618440073449 0 0 0 0 -569.69482621907071 -323.33276353375186 0 -323.33276353375186 -146.57545143649622 0 0 0 0 -1276.6944402324664 -1211.2574796417248 0 -1211.2574796417248 -682.94012279236631 0 0 0 0 -13.916655529491038 -658.37574132326336 0 -658.37574132326336 -2072.9995448048285 0 0 0 0 -570.83731662229275 -1180.9035448586947 0 -1180.9035448586947 -2471.4909266608665 0 0 0 0 -1278.3533029029309 -1591.3206280990526 0 -1591.3206280990526 -2015.1878774649522 0 0 0 0 340.63787992638311 -181.43201272490842 0 -181.43201272490842 -3440.7087521297362 0 0 0 0 -2298.5069057704832 414.6955047162628 0 414.6955047162628 -3739.5742683903345 0 0 0 0 -649.30141237422413 -772.42095473534391 0 -772.42095473534391 -3766.5190218317439 0 0 0 0 -120.7850641307441 1111.8546791668196 0 1111.8546791668196 -2474.949384651336 0 0 0 0 -225.27784349066155 -1184.5882017361655 0 -1184.5882017361655 -3735.1968729068067 0 0 0 0 -2146.031319164711 556.55394400264413 0 556.55394400264413 -3798.9548775227158 0 0 0 0 -561.56872409026937 -1467.6907541952205 0 -1467.6907541952205 -2155.5969766212729 0 0 0 0 439.44708358235584 383.26132510811294 0 383.26132510811294 -3219.8777076585466 0 0 0 0 -569.89390428630622 -753.43885102470813 0 -753.43885102470813 -3482.6167552881379 0 0 0 0 365.52136123522769 -94.779088434435835 0 -94.779088434435835 -1477.8358189797727 0 0 0 0 433.63896340512224 -508.30668118398171 0 -508.30668118398171 -1952.3559978661942 0 0 0 0 437.21343472669503 -21.793693819505279 0 -21.793693819505279 -2645.0465178452796 0 0 0 0 240.41992824673298 -562.60302759874321 0 -562.60302759874321 -2144.7565948070987 0 0 0 0 143.83766174396828 -373.86652839176895 0 -373.86652839176895 -2509.3656210510235 0 0 0 0 313.08873546073869 -1102.5194150738171 0 -1102.5194150738171 -2846.012813693651 0 0 0 0 312.77975751698091 -1097.1519751889573 0 -1097.1519751889573 -1761.8206469907454 0 0 0 0 469.73274994219014 -663.06817244859849 0 -663.06817244859849 -2411.7816919949037 0 0 0 0 387.93311421005274 -719.39014776980184 0 -719.39014776980184 -1698.6506416338088 0 0 0 0 470.92798198741895 -719.65476328958721 0 -719.65476328958721 -1743.8985237644665 0 0 0 0 315.39136205533839 -896.34537887879924 0 -896.34537887879924 -1563.8355223653489 0 0 0 0 243.30914234912461 -694.31342390983264 0 -694.31342390983264 -1364.9839792365237 0 0 0 0 -341.58914292163087 -670.62465402122143 0 -670.62465402122143 -83.662925491968053 0 0 0 0 266.55180449544878 -854.61196668941921 0 -854.61196668941921 -1469.9418283422128 0 0 0 0 45.697454734418898 -1058.9110462190292 0 -1058.9110462190292 -1313.3637116551326 0 0 0 0 288.65846919294518 48.182777997702942 0 48.182777997702942 -209.65359043245917 0 0 0 0 217.92951376402061 -527.34390189679834 0 -527.34390189679834 -872.18016967472795 0 0 0 0 95.795443340290831 -717.95827006388572 0 -717.95827006388572 -799.38853050144098 0 0 0 0 460.38188470217227 1144.7926516115585 0 1144.7926516115585 -1460.8807230610328 0 0 0 0 -133.0943268707349 530.76593408813642 0 530.76593408813642 198.08626302138146 0 0 0 0 0.60573677167449147 -1.2833777332616574 0 -1.2833777332616574 -20.105806134243949 0 0 0 0 -653.46519890711397 -1445.7747333274237 0 -1445.7747333274237 -994.46180653550255 0 0 0 0 2.702233694022584 -2.0035150718614432 0 -2.0035150718614432 -37.51561364977033 0 0 0 0 128.80314815465124 -404.86754360664781 0 -404.86754360664781 180.10795245458883 0 0 0 0 63.663840229506491 -64.10132475883438 0 -64.10132475883438 -583.36512737947487 0 0 0 0 -107.34007997652282 -85.864528747952136 0 -85.864528747952136 -400.06161655756296 0 0 0 0 -58.317522857452012 135.07168998671841 0 135.07168998671841 -265.71239083336695 0 0 0 0 -55.11419911449407 689.24333374140042 0 689.24333374140042 -1133.5273791421787 0 0 0 0 -58.614229350931559 215.26624666204935 0 215.26624666204935 -1114.43473619406 0 0 0 0 193.22737692575018 536.78485719734908 0 536.78485719734908 -1595.4811679911072 0 0 0 0 180.46533191677941 489.71363166281662 0 489.71363166281662 -1391.4894161115881 0 0 0 0 152.53281405044004 152.02738105445314 0 152.02738105445314 -1398.7626816499687 0 0 0 0 233.60299952401988 154.24884074809233 0 154.24884074809233 -1617.2249351748324 0 0 0 0 124.1291217755645 201.71163103428989 0 201.71163103428989 -1481.0142593996716 0 0 0 0 130.54583694307894 253.09798075768776 0 253.09798075768776 -1141.8162331548883 0 0 0 0 -8.1247892507142296 -242.0025514639965 0 -242.0025514639965 -1231.0991334543942 0 0 0 0 -130.33735647002686 -165.05003871132794 0 -165.05003871132794 -568.78655444783362 0 0 0 0 -107.59010072824339 -193.59103171779861 0 -193.59103171779861 -967.90588508393557 0 0 0 0 -191.19807738555573 -607.86722623820242 0 -607.86722623820242 -1023.0103723667708 0 0 0 0 19.251321166523667 -277.35669755020353 0 -277.35669755020353 -1367.3946542760314 0 0 0 0 -23.234521392067563 -439.22504091947849 0 -439.22504091947849 -1750.1189830766089 0 0 0 0 -165.12108743046156 -492.35909364189865 0 -492.35909364189865 -1384.5220898199459 0 0 0 0 -191.28472064815878 -597.59738902896061 0 -597.59738902896061 -1416.7933701060847 0 0 0 0 -281.42356199682172 -735.96453908970943 0 -735.96453908970943 -1861.7664701628091 0 0 0 0 145.00143970903036 -374.47491053845442 0 -374.47491053845442 -2462.4196859954172 0 0 0 0 212.68192468219445 -31.718179184252222 0 -31.718179184252222 -1855.8103967968927 0 0 0 0 230.96339081912913 -117.81832041697271 0 -117.81832041697271 -1702.8130395891931 0 0 0 0 260.06569561667629 100.94249636681343 0 100.94249636681343 -1509.8951739438562 0 0 0 0 315.76003835934625 223.86038155871938 0 223.86038155871938 -1753.5934222557953 0 0 0 0 334.10001176470132 164.75387948691059 0 164.75387948691059 -1658.6967919564195 0 0 0 0 202.94816681637485 173.75804648239136 0 173.75804648239136 -2155.7116989313399 0 0 0 0 221.36845601149184 41.415714224114708 0 41.415714224114708 -1895.7565086205577 0 0 0 0 23.27128577260055 267.25358841012712 0 267.25358841012712 -1175.4815689590905 0 0 0 0 212.08387237672105 442.99495348479104 0 442.99495348479104 -1747.0166112700372 0 0 0 0 265.73729800836099 234.47517530139885 0 234.47517530139885 -1633.1573935181277 0 0 0 0 181.88527033765649 196.88022385278964 0 196.88022385278964 -1071.3834985984577 0 0 0 0 239.05544571149085 136.58858159176089 0 136.58858159176089 -1184.8297927553504 0 0 0 0 308.93829423043974 53.474647109585931 0 53.474647109585931 -1675.6374815363379 0 0 0 0 335.08567336839565 -9.2212941241305089 0 -9.2212941241305089 -1541.3242617846417 0 0 0 0 379.44337194443028 -120.8985856859581 0 -120.8985856859581 -2290.8140233641316 0 0 0 0 32.854368936064503 -817.90965342392519 0 -817.90965342392519 -1792.9836441252119 0 0 0 0 298.75986404459627 -182.27040737597235 0 -182.27040737597235 -2336.6331855349563 0 0 0 0 366.53788240363644 -142.29531440414939 0 -142.29531440414939 -2115.8622091974685 0 0 0 0 471.65209966145949 331.85571549655924 0 331.85571549655924 -1916.4120913428924 0 0 0 0 465.17574854398833 215.39084974143043 0 215.39084974143043 -2774.0125751286978 0 0 0 0 409.13153153882411 907.41422657840326 0 907.41422657840326 -1932.2487198808813 0 0 0 0 363.67488036055829 309.76604882696847 0 309.76604882696847 -1825.071060433409 0 0 0 0 365.73896022489021 282.05814828300936 0 282.05814828300936 -1688.3395191845157 0 0 0 0 333.81382731796936 241.45305987608029 0 241.45305987608029 -1736.0735077285062 0 0 0 0 -609.91812118633732 -1801.1453414379939 0 -1801.1453414379939 -3516.5061295525884 0 0 0 0 -573.93519446574908 -1166.7765050749106 0 -1166.7765050749106 -1745.4890240353416 0 0 0 0 14.041756333080571 -814.48730595208326 0 -814.48730595208326 -1686.3772216010038 0 0 0 0 1.0322761673257534 -0.64572663101930061 0 -0.64572663101930061 -9.3380137786049886 0 0 0 0 -117.71355595161239 -1557.4824153311674 0 -1557.4824153311674 -3491.9235443877478 0 0 0 0 -1.2501650537771927 -22.217213008167164 0 -22.217213008167164 -701.1465443732377 0 0 0 0 61.108726945790096 -164.30724615098006 0 -164.30724615098006 -1810.4892408857559 0 0 0 0 177.60065044760665 -881.34132478164611 0 -881.34132478164611 -1692.1585588943781 0 0 0 0 2.9029906405931376 2.8045673199414125 0 2.8045673199414125 -17.856139484552642 0 0 0 0 38.497644418177401 -802.92793621329474 0 -802.92793621329474 -1014.108313993524 0 0 0 0 1.7782777625487616 1.3964936885125496 0 1.3964936885125496 -11.778990731969003 0 0 0 0 569.30241866002495 857.73202547357141 0 857.73202547357141 -910.14009115744557 0 0 0 0 26.292702883626784 -256.06618134512246 0 -256.06618134512246 -2250.8381611479763 0 0 0 0 457.93466316605969 305.61998051371847 0 305.61998051371847 -3492.4419952339595 0 0 0 0 74.145201027625205 -653.83591437630821 0 -653.83591437630821 -1873.8771336529608 0 0 0 0 103.95522067332189 -791.80835225404007 0 -791.80835225404007 -2415.8398852428509 0 0 0 0 6.4085730359631086 -798.44889220030018 0 -798.44889220030018 -1626.6994019740814 0 0 0 0 124.83144649039224 -1059.2065331210106 0 -1059.2065331210106 -1826.5155572630538 0 0 0 0 79.438118262541309 -1014.4193228049171 0 -1014.4193228049171 -1590.8366406916466 0 0 0 0 -361.96891697087403 -986.4731189620361 0 -986.4731189620361 -1246.1171243155404 0 0 0 0 -321.69034752129255 -855.55924462297116 0 -855.55924462297116 -1443.7249273378984 0 0 0 0 8.8480534912450022 3.8203563091229569 0 3.8203563091229569 -27.837978657341154 0 0 0 0 261.29161781907635 -390.39422352776091 0 -390.39422352776091 -661.79101836057816 0 0 0 0 -1489.5875360220207 -2210.055769031751 0 -2210.055769031751 -3069.004181426797 0 0 0 0 -217.17096865667594 -1190.4801694753987 0 -1190.4801694753987 -2165.9818133736408 0 0 0 0 -633.58197519665373 -1018.0436312282 0 -1018.0436312282 -1411.3248974635208 0 0 0 0 -75.169502728992484 -674.6642331076946 0 -674.6642331076946 -2351.763690465792 0 0 0 0 -360.43124831074812 -944.95780637065036 0 -944.95780637065036 -2607.7301720645482 0 0 0 0 39.341801331170153 -265.11719277140674 0 -265.11719277140674 -3066.3975316221477 0 0 0 0 -185.3351957014518 -595.77860185624741 0 -595.77860185624741 -3346.007960203402 0 0 0 0 -146.04721421275431 -551.87531451994073 0 -551.87531451994073 -3501.8273211173655 0 0 0 0 -265.2314515725846 -984.76004908538926 0 -984.76004908538926 -3678.3366209671367 0 0 0 0 -198.0153581966924 -639.84209677115905 0 -639.84209677115905 -3498.3053734574351 0 0 0 0 194.58087195082567 -1115.1678782604104 0 -1115.1678782604104 -2928.2984116541484 0 0 0 0 843.83990934623012 125.83637531066779 0 125.83637531066779 -2776.1901535855932 0 0 0 0 -269.00850998554745 -450.6638723472206 0 -450.6638723472206 -1276.5530332571725 0 0 0 0 3.9999124290644845 0.98591281611200543 0 0.98591281611200543 -13.84972740639023 0 0 0 0 939.21255163864976 903.26243166641507 0 903.26243166641507 -549.09629754511116 0 0 0 0 102.33637201450324 -430.46204058986768 0 -430.46204058986768 -652.29555603181507 0 0 0 0 93.811127293700025 -486.21168479902917 0 -486.21168479902917 -192.61384917744726 0 0 0 0 1.5526518161035217 -1.0806776638349618 0 -1.0806776638349618 -1.5911541377755469 0 0 0 0 393.61254339254634 -332.56559862408176 0 -332.56559862408176 -1275.5621934913506 0 0 0 0 141.91369082743756 -321.62534149878229 0 -321.62534149878229 -1197.7651011004054 0 0 0 0 326.42739658327764 -625.11886650753149 0 -625.11886650753149 -1231.9919706507808 0 0 0 0 429.68575788920782 -508.17377347309139 0 -508.17377347309139 -1572.890561643595 0 0 0 0 347.35581025181841 -607.64118188834982 0 -607.64118188834982 -1451.5190844560275 0 0 0 0 267.08355486045252 -798.07380491605727 0 -798.07380491605727 -1093.365547228459 0 0 0 0 250.01725918548937 -674.59588873810571 0 -674.59588873810571 -1471.5429089306217 0 0 0 0 391.14620461243635 -700.60441929597437 0 -700.60441929597437 -1561.137718530932 0 0 0 0 369.1490413300894 -726.01089149341715 0 -726.01089149341715 -1585.9487171670871 0 0 0 0 255.77653537314904 -673.61947997507741 0 -673.61947997507741 -1362.7707854230175 0 0 0 0 156.55609728031959 -222.90788952704315 0 -222.90788952704315 -1320.7535067860808 0 0 0 0 116.47605491499235 -81.079899836346158 0 -81.079899836346158 -1774.2904129922426 0 0 0 0 212.65538309847398 -547.45325806477194 0 -547.45325806477194 -1557.3488038205833 0 0 0 0 216.48903275236768 -545.62704812776792 0 -545.62704812776792 -1601.8209673282254 0 0 0 0 91.55153291589977 -426.96685979156609 0 -426.96685979156609 -1693.9487399638019 0 0 0 0 -187.74890430541814 42.977111860724108 0 42.977111860724108 -1961.7229048223708 0 0 0 0 -578.12801970706346 -819.14218402824918 0 -819.14218402824918 -1645.2540897749423 0 0 0 0 65.326360094715369 -578.81011301313811 0 -578.81011301313811 -2548.7305577373045 0 0 0 0 -235.81620029016204 -654.92711635910655 0 -654.92711635910655 -1566.5284896272351 0 0 0 0 -241.9183405724948 -713.54234782026469 0 -713.54234782026469 -1350.4092084361473 0 0 0 0 267.80637764600027 -679.24806823019753 0 -679.24806823019753 -1781.8823169471725 0 0 0 0 -307.9007625665572 -473.88704299913661 0 -473.88704299913661 -589.04413650607967 0 0 0 0 307.23131799084308 -568.06520329456816 0 -568.06520329456816 -1326.7772740431246 0 0 0 0 -588.67475408848554 -969.41097339137923 0 -969.41097339137923 -1406.4878519577323 0 0 0 0 7.660789705697578 4.2896011962026677 0 4.2896011962026677 -26.796756579959435 0 0 0 0 242.71083215451699 -650.91319204434694 0 -650.91319204434694 -1139.3972863833187 0 0 0 0 390.79216710725763 -60.467863002464583 0 -60.467863002464583 -676.85878082995987 0 0 0 0 44.609306025298991 -673.45045028239474 0 -673.45045028239474 -920.85460775853426 0 0 0 0 265.2553001375411 -478.41433928930928 0 -478.41433928930928 -1709.5712608162994 0 0 0 0 459.78146654958357 830.02595639606079 0 830.02595639606079 235.44193314549921 0 0 0 0 461.83064621140846 347.52016800195429 0 347.52016800195429 -1853.7101393863704 0 0 0 0 2.4716324132499965 1.6514491292359992 0 1.6514491292359992 -12.25224561986397 0 0 0 0 -877.59590904454478 -1719.885277725507 0 -1719.885277725507 -3646.9966914590041 0 0 0 0 -460.86780739711003 -127.65581767010735 0 -127.65581767010735 -2709.7002901374653 0 0 0 0 -281.7963535168858 -347.55588351643746 0 -347.55588351643746 -2466.7829303097897 0 0 0 0 -496.42417332404415 -287.68805297835024 0 -287.68805297835024 -2445.1999444588873 0 0 0 0 92.167889816376487 -117.38287514536205 0 -117.38287514536205 -2438.3105892907279 0 0 0 0 -254.06902187466537 -366.37127471069834 0 -366.37127471069834 -2491.7555546848307 0 0 0 0 -0.5092976296689451 -84.420845045817259 0 -84.420845045817259 -2645.2985075396791 0 0 0 0 -140.08889519838593 56.151533730474512 0 56.151533730474512 -2364.2221435943211 0 0 0 0 0.76030310446944371 -155.98415563609888 0 -155.98415563609888 -2247.5451566309057 0 0 0 0 -154.05272793481976 2.6209508950996678 0 2.6209508950996678 -1684.1924282263353 0 0 0 0 -112.21051801180352 -257.95563186347135 0 -257.95563186347135 -1992.1983653497955 0 0 0 0 -3.9715302050674768 -446.85428806485288 0 -446.85428806485288 -2174.1186010898746 0 0 0 0 -330.18326012034856 -426.77938521691613 0 -426.77938521691613 -1791.3269648374189 0 0 0 0 218.83607770247156 -257.40296767033215 0 -257.40296767033215 -286.50399518008635 0 0 0 0 0.15464332672862291 -0.90160698296770647 0 -0.90160698296770647 -3.7759737766922967 0 0 0 0 0.48484281641102978 -193.14291160544963 0 -193.14291160544963 299.96711421524014 0 0 0 0 0.090497927794273653 -0.97216261818428507 0 -0.97216261818428507 0.4929950945742263 0 0 0 0 14.928983659457344 -9.978373526580981 0 -9.978373526580981 -11.673213169815426 0 0 0 0 6.4445060433555978 0.19775342746768843 0 0.19775342746768843 -9.3868698448173191 0 0 0 0 -12.333192630002486 -9.5119527262722841 0 -9.5119527262722841 -0.093089337140554562 0 0 0 0 -324.32824647861958 75.253419259788643 0 75.253419259788643 117.69398697293946 0 0 0 0 376.25611111351236 26.815649450101773 0 26.815649450101773 -194.71234724591341 0 0 0 0 -0.063404526766356967 -1.5839868836992537 0 -1.5839868836992537 0.60870679798790661 0 0 0 0 177.18783731565634 143.54685864307248 0 143.54685864307248 -652.16684545311728 0 0 0 0 0.58380029200996941 -0.32677417315665025 0 -0.32677417315665025 -0.36450060317986299 0 0 0 0 -113.7545368843716 -428.86400831936044 0 -428.86400831936044 -1396.1169262383919 0 0 0 0 -302.1601083839908 -704.66522454834194 0 -704.66522454834194 -1239.9706817249607 0 0 0 0 1.2323393138502154 -39.714894320980591 0 -39.714894320980591 -2611.7629023129848 0 0 0 0 -82.702181416472072 -78.836508063897782 0 -78.836508063897782 -2629.2368236152688 0 0 0 0 -370.80851113982794 397.43337453582717 0 397.43337453582717 -3115.3193471886771 0 0 0 0 -951.92402147833673 -291.95781089858065 0 -291.95781089858065 -2428.1719674803717 0 0 0 0 -0.51836578339610118 -1.5988149551713349 0 -1.5988149551713349 -13.22704430172098 0 0 0 0 134.05945311452086 -469.67659320394159 0 -469.67659320394159 -3540.8319098941574 0 0 0 0 -309.07366303314541 51.110798230130229 0 51.110798230130229 -39.169882841873914 0 0 0 0 -609.92787213202871 -1283.5730328621939 0 -1283.5730328621939 -1181.5600137388246 0 0 0 0 -338.31863385074053 1370.0669349948685 0 1370.0669349948685 -2375.0216445627448 0 0 0 0 -295.04134526538382 187.17326024586509 0 187.17326024586509 -609.90127807785757 0 0 0 0 -280.03753588037159 -424.07571799983998 0 -424.07571799983998 -2995.7416805675166 0 0 0 0 -78.969756141534958 214.05905846136375 0 214.05905846136375 -2121.6335038109974 0 0 0 0 -250.97586994314509 742.83149287688366 0 742.83149287688366 -1548.2137380643253 0 0 0 0 -123.19833697345712 143.46488030656474 0 143.46488030656474 -1998.4886260112726 0 0 0 0 161.43393108365581 -20.326959302648902 0 -20.326959302648902 -1026.6595121061255 0 0 0 0 -366.77279626218569 176.02568766668992 0 176.02568766668992 -309.91827232258947 0 0 0 0 -0.95544588440732725 3.9631656215636042 0 3.9631656215636042 -9.4991634831046312 0 0 0 0 148.59389015668594 108.74440375454287 0 108.74440375454287 -637.46186266847508 0 0 0 0 1.709779233104205 -2.2121529853105528 0 -2.2121529853105528 -31.954730524813556 0 0 0 0 113.18087296982435 44.908248352741793 0 44.908248352741793 -59.160054739004408 0 0 0 0 2.2667906847940573 -0.40917946517630455 0 -0.40917946517630455 -45.220508870745789 0 0 0 0 81.652069172677784 -58.064832703017601 0 -58.064832703017601 -33.203723823084147 0 0 0 0 84.199004381311852 92.095584617236455 0 92.095584617236455 26.131089745533245 0 0 0 0 104.01226061931345 108.53546948516487 0 108.53546948516487 -118.88915712409653 0 0 0 0 -182.39474259076405 216.64277437539204 0 216.64277437539204 322.17930980889651 0 0 0 0 -279.8578169024521 471.14656548161474 0 471.14656548161474 -338.03113731736084 0 0 0 0 -1.7276263755021279 2.0082817117452123 0 2.0082817117452123 -0.033035986375828941 0 0 0 0 -124.53147318781726 444.85674359360564 0 444.85674359360564 -1493.4537458782306 0 0 0 0 -158.51241784949593 406.1230159886909 0 406.1230159886909 -1532.6497035026914 0 0 0 0 -94.021847203008349 395.55832173767931 0 395.55832173767931 -1551.7379698614532 0 0 0 0 -35.556231967964322 15.460066798725165 0 15.460066798725165 -1998.3194882442549 0 0 0 0 -34.939639923066892 -26.57958595254604 0 -26.57958595254604 -1373.3588054435386 0 0 0 0 -162.95060738082498 411.54157452066738 0 411.54157452066738 -1335.4052577948314 0 0 0 0 124.72691845292283 -161.2939072545405 0 -161.2939072545405 -1137.1984824803221 0 0 0 0 40.022274400595961 -198.21749928410645 0 -198.21749928410645 -962.63253284095845 0 0 0 0 70.912697226946875 -283.45722399218357 0 -283.45722399218357 -1132.2867516810729 0 0 0 0 125.2153775039742 189.84735602846195 0 189.84735602846195 -1066.7323647615831 0 0 0 0 -52.813639861858178 287.34063802695255 0 287.34063802695255 -866.30511359313095 0 0 0 0 97.948703920731759 276.60685152372753 0 276.60685152372753 -869.20185800393665 0 0 0 0 -91.787767559912254 205.69071122302557 0 205.69071122302557 -869.02320766764751 0 0 0 0 -84.10944154433605 331.48728510193905 0 331.48728510193905 -904.42616872184954 0 0 0 0 -51.165436510700147 115.28565108958719 0 115.28565108958719 -604.90873863696834 0 0 0 0 -67.007527615045205 268.48710772366212 0 268.48710772366212 -673.55436880287016 0 0 0 0 -26.925817769358218 71.242351547578437 0 71.242351547578437 -559.88263041211758 0 0 0 0 -43.696112766648412 29.419861954651424 0 29.419861954651424 -551.01916281585 0 0 0 0 -251.0772329498908 62.354656475323281 0 62.354656475323281 -469.37964086756983 0 0 0 0 -0.54810286740031455 -0.82401419762116035 0 -0.82401419762116035 -2.9107145310142073 0 0 0 0 -37.942430386749493 126.25018046114565 0 126.25018046114565 -333.50247169769136 0 0 0 0 -60.342430810257611 2.6435485644906294 0 2.6435485644906294 -453.61451995348762 0 0 0 0 -78.583549971550838 95.445040860861809 0 95.445040860861809 -342.64141846988059 0 0 0 0 -68.427045224043923 33.211047465760203 0 33.211047465760203 -313.62990865635584 0 0 0 0 -95.282232867953269 -26.000504349493895 0 -26.000504349493895 -0.4702346591220703 0 0 0 0 -112.96444095007723 129.63842762070999 0 129.63842762070999 -87.313107173758908 0 0 0 0 -1.6529609011170123 -23.564577699944493 0 -23.564577699944493 -28.006658608857833 0 0 0 0 -0.86631929058549417 -2.4066916814745198 0 -2.4066916814745198 -7.1593745544823264 0 0 0 0 -78.271824091431029 -29.690896632720978 0 -29.690896632720978 4.7244338094678824 0 0 0 0 -343.8137498599765 -33.181985672657902 0 -33.181985672657902 -6.0192722773645073 0 0 0 0 -156.74121763937205 15.004009033204056 0 15.004009033204056 3.4952220289851539 0 0 0 0 -177.90302115485585 -54.021729750365921 0 -54.021729750365921 48.255325723497663 0 0 0 0 -31.739740358101358 -76.099781884877302 0 -76.099781884877302 -92.775538947302266 0 0 0 0 -57.801548004553524 -60.311560583751998 0 -60.311560583751998 20.739372583513614 0 0 0 0 141.89825690597991 -132.12274977180641 0 -132.12274977180641 11.981903496649466 0 0 0 0 -57.870834425218845 -62.908797907926782 0 -62.908797907926782 27.600157564054825 0 0 0 0 195.61675067996998 -47.319067263444595 0 -47.319067263444595 -134.68646676090793 0 0 0 0 -27.641747396860012 -47.968579119273272 0 -47.968579119273272 61.109450531017501 0 0 0 0 -56.424515942904009 172.84133546236626 0 172.84133546236626 -291.53535379219829 0 0 0 0 48.249001151338121 -60.490097684083594 0 -60.490097684083594 -348.89694629767473 0 0 0 0 52.480521420079185 8.7253967913493398 0 8.7253967913493398 -109.09494358465599 0 0 0 0 -228.30314772554243 -159.71137135661047 0 -159.71137135661047 -125.15819155299687 0 0 0 0 -261.11201364794374 79.261500385619001 0 79.261500385619001 -269.16786838333701 0 0 0 0 70.591520014145544 23.370753895535017 0 23.370753895535017 -122.29849187719219 0 0 0 0 117.81323744008779 60.165976681433676 0 60.165976681433676 -101.59687633498834 0 0 0 0 173.07114726182363 -49.776511356194533 0 -49.776511356194533 -101.94645918312017 0 0 0 0 148.03312526279268 7.2876881349820906 0 7.2876881349820906 -154.35278541079606 0 0 0 0 1.1855179638459579 -0.62532423413814087 0 -0.62532423413814087 -42.482566180500669 0 0 0 0 165.34725182181046 -59.67757832458301 0 -59.67757832458301 -113.46534636978504 0 0 0 0 143.41745605672361 -79.615811367395509 0 -79.615811367395509 9.6432468646380585 0 0 0 0 -26.466170483651297 -77.422522518241749 0 -77.422522518241749 12.664625551129575 0 0 0 0 325.34948229319809 41.170792235297995 0 41.170792235297995 -17.254134437753237 0 0 0 0 64.661116138764328 -36.876536151503387 0 -36.876536151503387 -40.33609952077677 0 0 0 0 0.059664987532039415 -0.33439866371287508 0 -0.33439866371287508 1.0369078993547873 0 0 0 0 1.0519229093803291 1.6254485667102685 0 1.6254485667102685 -37.37382151198733 0 0 0 0 12.846926135115609 9.82485771319989 0 9.82485771319989 -39.22803733748151 0 0 0 0 -19.453343021517412 -0.81573194279917516 0 -0.81573194279917516 3.2435684380106977 0 0 0 0 -33.044170451086984 39.835106340447965 0 39.835106340447965 -1.7862117487666183 0 0 0 0 -1.6612519116534064 -5.0082996445053709 0 -5.0082996445053709 -13.222087652184769 0 0 0 0 4.6786472534507686 -8.3725806865404593 0 -8.3725806865404593 -16.418933402135735 0 0 0 0 3.006121071785703 -5.1681258267199155 0 -5.1681258267199155 -13.329640281546745 0 0 0 0 0.0031698187268897598 -7.0699539283668855 0 -7.0699539283668855 -8.7951992106973194 0 0 0 0 -0.52950093424353928 -2.5473048550437625 0 -2.5473048550437625 -8.8709222936216179 0 0 0 0 4.5969112666067709 -4.0035706096969079 0 -4.0035706096969079 -6.7483798472385388 0 0 0 0 0.0046952290264007986 -3.8254209936276311 0 -3.8254209936276311 -4.4383471031469526 0 0 0 0 85.118096589510969 94.979651749818004 0 94.979651749818004 -219.14215131987294 0 0 0 0 -109.26236438067485 75.954227649879613 0 75.954227649879613 -46.006679994374281 0 0 0 0 -86.99053636083579 -40.415465731599397 0 -40.415465731599397 -129.66980770832743 0 0 0 0 -88.115520653211206 -90.732339405411039 0 -90.732339405411039 13.09312085203419 0 0 0 0 -12.367648980174181 -102.74442108246149 0 -102.74442108246149 -5.1288211190840229 0 0 0 0 0.20233665171606918 -0.12657108588228994 0 -0.12657108588228994 -2.1548191905880003 0 0 0 0 2.4238747356855583 105.48390359951736 0 105.48390359951736 -172.93536899743231 0 0 0 0 -132.38820421141821 -8.1988945205193886 0 -8.1988945205193886 12.042811726365471 0 0 0 0 -1.4935980259966755 -4.0324256368558054 0 -4.0324256368558054 -11.668190686206799 0 0 0 0 0.011918730356887008 -0.40308548423000445 0 -0.40308548423000445 -3.5705400139644894 0 0 0 0 -120.63858649607728 335.22076935409677 0 335.22076935409677 -128.94588922253752 0 0 0 0 10.902462713162961 -8.1352927830430986 0 -8.1352927830430986 2.9903896769385625 0 0 0 0 -154.97154007921995 -548.52864884018345 0 -548.52864884018345 -905.81305258674365 0 0 0 0 -130.00401022981958 -351.22722152775714 0 -351.22722152775714 -1098.5594662775402 0 0 0 0 20.445065172845489 -71.4072777762849 0 -71.4072777762849 -175.6928606924339 0 0 0 0 24.223012673964831 -40.550099434403819 0 -40.550099434403819 -108.01295453513012 0 0 0 0 38.846263469350106 -57.027448918714072 0 -57.027448918714072 -144.77516673473292 0 0 0 0 14.103009342302812 -6.1322619770689926 0 -6.1322619770689926 -67.436133694547607 0 0 0 0 71.103973947116913 -4.872497537997333 0 -4.872497537997333 -122.12513351902453 0 0 0 0 16.855178930503651 -10.555222698564606 0 -10.555222698564606 -6.2795861241982607 0 0 0 0 -151.78083773393359 -516.72460707594473 0 -516.72460707594473 -808.0909309231065 0 0 0 0 -320.76964141123699 -330.38244128364749 0 -330.38244128364749 -273.99228728556773 0 0 0 0 -253.96582085715841 -303.75476849887127 0 -303.75476849887127 -404.55574248784978 0 0 0 0 -511.03287319925857 -774.59121669642354 0 -774.59121669642354 -910.84324316646962 0 0 0 0 -211.4663058812074 -493.11968071815863 0 -493.11968071815863 -812.63731784086849 0 0 0 0 -159.64182359516622 -537.79885048074721 0 -537.79885048074721 -820.39900357656734 0 0 0 0 -198.65680879596061 -534.30989740527366 0 -534.30989740527366 -707.28039411933423 0 0 0 0 -190.64967614905163 -551.30331460647722 0 -551.30331460647722 -815.12211738371116 0 0 0 0 -188.462933281456 -606.0725117951315 0 -606.0725117951315 -374.99314634870825 0 0 0 0 1118.0488848296211 -89.152026672447391 0 -89.152026672447391 -463.50556914480694 0 0 0 0 1113.0476968014441 -250.09326732939735 0 -250.09326732939735 -394.09642104197701 0 0 0 0 -318.40863358065258 -952.63063938862979 0 -952.63063938862979 -1135.3011901120626 0 0 0 0 1.2411186387246906 -1.6733642815427743 0 -1.6733642815427743 -17.609867098852078 0 0 0 0 973.89108741559312 637.60431992548547 0 637.60431992548547 -844.89235139037919 0 0 0 0 22.82633464123262 -621.96824118671793 0 -621.96824118671793 -913.24624615124776 0 0 0 0 -206.4670724123464 -376.50110952772957 0 -376.50110952772957 240.7471563405561 0 0 0 0 70.807425195747555 -282.3800546296327 0 -282.3800546296327 -385.48898878229375 0 0 0 0 198.95760296043704 155.69211076309148 0 155.69211076309148 -716.80870470919399 0 0 0 0 197.38567856620807 168.10369830195123 0 168.10369830195123 202.52548252127235 0 0 0 0 123.23238895802956 167.75756893208018 0 167.75756893208018 -649.82071445924521 0 0 0 0 162.74131824890071 180.94770857330514 0 180.94770857330514 -850.71952188080468 0 0 0 0 178.37183831846642 121.77185328499763 0 121.77185328499763 -1132.9471008419423 0 0 0 0 483.09377750769818 482.00042585162009 0 482.00042585162009 -866.35572606208734 0 0 0 0 431.55537865943666 24.818126752191347 0 24.818126752191347 -1529.2400822343916 0 0 0 0 -48.863650994194813 -531.31421478204356 0 -531.31421478204356 -1656.2901176439627 0 0 0 0 -240.14755604881111 -129.09543535219927 0 -129.09543535219927 -504.7672239454696 0 0 0 0 -46.573176661690923 -190.50111084703531 0 -190.50111084703531 -981.9866391937303 0 0 0 0 302.49420965486411 -21.758992178165499 0 -21.758992178165499 -967.42650336540828 0 0 0 0 29.620178115762428 28.71937590745074 0 28.71937590745074 -830.79644684996038 0 0 0 0 4.7980717935908768 -2.4891396365138405 0 -2.4891396365138405 -0.80214217828837775 0 0 0 0 199.68860486492758 -674.85564303099454 0 -674.85564303099454 -1595.9521146585976 0 0 0 0 211.99025105733699 -657.18308536029508 0 -657.18308536029508 -2070.8692244003323 0 0 0 0 -704.59811684350109 230.50715792875417 0 230.50715792875417 -740.58272310037864 0 0 0 0 -890.81891686207928 -469.7877735571019 0 -469.7877735571019 -767.17124747141497 0 0 0 0 -247.93230438573482 -193.2117006808985 0 -193.2117006808985 -725.37042275720523 0 0 0 0 -452.79847310236846 -114.38847831470048 0 -114.38847831470048 -403.61458433201187 0 0 0 0 10.464692862102766 107.77902748397901 0 107.77902748397901 -767.03791714256658 0 0 0 0 2.6281893658410809 -133.94336199636018 0 -133.94336199636018 18.033710905634507 0 0 0 0 151.83476050471927 -203.09306335193833 0 -203.09306335193833 -371.48109092946106 0 0 0 0 56.003293224265917 2.944821669931116 0 2.944821669931116 -284.9384130154358 0 0 0 0 -49.429119149692269 83.587812090983789 0 83.587812090983789 -336.22809730673907 0 0 0 0 -149.4722355857466 54.618394126526255 0 54.618394126526255 -399.48528570378221 0 0 0 0 -128.47972388311382 -0.87672361484874273 0 -0.87672361484874273 -277.16945377421507 0 0 0 0 -59.471402489608863 50.300255434995051 0 50.300255434995051 -291.93641561347613 0 0 0 0 -153.22638464259035 25.419012239730364 0 25.419012239730364 -189.75579998528701 0 0 0 0 -128.1456338432431 95.007297523181478 0 95.007297523181478 -182.84079558802478 0 0 0 0 -10.007034014557121 81.505083250871394 0 81.505083250871394 -190.46994755227934 0 0 0 0 -56.747552938960439 69.310900698732439 0 69.310900698732439 -176.32432210810657 0 0 0 0 34.113064161031843 -12.901306922758522 0 -12.901306922758522 -617.17735955321405 0 0 0 0 -155.04469245528344 -98.930268515789066 0 -98.930268515789066 -530.54619932757487 0 0 0 0 -210.00137703097494 -127.17377441966892 0 -127.17377441966892 -508.26280248575495 0 0 0 0 -129.58443009236953 24.25703100899409 0 24.25703100899409 -326.87729406252038 0 0 0 0 -120.13302475249975 43.429217015385802 0 43.429217015385802 -338.68112146787462 0 0 0 0 -147.36239722187599 -0.11395452657234273 0 -0.11395452657234273 -231.98692709879833 0 0 0 0 -78.491506775021662 50.184085205015435 0 50.184085205015435 -388.64566724681208 0 0 0 0 -101.43016280552956 24.018377222098934 0 24.018377222098934 -320.91867331432877 0 0 0 0 -82.269004836909062 111.39292936493803 0 111.39292936493803 -265.52982655272353 0 0 0 0 -108.0699804306465 92.228053584617101 0 92.228053584617101 -59.496265338093508 0 0 0 0 -116.61291545596896 14.083704890625086 0 14.083704890625086 -136.52101547734492 0 0 0 0 -133.91438286806056 57.583603538434545 0 57.583603538434545 -65.655188599324902 0 0 0 0 -91.44320315278901 67.67263113293302 0 67.67263113293302 -208.7584366117535 0 0 0 0 -46.892257609017179 65.0485921187028 0 65.0485921187028 -68.557339635823155 0 0 0 0 -0.12299439744904905 0.097842158757686093 0 0.097842158757686093 0.15218713928518923 0 0 0 0 -73.7948813391763 -40.684665403416147 0 -40.684665403416147 28.649599975869933 0 0 0 0 -70.132047035768153 85.305419568376237 0 85.305419568376237 -107.28453496238217 0 0 0 0 -34.910252414585102 72.520000820804853 0 72.520000820804853 -105.22602610285685 0 0 0 0 -66.229384995044029 74.223050645423427 0 74.223050645423427 -179.57868859198061 0 0 0 0 -107.33730123968485 100.2958665832557 0 100.2958665832557 -83.120946706876566 0 0 0 0 -94.316567020605817 87.643839694246708 0 87.643839694246708 -167.15790788470986 0 0 0 0 -74.570675909851843 73.471855082600086 0 73.471855082600086 -63.476884003110172 0 0 0 0 -82.221560381723066 90.005659017893777 0 90.005659017893777 -38.283428048169299 0 0 0 0 -60.219900235980049 100.95772046763886 0 100.95772046763886 -74.815828511986183 0 0 0 0 -42.370400228996232 77.627551420839154 0 77.627551420839154 -47.250118780561024 0 0 0 0 15.135615317655265 69.276708793368016 0 69.276708793368016 -88.435051765642129 0 0 0 0 18.514915742674248 82.793001378326153 0 82.793001378326153 -53.547536782803945 0 0 0 0 95.738806223078768 54.586722076492151 0 54.586722076492151 -74.08489183702477 0 0 0 0 77.313861456326208 67.055319428542134 0 67.055319428542134 -73.42186542240961 0 0 0 0 57.517797014488679 34.397984556591837 0 34.397984556591837 -97.419541899798787 0 0 0 0 5.8760765561996777 46.42997715146339 0 46.42997715146339 -119.4088850381886 0 0 0 0 -26.52838688070733 91.809090075079439 0 91.809090075079439 -95.488306546903914 0 0 0 0 23.779727875893172 64.958509369174863 0 64.958509369174863 -118.92171682411572 0 0 0 0 43.708492315504373 -9.375426517915912 0 -9.375426517915912 -161.66520605276673 0 0 0 0 53.050911057901885 15.440950337087997 0 15.440950337087997 -96.398590476630488 0 0 0 0 77.143963908128626 10.685365129400452 0 10.685365129400452 -106.25704674763256 0 0 0 0 75.489301753261543 -14.295058681309456 0 -14.295058681309456 -136.54920513195975 0 0 0 0 36.694545541514231 -14.811836809578381 0 -14.811836809578381 -139.65155809902353 0 0 0 0 -5.0608484816040251 17.77186915373607 0 17.77186915373607 -61.810766334325621 0 0 0 0 132.17800951237268 37.075058087877551 0 37.075058087877551 -85.920568004881716 0 0 0 0 107.2161518781013 22.216743500044686 0 22.216743500044686 -94.991979766586155 0 0 0 0 67.286122978545677 4.8523894880936496 0 4.8523894880936496 -66.880973279985483 0 0 0 0 108.56854839110122 66.984915849474419 0 66.984915849474419 -44.214075110328849 0 0 0 0 95.786257952457618 186.24521159329379 0 186.24521159329379 43.543524217850063 0 0 0 0 -5.1907033720855287 18.818873034485893 0 18.818873034485893 -64.480146872768188 0 0 0 0 122.05153027492833 -191.19964448546216 0 -191.19964448546216 312.88443917798577 0 0 0 0 445.66044731773763 106.54831701563671 0 106.54831701563671 -415.01635016516957 0 0 0 0 182.49175710414511 78.801758714413154 0 78.801758714413154 -88.985146671671828 0 0 0 0 120.79291101749595 27.265921492955385 0 27.265921492955385 -62.223533371565281 0 0 0 0 124.16970436124643 96.708442221475707 0 96.708442221475707 -53.416232155240323 0 0 0 0 -6.0283714673890847 21.218600135171314 0 21.218600135171314 -69.950867740594617 0 0 0 0 85.79478085065216 190.31391540510776 0 190.31391540510776 -68.307511842220265 0 0 0 0 304.97839755795485 -66.14702311160363 0 -66.14702311160363 -118.99975356258801 0 0 0 0 108.74330748088323 194.88514647776174 0 194.88514647776174 -189.61769044934044 0 0 0 0 168.55960420272368 94.995736537697667 0 94.995736537697667 -52.617903386577382 0 0 0 0 100.9204544803963 22.070251799175821 0 22.070251799175821 -129.52119780553039 0 0 0 0 44.678188932937701 157.56627044376 0 157.56627044376 5.5402835629938636 0 0 0 0 13.6646887583629 89.836185808439041 0 89.836185808439041 -52.786996947769239 0 0 0 0 166.09354545282167 34.179667410560796 0 34.179667410560796 -62.386009885556632 0 0 0 0 -6.409862183221481 22.866822610138556 0 22.866822610138556 -76.801251110254015 0 0 0 0 295.6257517334825 140.17199875253755 0 140.17199875253755 -221.58001045179117 0 0 0 0 92.24589377334064 180.42524937913913 0 180.42524937913913 -349.98099760803598 0 0 0 0 3.7189556701641777 -187.84024834679258 0 -187.84024834679258 -353.95359840410674 0 0 0 0 108.07997847268302 -20.36468262737435 0 -20.36468262737435 -125.11751202134474 0 0 0 0 111.60272656360758 -44.465407773801417 0 -44.465407773801417 -43.113938105481793 0 0 0 0 59.670963246359861 -47.66917528324484 0 -47.66917528324484 -16.881942714069737 0 0 0 0 -15.55255811655843 -108.03636252264914 0 -108.03636252264914 -63.399122387154421 0 0 0 0 17.268085132413546 5.0714498429515515 0 5.0714498429515515 -56.389383072462806 0 0 0 0 -16.668221320828707 33.215224606748961 0 33.215224606748961 -92.249005912730354 0 0 0 0 -0.84570609576566458 8.1427436641828166 0 8.1427436641828166 -11.284488154385429 0 0 0 0 5.2500669198798278 76.950976547746905 0 76.950976547746905 -98.356185189215466 0 0 0 0 138.62175757419391 -14.148295547081943 0 -14.148295547081943 -105.81947066790599 0 0 0 0 -5.6644515344351349 22.729231149670255 0 22.729231149670255 -81.466801069614803 0 0 0 0 0.34736813952804368 18.288450746404123 0 18.288450746404123 -61.023303858557483 0 0 0 0 -12.409017709551335 51.129379039339256 0 51.129379039339256 -51.612200027713698 0 0 0 0 6.772901844503167 82.779633659949468 0 82.779633659949468 -77.120727031418937 0 0 0 0 -14.99658040694203 41.69924505835661 0 41.69924505835661 -85.050840943507865 0 0 0 0 81.696905595787598 69.04896191545231 0 69.04896191545231 -68.173595623971778 0 0 0 0 5.429712850923579 56.950139176362427 0 56.950139176362427 -40.510049579381302 0 0 0 0 -3.6182414929237723 87.345621523299997 0 87.345621523299997 -53.219273208873346 0 0 0 0 -64.409669679774879 66.693890619069862 0 66.693890619069862 -27.080912971774524 0 0 0 0 -72.904572162897352 48.96758571198734 0 48.96758571198734 -4.1352521711523877 0 0 0 0 -51.157352551674308 60.216204021719022 0 60.216204021719022 -52.683683202747488 0 0 0 0 -62.57581426059744 90.81483488376216 0 90.81483488376216 -58.448321044561453 0 0 0 0 -91.921887063916756 78.15644743426401 0 78.15644743426401 -45.766798895492684 0 0 0 0 -43.196157476302687 30.811254848689714 0 30.811254848689714 -33.199468480592259 0 0 0 0 -89.82321646652963 71.016138473062711 0 71.016138473062711 -8.8693474683532258 0 0 0 0 0.059330826085754573 0.61332662052498677 0 0.61332662052498677 0.26711968909117445 0 0 0 0 -43.259894735712123 30.969061328396492 0 30.969061328396492 -26.442300555361726 0 0 0 0 -43.051163631224654 30.496674430334679 0 30.496674430334679 -32.545610816327098 0 0 0 0 -40.390627043303141 15.913950789659793 0 15.913950789659793 -21.126386387099046 0 0 0 0 -53.314831390590143 26.290180089708883 0 26.290180089708883 -23.950256850454025 0 0 0 0 -6.1974595281345239 -7.4398636091579533 0 -7.4398636091579533 -8.2104943374492905 0 0 0 0 -18.322463429332629 9.9206598331365967 0 9.9206598331365967 41.202351631276542 0 0 0 0 -10.638276007725381 -20.557100629608613 0 -20.557100629608613 37.222050069205579 0 0 0 0 57.74846966011475 6.1788269675926131 0 6.1788269675926131 -81.306546057443484 0 0 0 0 -7.5808996136723099 -9.0245543413732321 0 -9.0245543413732321 -7.393167234950397 0 0 0 0 -34.997803974391161 -98.313262299041526 0 -98.313262299041526 -43.931400234680041 0 0 0 0 -36.686263308193645 24.34034485358643 0 24.34034485358643 -41.817108658244251 0 0 0 0 -36.971416981893981 42.590691171768412 0 42.590691171768412 -57.932805725158687 0 0 0 0 -325.13274073891171 -83.130125682451762 0 -83.130125682451762 -20.922488649579464 0 0 0 0 -35.434242301381062 -14.058553303904773 0 -14.058553303904773 -49.091922883642837 0 0 0 0 -40.128503163485448 -40.502743701654254 0 -40.502743701654254 -88.884203300724039 0 0 0 0 -45.225891273492721 -52.374219319390249 0 -52.374219319390249 -105.0976728835376 0 0 0 0 30.573176343992827 -47.873545379108691 0 -47.873545379108691 -126.96491812865133 0 0 0 0 -27.758365791261895 -26.753732519238838 0 -26.753732519238838 -128.42895334483455 0 0 0 0 -16.318117100858217 -76.145493275558692 0 -76.145493275558692 -90.942785099687171 0 0 0 0 -8.478659392289785 -66.265802700509084 0 -66.265802700509084 -131.6494633237744 0 0 0 0 7.3438459845332318 -23.791018656462256 0 -23.791018656462256 -71.583224056841573 0 0 0 0 -33.480017842458437 32.428951282985508 0 32.428951282985508 -45.692440272745444 0 0 0 0 -22.666394230709102 17.850818361526763 0 17.850818361526763 -47.445869483839488 0 0 0 0 0.9328166716994426 0.27165782266764893 0 0.27165782266764893 2.814026436312389 0 0 0 0 -24.049974347922216 42.124813127040397 0 42.124813127040397 -43.808864936952887 0 0 0 0 -45.404072592917146 29.714109165899572 0 29.714109165899572 -51.003304789788672 0 0 0 0 -24.437302775404305 25.444212510898069 0 25.444212510898069 -72.826625431494904 0 0 0 0 -23.537869984971735 -1.9448811349575408 0 -1.9448811349575408 -79.504946480752551 0 0 0 0 -8.6128183841539538 -4.9046397652947178 0 -4.9046397652947178 -17.266676197824779 0 0 0 0 -22.697634269487935 45.183478510858549 0 45.183478510858549 -74.180866395090561 0 0 0 0 1.5103198708932655 4.1781804285090089 0 4.1781804285090089 -10.136361273011175 0 0 0 0 127.05848447446533 239.16062835152843 0 239.16062835152843 -124.13873147391496 0 0 0 0 -28.138883223990945 28.216658231445763 0 28.216658231445763 -79.682836142237647 0 0 0 0 -13.849448378739453 42.511371036576747 0 42.511371036576747 -66.415068719819828 0 0 0 0 4.7817934713322217 -0.072538443731417601 0 -0.072538443731417601 -22.341155730319997 0 0 0 0 -16.747584185505211 27.849571061741699 0 27.849571061741699 -64.597245678742183 0 0 0 0 -15.986122035637436 32.863065042685776 0 32.863065042685776 -85.053570146152651 0 0 0 0 -16.436473485609213 29.507516683810536 0 29.507516683810536 -60.892905040581581 0 0 0 0 -16.385508431446425 19.550833534050838 0 19.550833534050838 -6.3774886844527163 0 0 0 0 15.201163923314867 -0.30235378701847537 0 -0.30235378701847537 -28.194252970831769 0 0 0 0 -11.197764105402594 21.816755149649822 0 21.816755149649822 -7.3430159883181698 0 0 0 0 15.371207718789265 -11.125242550035182 0 -11.125242550035182 -47.097296229780113 0 0 0 0 18.35789268050155 10.581707073170037 0 10.581707073170037 -38.54751968880737 0 0 0 0 -12.347054690520281 -1.722697896817408 0 -1.722697896817408 -16.454947060068662 0 0 0 0 22.025161499241392 -40.429429103380244 0 -40.429429103380244 -171.19309991376213 0 0 0 0 -0.88873086264898182 -0.70802058026069403 0 -0.70802058026069403 -2.6307965448121831 0 0 0 0 18.398066531668519 6.5493876335713139 0 6.5493876335713139 -12.526417806890095 0 0 0 0 9.6475753728752949 -0.1158272012715571 0 -0.1158272012715571 -18.1891495108367 0 0 0 0 -4.4436046744017403 26.289645050943363 0 26.289645050943363 -20.966123354039155 0 0 0 0 13.964543951490683 10.750570535173892 0 10.750570535173892 -14.400783369325024 0 0 0 0 0.060410738084954563 1.6176219252109689 0 1.6176219252109689 1.8348899313780294 0 0 0 0 26.751216225412918 13.77604863439592 0 13.77604863439592 -28.04405603541818 0 0 0 0 13.132809716137672 -0.33118432700211997 0 -0.33118432700211997 -21.707586226231797 0 0 0 0 -37.688504270240323 -20.002374113471888 0 -20.002374113471888 -19.253530606656568 0 0 0 0 -12.64513421536347 -9.7951711795940355 0 -9.7951711795940355 -21.784750042279484 0 0 0 0 21.329568755753826 -4.8600963477092591 0 -4.8600963477092591 -44.935850979483803 0 0 0 0 7.3977287968377254 -0.36620924455320392 0 -0.36620924455320392 -19.468273395553268 0 0 0 0 21.992024870471027 -24.01798401909582 0 -24.01798401909582 -79.135490991888219 0 0 0 0 2.6026763050058435 -18.759237297701475 0 -18.759237297701475 -44.445915211706506 0 0 0 0 6.2712823918686809 -22.729025380811436 0 -22.729025380811436 -70.783304223135929 0 0 0 0 12.351580868606902 2.8383874035703229 0 2.8383874035703229 -87.726099040344707 0 0 0 0 13.636749206737477 -4.5578399179648841 0 -4.5578399179648841 -55.992709446763911 0 0 0 0 22.929204641937758 -21.326096759115899 0 -21.326096759115899 -71.416750547810807 0 0 0 0 7.9824722982915643 -0.54363077204247645 0 -0.54363077204247645 -61.877060252531237 0 0 0 0 17.397441366480962 -18.544402419032849 0 -18.544402419032849 -74.714637459848745 0 0 0 0 -2.5330503705886613 16.721461453889603 0 16.721461453889603 -64.843706577180001 0 0 0 0 -5.4458620053815139 10.720956271754403 0 10.720956271754403 -59.107205049906042 0 0 0 0 6.2994801388657864 -5.7983194282320198 0 -5.7983194282320198 -45.278540308843958 0 0 0 0 -7.6681819579366675 31.836163781463256 0 31.836163781463256 -85.185970980783168 0 0 0 0 8.5179341793973435 46.417666062767239 0 46.417666062767239 -107.61312862818295 0 0 0 0 -25.776883995097705 61.497560989773774 0 61.497560989773774 -99.130278036223899 0 0 0 0 19.004493453718169 -18.23382090431187 0 -18.23382090431187 -97.189829707664558 0 0 0 0 14.417030732678997 -3.2650638189730188 0 -3.2650638189730188 -55.94254219050714 0 0 0 0 3.4018685429745603 -2.6685915262452227 0 -2.6685915262452227 -5.7669041366173985 0 0 0 0 129.01388083071811 75.263871136545276 0 75.263871136545276 -99.126998646272114 0 0 0 0 19.355873894443903 -23.65517169648956 0 -23.65517169648956 -222.55744091124507 0 0 0 0 116.88955381797123 40.858442484968691 0 40.858442484968691 -382.44823062158684 0 0 0 0 121.09801005503209 19.227532897733909 0 19.227532897733909 -277.60314740833928 0 0 0 0 119.67235466450666 91.420022706995951 0 91.420022706995951 -65.586603940966597 0 0 0 0 -53.673982928215239 189.53050304872704 0 189.53050304872704 -248.15181763184228 0 0 0 0 -4.084002705569219 79.631613655252295 0 79.631613655252295 -21.557956461474532 0 0 0 0 19.407190265250392 99.53894492382824 0 99.53894492382824 -126.61811219165247 0 0 0 0 155.40744991222255 56.189688789898355 0 56.189688789898355 -284.69560963455478 0 0 0 0 50.944153419040958 135.78788883277957 0 135.78788883277957 -88.138353706584894 0 0 0 0 53.782963728373034 1.6900795247220231 0 1.6900795247220231 -41.363573331895168 0 0 0 0 -9.5741845737547919 86.793636439193506 0 86.793636439193506 -73.974044054226397 0 0 0 0 1.8931893735879637 0.10361118850951812 0 0.10361118850951812 -0.92780666096348341 0 0 0 0 -4.887147830799222 17.856104677310213 0 17.856104677310213 -42.015626785825589 0 0 0 0 60.328518848281874 53.776215045851131 0 53.776215045851131 -70.320556933656917 0 0 0 0 1.9103896550923309 48.828933447693998 0 48.828933447693998 -69.514524878559314 0 0 0 0 -41.893316785720913 74.735010549557046 0 74.735010549557046 -40.309239735164738 0 0 0 0 1.8392675623613286 86.642316579855105 0 86.642316579855105 -62.945271927179419 0 0 0 0 3.8785166464158465 59.856268364746938 0 59.856268364746938 -36.311681736631726 0 0 0 0 12.20717357865135 22.764197628761394 0 22.764197628761394 -52.485821834154194 0 0 0 0 13.372709355785901 35.022704282266204 0 35.022704282266204 -86.608877292863326 0 0 0 0 5.2892797800961979 6.5431426339147123 0 6.5431426339147123 -7.068111869365354 0 0 0 0 -2.7851832120850304 15.507672180407098 0 15.507672180407098 -72.093312964010693 0 0 0 0 -12.566016375878519 49.687802441274471 0 49.687802441274471 -67.244312553011696 0 0 0 0 -6.5971348808537869 18.309963557418087 0 18.309963557418087 -82.282611095477478 0 0 0 0 2.0537444269546761 5.099380693629314 0 5.099380693629314 -15.847592706297618 0 0 0 0 -8.4036967850170186 33.450088050367413 0 33.450088050367413 -76.068004351458512 0 0 0 0 -8.4036531492044464 23.614099374186008 0 23.614099374186008 -48.439072622280463 0 0 0 0 -15.351905794594131 49.981268507850473 0 49.981268507850473 -106.31168535633333 0 0 0 0 -10.745753518083802 32.945128345472767 0 32.945128345472767 -62.412642580340616 0 0 0 0 -20.305301155160123 41.270817326070755 0 41.270817326070755 -95.912336975772632 0 0 0 0 -0.8922777898392269 22.950549718982074 0 22.950549718982074 -33.527614098624326 0 0 0 0 -11.107323142119569 24.517757490403284 0 24.517757490403284 -34.455257423688309 0 0 0 0 2.1395507031586298 17.904391669583688 0 17.904391669583688 -62.42630790549228 0 0 0 0 -4.1281781657880572 34.776821933192664 0 34.776821933192664 -46.199089525877156 0 0 0 0 -6.1600463379064081 30.618344567519671 0 30.618344567519671 -57.877288002644491 0 0 0 0 -13.210001026439386 22.679696820719982 0 22.679696820719982 -47.724265297411876 0 0 0 0 -9.3305222835838464 23.698397297940161 0 23.698397297940161 -20.930604873493561 0 0 0 0 -3.1475289912290236 15.292055486941535 0 15.292055486941535 -64.953978745892528 0 0 0 0 -8.9139114912912873 26.630267362152154 0 26.630267362152154 -73.452882136407425 0 0 0 0 4.1364173662820525 5.2404305292599389 0 5.2404305292599389 -28.430154357112997 0 0 0 0 -11.075234862666889 21.253798841193202 0 21.253798841193202 -56.941769802186172 0 0 0 0 -16.547762122751919 27.844529531637818 0 27.844529531637818 -57.546418585334322 0 0 0 0 -8.3508051146100115 25.935874988202158 0 25.935874988202158 -57.309868010735954 0 0 0 0 1.587871493297957 6.8736539185899517 0 6.8736539185899517 -13.727189316522797 0 0 0 0 10.92617043108703 -0.43051668821863132 0 -0.43051668821863132 -64.029144767896469 0 0 0 0 -27.438908114461199 -6.3263738854875555 0 -6.3263738854875555 -63.357202271165988 0 0 0 0 -28.246733204632235 -7.5115931110049132 0 -7.5115931110049132 -46.365147518721642 0 0 0 0 10.434258768158209 13.568743312083825 0 13.568743312083825 -20.115880108030979 0 0 0 0 3.6104064021407005 -12.781196982683468 0 -12.781196982683468 -18.801431513071293 0 0 0 0 -0.87331108830419313 0.47301849861185019 0 0.47301849861185019 0.42825136393054208 0 0 0 0 -0.0083436123639478946 -11.008983922303742 0 -11.008983922303742 -33.57595947682421 0 0 0 0 -0.53855599372494112 -6.2013453421313898 0 -6.2013453421313898 -25.23222094499215 0 0 0 0 3.5470148122076903 -8.6921525328398275 0 -8.6921525328398275 -24.658282707168837 0 0 0 0 0.0026052780764116057 -9.1256110799601711 0 -9.1256110799601711 -17.077494726254372 0 0 0 0 4.2500551694876378 -6.0052834429152426 0 -6.0052834429152426 -26.912171123622102 0 0 0 0 3.4286977737485174 -7.0399512818403309 0 -7.0399512818403309 -16.899671792809386 0 0 0 0 9.1223634238478652 -11.6845160019584 0 -11.6845160019584 -27.656079696950655 0 0 0 0 -1.4804040639578688 -5.7300511278354804 0 -5.7300511278354804 -6.5046571060220231 0 0 0 0 19.423489022969989 25.826250597150647 0 25.826250597150647 -84.280056561372476 0 0 0 0 -10.492291390300579 8.8029413735530397 0 8.8029413735530397 -36.398664729000302 0 0 0 0 -2.2194082214915833 -5.2350145184827284 0 -5.2350145184827284 -19.909321605221464 0 0 0 0 -1.8240683403101685 0.7205971793000856 0 0.7205971793000856 -31.413440669196063 0 0 0 0 123.5720033711309 -0.13584866892415448 0 -0.13584866892415448 -36.642037409154 0 0 0 0 58.866198555893533 -41.612485450711574 0 -41.612485450711574 -44.24799001388601 0 0 0 0 78.100924286062082 -26.88176173397369 0 -26.88176173397369 -15.299340986837933 0 0 0 0 2.4346888360561101 -4.8444976601734169 0 -4.8444976601734169 -1.6480185055626748 0 0 0 0 1.0523601862429848 4.0993997855774964 0 4.0993997855774964 -1.5414251941436419 0 0 0 0 24.635994287306175 -25.227615961823176 0 -25.227615961823176 -40.340267608033173 0 0 0 0 49.583398345385149 -18.152666234840581 0 -18.152666234840581 -66.734611348714679 0 0 0 0 24.549277499312893 -20.654316542259039 0 -20.654316542259039 -36.951681534425006 0 0 0 0 26.216545865931494 -18.251564379654155 0 -18.251564379654155 -51.122462007959257 0 0 0 0 -38.646728873613114 -46.165458462695824 0 -46.165458462695824 -16.71904773816641 0 0 0 0 13.85363585038036 -47.853055590938311 0 -47.853055590938311 -33.878875572481775 0 0 0 0 -3.2768761948298755 -12.178505060908073 0 -12.178505060908073 -42.336245783932554 0 0 0 0 -51.884138668625837 -72.610347219961113 0 -72.610347219961113 -64.643015776877292 0 0 0 0 -7.4078128001744261 1.5161558295803843 0 1.5161558295803843 -34.400928779297828 0 0 0 0 -14.454249279295077 -19.339268348237965 0 -19.339268348237965 -75.819658589922255 0 0 0 0 50.068939091984653 -34.683229318576196 0 -34.683229318576196 -53.248976504226448 0 0 0 0 27.775332921286235 -31.263710490507947 0 -31.263710490507947 -34.36558085670913 0 0 0 0 -2.790767570473097 -12.572773966557008 0 -12.572773966557008 -38.821927521894509 0 0 0 0 19.478665551512449 -14.179977652616799 0 -14.179977652616799 -38.292189799962216 0 0 0 0 11.843720916288817 -19.174581800783926 0 -19.174581800783926 -31.027298923536364 0 0 0 0 5.4339495366131132 -5.7748113062698394 0 -5.7748113062698394 -45.851309739053249 0 0 0 0 -4.8799745201559404 -10.226216828014003 0 -10.226216828014003 -17.283340470763505 0 0 0 0 -40.013689165689584 -14.204462585512374 0 -14.204462585512374 -16.75425078360422 0 0 0 0 -10.522397872084753 -19.521191629526584 0 -19.521191629526584 -30.699941345432308 0 0 0 0 12.616349375232176 -35.59693964737744 0 -35.59693964737744 -52.074674006013083 0 0 0 0 7.9944289598026899 -25.569135143567109 0 -25.569135143567109 -31.50242980755138 0 0 0 0 56.029383434994088 -44.308890756045002 0 -44.308890756045002 -50.672110330659052 0 0 0 0 10.349312373606153 -79.679705221758923 0 -79.679705221758923 -52.22699707839638 0 0 0 0 0.86495208967426152 -52.625195387838176 0 -52.625195387838176 -39.018468389287591 0 0 0 0 106.51864202388856 -84.30697663414503 0 -84.30697663414503 -39.896572360754362 0 0 0 0 -93.382271284645185 -88.231578685546992 0 -88.231578685546992 -37.587499818735523 0 0 0 0 -125.23198691525286 -26.320494757755114 0 -26.320494757755114 6.115138963345089 0 0 0 0 2.7071723038275195 -62.804461504674691 0 -62.804461504674691 -80.615697582848952 0 0 0 0 -16.68485299788199 -44.785166533454685 0 -44.785166533454685 -18.099167201740784 0 0 0 0 -12.848060991007628 -33.780937914358219 0 -33.780937914358219 -20.319588546830346 0 0 0 0 -3.6045432447392614 -2.8139362600049935 0 -2.8139362600049935 -6.653675615983957 0 0 0 0 -93.077504067814743 5.3129208311878671 0 5.3129208311878671 10.052795915587922 0 0 0 0 -25.188529338629564 4.3094808752066456 0 4.3094808752066456 -0.83066908828550368 0 0 0 0 3.9684142005895637 3.1872097741797916 0 3.1872097741797916 -56.734136601029604 0 0 0 0 -118.76836624776421 -58.231578842261115 0 -58.231578842261115 -14.796377120350371 0 0 0 0 -1.0501163290190272 -0.13273440858502283 0 -0.13273440858502283 0.2163700162084865 0 0 0 0 -23.616910508513911 -5.1057711349494639 0 -5.1057711349494639 -22.041250210961152 0 0 0 0 -1.9005887850608065 -3.8898550132716068 0 -3.8898550132716068 -8.9798787160830216 0 0 0 0 2.742306385441168 -4.8382090827508364 0 -4.8382090827508364 -14.817348071082961 0 0 0 0 -114.07616577268578 19.423368237416071 0 19.423368237416071 25.706364853293053 0 0 0 0 -1.0674274538075414 -0.76121914883884756 0 -0.76121914883884756 -2.2023261253097814 0 0 0 0 -8.0960192992126103 -12.123482374603554 0 -12.123482374603554 1.1214307272748556 0 0 0 0 6.7320524985569818 -7.0303832578356378 0 -7.0303832578356378 -2.2679035691908211 0 0 0 0 -24.185844551310055 17.094269245491887 0 17.094269245491887 -6.6352570500894217 0 0 0 0 -8.765680654082189 -10.027317298023263 0 -10.027317298023263 0.42727900794852758 0 0 0 0 -2.2652191941477495 -2.0274913772583787 0 -2.0274913772583787 1.4827802068953133 0 0 0 0 4.4627670200513023 4.0567922229092801 0 4.0567922229092801 -42.3998185962555 0 0 0 0 -4.759498780506533 -4.0168303252285114 0 -4.0168303252285114 -24.289827645086916 0 0 0 0 -5.5258523447570393 0.63853850584746397 0 0.63853850584746397 -42.520066676137503 0 0 0 0 -16.77285506820661 18.494075854621769 0 18.494075854621769 -58.864887007424841 0 0 0 0 -58.94714882258836 -7.2946572349610506 0 -7.2946572349610506 -40.547341045268695 0 0 0 0 -25.439702066090049 -41.133139050303726 0 -41.133139050303726 -45.626343188232568 0 0 0 0 3.9004523001249254 -18.217122553098307 0 -18.217122553098307 -78.302159970709909 0 0 0 0 -1.6251172100418216 -23.110829171841033 0 -23.110829171841033 -33.907638864409819 0 0 0 0 -20.027867318453929 -18.516391975026636 0 -18.516391975026636 -24.381134672075859 0 0 0 0 -0.26273042952338699 -21.749513936119911 0 -21.749513936119911 -25.633304702199894 0 0 0 0 7.0597004902777467 -5.5973029481149581 0 -5.5973029481149581 -26.878421841113067 0 0 0 0 -2.736541473540715 -23.4515277912069 0 -23.4515277912069 -21.965888855258527 0 0 0 0 -4.0071647056522632 -18.701510431905575 0 -18.701510431905575 -10.485118001240096 0 0 0 0 10.445062992830685 -30.037381381589512 0 -30.037381381589512 -26.050894933970994 0 0 0 0 -1.9833359936633146 -10.609251829781442 0 -10.609251829781442 -31.177667813901394 0 0 0 0 10.438399738235375 -3.1363002623329521 0 -3.1363002623329521 -34.599430788033715 0 0 0 0 -2.6536522911153324 0.61947496679837855 0 0.61947496679837855 -4.0560680723951066 0 0 0 0 -4.6496077271717446 18.059924983574092 0 18.059924983574092 -44.353964193825959 0 0 0 0 24.875079292142573 -32.239223828919421 0 -32.239223828919421 -28.256639675819315 0 0 0 0 -1.6626132558666149 -10.498742066072907 0 -10.498742066072907 -36.678710362412687 0 0 0 0 34.370946989846679 -35.784847203154641 0 -35.784847203154641 -60.329378763301065 0 0 0 0 19.759032054312684 -19.121802769655915 0 -19.121802769655915 -42.802917687738955 0 0 0 0 -2.1121519338150847 -23.575971043588652 0 -23.575971043588652 -22.94603003514203 0 0 0 0 3.5330661847118421 -18.869227615615728 0 -18.869227615615728 -33.642805397917982 0 0 0 0 -14.2060230317459 0.52511423298710724 0 0.52511423298710724 -21.609497349185403 0 0 0 0 -9.5946698380175057 -4.6617652824643301 0 -4.6617652824643301 -74.771422116391477 0 0 0 0 -53.689123349229114 12.003184960485669 0 12.003184960485669 -49.261052411748096 0 0 0 0 -37.232122117564458 -6.3654161533377192 0 -6.3654161533377192 -31.830491035972955 0 0 0 0 -39.241775478865037 154.50295447076496 0 154.50295447076496 -373.79020671104809 0 0 0 0 -1.0152918272641112 0.34123953232105464 0 0.34123953232105464 0.066346165113330358 0 0 0 0 -3.3552459200910434 25.084319954599778 0 25.084319954599778 -237.99479220170178 0 0 0 0 -20.005343931006106 82.958672810527787 0 82.958672810527787 -222.88514367808239 0 0 0 0 -78.285304911327529 81.055544330130942 0 81.055544330130942 -104.49209826094739 0 0 0 0 -17.552660579014791 34.349458589233109 0 34.349458589233109 -137.17803775746142 0 0 0 0 0.016565644050466531 17.378421602759772 0 17.378421602759772 -201.18316224663795 0 0 0 0 -7.872576829272095 48.032146819372429 0 48.032146819372429 -189.34514175337245 0 0 0 0 -0.019542107025207502 13.178238346729971 0 13.178238346729971 -134.0254792018095 0 0 0 0 -24.909634667517278 26.355087653682858 0 26.355087653682858 -103.31069882444717 0 0 0 0 -23.329640999735837 10.384134146865108 0 10.384134146865108 -84.949581846274668 0 0 0 0 -36.315157669674804 47.259418673853361 0 47.259418673853361 -122.82204748815275 0 0 0 0 -29.014764239837543 18.933787624297111 0 18.933787624297111 -62.763691265383386 0 0 0 0 -0.014715775624782259 -1.91297093575743 0 -1.91297093575743 -80.953562946408056 0 0 0 0 0.0041742456775087974 -10.447943839084473 0 -10.447943839084473 -179.52441717622423 0 0 0 0 24.297073236339934 -14.659936756725074 0 -14.659936756725074 -179.9597666011723 0 0 0 0 30.772901192540552 -35.735442725526809 0 -35.735442725526809 -189.63266069619567 0 0 0 0 24.231109266888392 -7.3084930469822211 0 -7.3084930469822211 -240.26987640782318 0 0 0 0 18.890465567699067 -22.630644222022966 0 -22.630644222022966 -200.63460948893044 0 0 0 0 0.031509873209732107 2.910811821215995 0 2.910811821215995 -229.923751369206 0 0 0 0 21.775340231177026 3.3819168076734059 0 3.3819168076734059 -249.65166524700089 0 0 0 0 6.7906004551726404 37.745242369674088 0 37.745242369674088 -251.75573014662223 0 0 0 0 22.650728138524343 -3.143848772830097 0 -3.143848772830097 -236.36783647944685 0 0 0 0 34.424732498863577 22.851230559797841 0 22.851230559797841 -292.22268565504055 0 0 0 0 19.520443066484951 30.851800973796344 0 30.851800973796344 -285.73829535592813 0 0 0 0 -2.5740281371054579 34.758112551775412 0 34.758112551775412 -262.64986395201413 0 0 0 0 -71.552488453982974 85.091030307077745 0 85.091030307077745 -282.40189410791209 0 0 0 0 -4.3636480961163784 113.53102228703938 0 113.53102228703938 -332.89694731324562 0 0 0 0 -34.241251012612096 100.2723067828083 0 100.2723067828083 -323.67416627175407 0 0 0 0 57.335224510454935 49.558087762918149 0 49.558087762918149 -308.07866808762628 0 0 0 0 29.935587589314451 102.52777881947623 0 102.52777881947623 -401.50042769379797 0 0 0 0 54.489852617897384 10.968713275799018 0 10.968713275799018 -291.74030178179964 0 0 0 0 70.464611721051398 -33.68948417143838 0 -33.68948417143838 -265.2640035502809 0 0 0 0 56.237641358327735 -31.980146147485357 0 -31.980146147485357 -186.45223465841991 0 0 0 0 32.391642577604898 -12.631867912398775 0 -12.631867912398775 -197.4303498606605 0 0 0 0 57.015477785816543 7.4846684590302175 0 7.4846684590302175 -113.32974936255778 0 0 0 0 33.299321957906216 -16.836957416166115 0 -16.836957416166115 -107.07955643512832 0 0 0 0 74.053413424444841 -101.04659591238305 0 -101.04659591238305 -193.81829868039495 0 0 0 0 -0.42705681451504995 0.071850629428297452 0 0.071850629428297452 0.18996427477264888 0 0 0 0 71.732493301024164 -103.59846977495909 0 -103.59846977495909 33.60917730962683 0 0 0 0 47.666516040370311 -2.1093742429220583 0 -2.1093742429220583 -40.828296348241565 0 0 0 0 47.062609099163922 -10.999723834145698 0 -10.999723834145698 -26.586494521572604 0 0 0 0 -131.71919808380608 -82.581010319747293 0 -82.581010319747293 73.913455999339931 0 0 0 0 1.2912843988311562 1.9055363200006354 0 1.9055363200006354 -6.2682813890656632 0 0 0 0 129.31942510324666 -59.086042675495264 0 -59.086042675495264 -632.63083827702212 0 0 0 0 126.06726203878065 105.03088330081664 0 105.03088330081664 -702.86247899991577 0 0 0 0 70.120167320436735 90.43499134654121 0 90.43499134654121 -609.77566400488831 0 0 0 0 92.572111612799858 39.456806877613417 0 39.456806877613417 -506.73151143343421 0 0 0 0 87.37480671647802 33.265034438518342 0 33.265034438518342 -514.05581909567627 0 0 0 0 105.47173437838087 -75.890845353958866 0 -75.890845353958866 -465.88748564996058 0 0 0 0 95.793587025071247 -13.014255360845709 0 -13.014255360845709 -348.35129208312719 0 0 0 0 9.1182421392932724 199.98248881557811 0 199.98248881557811 -487.18430818611523 0 0 0 0 35.915633414682191 134.69790512688633 0 134.69790512688633 -335.61922643714934 0 0 0 0 -85.300346185499563 108.46394817832334 0 108.46394817832334 -176.05579057639625 0 0 0 0 -16.293911440978349 132.73498601163374 0 132.73498601163374 -330.08241174220166 0 0 0 0 -68.212702718602145 97.64503654660075 0 97.64503654660075 -183.50864075733989 0 0 0 0 -220.6964855076036 262.32828812358639 0 262.32828812358639 -220.62925457923848 0 0 0 0 -1.3916735911136207 -0.0097661614075832404 0 -0.0097661614075832404 5.488069549115778 0 0 0 0 -1.11750561033125 197.62469224234519 0 197.62469224234519 -394.62771176286333 0 0 0 0 -257.612172945422 327.31683372882253 0 327.31683372882253 -317.48705051972502 0 0 0 0 -90.318261715648305 371.97556768383947 0 371.97556768383947 -725.72120232586167 0 0 0 0 -256.97830636943149 331.40639279963216 0 331.40639279963216 -315.28848704975098 0 0 0 0 -257.65769668728308 332.72130663017742 0 332.72130663017742 -309.97186328966927 0 0 0 0 -775.78524364500117 945.68699651674251 0 945.68699651674251 -745.77778476802632 0 0 0 0 114.579748246995 -83.455386248286231 0 -83.455386248286231 -441.7068119677715 0 0 0 0 -900.03263745781783 -476.1752370105969 0 -476.1752370105969 -586.54639804028557 0 0 0 0 -181.99416601820269 -360.00968352891505 0 -360.00968352891505 -41.206196470186114 0 0 0 0 -268.67429114583877 200.9643893626162 0 200.9643893626162 361.42314254300436 0 0 0 0 1.139860959526896 1.6858346191548179 0 1.6858346191548179 -0.074802653611584446 0 0 0 0 -257.89938143814618 329.01010215346469 0 329.01010215346469 -313.83734058657137 0 0 0 0 -44.234997832176617 -44.113112106577319 0 -44.113112106577319 -11.948928110054112 0 0 0 0 64.259275376603981 -25.127455375775753 0 -25.127455375775753 -61.654804859477736 0 0 0 0 40.835288179386453 80.989109448099043 0 80.989109448099043 93.559631332522258 0 0 0 0 -57.413770923538323 -107.15890223194037 0 -107.15890223194037 0.94890440064773429 0 0 0 0 -0.33856054723766327 -9.0424614457648858 0 -9.0424614457648858 -4.7148831440191543 0 0 0 0 -241.42346255512484 -121.14859473606339 0 -121.14859473606339 212.43872038481641 0 0 0 0 -15.657435685914152 -110.41279996101366 0 -110.41279996101366 -212.61457881995011 0 0 0 0 -12.505231494366853 -24.611312133012689 0 -24.611312133012689 -631.84411344748514 0 0 0 0 11.201785903411064 -310.05559756453295 0 -310.05559756453295 -664.25755401095375 0 0 0 0 49.04303701979984 2.6056452066550264 0 2.6056452066550264 -787.10309172430425 0 0 0 0 -122.84129692033855 291.0308398866764 0 291.0308398866764 -473.51884187942778 0 0 0 0 -123.97761961188792 -201.0404348285665 0 -201.0404348285665 -555.98000064014195 0 0 0 0 -148.4271388653699 425.94666946408688 0 425.94666946408688 -1087.2909224270261 0 0 0 0 26.704167489914653 -198.12240683099662 0 -198.12240683099662 -1412.5899268176581 0 0 0 0 67.772871652822801 291.04044233422974 0 291.04044233422974 -1280.2303779032954 0 0 0 0 -558.13413192529208 380.54927089581361 0 380.54927089581361 -321.904724694381 0 0 0 0 0.769618042878363 3.5986165225406772 0 3.5986165225406772 -15.594046242531363 0 0 0 0 -320.03984569425756 111.43101593578467 0 111.43101593578467 -25.162754975899588 0 0 0 0 -247.37138315817879 236.2063169404164 0 236.2063169404164 -232.9984551849484 0 0 0 0 -249.73144851293091 258.34090152806311 0 258.34090152806311 -132.17304879447329 0 0 0 0 -120.72469686318846 277.35990436081374 0 277.35990436081374 -460.42815378535306 0 0 0 0 -286.08513175634272 371.20554318746144 0 371.20554318746144 -251.58274552092189 0 0 0 0 -230.22182081642086 193.56364055247104 0 193.56364055247104 -183.03671560073417 0 0 0 0 0.21365817182966573 0.55206975865169738 0 0.55206975865169738 -0.32407673225759481 0 0 0 0 -66.182599627859759 262.11908684247464 0 262.11908684247464 -219.18012915417785 0 0 0 0 11.907407756294333 3.9547962544602342 0 3.9547962544602342 -20.948732515731535 0 0 0 0 -60.609643263202884 -74.036218496286892 0 -74.036218496286892 11.202471838887504 0 0 0 0 6.7348272924959822 2.2245003837835853 0 2.2245003837835853 -22.650525568169996 0 0 0 0 -8.1915915634376688 -13.016669023294526 0 -13.016669023294526 -49.274437103304081 0 0 0 0 6.4764041658498623 4.2299524129521444 0 4.2299524129521444 -13.814509933357527 0 0 0 0 10.596124076945312 -1.2442623186877313 0 -1.2442623186877313 -18.179046533024547 0 0 0 0 -3.3694499371313213 -49.552423207911488 0 -49.552423207911488 -114.16556457802653 0 0 0 0 -52.700106863147994 -49.07275267928344 0 -49.07275267928344 -58.964570579912106 0 0 0 0 16.472349119718103 24.289282879893108 0 24.289282879893108 -159.95633402039675 0 0 0 0 14.279330715235801 -22.940112514967041 0 -22.940112514967041 -74.589431642860291 0 0 0 0 103.55380109042314 -5.4896309911091521 0 -5.4896309911091521 -151.50422553413955 0 0 0 0 38.851145571667303 -62.490214249010023 0 -62.490214249010023 -84.289006828112178 0 0 0 0 192.36963261381061 76.685833063456812 0 76.685833063456812 -32.322909313676064 0 0 0 0 -17.700827102691846 -147.64508548080266 0 -147.64508548080266 301.47900362363725 0 0 0 0 -4.0830870020985204 -1.9211898709028219 0 -1.9211898709028219 -1.4759074400211176 0 0 0 0 212.29654738619701 -232.90323576087098 0 -232.90323576087098 -153.97179126049741 0 0 0 0 -303.75440159406935 -216.56885041046189 0 -216.56885041046189 -68.412360957954661 0 0 0 0 72.393924719770439 -81.913463887227408 0 -81.913463887227408 -103.80728475651995 0 0 0 0 0.45320563123618429 -1.609113402481448 0 -1.609113402481448 -2.6804104965243027 0 0 0 0 -168.41723353368525 65.661285041198425 0 65.661285041198425 43.581596790521871 0 0 0 0 22.346748431133165 56.273614330348209 0 56.273614330348209 -39.239143041239004 0 0 0 0 -17.3552681798501 155.13331790295342 0 155.13331790295342 60.620447848108597 0 0 0 0 -10.499977225487141 -7.8240911215169149 0 -7.8240911215169149 -3.7901472929255817 0 0 0 0 43.205934906782659 128.04044979941318 0 128.04044979941318 -827.49426825164119 0 0 0 0 -403.85307462189485 -176.11264976240636 0 -176.11264976240636 98.169455051611294 0 0 0 0 -84.21230816254797 87.39026414759428 0 87.39026414759428 -508.75017581709471 0 0 0 0 5.1990592703891707 4.8103544119803701 0 4.8103544119803701 -607.10255272316863 0 0 0 0 56.778117571530856 -69.141841500432747 0 -69.141841500432747 -28.552608918304031 0 0 0 0 131.46351592191922 98.813007603213919 0 98.813007603213919 -53.335399817180587 0 0 0 0 41.562219056671097 14.385585947391519 0 14.385585947391519 -1.1382383118907455 0 0 0 0 59.237051703435981 36.22867917567055 0 36.22867917567055 -28.042308301053708 0 0 0 0 13.162726053513552 24.031774125641277 0 24.031774125641277 -47.953198897652328 0 0 0 0 3.7481127416040709 3.6268466055757571 0 3.6268466055757571 -5.5486009499523448 0 0 0 0 15.874661778493955 7.7889581425979202 0 7.7889581425979202 -16.491941331947061 0 0 0 0 42.577481237081798 18.621206572381197 0 18.621206572381197 -32.338458166464534 0 0 0 0 43.244436122854268 14.855469432281097 0 14.855469432281097 -32.197808252030882 0 0 0 0 12.754905875392794 0.93775289943550888 0 0.93775289943550888 -30.017010004725307 0 0 0 0 65.078062559282898 -2.7775163839833112 0 -2.7775163839833112 -51.953974962365464 0 0 0 0 52.729873090497463 18.082950164374779 0 18.082950164374779 -59.331952206295682 0 0 0 0 66.507746025861636 -2.9139142062540486 0 -2.9139142062540486 -104.17651423296775 0 0 0 0 71.672181276091166 33.134598239506886 0 33.134598239506886 -73.180827392890933 0 0 0 0 82.401153202786176 36.212889520844328 0 36.212889520844328 -89.011094346016762 0 0 0 0 59.486039797526175 22.621742071190965 0 22.621742071190965 -64.884398708301887 0 0 0 0 73.399735748344298 3.1225826598638378 0 3.1225826598638378 -125.28421672194963 0 0 0 0 66.965436395035056 -4.513360202559852 0 -4.513360202559852 -132.56016355170868 0 0 0 0 65.74067901365126 -12.590960007626563 0 -12.590960007626563 -109.16926426446298 0 0 0 0 27.677892869102049 -35.877706820523599 0 -35.877706820523599 -132.38908886020363 0 0 0 0 111.57098270160043 40.196709957046551 0 40.196709957046551 -76.867676597903483 0 0 0 0 175.89625248028142 9.1397972831618972 0 9.1397972831618972 -115.49727533687837 0 0 0 0 59.259932551205921 -14.868140363170824 0 -14.868140363170824 -86.185843783285236 0 0 0 0 124.7243329645911 42.990809349546907 0 42.990809349546907 -88.308890624786727 0 0 0 0 104.47292767495532 96.506702546510496 0 96.506702546510496 -11.743895908432023 0 0 0 0 63.790677352128334 28.822746604899294 0 28.822746604899294 -39.470567461044993 0 0 0 0 70.910838081099143 71.910773315670667 0 71.910773315670667 28.680022273387294 0 0 0 0 -15.526864396826909 -12.946687148849804 0 -12.946687148849804 -6.6967008058072395 0 0 0 0 17.225635364381308 6.8697449809877185 0 6.8697449809877185 -13.264271783728987 0 0 0 0 47.451253884616776 78.925011075451039 0 78.925011075451039 51.095979497811641 0 0 0 0 23.512188424430747 68.991106880348525 0 68.991106880348525 -646.91218846011179 0 0 0 0 -11.702977161063245 25.252038519887719 0 25.252038519887719 -518.70296469012101 0 0 0 0 -31.659742805149335 85.733911192335654 0 85.733911192335654 -574.85683860752033 0 0 0 0 1.5447441815562684 25.78155170064565 0 25.78155170064565 -528.19049218852888 0 0 0 0 14.225059681392622 60.29458430071827 0 60.29458430071827 -588.89068366320862 0 0 0 0 46.735334646373985 40.685610406508204 0 40.685610406508204 -541.52628631755579 0 0 0 0 -67.584749218926618 27.779152405273635 0 27.779152405273635 -579.33952695975313 0 0 0 0 -9.3325482930367798 75.755346508056391 0 75.755346508056391 -539.83074725703773 0 0 0 0 101.30981212794904 114.10351890459424 0 114.10351890459424 -423.11746406933526 0 0 0 0 81.216950080823267 24.100614787239465 0 24.100614787239465 -633.88039066788042 0 0 0 0 75.592839918551235 109.93396343277527 0 109.93396343277527 -427.38659097705386 0 0 0 0 99.180048813234976 22.976313901745016 0 22.976313901745016 -554.35892112154397 0 0 0 0 148.60255348366235 298.96849426170957 0 298.96849426170957 -236.42234957159963 0 0 0 0 176.96367446940934 -1.6367372312342923 0 -1.6367372312342923 -27.698810344765661 0 0 0 0 -1.9205941716413104 -2.332605008406631 0 -2.332605008406631 -3.9936736006932847 0 0 0 0 -13.069570802338603 -47.045737206528429 0 -47.045737206528429 -687.55550445828703 0 0 0 0 274.05689598925773 -59.616114849439327 0 -59.616114849439327 -26.35102730098879 0 0 0 0 369.45264090815385 206.3233938003541 0 206.3233938003541 -705.6029575553257 0 0 0 0 104.59204265842959 234.42843519739108 0 234.42843519739108 432.12102015296114 0 0 0 0 3.2554479129205323 -3.6536570393251679 0 -3.6536570393251679 -6.4579789355216519 0 0 0 0 82.819455349476698 144.62284035679477 0 144.62284035679477 239.59647998027503 0 0 0 0 228.66435299852185 91.177784566883929 0 91.177784566883929 -42.971355951216538 0 0 0 0 289.54072306487143 227.23088502541941 0 227.23088502541941 120.09713100618683 0 0 0 0 148.67170860841935 82.613534347998211 0 82.613534347998211 -29.995408465445507 0 0 0 0 38.450962942955698 57.222379514350905 0 57.222379514350905 5.2761868213419802 0 0 0 0 33.184324852780733 93.158188903158589 0 93.158188903158589 -193.02265892490686 0 0 0 0 -26.465277727944326 25.81687183597387 0 25.81687183597387 -266.29285162188171 0 0 0 0 110.21970877610423 146.28711122752429 0 146.28711122752429 -473.71456696731912 0 0 0 0 -47.950820469372793 88.670738859109406 0 88.670738859109406 -494.26922254939564 0 0 0 0 46.557273392705525 230.58567566426063 0 230.58567566426063 -740.46948405477815 0 0 0 0 -0.25988993140864391 11.939626597664756 0 11.939626597664756 -446.95667311472062 0 0 0 0 -6.1551652006614823 49.274127091128321 0 49.274127091128321 -235.40356004400383 0 0 0 0 -52.903591495470721 113.30913987852728 0 113.30913987852728 -226.86291333814734 0 0 0 0 -0.023723119476391861 -12.26648419833873 0 -12.26648419833873 -158.56429542251135 0 0 0 0 58.559162042471613 -7.1846102623530896 0 -7.1846102623530896 -127.24685567128472 0 0 0 0 9.3314098210087266 -30.305846794610261 0 -30.305846794610261 -109.33628135250183 0 0 0 0 -17.317148999222386 8.659075804236636 0 8.659075804236636 -74.842584443191299 0 0 0 0 6.4489361794376645 -31.072938165594678 0 -31.072938165594678 -148.46108340000501 0 0 0 0 -2.2773317443000578 -7.5931365579799603 0 -7.5931365579799603 -149.44379597950319 0 0 0 0 69.871034391781905 84.31301323450316 0 84.31301323450316 -87.966952899860189 0 0 0 0 43.721084070024517 -2.5181832101352484 0 -2.5181832101352484 -203.91799625972271 0 0 0 0 -17.603123585108733 74.125756785388148 0 74.125756785388148 -41.343392713537469 0 0 0 0 46.269223033391427 69.389684766185383 0 69.389684766185383 -78.487927210166163 0 0 0 0 5.2588200044601088 22.347397525613481 0 22.347397525613481 -82.03136688849554 0 0 0 0 41.520820879015446 152.26346908867708 0 152.26346908867708 -272.6589034388744 0 0 0 0 63.638130240503415 226.21915522028394 0 226.21915522028394 -33.848084584111348 0 0 0 0 334.10151355393168 120.71588233572584 0 120.71588233572584 -563.62885274241853 0 0 0 0 224.16740557781083 -16.753091048465649 0 -16.753091048465649 -35.610197773006803 0 0 0 0 -60.754294849415146 78.617462679492746 0 78.617462679492746 -15.475290650967054 0 0 0 0 -1.7183817748754766 0.9275347588761278 0 0.9275347588761278 4.6551847464920115 0 0 0 0 -14.561719781065136 44.246527476813981 0 44.246527476813981 -93.481029862115975 0 0 0 0 -44.1742059225503 54.59892799116642 0 54.59892799116642 -46.12702397430985 0 0 0 0 -2.4870112901885477 54.651728308072052 0 54.651728308072052 -38.607064322954102 0 0 0 0 -7.2262694584953806 63.899758999985352 0 63.899758999985352 -50.042934052384226 0 0 0 0 4.7364643123279349 6.8710139589544852 0 6.8710139589544852 -0.64633931072003747 0 0 0 0 9.091858152204626 12.791503153606911 0 12.791503153606911 1.5804573977952465 0 0 0 0 37.013463595366957 36.287386945432445 0 36.287386945432445 -13.553158374950726 0 0 0 0 -54.481580324946449 -141.49927086152456 0 -141.49927086152456 -132.27496549476928 0 0 0 0 -16.213810361996167 -32.7208292214018 0 -32.7208292214018 88.369603565719444 0 0 0 0 77.265306063200114 -56.435412379814807 0 -56.435412379814807 -36.510067857336253 0 0 0 0 17.515610131823376 7.7370293741862142 0 7.7370293741862142 -25.893506904582651 0 0 0 0 15.042492183031072 15.818432366964771 0 15.818432366964771 -84.387879113397503 0 0 0 0 13.715913530923563 16.041712181627211 0 16.041712181627211 -52.19860086661663 0 0 0 0 17.77705509216662 11.518974429593072 0 11.518974429593072 -49.775649436371168 0 0 0 0 14.519860396447207 28.11759998942486 0 28.11759998942486 -23.472775617741018 0 0 0 0 6.6548026458507898 30.834677786967504 0 30.834677786967504 -90.232827912503552 0 0 0 0 50.846746829529366 102.28495645431758 0 102.28495645431758 -50.870056901732823 0 0 0 0 20.33933852041946 17.14031271616841 0 17.14031271616841 -92.705153315750067 0 0 0 0 35.789949388426976 35.985460204794435 0 35.985460204794435 -115.89429948937322 0 0 0 0 20.680051826579529 3.8275459666056122 0 3.8275459666056122 -79.680501074260974 0 0 0 0 18.861941907674368 0.8431749292932551 0 0.8431749292932551 -39.941702156817129 0 0 0 0 18.31759969611835 -17.225386292015173 0 -17.225386292015173 -72.891245831800916 0 0 0 0 35.262630651540505 -26.497035378085883 0 -26.497035378085883 -25.609540212411119 0 0 0 0 57.853779274710178 -19.151671530056774 0 -19.151671530056774 -134.33836070171674 0 0 0 0 113.7295337403757 -0.4288738402465242 0 -0.4288738402465242 -191.54181106995748 0 0 0 0 2.5583980208435761 22.03852949310599 0 22.03852949310599 -95.697687100165496 0 0 0 0 10.780912991825971 -22.299188173026778 0 -22.299188173026778 -95.37929916093708 0 0 0 0 -0.58074432390559494 -35.539773070603104 0 -35.539773070603104 -10.387898639881797 0 0 0 0 13.766233481534982 -84.637575278524309 0 -84.637575278524309 -130.85363926749415 0 0 0 0 17.409944073905951 -32.276266271180049 0 -32.276266271180049 -7.7860485412195573 0 0 0 0 65.530485203503304 -53.598879691649927 0 -53.598879691649927 -202.25011859382357 0 0 0 0 -23.805701898679217 -199.10644956369242 0 -199.10644956369242 -285.80270459239546 0 0 0 0 -3.5510450568206124 29.223742245430913 0 29.223742245430913 -339.54355055865017 0 0 0 0 26.805931568078449 43.526163985829044 0 43.526163985829044 -398.31470944080502 0 0 0 0 -76.890028991531835 191.00763274269411 0 191.00763274269411 -347.37406027350517 0 0 0 0 28.259284816360378 -4.3220217465641326 0 -4.3220217465641326 -157.60802987734496 0 0 0 0 69.08790086949557 53.631117000593804 0 53.631117000593804 -225.70153305320855 0 0 0 0 41.904394080616612 -17.558154703381661 0 -17.558154703381661 -251.80886838605511 0 0 0 0 -31.91313547525715 123.81381396067445 0 123.81381396067445 -274.06362844927025 0 0 0 0 25.357352039625766 43.363598923104291 0 43.363598923104291 -175.72869941525278 0 0 0 0 -44.264450922759352 166.23054418048559 0 166.23054418048559 -183.20505904712172 0 0 0 0 -27.217557998240864 130.16150124245905 0 130.16150124245905 -273.16174152912572 0 0 0 0 -116.7392410418779 175.98597776232054 0 175.98597776232054 -224.05058818307589 0 0 0 0 -113.40062698032489 209.86912047705846 0 209.86912047705846 -250.02650005438045 0 0 0 0 -126.04937485600203 222.14309790130937 0 222.14309790130937 -297.88669654614932 0 0 0 0 -94.008056864092168 197.76731923022453 0 197.76731923022453 -284.76107761883759 0 0 0 0 225.89127895085767 64.734912496423931 0 64.734912496423931 -143.97766645038791 0 0 0 0 -5.4759580170495497 19.074386614028505 0 19.074386614028505 -76.540650913236163 0 0 0 0 91.008843947843616 -8.967076447155705 0 -8.967076447155705 -81.085147736070212 0 0 0 0 75.810028484862414 160.74549379092059 0 160.74549379092059 -45.247387988209084 0 0 0 0 43.321751370750121 35.77261669477366 0 35.77261669477366 -55.268735760706477 0 0 0 0 74.668681569521141 4.3588737126774504 0 4.3588737126774504 -284.68415284717048 0 0 0 0 -2.3409213466899743 21.951207413523122 0 21.951207413523122 -53.552355200476995 0 0 0 0 10.286982605000134 7.6023108283991974 0 7.6023108283991974 -81.57330627568254 0 0 0 0 78.628459101008957 55.761052954785555 0 55.761052954785555 -50.334418928392552 0 0 0 0 236.15241678739039 171.07309945350426 0 171.07309945350426 -158.10161476675421 0 0 0 0 25.096032022121108 84.519975047442131 0 84.519975047442131 -140.80939015562763 0 0 0 0 104.26345984216641 81.311996055592317 0 81.311996055592317 -107.34773495273839 0 0 0 0 -21.65159615399989 213.75163483274082 0 213.75163483274082 -166.05504710318928 0 0 0 0 -60.110521981070633 7.0427117787130555 0 7.0427117787130555 -382.2240748537879 0 0 0 0 -153.70697457897404 356.01148346540867 0 356.01148346540867 -18.843413340338884 0 0 0 0 -1.5676598828210242 4.6880271623993721 0 4.6880271623993721 -105.08728520173719 0 0 0 0 -52.42549080131721 160.05635261287534 0 160.05635261287534 -391.163405562788 0 0 0 0 -49.401296027090211 162.05362803680327 0 162.05362803680327 -593.32997676826199 0 0 0 0 11.190885425275816 -16.725145154916092 0 -16.725145154916092 -26.496446813790755 0 0 0 0 -125.80964835935447 -23.3909581400967 0 -23.3909581400967 -277.48816937312949 0 0 0 0 -6.7533300340829525 -4.202412561871725 0 -4.202412561871725 -3.5178869387680436 0 0 0 0 -158.43200020429776 221.18823448322655 0 221.18823448322655 -214.54895747458795 0 0 0 0 -157.18795312409748 196.01331793188729 0 196.01331793188729 -220.39654193607566 0 0 0 0 -64.581969550750273 141.24910280145559 0 141.24910280145559 -276.66439755351166 0 0 0 0 -166.89584092521 185.46177373357204 0 185.46177373357204 -195.44052409287906 0 0 0 0 -66.56921429859176 142.49368334520113 0 142.49368334520113 -204.6953209196945 0 0 0 0 33.072920276828881 253.33407387114494 0 253.33407387114494 -390.71431027726067 0 0 0 0 -27.781970156251404 -19.397307287208818 0 -19.397307287208818 -29.823817037071052 0 0 0 0 -4.7480114464188574 -21.267627003217058 0 -21.267627003217058 -139.50689033326489 0 0 0 0 -58.926608226382882 31.829745852875931 0 31.829745852875931 -147.70092544637737 0 0 0 0 -16.153859455498434 -33.018773815725581 0 -33.018773815725581 -6.5718756904680049 0 0 0 0 -23.429286843591171 -82.544965623746975 0 -82.544965623746975 -319.38666493474739 0 0 0 0 -24.633469525486476 57.548640518061802 0 57.548640518061802 -411.64842142649286 0 0 0 0 -8.4575958575244385 -55.804325199951563 0 -55.804325199951563 -312.27484872201603 0 0 0 0 34.569932417330847 -25.098817554811831 0 -25.098817554811831 -327.1613344129828 0 0 0 0 44.060613895194884 -116.22648513055401 0 -116.22648513055401 -306.30443041669787 0 0 0 0 61.399246964793178 -232.6790081095387 0 -232.6790081095387 -149.41663354227785 0 0 0 0 65.895780268103863 -228.64395707906806 0 -228.64395707906806 -707.53558421847265 0 0 0 0 -136.09927229465347 -194.31711851327509 0 -194.31711851327509 -572.01366462567239 0 0 0 0 -250.10364922464396 68.179829060993143 0 68.179829060993143 -385.49041948252125 0 0 0 0 14.885403177513567 -2.241895510713789 0 -2.241895510713789 -40.522243432691369 0 0 0 0 -125.39397224873119 52.050350811638054 0 52.050350811638054 -318.40754187155108 0 0 0 0 -152.91326711795955 -59.913100295398181 0 -59.913100295398181 -769.87812128325459 0 0 0 0 18.385161500499052 -20.139134084237654 0 -20.139134084237654 -120.54884339390563 0 0 0 0 -65.391862545384356 111.47131321117013 0 111.47131321117013 -660.49920938929426 0 0 0 0 -262.38745188341272 15.596308090038292 0 15.596308090038292 -320.91564058637596 0 0 0 0 4.6042721689627797 38.577662574294664 0 38.577662574294664 -391.32548033502462 0 0 0 0 -26.946850978634757 64.669061001295631 0 64.669061001295631 -384.13386347953929 0 0 0 0 -25.68973894962437 2.5619565757042437 0 2.5619565757042437 -386.97690454975691 0 0 0 0 25.884321205287961 2.7055466794208769 0 2.7055466794208769 -360.48670693397435 0 0 0 0 29.481516310751431 -66.173333510543671 0 -66.173333510543671 -351.59738785335503 0 0 0 0 45.874190039720816 -81.629780742889125 0 -81.629780742889125 -472.23194963658352 0 0 0 0 -33.147265574496487 -58.630479093442773 0 -58.630479093442773 -406.90693793835453 0 0 0 0 54.953347484396772 -46.080992309032808 0 -46.080992309032808 -326.04753848490509 0 0 0 0 27.86423491149435 -102.83057935353281 0 -102.83057935353281 -396.89355573653847 0 0 0 0 53.648001052357813 -133.01816195224092 0 -133.01816195224092 -390.31554855582363 0 0 0 0 52.733806261760037 51.497795031171336 0 51.497795031171336 -303.92790790060826 0 0 0 0 51.764179405618378 -114.74221517894404 0 -114.74221517894404 -413.98802402365982 0 0 0 0 38.965629471993452 -87.745719482965796 0 -87.745719482965796 -270.40869980044226 0 0 0 0 80.950433730505836 20.05669600335932 0 20.05669600335932 -582.3318664931794 0 0 0 0 -105.87741407735666 -195.46386853411241 0 -195.46386853411241 -623.36142170607491 0 0 0 0 18.543788040055915 -36.175569114457176 0 -36.175569114457176 -409.17265140518248 0 0 0 0 43.104649883704951 -255.78553847896546 0 -255.78553847896546 -792.84499914459957 0 0 0 0 2.0704806308367356 0.78830307206797556 0 0.78830307206797556 -1.9372074406654036 0 0 0 0 -46.560734800062619 7.0772867521436638 0 7.0772867521436638 4.5607096728053875 0 0 0 0 84.218742423302501 -145.90423063128401 0 -145.90423063128401 -242.18154976164988 0 0 0 0 -23.539552299498382 1.1673332138125261 0 1.1673332138125261 -300.74576605644324 0 0 0 0 48.656638921672197 -102.24741557916332 0 -102.24741557916332 -367.40989976285346 0 0 0 0 7.9769588649480792 45.100326761111745 0 45.100326761111745 -27.144991219754559 0 0 0 0 16.851012532819901 42.590824609265511 0 42.590824609265511 -24.171346290164287 0 0 0 0 -2.1343288404323175 -87.185975188708653 0 -87.185975188708653 -276.16183826606721 0 0 0 0 3.4803159271426125 23.47589997441537 0 23.47589997441537 -135.72435931955079 0 0 0 0 -48.126722644097754 -4.8635120242215635 0 -4.8635120242215635 -187.45232482886786 0 0 0 0 15.277261608609024 -75.353779181336904 0 -75.353779181336904 -147.20652908813645 0 0 0 0 25.965062552556304 -18.472915826724602 0 -18.472915826724602 -184.3015823704518 0 0 0 0 -69.250077333993204 139.64612081276573 0 139.64612081276573 -59.234677137606923 0 0 0 0 -24.955541662293399 -36.89779646336865 0 -36.89779646336865 -82.550515040522441 0 0 0 0 -17.344263380892698 -3.9907155023247469 0 -3.9907155023247469 -153.35888825194343 0 0 0 0 25.452419560401722 -46.159287259502889 0 -46.159287259502889 -181.96640426752856 0 0 0 0 24.254401253205085 34.282380489595511 0 34.282380489595511 -34.954000455483474 0 0 0 0 7.0699177692113153 -46.433512205992884 0 -46.433512205992884 -80.902037584770369 0 0 0 0 -116.43343359141272 -513.8544096458827 0 -513.8544096458827 -1310.5012386054623 0 0 0 0 -4.5313092175125362 -4.6912547361083341 0 -4.6912547361083341 -3.11249221941911 0 0 0 0 -23.482900191803083 -26.626583455812579 0 -26.626583455812579 -23.671592928847531 0 0 0 0 -5.2013148998380156 -14.946719930204551 0 -14.946719930204551 -53.655901481087426 0 0 0 0 -89.48874343406078 -130.96184252424428 0 -130.96184252424428 -236.3505631340231 0 0 0 0 -793.09307424706458 67.391271056898404 0 67.391271056898404 188.3741838584283 0 0 0 0 -161.00387975956775 358.74031300081219 0 358.74031300081219 -426.6799402833276 0 0 0 0 -43.082737778737282 1.7094565291790786 0 1.7094565291790786 -21.375167671445524 0 0 0 0 0.21616288697946562 -1.5749955664940245 0 -1.5749955664940245 0.53137493161917604 0 0 0 0 -13.719464036895715 -60.895474321212532 0 -60.895474321212532 -89.904214656558906 0 0 0 0 -218.42623979048722 -301.64734800374208 0 -301.64734800374208 -842.02838381694528 0 0 0 0 64.480911364760857 -380.84571665937256 0 -380.84571665937256 -1099.7625501338698 0 0 0 0 207.85151438735795 -141.10691853658227 0 -141.10691853658227 -929.76324494270375 0 0 0 0 90.651405562845184 -83.417144006774834 0 -83.417144006774834 -303.24840663473879 0 0 0 0 169.20056309871683 249.64283792518108 0 249.64283792518108 93.005838334160217 0 0 0 0 74.992846267834693 309.16759159038338 0 309.16759159038338 55.555570543619979 0 0 0 0 90.398313802281933 141.19041297013814 0 141.19041297013814 -488.83936817150243 0 0 0 0 50.0446973443959 398.49628303664031 0 398.49628303664031 101.49427643882154 0 0 0 0 109.57808542404518 109.34918093022316 0 109.34918093022316 -72.376213418761836 0 0 0 0 131.50821108634227 206.19918403141855 0 206.19918403141855 -524.26925166420915 0 0 0 0 -40.41646123786677 -107.44782682308505 0 -107.44782682308505 -984.6248573201301 0 0 0 0 -493.5967091489274 -1159.5007289354107 0 -1159.5007289354107 -1673.2898646037866 0 0 0 0 20.4042205967462 244.9547453785417 0 244.9547453785417 -1737.4074955425167 0 0 0 0 -4.167717294071231 -1.4742127225047454 0 -1.4742127225047454 -4.0804220525184292 0 0 0 0 -1269.049007309658 -419.0547116185262 0 -419.0547116185262 -1340.2924971532484 0 0 0 0 -736.58317695132018 420.54679405790557 0 420.54679405790557 -1217.1703829726903 0 0 0 0 41.127554935951594 412.27125253437407 0 412.27125253437407 -1257.7437598147299 0 0 0 0 -9.1506157344075891 0.35209857321898141 0 0.35209857321898141 -7.8850464820493045 0 0 0 0 -89.661090215497097 292.68374336069246 0 292.68374336069246 -2918.9984230110058 0 0 0 0 -4.2073462051885144 406.49617097546798 0 406.49617097546798 -3562.6543002848193 0 0 0 0 -409.40382557306475 -256.97267879243736 0 -256.97267879243736 -3538.3512833252703 0 0 0 0 -1092.0067410056254 424.10932615766797 0 424.10932615766797 -784.14692975244907 0 0 0 0 -242.37367140569586 371.32138674696034 0 371.32138674696034 -1770.2630801994528 0 0 0 0 -205.94820756585204 368.48320513038198 0 368.48320513038198 -2872.5840073867475 0 0 0 0 -1067.5781048218598 -170.49713833600254 0 -170.49713833600254 -448.12345619972621 0 0 0 0 -557.58313796005655 -710.22358282475307 0 -710.22358282475307 1243.3264780775717 0 0 0 0 133.92460549590396 458.07980163856337 0 458.07980163856337 -180.05341395857249 0 0 0 0 -685.25567889347349 -156.58062535005593 0 -156.58062535005593 -474.88994225152055 0 0 0 0 -189.42129326973463 596.35532730494378 0 596.35532730494378 -408.05506268469981 0 0 0 0 -619.48263559172005 192.75015336593788 0 192.75015336593788 1401.0086703011257 0 0 0 0 -16.015139331743811 4.8279818768895808 0 4.8279818768895808 2.758396941957141 0 0 0 0 -28.619294124416683 30.892707601768052 0 30.892707601768052 6.9342602376054856 0 0 0 0 -12.434161546064503 -0.19561329495626012 0 -0.19561329495626012 2.9333099161481506 0 0 0 0 -15.695972540792468 39.242614151818088 0 39.242614151818088 -72.552913932682713 0 0 0 0 3.2846516831170902 78.990572733564477 0 78.990572733564477 -121.10059100206661 0 0 0 0 -136.05210546943607 140.10981016069309 0 140.10981016069309 -58.898534929991001 0 0 0 0 -57.69076174986742 -3.2633602314635937 0 -3.2633602314635937 113.36869210526856 0 0 0 0 -5.8172218827426789 8.3954868784360457 0 8.3954868784360457 3.231147361837337 0 0 0 0 -39.535496519006301 248.28548353498627 0 248.28548353498627 433.41530836400489 0 0 0 0 149.1715414659966 -3.6717371167669626 0 -3.6717371167669626 -99.429634017044009 0 0 0 0 153.13001786893983 -21.075224074236758 0 -21.075224074236758 -133.11605092510581 0 0 0 0 3.5566503845039854 -10.021825790282733 0 -10.021825790282733 -74.510392372963139 0 0 0 0 201.07929151979715 10.891852440479852 0 10.891852440479852 -223.81034318436286 0 0 0 0 64.418067080285255 92.11767705319653 0 92.11767705319653 -173.70791593104877 0 0 0 0 60.99729114466345 74.447409920367136 0 74.447409920367136 -158.45337626218679 0 0 0 0 3.9004026963170872 171.80317751795519 0 171.80317751795519 -277.6507384985598 0 0 0 0 -136.23114616696444 137.18293106926103 0 137.18293106926103 -89.715803271625191 0 0 0 0 -63.646330213133069 120.0481927592964 0 120.0481927592964 -97.989146905121743 0 0 0 0 -39.414791630362743 59.133831522927721 0 59.133831522927721 -33.253394378683879 0 0 0 0 26.450293322070138 59.026400213189845 0 59.026400213189845 -61.640985737587471 0 0 0 0 -21.76296521033089 22.055954790354008 0 22.055954790354008 -8.0756899893458467 0 0 0 0 55.43655661764933 27.883515343932231 0 27.883515343932231 -85.607333888063295 0 0 0 0 31.521604908889913 43.709614376224636 0 43.709614376224636 -95.310933525292057 0 0 0 0 15.467174163239299 11.212436140918392 0 11.212436140918392 -15.529709435737324 0 0 0 0 6.8032518232943104 -11.073453246778314 0 -11.073453246778314 -82.06143322263388 0 0 0 0 32.411577093213509 18.682834910523525 0 18.682834910523525 -61.149197117996664 0 0 0 0 86.156254828894362 12.924300795512863 0 12.924300795512863 -88.794854329753434 0 0 0 0 38.212103731340449 30.771043984823336 0 30.771043984823336 -85.363846034095332 0 0 0 0 -10.756394220684797 41.319544366910122 0 41.319544366910122 -68.313096321075136 0 0 0 0 -17.163592888040284 34.42717808010093 0 34.42717808010093 -59.108942974475212 0 0 0 0 18.266062912848156 6.0187753296668234 0 6.0187753296668234 -85.434505772895136 0 0 0 0 23.806043786084047 16.806185066077887 0 16.806185066077887 -98.576855760733451 0 0 0 0 220.31671295826891 -535.93300175056356 0 -535.93300175056356 249.68960639450233 0 0 0 0 95.972677374660634 -389.14649938735238 0 -389.14649938735238 538.07459770473361 0 0 0 0 5.2207925575023175 0.74591857259254368 0 0.74591857259254368 -12.969807839444485 0 0 0 0 2.7369974709099552 152.5819721218395 0 152.5819721218395 -354.27843315620703 0 0 0 0 404.90059056616496 -519.79825255641026 0 -519.79825255641026 -587.63769016544393 0 0 0 0 109.91551687401807 80.781650879691369 0 80.781650879691369 -550.40281498663535 0 0 0 0 35.38821454826666 -292.56241945321017 0 -292.56241945321017 -1693.9241890138874 0 0 0 0 249.94160166612983 29.887354168808088 0 29.887354168808088 -372.46855353043065 0 0 0 0 380.84175519268683 -355.26967309150132 0 -355.26967309150132 -440.86669205334329 0 0 0 0 374.02127726605886 -17.859160986114148 0 -17.859160986114148 -869.10896046622656 0 0 0 0 425.1315774054965 -233.42811925366914 0 -233.42811925366914 -323.43645804026346 0 0 0 0 8.6999219010373743 -22.613047286283393 0 -22.613047286283393 -95.335815509549633 0 0 0 0 249.64497896371904 -8.5838186905548355 0 -8.5838186905548355 -142.96819221390615 0 0 0 0 628.4751796378514 -115.20305797867331 0 -115.20305797867331 -283.99891745051718 0 0 0 0 353.56439720765411 -236.69962565815513 0 -236.69962565815513 -7.7428283720873878 0 0 0 0 334.5036891119471 -224.1956501220775 0 -224.1956501220775 140.7013396374241 0 0 0 0 11.660555247208599 20.78389461515221 0 20.78389461515221 -68.921726460235732 0 0 0 0 82.076172708716058 43.109621864630753 0 43.109621864630753 -66.807724532831344 0 0 0 0 158.62334854908204 -110.55879698512945 0 -110.55879698512945 -129.92689358006464 0 0 0 0 149.23481408568114 -125.75547828856361 0 -125.75547828856361 -24.912462790467544 0 0 0 0 205.15314807713185 26.914899551189592 0 26.914899551189592 -166.97134138418187 0 0 0 0 -0.20069800134340454 3.1301172259322172 0 3.1301172259322172 -17.664727912007493 0 0 0 0 287.29643019833657 -133.61472129131471 0 -133.61472129131471 -38.871334385228693 0 0 0 0 32.688805211949187 18.86588009550232 0 18.86588009550232 -48.837192641891171 0 0 0 0 -837.54328273186184 392.2107374240295 0 392.2107374240295 -390.57134042147663 0 0 0 0 63.408436169658671 93.69654707538939 0 93.69654707538939 -50.665014629294092 0 0 0 0 131.66539542505143 -45.859712903398758 0 -45.859712903398758 -248.68463623231946 0 0 0 0 91.511539144776179 118.22314583613024 0 118.22314583613024 -69.448940500179049 0 0 0 0 160.14438473306654 88.889742250318363 0 88.889742250318363 -107.12936550382233 0 0 0 0 35.910485459044139 99.72495483001876 0 99.72495483001876 -133.48342886785758 0 0 0 0 85.425173648070995 77.626830758669257 0 77.626830758669257 -125.6575610383461 0 0 0 0 92.776919068888674 114.31258889185847 0 114.31258889185847 -114.17512501586862 0 0 0 0 141.24763365817489 7.3428872732602031 0 7.3428872732602031 -60.087507528404103 0 0 0 0 18.735979454414064 6.4942307160168866 0 6.4942307160168866 -175.2714150783122 0 0 0 0 32.313580628953787 75.993475197852604 0 75.993475197852604 -96.899062251302894 0 0 0 0 187.56479755600958 47.439327899191994 0 47.439327899191994 -168.35667330480283 0 0 0 0 -139.86829173049773 -211.38337828175963 0 -211.38337828175963 -255.10320617350408 0 0 0 0 -32.704582974491132 -30.718914007693456 0 -30.718914007693456 -88.548389230687462 0 0 0 0 -915.1118351593168 -1030.6448056950535 0 -1030.6448056950535 -784.41651729554724 0 0 0 0 -79.956127614706929 -332.12545331602996 0 -332.12545331602996 -383.78778635099297 0 0 0 0 -626.90876611014028 1052.7530222698852 0 1052.7530222698852 -666.45756932434597 0 0 0 0 -2.4894605698124579 -8.3505426043202036 0 -8.3505426043202036 -38.197570857048376 0 0 0 0 -85.362123070219241 227.86831695960791 0 227.86831695960791 -393.42008710714072 0 0 0 0 859.45538033052071 1580.7722498239236 0 1580.7722498239236 -1549.3896828928773 0 0 0 0 -326.09714821220768 -184.15077717875283 0 -184.15077717875283 -315.20697245304927 0 0 0 0 283.90802079964396 158.36957840368996 0 158.36957840368996 -836.57129953443655 0 0 0 0 676.70096573240153 -96.404271879531734 0 -96.404271879531734 -753.31916578856908 0 0 0 0 155.17580185616134 -90.290845904633898 0 -90.290845904633898 -717.57589679204557 0 0 0 0 4119.0094469151627 1648.7417605202245 0 1648.7417605202245 -2189.4596114929009 0 0 0 0 2.8154387580320162 16.524087709390486 0 16.524087709390486 -13.036171903159129 0 0 0 0 -8026.2100716943823 -1928.4527448971858 0 -1928.4527448971858 -1525.3053535558538 0 0 0 0 1298.722209415113 -1297.6747083349692 0 -1297.6747083349692 -2650.1636172539165 0 0 0 0 -125.09358394489482 813.23768139263848 0 813.23768139263848 -1488.0921248825148 0 0 0 0 -927.27151626321938 671.39962249928931 0 671.39962249928931 -226.53476956709346 0 0 0 0 77.668471351149037 393.10740743539282 0 393.10740743539282 -617.58009510939883 0 0 0 0 279.27499583496683 301.07118329019613 0 301.07118329019613 -789.82884679332346 0 0 0 0 181.91707837048216 406.4918576066375 0 406.4918576066375 -810.4176527703662 0 0 0 0 147.61330584814277 -23.837544939020518 0 -23.837544939020518 -449.1041951554962 0 0 0 0 92.935667485835438 225.87133345037182 0 225.87133345037182 -540.26208474328087 0 0 0 0 218.72635640506496 192.42366639353895 0 192.42366639353895 -790.97586333639629 0 0 0 0 -7.5300911768595711 -14.644869316147378 0 -14.644869316147378 -209.2423760589304 0 0 0 0 -240.39267942109882 239.05768146839364 0 239.05768146839364 -111.33817062915477 0 0 0 0 -6.6017343774765322 341.48637437630532 0 341.48637437630532 -626.45140287024515 0 0 0 0 -3.8738782985963467 -29.75345871146672 0 -29.75345871146672 -91.037567780355147 0 0 0 0 -20.411414910134368 -11.412396619727076 0 -11.412396619727076 -6.2471837200047347 0 0 0 0 -64.029472324402377 54.344113857011507 0 54.344113857011507 -276.88768464134409 0 0 0 0 -122.22346744334982 4.720782709588093 0 4.720782709588093 10.752635328683027 0 0 0 0 -71.320959912572107 -151.41661066335109 0 -151.41661066335109 -382.87752386150351 0 0 0 0 -32.285915586893495 -23.337812388322959 0 -23.337812388322959 -123.44505415543244 0 0 0 0 0.2132079541202887 1.4037678911278846 0 1.4037678911278846 -6.6709381286850515 0 0 0 0 -59.403056472209414 3.221432807171368 0 3.221432807171368 -566.8371451703174 0 0 0 0 -20.209429576392267 144.55344049967425 0 144.55344049967425 -285.31232991296929 0 0 0 0 -112.24384116155375 -85.497164734666512 0 -85.497164734666512 -80.568210410383472 0 0 0 0 -42.794609463965799 -52.593081641133722 0 -52.593081641133722 -147.28377229078978 0 0 0 0 -49.651200274234725 -46.204731809216355 0 -46.204731809216355 -83.209032668529289 0 0 0 0 -54.469102517982734 1.4395689015918123 0 1.4395689015918123 -5.6517395754201409 0 0 0 0 -34.587942083456582 -77.704489500635304 0 -77.704489500635304 -205.50137863798591 0 0 0 0 -15.195010465794439 -8.2390357281910838 0 -8.2390357281910838 -177.7545925987979 0 0 0 0 -22.80511563068012 -23.562226887812358 0 -23.562226887812358 -105.52517321254709 0 0 0 0 19.656601219198819 -8.5092836694757352 0 -8.5092836694757352 -142.24005229667819 0 0 0 0 1.6149206337822761 -33.660173560978365 0 -33.660173560978365 -145.2868350777826 0 0 0 0 5.0668565190317167 -18.61256151982343 0 -18.61256151982343 -122.25996091169782 0 0 0 0 6.0245294822326372 -22.258370998606122 0 -22.258370998606122 -79.146008901519608 0 0 0 0 -32.286726062533944 -29.860466822721861 0 -29.860466822721861 -103.03613416776398 0 0 0 0 -144.17743389325278 274.03472460596532 0 274.03472460596532 -571.47257199100295 0 0 0 0 -1.6826319788186836 1.6108080059963268 0 1.6108080059963268 -15.568933351410909 0 0 0 0 -82.004697550855781 240.98942812976361 0 240.98942812976361 -558.07726536042583 0 0 0 0 4.578675072586293 -40.290924993352178 0 -40.290924993352178 -24.748384263955252 0 0 0 0 -15.066867203837319 -81.965089427480166 0 -81.965089427480166 -454.22869566231816 0 0 0 0 10.070696998858239 -20.380453633998513 0 -20.380453633998513 -124.56226113063894 0 0 0 0 -7.4545075811957631 -11.087311787443875 0 -11.087311787443875 11.228324625397397 0 0 0 0 60.477262755044649 289.03132754586727 0 289.03132754586727 -269.4508165701609 0 0 0 0 -145.75583852013369 -162.57590230088874 0 -162.57590230088874 -2.1439247248254105 0 0 0 0 122.53037807455257 91.164879866513729 0 91.164879866513729 -481.32280219151971 0 0 0 0 -20.144974765413281 -78.647524308465449 0 -78.647524308465449 -450.23385649617353 0 0 0 0 -71.277593000673733 114.93878355236529 0 114.93878355236529 -5.8262535981350538 0 0 0 0 -36.960853625274467 -323.90768505097549 0 -323.90768505097549 -964.63073932618499 0 0 0 0 -234.0822703237809 74.734544564436192 0 74.734544564436192 265.98033501431928 0 0 0 0 -5.5093680068824611 32.80855192018489 0 32.80855192018489 -17.568891016698828 0 0 0 0 -138.71153428590605 -129.53915299879463 0 -129.53915299879463 -710.23671907488097 0 0 0 0 7.3597334481098642 -270.60684164420309 0 -270.60684164420309 -1075.0050665551898 0 0 0 0 -113.69509497136096 -255.91585239612323 0 -255.91585239612323 -702.44681170356512 0 0 0 0 -53.88320468580514 -138.07692476358716 0 -138.07692476358716 -754.9791727251104 0 0 0 0 -7.5719272472815646 -213.31322971939062 0 -213.31322971939062 -719.8757988001953 0 0 0 0 92.905780040788045 -363.20116359502208 0 -363.20116359502208 -1184.1455122840471 0 0 0 0 926.02720652952064 193.01966018646067 0 193.01966018646067 -988.3866663900626 0 0 0 0 45.433722201876662 125.88235691069008 0 125.88235691069008 -291.17934346285699 0 0 0 0 -6.1213043805018934 -35.908408110259685 0 -35.908408110259685 -22.12831685858826 0 0 0 0 -36.470141285321901 47.165033399147887 0 47.165033399147887 -34.133162155765788 0 0 0 0 -20.859890519837208 41.683495605614425 0 41.683495605614425 -22.211182292509022 0 0 0 0 -100.36340404369821 239.33851253385501 0 239.33851253385501 90.944774830220467 0 0 0 0 -109.28847154600044 -104.0580360661213 0 -104.0580360661213 -92.389026762451977 0 0 0 0 -21.24805546936841 14.034352552564087 0 14.034352552564087 -86.064660763106531 0 0 0 0 29.147058312721128 63.865300069866862 0 63.865300069866862 -81.369347665415262 0 0 0 0 164.69873061533008 29.580715940817868 0 29.580715940817868 -172.97535513015464 0 0 0 0 -52.651093044116351 -65.5331375101905 0 -65.5331375101905 -145.48007390434213 0 0 0 0 -315.30664348072969 -87.019090163204964 0 -87.019090163204964 30.803126992108446 0 0 0 0 106.13850327346347 142.28478307397063 0 142.28478307397063 -257.42884444087804 0 0 0 0 -48.548390215213658 -93.302876872712659 0 -93.302876872712659 -70.846082752445 0 0 0 0 0.80050544642880461 8.7641259553341762 0 8.7641259553341762 -100.73871156066151 0 0 0 0 237.56872280571042 -955.73068154531973 0 -955.73068154531973 -808.88356799405938 0 0 0 0 -133.69262414746026 150.65994685827525 0 150.65994685827525 -185.10563970132841 0 0 0 0 37.988295924113118 93.089236388936456 0 93.089236388936456 -238.96594148462219 0 0 0 0 4.3839565406669863 196.553422076213 0 196.553422076213 -328.74084986344292 0 0 0 0 -193.79402110564706 -16.526549141815963 0 -16.526549141815963 -241.1075425131005 0 0 0 0 -1.8227714512668172 61.741277777353389 0 61.741277777353389 -229.59912227446546 0 0 0 0 10.40576072208205 -87.656335592379719 0 -87.656335592379719 -69.818406489953986 0 0 0 0 13.601999623988206 23.718235672251872 0 23.718235672251872 -31.145799773593431 0 0 0 0 29.311449301763787 -22.993682669807185 0 -22.993682669807185 41.639312741761159 0 0 0 0 -230.25268709697775 -320.85634564315933 0 -320.85634564315933 -584.39579681382429 0 0 0 0 -76.821758684529414 49.623854545036011 0 49.623854545036011 9.9194263453573512 0 0 0 0 2.8081377008501107 41.440207091823801 0 41.440207091823801 -94.092815104597477 0 0 0 0 114.64602961732089 -52.172796651332646 0 -52.172796651332646 -81.526911604466477 0 0 0 0 110.81950222305181 143.0321492587866 0 143.0321492587866 -404.23899650097883 0 0 0 0 2.3170620821493815 14.784760830987274 0 14.784760830987274 -81.915128981602265 0 0 0 0 15.795771654364216 -51.78688201010516 0 -51.78688201010516 -7.8411738822001098 0 0 0 0 -18.537652736302334 -100.68529192226924 0 -100.68529192226924 -359.46966903170687 0 0 0 0 -132.00285857046583 171.06755884742051 0 171.06755884742051 -282.15072404207604 0 0 0 0 -49.503580076114304 -14.549263179682384 0 -14.549263179682384 -43.132301353707589 0 0 0 0 2.2781980615745532 8.208340222707335 0 8.208340222707335 -9.2779308294432639 0 0 0 0 -107.26665007612792 -67.245803787383011 0 -67.245803787383011 -88.093780550851079 0 0 0 0 54.950356514858868 -29.321050861061849 0 -29.321050861061849 -78.853476642043461 0 0 0 0 25.170222764696518 -76.906843835849941 0 -76.906843835849941 -137.78830002392351 0 0 0 0 -4.8866284279210959 -40.17662046033729 0 -40.17662046033729 -98.205281598224246 0 0 0 0 119.50651947070389 29.178215036752704 0 29.178215036752704 -280.54102334161871 0 0 0 0 54.05045591774433 -223.99190374194768 0 -223.99190374194768 -791.25924414856127 0 0 0 0 -49.187996778186061 -211.07723715112115 0 -211.07723715112115 -701.85112900872264 0 0 0 0 -33.218126660478447 -322.15579187226467 0 -322.15579187226467 -855.56401670849846 0 0 0 0 30.143358474145529 -13.340661876664569 0 -13.340661876664569 5.4796621933644829 0 0 0 0 -115.17879882074885 -199.54198555930361 0 -199.54198555930361 -681.7207016876564 0 0 0 0 24.13870941880198 -8.311845152998508 0 -8.311845152998508 -15.416919612081852 0 0 0 0 58.074997423376772 -318.28790663513064 0 -318.28790663513064 -939.53461572626475 0 0 0 0 -49.070142375319847 -154.77167417678993 0 -154.77167417678993 -481.39879118851604 0 0 0 0 24.230855905330827 -153.17751856697214 0 -153.17751856697214 -707.80171898417302 0 0 0 0 196.3591695357245 -184.25724209170812 0 -184.25724209170812 -30.846413714394657 0 0 0 0 -9.950287966606993 -77.686553379919133 0 -77.686553379919133 -399.87128506957197 0 0 0 0 420.0645985474921 1633.9099296462946 0 1633.9099296462946 -1301.306579649 0 0 0 0 8.1881148891534146 -3.7341307676656399 0 -3.7341307676656399 -106.24720752447502 0 0 0 0 1.5826268931814411 -337.23020038633604 0 -337.23020038633604 -655.91929394573526 0 0 0 0 -175.03334862987685 -731.21272027008854 0 -731.21272027008854 -2873.6675512367801 0 0 0 0 3.7483408428010931 16.028409537595223 0 16.028409537595223 -11.235927600079918 0 0 0 0 -9.1293021979072364 25.824002036918955 0 25.824002036918955 54.50887262121455 0 0 0 0 -780.830483203516 -982.2495167635243 0 -982.2495167635243 -1247.8842005309798 0 0 0 0 307.26150408507237 -290.51899238765236 0 -290.51899238765236 -2435.9070702392487 0 0 0 0 5.2491645769041497 -299.82493314058024 0 -299.82493314058024 -1046.1134872211433 0 0 0 0 221.41603967494666 48.623562384573802 0 48.623562384573802 -705.15198876583872 0 0 0 0 -12.413306160350658 146.85884153228153 0 146.85884153228153 -729.87045374827085 0 0 0 0 -225.22399972877247 113.00789991316481 0 113.00789991316481 409.42435488039087 0 0 0 0 -29.917002768190287 2.3460812223484027 0 2.3460812223484027 -19.961547732258168 0 0 0 0 50.882475811065888 -40.954659589732728 0 -40.954659589732728 -49.130841783377946 0 0 0 0 6.9141910507206106 1.9539608595247131 0 1.9539608595247131 -71.877077617292457 0 0 0 0 -6.2921327119665875 -3.6220955275011875 0 -3.6220955275011875 -22.462753541274651 0 0 0 0 -1.2899537497396523 226.67145662638177 0 226.67145662638177 352.69033411970304 0 0 0 0 407.2565310704158 299.91849495712631 0 299.91849495712631 -712.86608215850356 0 0 0 0 531.74570729062179 52.879218883488647 0 52.879218883488647 -292.65615628341766 0 0 0 0 -237.70251656468099 563.89460135300033 0 563.89460135300033 -123.34466176831484 0 0 0 0 -337.71605411286873 -268.42549208174023 0 -268.42549208174023 63.390962296070938 0 0 0 0 3.6896013573771818 -7.4080888300202972 0 -7.4080888300202972 -94.040961535334588 0 0 0 0 320.48122258675357 -385.22315406161033 0 -385.22315406161033 -323.09544152057788 0 0 0 0 -21.053926175107335 101.20210435250556 0 101.20210435250556 -328.63472242707758 0 0 0 0 -347.9900134875565 278.05697229641316 0 278.05697229641316 -412.87105448234797 0 0 0 0 -521.52695518109249 -191.25082415586621 0 -191.25082415586621 -16.866641550906934 0 0 0 0 -3.0895232582776089 2.8378945944761398 0 2.8378945944761398 -3.0499755579785983 0 0 0 0 127.8611985033931 167.09555073371303 0 167.09555073371303 -524.88378679142988 0 0 0 0 62.135880872607231 67.116719508151618 0 67.116719508151618 -4.6136051692010369 0 0 0 0 201.71663784174598 128.30550676484745 0 128.30550676484745 -482.06818477425986 0 0 0 0 61.902989953116048 248.31393891911648 0 248.31393891911648 64.569253019582902 0 0 0 0 2.7171556331140891 65.177146970566355 0 65.177146970566355 266.59115669832681 0 0 0 0 342.40277744875493 163.93559895952058 0 163.93559895952058 -147.69284929951027 0 0 0 0 59.305932722156285 93.556165002555645 0 93.556165002555645 -150.3821489956772 0 0 0 0 139.09678861134307 57.412840164073714 0 57.412840164073714 -700.53890960411809 0 0 0 0 80.663397731455916 23.521792831059429 0 23.521792831059429 -670.99175352348448 0 0 0 0 64.97320984271937 135.74012970493641 0 135.74012970493641 -479.97006556350425 0 0 0 0 -20.76378837321279 20.284589980992202 0 20.284589980992202 -595.74742107427301 0 0 0 0 32.085940826962542 -8.9106174144671968 0 -8.9106174144671968 -669.89476152930729 0 0 0 0 -57.395402225314228 -32.276524949128543 0 -32.276524949128543 -185.11337034995358 0 0 0 0 -43.128958117690217 10.738104315474629 0 10.738104315474629 -212.39454266193388 0 0 0 0 -23.251300178228348 -14.100685124061499 0 -14.100685124061499 -191.0790214945564 0 0 0 0 -15.416769050467337 22.073450082044246 0 22.073450082044246 -7.5923102647367386 0 0 0 0 -31.996287733654071 68.030270198723201 0 68.030270198723201 -68.755481582216078 0 0 0 0 -31.19842337767659 77.589582272839607 0 77.589582272839607 -15.19542820187009 0 0 0 0 36.47121143448112 -46.622527239446612 0 -46.622527239446612 140.44280319730393 0 0 0 0 -21.463417061015207 -7.6460879726755593 0 -7.6460879726755593 -16.922142186966653 0 0 0 0 191.65571690771321 8.9494546822966186 0 8.9494546822966186 -97.281777159138642 0 0 0 0 98.110057095025695 20.431834240709577 0 20.431834240709577 -98.631615659096951 0 0 0 0 51.419733458707924 -20.394601814619818 0 -20.394601814619818 -179.80829105827661 0 0 0 0 111.52584605949505 41.90641528600645 0 41.90641528600645 -159.71698944025502 0 0 0 0 6.423133313537619 -7.5551080661216474 0 -7.5551080661216474 -194.08230628246565 0 0 0 0 14.720045141640412 -67.897464279982159 0 -67.897464279982159 -395.5454432388924 0 0 0 0 -64.28179782056759 2.546029279132199 0 2.546029279132199 -165.91148828925725 0 0 0 0 38.110753839044264 40.495131066432805 0 40.495131066432805 -272.33099859246795 0 0 0 0 -71.867280255949936 -154.56032029786002 0 -154.56032029786002 -348.42808591026551 0 0 0 0 -92.239520631637106 -110.0388305137385 0 -110.0388305137385 -412.69713612383748 0 0 0 0 -7.6026543043317361 -137.6384059513457 0 -137.6384059513457 -724.08197145562963 0 0 0 0 -26.215871715712524 -102.73271530213481 0 -102.73271530213481 -422.19660250790184 0 0 0 0 -27.830798818097946 -203.24065876386339 0 -203.24065876386339 -670.52731955973468 0 0 0 0 -39.611765939830548 -42.412175752270286 0 -42.412175752270286 -448.59371555974121 0 0 0 0 24.06314180411573 -112.97655554127505 0 -112.97655554127505 -724.57805061743329 0 0 0 0 -64.991893371709011 -200.88830451729928 0 -200.88830451729928 -586.86260688280117 0 0 0 0 -81.637869155638327 27.317382483509022 0 27.317382483509022 -132.98410718820242 0 0 0 0 -13.870369704251061 28.262422029792731 0 28.262422029792731 -439.24024969469372 0 0 0 0 -44.254582116425112 -101.48308367890697 0 -101.48308367890697 -368.94684816301287 0 0 0 0 -90.243419191687281 -17.745156766203962 0 -17.745156766203962 -108.92661318682394 0 0 0 0 -37.673058774551464 52.089152470172252 0 52.089152470172252 -227.05784979153069 0 0 0 0 -50.320685709235477 7.0369886284238419 0 7.0369886284238419 78.475048211794274 0 0 0 0 -1.9000129338260194 -27.191876341068141 0 -27.191876341068141 -128.70104905030405 0 0 0 0 -18.62292844078911 45.610210150577586 0 45.610210150577586 -62.1191463086775 0 0 0 0 -32.145397227401872 -32.571113020670253 0 -32.571113020670253 -105.3496430422756 0 0 0 0 -29.573749812912865 48.615568731383973 0 48.615568731383973 -34.103024994635234 0 0 0 0 60.85878460024901 -25.076058727178861 0 -25.076058727178861 -0.097127373136572714 0 0 0 0 -90.851569262151315 -5.2278893480499846 0 -5.2278893480499846 -14.614880508230272 0 0 0 0 0.83453330836073292 4.1369679401074393 0 4.1369679401074393 -160.3726427571529 0 0 0 0 33.064604493956722 36.883482672807986 0 36.883482672807986 -7.6300871083144557 0 0 0 0 -42.916586587298298 78.129992933590074 0 78.129992933590074 67.808427303818576 0 0 0 0 -71.611549272747652 -29.356291873031296 0 -29.356291873031296 -161.75222572846542 0 0 0 0 8.1751047522853568 35.980008871177176 0 35.980008871177176 -48.318714959470071 0 0 0 0 -38.704614304605457 -63.437877969340661 0 -63.437877969340661 -139.82930128280714 0 0 0 0 -60.087122530178021 62.085903547647831 0 62.085903547647831 -83.053807239331945 0 0 0 0 -4.3622863033935637 -0.54786693463040592 0 -0.54786693463040592 1.3316899666128208 0 0 0 0 -100.67493392848519 -15.517445845707698 0 -15.517445845707698 -165.33020320957803 0 0 0 0 -6.2065715773494219 10.676285140977029 0 10.676285140977029 -25.019600168944642 0 0 0 0 -6.8062282116319466 8.2733869933377449 0 8.2733869933377449 -10.333546448700702 0 0 0 0 23.109205090449564 10.569022228944959 0 10.569022228944959 -18.059055096542579 0 0 0 0 73.509444371022255 -142.32468685547428 0 -142.32468685547428 -294.27345208975748 0 0 0 0 -2.7736005221947955 14.411881045746838 0 14.411881045746838 -10.634031389249127 0 0 0 0 -347.71846474841664 -178.57983038012389 0 -178.57983038012389 -288.58434576236232 0 0 0 0 18.340537976898055 32.242456863952555 0 32.242456863952555 -44.399979692532803 0 0 0 0 31.00959515797058 176.10045131303178 0 176.10045131303178 14.751671977602427 0 0 0 0 131.09553544500466 86.310703484009409 0 86.310703484009409 -79.001398386063443 0 0 0 0 -26.781772539139354 85.999711498680938 0 85.999711498680938 -57.155073347791017 0 0 0 0 904.51807620501495 -804.79361196805257 0 -804.79361196805257 -287.01743945655471 0 0 0 0 -0.056771295103214658 3.0742836728363976 0 3.0742836728363976 -5.6407851387305215 0 0 0 0 -22.708862795441746 160.41960866296245 0 160.41960866296245 108.34622784928456 0 0 0 0 -79.16738232231819 48.332282147708611 0 48.332282147708611 -10.081934340858425 0 0 0 0 5.7442000283951042 11.934614159104427 0 11.934614159104427 0.39459811700241687 0 0 0 0 -31.949965182860808 17.351278967662438 0 17.351278967662438 -10.113138068423723 0 0 0 0 -58.083253417260039 53.832441852238844 0 53.832441852238844 -34.274951388702902 0 0 0 0 9.2883462899216624 -8.0245418761060137 0 -8.0245418761060137 -2.9334186648102332 0 0 0 0 -51.009678022195203 5.4412839310571144 0 5.4412839310571144 11.793610610311589 0 0 0 0 -74.963570170102741 6.5667527428813628 0 6.5667527428813628 1.0022905660332526 0 0 0 0 5.6916237245881547 72.854170477508887 0 72.854170477508887 -95.633317737952893 0 0 0 0 2.8130062010782328 -2.0761531263384754 0 -2.0761531263384754 -9.6924410782470929 0 0 0 0 6.4343665007978901 -5.258879492721416 0 -5.258879492721416 -57.464361455974718 0 0 0 0 13.482939534347679 -58.636521152715432 0 -58.636521152715432 -122.48669944263338 0 0 0 0 -1.6966009335085346 44.588182688286906 0 44.588182688286906 -45.788056038283685 0 0 0 0 27.486807255704264 37.87267926738059 0 37.87267926738059 -136.21051868762879 0 0 0 0 9.0719236022700898 -7.0285098936165014 0 -7.0285098936165014 -48.649798361378089 0 0 0 0 25.727738875313662 24.007949215563713 0 24.007949215563713 -76.943146748044455 0 0 0 0 -7.6361652712944306 22.660476276629197 0 22.660476276629197 -73.273117078249925 0 0 0 0 3.653548559508879 0.93036556576800322 0 0.93036556576800322 -50.810008656485877 0 0 0 0 7.7236634820364998 6.8295610438144649 0 6.8295610438144649 -16.96074900727217 0 0 0 0 -1.521884918821133 20.018616755263 0 20.018616755263 -37.255394539895264 0 0 0 0 1.5223210950525754 -7.5931685291357098 0 -7.5931685291357098 -85.496730043543721 0 0 0 0 -0.7268914878344841 -1.5789347271068159 0 -1.5789347271068159 -36.516717333613073 0 0 0 0 4.0893779769253733 9.1838661460570084 0 9.1838661460570084 -33.732025534365867 0 0 0 0 -1.3400643736522397 -6.5090164384041884 0 -6.5090164384041884 -65.549292399014575 0 0 0 0 4.3193501019723399 22.253404836329068 0 22.253404836329068 -45.112611606443082 0 0 0 0 1.2583212263944006 12.168648073118447 0 12.168648073118447 -81.779595230619123 0 0 0 0 -2.9933801652969336 -8.1758115039039421 0 -8.1758115039039421 -32.131528407466561 0 0 0 0 -6.2606008632759824 20.861230893193564 0 20.861230893193564 -29.900408016091738 0 0 0 0 -14.121560871131578 9.4255835347554466 0 9.4255835347554466 -41.974256994661118 0 0 0 0 10.450854989441723 -3.2390088572001332 0 -3.2390088572001332 -64.153237265899406 0 0 0 0 -18.419409842379309 -14.844666876139513 0 -14.844666876139513 -50.871351476800555 0 0 0 0 16.92328595285494 -3.3746657225487979 0 -3.3746657225487979 -79.152420608344073 0 0 0 0 33.379363625539924 30.538571087857203 0 30.538571087857203 -78.237947465195248 0 0 0 0 -28.127028886701737 -42.651858428828746 0 -42.651858428828746 -104.39545006823482 0 0 0 0 -79.820029240681833 -16.286086742623411 0 -16.286086742623411 -48.864072219512309 0 0 0 0 33.172155445120552 4.7474448134325939 0 4.7474448134325939 -147.70456236827476 0 0 0 0 -82.045739611505383 66.816331172450134 0 66.816331172450134 -15.383811689493996 0 0 0 0 3.6866132159001399 12.731772919517605 0 12.731772919517605 -38.192191217639703 0 0 0 0 12.764007673679316 6.018211410188087 0 6.018211410188087 -53.085599612240912 0 0 0 0 6.4845786622848927 4.2120450258123547 0 4.2120450258123547 -32.200145609236095 0 0 0 0 11.888195315255871 10.758842507832014 0 10.758842507832014 -44.487533403877023 0 0 0 0 8.0821774875485204 3.7607005819099868 0 3.7607005819099868 -48.415593493932647 0 0 0 0 -30.143784831891196 23.175387981678114 0 23.175387981678114 -36.467762132200733 0 0 0 0 -99.34317909060303 90.091817718464654 0 90.091817718464654 -35.516051632515882 0 0 0 0 -106.26406664599972 65.484543265961292 0 65.484543265961292 -35.645014197729324 0 0 0 0 491.09810594900046 358.57635460789606 0 358.57635460789606 246.18766088185384 0 0 0 0 53.686945681263751 296.63776367645914 0 296.63776367645914 475.61936625654926 0 0 0 0 -12.216113839224192 6.8649435442135296 0 6.8649435442135296 -1.9915289047327889 0 0 0 0 -21.789000089272804 4.2985640144514079 0 4.2985640144514079 2.8812528297596813 0 0 0 0 -173.19996598474972 -23.01535226462147 0 -23.01535226462147 9.1366157043848943 0 0 0 0 -80.282430608796858 42.843049560786312 0 42.843049560786312 36.938781917219785 0 0 0 0 -121.95105635635991 63.586170767782278 0 63.586170767782278 125.76569349778583 0 0 0 0 -146.87075267276123 33.602519045776717 0 33.602519045776717 4.3712429811239417 0 0 0 0 -41.458928568255836 0.31899323192235762 0 0.31899323192235762 28.131999970391647 0 0 0 0 -80.280739924520518 51.498732390266731 0 51.498732390266731 -0.16224697404686594 0 0 0 0 -13.950950584182406 -8.0834883689543311 0 -8.0834883689543311 10.424278740353188 0 0 0 0 -31.81800407063929 19.715057290923369 0 19.715057290923369 -43.271151682297614 0 0 0 0 -29.718308128338322 11.399142331818211 0 11.399142331818211 -32.962197573611775 0 0 0 0 -42.497322230532575 29.464897308328659 0 29.464897308328659 -20.782299915741469 0 0 0 0 -20.444647558488214 104.29762330120684 0 104.29762330120684 -138.8579509727424 0 0 0 0 2.2489798106817318 5.1653562109358404 0 5.1653562109358404 -18.294437414244943 0 0 0 0 -48.231999349813123 85.998120205222222 0 85.998120205222222 30.355284272893186 0 0 0 0 18.019984023623692 59.004145818715187 0 59.004145818715187 -214.35817214606504 0 0 0 0 -30.209268682723632 103.40082885970787 0 103.40082885970787 -66.254503525604378 0 0 0 0 8.8555971983053965 13.437510596151727 0 13.437510596151727 -36.729643502132184 0 0 0 0 2.6582855933229439 11.1517236164118 0 11.1517236164118 -77.056282564048161 0 0 0 0 -29.255820537864651 33.739314688414389 0 33.739314688414389 -40.966199533122705 0 0 0 0 -1.6307060068374994 17.101113499401755 0 17.101113499401755 -62.897207015866762 0 0 0 0 9.0165269563367474 4.7563175460854836 0 4.7563175460854836 -106.38493492376983 0 0 0 0 -12.612280626817665 34.327173260112659 0 34.327173260112659 -53.757008088619898 0 0 0 0 -25.191821045442339 26.92921002352341 0 26.92921002352341 -39.683866960411251 0 0 0 0 -12.692888321748466 15.647833361166636 0 15.647833361166636 -35.390930579994944 0 0 0 0 -28.497058921901271 61.195492940694407 0 61.195492940694407 -92.506325471434138 0 0 0 0 -15.880290269819334 20.048853040574457 0 20.048853040574457 -36.580375387248019 0 0 0 0 -7.1669285264905005 6.2981208247086506 0 6.2981208247086506 -4.3942310850571218 0 0 0 0 -101.23933476435241 -23.629081067129505 0 -23.629081067129505 -0.83062310426430486 0 0 0 0 23.159436492797795 -52.215674628592751 0 -52.215674628592751 -104.86175406836628 0 0 0 0 53.892832048899436 -260.62032607847959 0 -260.62032607847959 -395.80817482276052 0 0 0 0 -8.8450116482967367 -19.546358829448181 0 -19.546358829448181 -41.365687414384716 0 0 0 0 -213.70199514884553 518.13564637120749 0 518.13564637120749 -11.947958356829986 0 0 0 0 -97.035096660039926 -25.305007718709021 0 -25.305007718709021 -43.129126887999519 0 0 0 0 -18.990976161329041 -5.9142507324139464 0 -5.9142507324139464 -21.783738917256109 0 0 0 0 -125.03189358504096 132.08233916097106 0 132.08233916097106 -55.53493835916197 0 0 0 0 -179.16934149509825 70.995640189306414 0 70.995640189306414 -34.866498946823413 0 0 0 0 -183.95579897909192 78.418531981950309 0 78.418531981950309 -39.182463089211524 0 0 0 0 -188.17728972460372 86.184491292106486 0 86.184491292106486 -36.698297688017192 0 0 0 0 -173.1037994546989 114.18332281496168 0 114.18332281496168 -93.395946689004631 0 0 0 0 -256.57464732606968 146.72382915621802 0 146.72382915621802 -88.446974797891016 0 0 0 0 -283.38527550272192 -4.446196604943907 0 -4.446196604943907 -26.469929869593216 0 0 0 0 -5.7285539126170484 -7.3826351822717342 0 -7.3826351822717342 -8.8455346059078863 0 0 0 0 -154.07075382672247 -92.96807587982903 0 -92.96807587982903 -211.63252370872488 0 0 0 0 -37.875726076753381 11.588957402196684 0 11.588957402196684 -392.68766120548389 0 0 0 0 -98.334790407549917 42.817222863450297 0 42.817222863450297 -156.53014538970456 0 0 0 0 -50.202234848856278 57.185723307068542 0 57.185723307068542 -177.8191759398087 0 0 0 0 -116.88018121865275 76.187275601720557 0 76.187275601720557 -117.09830507730476 0 0 0 0 -142.6854636129292 137.23267506335105 0 137.23267506335105 -210.45754338760162 0 0 0 0 -76.304012380912695 40.196798792958191 0 40.196798792958191 -102.30763311290866 0 0 0 0 -108.67968292936166 81.614658032690386 0 81.614658032690386 -122.24455026102578 0 0 0 0 -90.746046386768739 43.979123734905897 0 43.979123734905897 -90.824037037991729 0 0 0 0 -93.407949059919702 31.910989465773127 0 31.910989465773127 -132.40392117565943 0 0 0 0 -102.42693798050732 64.788299944792925 0 64.788299944792925 -78.513727850466239 0 0 0 0 -81.850197070476497 75.784059704847095 0 75.784059704847095 -89.139667047207695 0 0 0 0 -124.24264239752972 67.552972691528794 0 67.552972691528794 -43.532508850637896 0 0 0 0 -125.79978487068274 78.424936729205001 0 78.424936729205001 -66.694201490185151 0 0 0 0 -153.04633495240205 13.232341503710359 0 13.232341503710359 -13.190739508580833 0 0 0 0 -130.57921811362758 7.9448422566888439 0 7.9448422566888439 -12.71093656326957 0 0 0 0 -113.64060961495147 10.481557689597366 0 10.481557689597366 -58.632039169620839 0 0 0 0 -115.03638064101233 1.2408953869226025 0 1.2408953869226025 -68.200902307580236 0 0 0 0 -116.81055079616976 5.1577889558602692 0 5.1577889558602692 -63.947096428104487 0 0 0 0 -123.12061597333832 -32.113758862255054 0 -32.113758862255054 -132.0839029026215 0 0 0 0 -129.90072017502393 -20.357043319712147 0 -20.357043319712147 -67.262318901844992 0 0 0 0 -150.28177688143387 -32.741149866273645 0 -32.741149866273645 -58.499391209510577 0 0 0 0 -150.99858621637259 -8.8188598305682717 0 -8.8188598305682717 -0.36132843498671718 0 0 0 0 -139.54079798842758 -13.387384721737817 0 -13.387384721737817 -56.410455361517052 0 0 0 0 -133.6051366005513 5.9608206776429142 0 5.9608206776429142 -7.6020201763424211 0 0 0 0 -17.338799245138034 -12.692332943998963 0 -12.692332943998963 -25.077618251925742 0 0 0 0 -129.71338074671257 -2.6997245610366463 0 -2.6997245610366463 3.9879324800931499 0 0 0 0 -63.557232153780205 44.874203368267899 0 44.874203368267899 -2.648444164178045 0 0 0 0 -179.20451998580438 -43.893946959768527 0 -43.893946959768527 -59.855013165724813 0 0 0 0 -163.69243578494479 271.92870111068839 0 271.92870111068839 -71.966405924868809 0 0 0 0 -157.37232026242964 18.572436228019797 0 18.572436228019797 20.275793239734867 0 0 0 0 0.41400330424395815 -0.3211636700471816 0 -0.3211636700471816 -7.3111961164191843 0 0 0 0 -77.519358164515324 130.97488812113727 0 130.97488812113727 -55.331198138504078 0 0 0 0 -106.21482141211072 56.293466538004907 0 56.293466538004907 -58.007057147183332 0 0 0 0 5.7682245029891419 -34.733202732343671 0 -34.733202732343671 -0.40310182325184485 0 0 0 0 -0.78616861298691987 -5.5155041977564547 0 -5.5155041977564547 -33.369788462004117 0 0 0 0 -10.903703768868581 -69.430966110158124 0 -69.430966110158124 -231.05588188374804 0 0 0 0 16.563781805933104 28.002437327720941 0 28.002437327720941 -238.69588203709475 0 0 0 0 -241.12731885343419 -10.707100615665581 0 -10.707100615665581 -72.032727587636145 0 0 0 0 -0.3644593479773679 -3.9358589792684535 0 -3.9358589792684535 -17.665224858122713 0 0 0 0 5.346977236645202 -4.8076730694323881 0 -4.8076730694323881 -16.708219851234141 0 0 0 0 -199.53977780590503 106.97035227709864 0 106.97035227709864 -4.999899673939467 0 0 0 0 -19.108419388938273 111.08884719575394 0 111.08884719575394 -222.45116808444388 0 0 0 0 -53.168012701010639 134.5176709061426 0 134.5176709061426 -94.376949550310655 0 0 0 0 -66.198530627914806 29.891427011659061 0 29.891427011659061 75.262696287470135 0 0 0 0 -2.9064057254745599 -6.8066905209220661 0 -6.8066905209220661 -24.654616450290114 0 0 0 0 6.5859701967065121 -14.222328277132419 0 -14.222328277132419 -42.56329097307389 0 0 0 0 7.7102781285357196 -57.600398712067772 0 -57.600398712067772 -13.196580924169211 0 0 0 0 -23.7154543380625 7.183690995050938 0 7.183690995050938 -21.470870091968209 0 0 0 0 -95.41750267469979 -53.069301460653605 0 -53.069301460653605 -40.416895464479694 0 0 0 0 -78.878433781747844 -15.84591578528034 0 -15.84591578528034 -4.2144164973622082 0 0 0 0 -84.994313261983621 10.279267105678116 0 10.279267105678116 -5.035814309872876 0 0 0 0 -139.30951311126501 -18.531065716009607 0 -18.531065716009607 1.5551701964404856 0 0 0 0 -176.92426240741997 17.843794057699597 0 17.843794057699597 7.2394820398767479 0 0 0 0 -150.24219631252299 4.7322528476740899 0 4.7322528476740899 12.097627226717577 0 0 0 0 -149.33758493514097 -3.8717313793591757 0 -3.8717313793591757 -5.3522575358942959 0 0 0 0 -215.99139913283625 -32.184828607881855 0 -32.184828607881855 8.2727065184599269 0 0 0 0 -167.725115898681 25.426884246274312 0 25.426884246274312 7.3564015682345598 0 0 0 0 -261.87651039935167 66.250013054883709 0 66.250013054883709 -9.9562899833745178 0 0 0 0 -179.57941806702479 44.101524165884257 0 44.101524165884257 -5.7202133611745012 0 0 0 0 -131.636831508829 32.818827591631361 0 32.818827591631361 -3.2542321780974817 0 0 0 0 1.80209880814391 12.027775854603533 0 12.027775854603533 -67.556769034643366 0 0 0 0 6.7872426917201665 8.9338262374503756 0 8.9338262374503756 -69.143964189963299 0 0 0 0 -1.5845671325059811 0.40012510706583271 0 0.40012510706583271 -53.491751282461337 0 0 0 0 -8.1144157208063916 9.7253943040577724 0 9.7253943040577724 -66.431890482246672 0 0 0 0 3.9257447412002975 -8.8315020622179645 0 -8.8315020622179645 -48.426676664418835 0 0 0 0 7.1129661772570216 -4.2207205504973899 0 -4.2207205504973899 -58.605648617227416 0 0 0 0 0.25857533717814718 3.5523254643834896 0 3.5523254643834896 -15.723562807706067 0 0 0 0 6.3906053926079949 -5.1181412139176246 0 -5.1181412139176246 -53.539874958918517 0 0 0 0 21.327920472147525 3.5756917913249708 0 3.5756917913249708 -67.83921146846842 0 0 0 0 -7.2838648034030484 7.2006145211653347 0 7.2006145211653347 -48.050950670649399 0 0 0 0 -7.9129071048610058 53.134035336016041 0 53.134035336016041 -13.043949913943038 0 0 0 0 -1.7158394075973611 16.846495335994575 0 16.846495335994575 -40.71179047801445 0 0 0 0 -9.6600720498770443 -1.1769954996916567 0 -1.1769954996916567 -76.333290237662368 0 0 0 0 -13.141344253325769 22.391083215814433 0 22.391083215814433 -76.956125548485943 0 0 0 0 13.000927355553719 -12.861317851516944 0 -12.861317851516944 -55.097396198917174 0 0 0 0 6.3132485923572403 -7.304541004401031 0 -7.304541004401031 -138.27409373656769 0 0 0 0 -108.40013259396073 35.86662800334193 0 35.86662800334193 -23.993375665592339 0 0 0 0 -18.166888526695402 96.616586131338977 0 96.616586131338977 -77.073452197026199 0 0 0 0 -3.8014558584532097 8.9023096694063497 0 8.9023096694063497 -68.242082148308327 0 0 0 0 -20.989349732613846 98.404095396232606 0 98.404095396232606 -180.24290221285673 0 0 0 0 1.527305979610901 11.397405601133869 0 11.397405601133869 -71.41933761720793 0 0 0 0 0.55351641141669461 15.56829785190348 0 15.56829785190348 -69.240777308463294 0 0 0 0 14.996274626572967 0.35214071213606246 0 0.35214071213606246 -48.214734508474656 0 0 0 0 -125.51699989079134 127.98291777163513 0 127.98291777163513 -85.689359619615061 0 0 0 0 -208.07608903681103 47.402576263905303 0 47.402576263905303 -18.991880862727839 0 0 0 0 -60.882098497975676 -14.746753625156543 0 -14.746753625156543 -5.6802211303847798 0 0 0 0 -55.637883211411463 59.110083587352165 0 59.110083587352165 -167.3674081580516 0 0 0 0 -15.663105156966701 1.1684678658484273 0 1.1684678658484273 -9.3583002840459102 0 0 0 0 -30.104811537148635 11.918168537212523 0 11.918168537212523 -19.46509425252134 0 0 0 0 -62.028615648825763 22.413542772598213 0 22.413542772598213 -14.555144968505374 0 0 0 0 -5.0669747910960723 -2.8724447051710627 0 -2.8724447051710627 -24.685018229514753 0 0 0 0 -2.5417372357167523 4.3726654749383371 0 4.3726654749383371 -8.5491660932342501 0 0 0 0 -64.686307177555136 62.242748696275157 0 62.242748696275157 -102.34233610037882 0 0 0 0 -19.696930076616017 23.654813937866301 0 23.654813937866301 -51.10225281377933 0 0 0 0 3.5322450183420315 -7.7200249900726412 0 -7.7200249900726412 -48.012674443165558 0 0 0 0 10.927422127480895 24.692430002905894 0 24.692430002905894 -90.988663288626412 0 0 0 0 39.72873773291758 25.222447943284351 0 25.222447943284351 -93.862293031685113 0 0 0 0 -2.573228202614505 21.831099871422531 0 21.831099871422531 -30.09962002453041 0 0 0 0 -15.792714786302895 13.5833298569014 0 13.5833298569014 -48.929108275533508 0 0 0 0 -0.93438591317999453 16.273608349244569 0 16.273608349244569 -60.310303581980406 0 0 0 0 1.3933624913648259 10.650436209678446 0 10.650436209678446 -66.465464141296252 0 0 0 0 -5.1717460235613544 11.031220879587636 0 11.031220879587636 -64.876553725944177 0 0 0 0 -5.1531091649431389 3.543972139471169 0 3.543972139471169 -72.184479117360752 0 0 0 0 -28.749012937216776 35.846027518531628 0 35.846027518531628 -27.827446779137972 0 0 0 0 -6.240608151510747 21.798174570244349 0 21.798174570244349 -22.325451140330827 0 0 0 0 10.898768785399625 26.05766547591702 0 26.05766547591702 -58.945222191814537 0 0 0 0 -9.3750898145060546 51.709879522544725 0 51.709879522544725 -90.429535058421607 0 0 0 0 -37.670035689394922 68.034918292767543 0 68.034918292767543 -156.15111830333581 0 0 0 0 5.3893010918230289 -17.573979091457204 0 -17.573979091457204 -43.099255268039997 0 0 0 0 -34.010718595988578 45.411876887939798 0 45.411876887939798 -44.20791626990831 0 0 0 0 -2.2778808925785468 1.8323027857496825 0 1.8323027857496825 -3.3696497633101217 0 0 0 0 17.119645940100952 -41.326514045596014 0 -41.326514045596014 -107.40662287949817 0 0 0 0 24.29752064973303 9.3522429972135797 0 9.3522429972135797 -65.074601070336939 0 0 0 0 8.3712281999229958 28.985696721887507 0 28.985696721887507 5.9070662741723936 0 0 0 0 2.6144684872928567 0.58837970470700895 0 0.58837970470700895 -8.7968501130216339 0 0 0 0 8.5726269035588416 -13.779498333737138 0 -13.779498333737138 -42.969798144098604 0 0 0 0 2.6128852527650448 -5.1462552446947107 0 -5.1462552446947107 -47.999073658330779 0 0 0 0 12.249407567535684 -13.037429342238283 0 -13.037429342238283 -57.038700087694451 0 0 0 0 43.723366618811269 -7.4489664777865983 0 -7.4489664777865983 -69.883455992679956 0 0 0 0 -2.4212094120934466 20.954276255558852 0 20.954276255558852 -84.754849845179706 0 0 0 0 12.612027832529307 2.1076165220065377 0 2.1076165220065377 -89.31030336191543 0 0 0 0 4.6339527412954169 -11.666525410075337 0 -11.666525410075337 -56.862228016115523 0 0 0 0 2.9400779810432023 10.6662790740886 0 10.6662790740886 -7.012076005704178 0 0 0 0 18.165952444977393 14.429447564810289 0 14.429447564810289 -37.501896579444292 0 0 0 0 -0.21914105905113335 9.0946737559018995 0 9.0946737559018995 -38.093160063001477 0 0 0 0 9.3967395766810835 6.6097744674264334 0 6.6097744674264334 -34.020000737218879 0 0 0 0 17.95307693306836 14.622297195124702 0 14.622297195124702 -22.08334227243904 0 0 0 0 14.828382113403952 0.47879293020014302 0 0.47879293020014302 -67.142295118232482 0 0 0 0 -2.6015692564049004 13.270450255018659 0 13.270450255018659 -99.394731581028623 0 0 0 0 -19.133709856775255 9.0192330585496165 0 9.0192330585496165 -74.831550469301874 0 0 0 0 -8.7584303629789986 10.416511079484991 0 10.416511079484991 -8.6316404928512398 0 0 0 0 -54.31815659949757 8.9676865443634597 0 8.9676865443634597 -67.238262156120982 0 0 0 0 -10.97530818335747 48.715303550728095 0 48.715303550728095 -52.431956602871651 0 0 0 0 0.77794119378874471 2.3624915102294786 0 2.3624915102294786 -61.375621993711903 0 0 0 0 97.666153100600866 42.435837989620268 0 42.435837989620268 -30.22336496967182 0 0 0 0 15.52789712035883 74.692657918363693 0 74.692657918363693 33.760719912563218 0 0 0 0 -1.8209921582340485 100.79529230515072 0 100.79529230515072 2.1056064119329676 0 0 0 0 1.9269015899578537 5.2260034732069442 0 5.2260034732069442 -14.147653584704528 0 0 0 0 0.40613805455029706 -65.704403448766243 0 -65.704403448766243 -57.209397688135141 0 0 0 0 0.14396673543670557 -0.24047339389750277 0 -0.24047339389750277 -3.8946606860715178 0 0 0 0 -236.54995801974195 197.7984109612953 0 197.7984109612953 -85.665471209053067 0 0 0 0 129.03700797319141 -127.31672209073622 0 -127.31672209073622 -156.59516101198096 0 0 0 0 23.967119544480283 -12.638439914117043 0 -12.638439914117043 76.213908462348627 0 0 0 0 0.60921485747305071 11.085420660052662 0 11.085420660052662 -75.583579187434339 0 0 0 0 -38.69247687515292 -53.575197575080892 0 -53.575197575080892 -39.504010681095906 0 0 0 0 177.53656478450722 186.36085947798892 0 186.36085947798892 -196.92284605385794 0 0 0 0 47.983954824953344 -7.7272903398334165 0 -7.7272903398334165 -1.7875245490213274 0 0 0 0 34.222020593735124 77.587843281788082 0 77.587843281788082 -441.18743003930285 0 0 0 0 134.68585396606932 -104.1791636102862 0 -104.1791636102862 -395.50661277325707 0 0 0 0 55.443326890284879 -166.05174419106334 0 -166.05174419106334 -256.40531934609317 0 0 0 0 39.826433942727363 -7.9881550316022185 0 -7.9881550316022185 -479.61208047709079 0 0 0 0 -149.39588605805875 65.033359338362061 0 65.033359338362061 47.741356024146626 0 0 0 0 -2.8748297883325904 -285.48653431773346 0 -285.48653431773346 -477.67344007593056 0 0 0 0 -1.0834939222146467 1.2090815322552615 0 1.2090815322552615 -4.4023800757779838 0 0 0 0 52.138522028577427 -181.25574573125414 0 -181.25574573125414 -339.4052048627309 0 0 0 0 -59.584750495078652 89.083655780059416 0 89.083655780059416 -66.946279394498561 0 0 0 0 24.042503461669639 -14.864942371466896 0 -14.864942371466896 -90.46465581888333 0 0 0 0 61.341179164899415 -16.425801148039682 0 -16.425801148039682 -105.63911083473067 0 0 0 0 54.410333735876975 33.2554746042224 0 33.2554746042224 -432.27662113006954 0 0 0 0 46.830085315635984 46.238384887381471 0 46.238384887381471 -0.90325185270194197 0 0 0 0 28.749199854180233 22.605836486058251 0 22.605836486058251 -29.491171415311328 0 0 0 0 34.966390916426462 -2.1154681108819204 0 -2.1154681108819204 -195.69791958570568 0 0 0 0 30.094307331241907 32.629942870924424 0 32.629942870924424 -3.8310695800438452 0 0 0 0 -4.9441565212010845 5.9457191911499763 0 5.9457191911499763 -6.9494455744439847 0 0 0 0 -45.211487441687609 -164.25879184526275 0 -164.25879184526275 -320.57465186355694 0 0 0 0 32.020637224042503 -217.75648497667862 0 -217.75648497667862 -306.07028714539047 0 0 0 0 -107.27337612860401 112.6150036995532 0 112.6150036995532 -2.1402577432576209 0 0 0 0 -92.213415480459162 -331.72554516334185 0 -331.72554516334185 -518.50734762413776 0 0 0 0 -1.8122900711175376 1.8845729468895911 0 1.8845729468895911 -2.708541852074859 0 0 0 0 -46.721306689818903 62.447932334700454 0 62.447932334700454 -481.83548531436418 0 0 0 0 -294.95684091862631 -31.079713349030499 0 -31.079713349030499 -56.317939006126835 0 0 0 0 -102.71717104370873 10.901124586964215 0 10.901124586964215 24.380978606895951 0 0 0 0 2.1920013189912781 6.3601712079875909 0 6.3601712079875909 -9.056496792918324 0 0 0 0 131.79211290021794 112.52866744481071 0 112.52866744481071 -69.465503050954794 0 0 0 0 -100.31978515690867 0.62686269911500858 0 0.62686269911500858 108.04517482084339 0 0 0 0 16.002572534284809 74.73647696495027 0 74.73647696495027 -1.2541744648187887 0 0 0 0 -37.031220688081703 13.661445005738642 0 13.661445005738642 5.432789458296611 0 0 0 0 22.108180963947689 17.477258706085195 0 17.477258706085195 -13.795440437694197 0 0 0 0 11.422307810822076 15.277411330622272 0 15.277411330622272 2.4296997695182654 0 0 0 0 28.24431973710648 15.891619086276478 0 15.891619086276478 -45.943244841051637 0 0 0 0 23.466061843592797 -1.8314324898528866 0 -1.8314324898528866 -16.545841225399727 0 0 0 0 16.504032551552676 6.357363889018302 0 6.357363889018302 -8.0361992476896695 0 0 0 0 10.063340938986585 -5.2870656077757303 0 -5.2870656077757303 -14.095785172692558 0 0 0 0 12.319001312558385 -3.713142889442679 0 -3.713142889442679 -32.271197761248914 0 0 0 0 17.344664577889802 7.7535025802017117 0 7.7535025802017117 -2.6064368093878842 0 0 0 0 -2.4662434627115317 9.8073106489073325 0 9.8073106489073325 -7.6922304963009083 0 0 0 0 8.2078913864449987 48.384640389496781 0 48.384640389496781 -63.550059082697771 0 0 0 0 -2.2126642953078317 37.740783755607481 0 37.740783755607481 -5.5787558888259809 0 0 0 0 26.616477249738637 -13.898037394850689 0 -13.898037394850689 -22.831383065524278 0 0 0 0 24.882556477743037 19.573055735938397 0 19.573055735938397 -26.496998614489712 0 0 0 0 5.4254089008404662 16.975347969051654 0 16.975347969051654 -14.690582011480728 0 0 0 0 13.634699007198563 5.7848118871238512 0 5.7848118871238512 -2.1129605244301009 0 0 0 0 1.0436862877569435 7.2725708700440066 0 7.2725708700440066 -9.4056341940883499 0 0 0 0 24.757474389360851 18.996400777619783 0 18.996400777619783 -40.287103489117726 0 0 0 0 -26.889740922637685 25.233773620650936 0 25.233773620650936 6.9497086807532469 0 0 0 0 -1.8950505891329383 2.0912727902887234 0 2.0912727902887234 -3.5301395384046828 0 0 0 0 -187.03977163010157 85.960499183394859 0 85.960499183394859 -15.784241314377141 0 0 0 0 -3.6648003902897912 -92.457888383041791 0 -92.457888383041791 -233.26238334818845 0 0 0 0 6.5023066452565672 -4.0787577022638288 0 -4.0787577022638288 -34.437001228155168 0 0 0 0 44.127258430478236 71.571294604922514 0 71.571294604922514 -314.33972101871768 0 0 0 0 27.440013439967856 -8.8586140389488719 0 -8.8586140389488719 -183.12774541454564 0 0 0 0 8.4323980183571621 -13.381655704170043 0 -13.381655704170043 -181.75293244368368 0 0 0 0 37.964128538513023 28.526227736012515 0 28.526227736012515 -123.08853259144223 0 0 0 0 -72.798015659738212 6.6718781768904591 0 6.6718781768904591 -78.42090762225871 0 0 0 0 -39.73731734549574 79.600826251709805 0 79.600826251709805 -80.355701289328863 0 0 0 0 -0.87065135644332337 1.0809336077602296 0 1.0809336077602296 -1.3577486715329883 0 0 0 0 48.611310050808697 -24.976870968308504 0 -24.976870968308504 -281.29819926104392 0 0 0 0 -176.57473948149936 -150.00021609738178 0 -150.00021609738178 -59.336276138910762 0 0 0 0 27.359946970794226 11.779845445958927 0 11.779845445958927 -74.957099082525019 0 0 0 0 199.61704107878404 -95.264754450287001 0 -95.264754450287001 -181.09346490406097 0 0 0 0 54.036402847585805 14.484545065614839 0 14.484545065614839 4.7566017677017953 0 0 0 0 4.4463802755703403 1.8868234601567764 0 1.8868234601567764 -63.032772813357951 0 0 0 0 175.83299302706109 8.6709940926448326 0 8.6709940926448326 -137.32171791417932 0 0 0 0 4.9531003938767393 7.0113281576528674 0 7.0113281576528674 -65.985790958688966 0 0 0 0 15.088995141516989 -11.780211069773941 0 -11.780211069773941 -34.511983705530611 0 0 0 0 36.782821625960594 -8.5242934112902731 0 -8.5242934112902731 -75.722769121384772 0 0 0 0 18.898610754701053 -28.059848139775568 0 -28.059848139775568 -104.96970262820105 0 0 0 0 -20.524824295507671 50.58837304298504 0 50.58837304298504 -81.364623780733382 0 0 0 0 22.045324687277116 26.341999031503292 0 26.341999031503292 -128.84145097298733 0 0 0 0 22.719120568292055 7.404454985538905 0 7.404454985538905 -66.162617938374751 0 0 0 0 -0.15702904206784751 22.73588935290536 0 22.73588935290536 -55.799021392736904 0 0 0 0 -0.2029733718436546 17.332516971502805 0 17.332516971502805 -67.990181781678984 0 0 0 0 -8.0548969381401889 20.440804888538878 0 20.440804888538878 -51.396970158126351 0 0 0 0 0.08229756879973138 20.089106655756041 0 20.089106655756041 -73.45533718523717 0 0 0 0 5.3589248707347767 3.7423910208320628 0 3.7423910208320628 -61.213688213333867 0 0 0 0 38.20524558821262 -2.9437171145327738 0 -2.9437171145327738 -23.495449320085754 0 0 0 0 2.2853531531298192 0.32944849446829139 0 0.32944849446829139 -6.6224656727359843 0 0 0 0 9.5409986206539088 -81.281935114930093 0 -81.281935114930093 -21.640042970379 0 0 0 0 65.713819254561713 -16.343972912280151 0 -16.343972912280151 -51.748161628605885 0 0 0 0 -8.4716870223885508 29.894503391622493 0 29.894503391622493 -20.598026610074157 0 0 0 0 
</DataArray>
<DataArray type="Float64" Name="cross_section_updated" format="ascii">
1 1 1 1 1 1 1 0.0015371373905429999 1 1 0.012049628138248506 1 1 0.0097078801662803457 1 1 0.010023870500170846 1 0.0095852543415729623 0.0094349453297349391 1 0.011247949269395405 1 1 1 1 1 1 1 1 1 1 1 1 1 1 0.0037355387840738909 1 0.0076035927960856706 1 1 1 1 1 1 1 1 1 0.0055520058894798878 1 1 0.0083378446093072892 1 1 1 1 1 1 1 1 0.0080600126964725915 1 1 1 0.0077191099301137881 1 1 1 0.0061694363510188931 1 1 0.0089501388124567233 1 1 0.0064473330970245026 1 1 1 1 0.0087007432317941329 1 1 1 1 1 1 1 1 1 1 1 0.0099698768484342906 1 1 0.0054014363735278605 1 1 1 1 1 1 0.0096668329436334771 1 1 1 1 1 1 1 1 0.0074320198181788213 1 1 1 1 1 1 0.008628324624611737 1 1 1 1 1 1 1 1 1 1 0.010178944708939274 1 1 1 1 1 1 1 1 1 1 1 1 1 1 1 1 1 1 1 1 1 1 1 1 1 1 0.0088389788001915926 1 1 0.010684874707203366 0.0097011332949582391 1 1 1 1 1 1 1 1 1 1 1 1 1 1 1 1 1 1 1 1 1 1 1 1 1 1 1 1 1 1 1 0.0081426483183848902 1 1 0.0056375209574068448 1 1 1 1 1 1 1 0.0096568673920789192 1 1 1 0.0056355467228845178 1 1 1 1 1 1 0.0057951579739294809 1 1 1 1 1 1 1 1 1 1 1 1 1 1 1 1 1 1 1 1 1 1 1 1 0.0077237747057085099 1 1 1 1 1 1 1 1 1 1 0.0062231151267082199 1 1 0.0069373547346189123 1 1 1 1 1 1 1 0.0098205518108395312 1 1 0.010000055027899579 1 1 1 1 1 1 1 1 1 1 1 1 1 1 1 1 1 1 1 1 1 1 1 1 1 1 1 1 1 1 1 0.0097447864894997377 1 1 1 0.0095315905759178945 1 1 1 1 1 1 1 1 1 1 1 1 1 1 1 1 1 1 1 1 1 1 1 1 1 1 1 1 0.0092259547696814537 0.0096250659150867845 1 1 1 1 1 1 1 1 1 1 0.0098530800962652945 1 1 1 0.0099978540008721778 1 1 1 1 0.0082892949465210412 1 1 1 0.0095950228516644333 1 1 1 1 1 1 1 1 0.0098632798001517565 1 1 1 1 0.008359407995462375 1 1 1 1 0.0087032465536082404 0.0092591192999279225 1 1 0.0094985224129096289 1 1 1 1 1 1 1 1 1 1 1 0.0099869278840740098 1 1 0.010848199194075972 0.0081523522852474245 1 1 1 1 0.0072601844722414485 0.010218960725272631 1 1 1 1 1 1 1 1 1 1 1 1 0.0098854380742078307 0.0099333395784370615 1 1 1 1 1 0.0080639011161982299 1 1 1 0.0096933503080546286 1 1 1 1 1 0.0091861671040998922 1 1 1 1 1 1 1 1 1 1 1 0.0099827972259384362 1 1 0.010008368683719857 1 1 1 1 1 1 0.0084766790505967082 1 0.0078914487500906377 1 1 0.010024739949380747 1 1 1 1 1 1 1 1 1 0.0097868040864181344 1 1 1 1 1 1 1 1 1 1 1 1 1 1 1 1 1 1 1 0.0073905072155582632 1 1 1 1 1 1 1 1 1 1 1 1 1 1 1 1 1 0.0082619143704691193 1 1 1 1 1 1 1 0.0067750073540188555 1 0.008230031317131084 1 1 1 0.0098591419966542471 1 1 1 1 0.009288819295528045 0.0085628717910748338 0.0099358844939679211 1 1 1 1 0.0096521416019519062 1 1 1 1 1 1 1 1 1 1 1 1 0.008497850369035314 1 1 0.0090933945609326366 1 1 0.0070446049514218401 1 1 1 1 1 1 1 1 1 1 1 1 1 1 1 1 1 1 1 1 1 1 1 1 1 1 1 1 0.0098784642276117558 1 1 1 0.0090524800367382009 1 1 1 0.0088922302954198718 1 1 1 1 0.0098743886719166001 1 1 0.00990714911284497 1 1 1 1 1 1 1 1 0.0067367231059205918 0.0081952682368951896 1 1 1 0.0079278654128138552 0.010069743390078873 0.0042813309690599571 1 1 1 1 1 0.0095450483331593512 1 1 1 1 1 1 1 1 1 1 1 1 1 1 1 1 1 1 1 1 1 1 1 1 1 1 1 1 1 1 1 1 1 1 1 1 1 1 1 1 1 1 1 1 1 1 1 1 1 1 1 1 1 1 1 1 1 1 1 1 1 1 1 1 1 1 1 1 1 1 1 1 1 1 1 1 1 1 1 1 1 1 1 1 0.0097556300757956557 1 1 1 1 1 0.010124892393700584 1 1 1 1 1 0.0099698145453963917 1 1 1 1 1 1 0.010490458707166131 1 0.0097899838515321559 0.01054118283400063 1 1 1 0.0033032641489939493 1 0.0099941092962940233 1 0.010356321382913744 1 1 0.010142849059099384 1 1 1 1 1 1 1 1 1 1 0.0092319671832406091 1 1 1 0.0086688462448777214 0.0051428530231086012 1 1 0.0036969649490280546 1 1 1 0.0049490708994352779 1 1 1 0.0096514285838710471 1 1 1 1 1 0.0094943418447974888 1 1 1 1 0.0053099715653656954 1 1 0.0057309301806467289 0.0047166437528472424 0.010134851651831858 1 0.0054883231945601872 1 0.0033712491076705077 1 1 0.0096351466002483187 0.0088041766538855745 1 1 1 1 1 1 1 0.0071593068124931603 1 0.0098843216920748919 1 1 1 1 1 1 1 1 0.0037237982020639632 1 1 0.0084223261599146518 1 1 1 1 1 1 1 1 1 1 0.010002855605556273 1 1 0.0097522633506315695 1 1 1 0.0081108813123338761 1 0.0091268894215692023 1 1 1 1 1 1 0.0087282701485380636 1 1 1 1 0.009237375910023625 1 1 1 0.0082671756185771685 1 0.0095412267840254087 0.0099733340309420895 1 1 1 1 0.0088495057922444529 1 1 1 1 1 1 1 1 1 1 1 0.0097692186488344823 1 1 1 0.0078281145036826344 1 1 1 0.0097903094635682798 1 1 1 1 1 1 1 1 1 1 1 1 1 0.0095860262064633561 1 1 1 1 0.0099040275395824752 1 1 1 1 1 0.0099184901485591045 1 1 0.0060065898007356112 1 1 0.0093324835421370461 1 1 1 0.0065479075564756333 1 1 0.0076991899643883265 0.0084137039319395687 1 1 0.0091131944077219237 1 1 1 1 1 1 1 1 1 1 0.0096274831948817141 1 0.0099665707808123827 1 1 0.010867026682523947 1 1 0.0057087117316555226 1 1 1 1 1 1 1 0.010271292609858238 1 1 0.0080276486822776199 1 1 1 1 1 1 1 1 1 1 1 1 1 1 1 1 1 1 1 1 1 1 1 1 0.0050087625638458796 1 1 1 1 1 1 1 1 1 1 1 0.0093369488526915748 1 1 1 1 1 1 0.0080809298898468964 1 1 1 1 1 1 1 1 1 1 1 1 0.0089490085338494521 1 1 1 1 0.0082578938018792371 1 1 1 0.0075486616718999713 1 1 0.0099687125226706873 1 1 0.0045086721362565096 1 1 1 0.009794474682428278 1 1 1 1 1 1 1 1 1 1 1 1 1 1 1 1 1 1 1 1 1 1 1 1 1 0.010272728198936355 1 1 1 0.0036086748374516281 1 1 1 1 0.0029385617762900731 1 1 1 1 1 1 1 1 1 1 1 0.0035200730204643874 1 1 0.0089039755988549827 1 1 1 1 0.0097165500805126946 1 1 0.0039795452326772465 1 1 1 1 1 1 1 1 1 0.0044271195962602913 1 0.0053483362736335884 1 1 1 0.0099785020374671147 1 1 1 1 1 0.0079544141963633422 1 1 1 0.0029443433259494986 1 1 1 0.0027154635065388885 1 1 0.0093515815059786352 1 1 1 1 0.0088400851314066071 1 1 0.010003501413996193 1 1 1 1 1 1 1 1 1 1 0.0078851070240436825 0.0099627327150489733 1 1 1 1 0.010021533634510867 1 1 1 0.0093590475731249716 1 1 1 1 1 1 1 1 1 1 1 1 1 0.0098382528402895207 1 1 0.0094461944747462317 0.0052802266803290889 1 1 1 1 0.0059269998379045223 1 1 1 1 1 1 1 1 1 1 1 1 1 1 1 1 0.0047464998343152327 1 1 0.0088060024954598991 1 1 1 0.0065697924520827285 1 0.0092133500416801007 1 0.0092296570761756444 0.0098106292511149495 1 1 1 1 0.00728421907029966 1 1 1 1 0.0098992478377715465 1 1 1 0.0065452012458066203 0.0067294923469660437 0.0019173917272516869 1 0.0053599823190981222 1 1 0.009898586278968155 1 0.010179172642324402 1 1 1 1 1 0.0034849241476995925 1 0.0064521281045617079 1 1 1 0.0065273724876365267 1 1 1 1 1 1 1 1 0.0041575913742006154 1 1 0.0037360058900245061 1 0.0094911924330656761 1 1 1 1 1 1 1 1 0.0014081171298845063 0.010006011692378428 1 0.010040081145536466 1 1 1 1 1 1 1 1 1 1 1 1 0.00055640360340546841 0.010240834398123171 1 1 1 1 1 1 1 1 1 1 1 1 1 1 1 0.0098714027023446057 1 0.0095058949001335224 1 1 1 0.0099572029426638013 1 1 1 1 1 1 1 1 1 1 1 1 1 1 1 1 0.0092898548331034874 1 1 1 1 1 0.0096941223495326974 1 1 1 0.0094073625939784227 1 0.0099293399309807306 1 1 1 1 1 1 1 1 1 1 1 1 1 1 1 1 1 1 1 1 1 1 1 1 1 1 1 1 1 1 1 1 1 1 1 1 1 0.0099169955216196828 1 1 1 0.0099005523761742584 1 1 1 1 1 1 1 1 1 1 0.0099533713999509863 1 1 1 1 1 1 1 1 1 1 1 1 1 1 1 1 1 1 1 1 1 1 1 0.0099248791216641052 1 1 1.9734195440962443e-10 1 1 1 1 1 0.009123004597182233 1 1 0.0099847503813836891 1 1 0.0062270427060473078 1 1 0.0018931840080617132 1 1 1 1 1 0.009927828383704658 1 1 1 1 0.0050792901895975358 1 0.0099726395008767864 1 1 1 1 0.0099996041128426697 1 0.0084413745978430717 1 1 0.0069950982731541711 0.0098733595460567605 1 1 1 1 0.010719098971486634 1 1 1 1 1 1 1 1 1 1 0.0081240323229767354 1 1 1 1 0.0030951129330933692 1 0.0047006184715288396 0.0094491266633764601 1 0.010698215673305582 0.0056059952161944329 1 1 1 0.0094694869101871713 1 0.0057417117897554364 1 0.0061480468140105177 1 1 1 1 1 0.0022221254361845313 0.0083458258769708894 1 1 2.4161181527704301e-09 1 1 0.0022575688572404676 1 1 0.010000678515736865 1 1 1 0.0095755356804485235 1 1 0.0095305826698439938 1 1 1 0.0088353208600738149 1 1 1 1 1 1 1 1 1 0.010167603239037717 1 1 1 1 1 0.008679141580522947 1 1 1 -2.206349002803476e-09 1 1 1 1 0.0073236983658610949 1 1 1 1 0.0078692222942759755 1 1 0.0044473785784248654 0.0066320375966858018 0.0081558548925693922 1 0.0022497611522133629 0.0095899774451503259 1 0.0063605220543572153 1 1 1 0.0093044731421020772 1 1 1 1 1 0.009760401551387075 1 1 1 1 1 1 1 1 0.0016107246202703637 1 1 1 1 1 1 1 1 -1.0053600634288284e-08 1 1 0.0084616131515964487 0.0016371502172685889 1 1 1 1 0.0039078948916209267 1 1 1 1 1 0.0050525519709283626 1 1 1 1 1 1 0.0031243688178970775 1 1 1 0.0063360769639813214 1 1 1 1 1 1 1 1 1 1 1 1 1 1 0.0098606084073277478 1 1 1 1 0.010094199327850046 1 1 1 1 1 1 1 1 1 0.0071461513262958305 1 1 1 0.0096541646415223628 1 1 1 1 1 0.0098327171832699803 1 1 0.0093375501498213793 1 1 1 1 1 1 0.0094196999608369865 1 1 1 1 1 1 0.0094270801384159584 1 1 1 0.0074014659696394272 1 1 1 1 1 1 1 1 1 1 0.0098757653018120735 1 1 0.0097335164339863878 1 1 1 0.0096497046196091958 1 0.0077363576415931633 1 1 1 1 1 1 1 1 1 1 1 1 0.0098292925214535504 1 0.0082667847218975115 0.0086569368027778915 1 1 0.0079952303199306522 1 1 1 0.0099013159370455114 0.010140972905477219 1 0.010682625377091276 1 1 1 1 1 0.010770769112836096 1 0.0098695323970230675 0.0078376359569930672 0.0095991890125594198 1 1 1 1 1 1 0.007845878906334907 1 1 1 1 1 0.0097642283839813084 1 1 1 1 1 1 1 1 1 1 1 0.0092614724679169619 1 1 1 1 1 1 1 1 1 1 1 1 1 1 1 1 1 1 1 1 1 1 1 1 1 1 1 1 1 0.009114493268285612 1 1 1 1 1 1 1 1 0.0093332558292809082 1 1 1 1 1 0.010288526517663972 1 1 1 1 1 0.010062276117027849 1 1 1 1 1 1 1 1 1 1 1 1 1 0.0095507944113593663 1 0.0099479741506447172 1 0.0099724574143330927 1 1 1 1 1 1 1 0.0087251127447293374 1 1 1 1 1 1 1 1 1 1 1 1 1 1 1 1 1 1 1 1 1 1 1 1 1 1 1 1 1 1 1 1 1 1 1 1 1 1 1 1 1 1 1 1 1 1 1 0.0099946929099193772 1 1 1 1 1 1 1 1 1 1 1 1 0.0092964112063520909 1 1 1 1 1 1 1 1 0.0095976466580347149 1 1 1 1 1 1 0.0095348532814308086 1 1 1 1 1 1 1 1 1 0.0093975082436450683 1 1 1 1 1 1 1 1 1 1 1 0.010280033883089559 1 1 1 0.0099401343066203834 1 1 1 1 1 1 1 1 1 1 1 1 1 1 1 1 0.0099996539228930925 1 1 1 1 1 1 1 1 0.010897327431594795 1 1 1 1 1 1 1 1 1 1 1 1 1 1 1 1 1 1 1 1 1 0.010110652422402134 1 1 1 0.010676470843972568 1 1 1 1 1 1 1 1 0.0052664740755331381 1 1 1 1 1 1 1 1 1 1 0.0099932435831516821 1 1 1 0.0099968133204028156 1 0.011020110471020524 1 1 1 1 1 1 1 1 1 0.0047231649573156818 1 1 0.010849878768475478 1 0.00702379807038854 1 0.011380972071660925 1 1 1 1 1 1 0.0087696882460865482 1 1 0.010151040842487875 0.0047240649867346159 1 1 1 1 1 1 0.007589253184092315 1 0.007445630918475039 1 1 0.0032782677363179837 1 1 0.0099999625367811467 1 1 1 1 1 1 1 1 1 1 1 1 1 1 1 0.0039638501152146378 1 1 0.0095821306455290481 1 1 1 0.0088143118837079818 1 1 1 1 1 1 1 1 1 1 1 0.0041903084404931561 1 1 1 1 1 1 1 1 1 1 1 1 1 0.0063634294259013484 1 0.0040935873537135126 1 1 1 1 0.010010440699531897 1 0.0060517887023194376 1 0.0096717093765339886 1 1 1 1 0.0061780928682749897 1 1 0.005779157560485873 1 0.0049715931007463226 1 1 1 1 0.0081022695240840978 1 1 1 1 0.0055909412566082393 1 1 0.0099372603236686403 1 0.0017390005542084219 1 0.009956326046030084 0.0062590360285720683 1 1 1 1 1 1 0.0088946567002592715 1 1 1 0.0070924623489354872 1 1 1 1 0.0084603395202894026 0.0090925786607080859 1 0.009267829584174013 1 1 1 1 1 1 1 1 1 1 1 0.0087127077544339911 1 1 1 1 1 0.0048367276766499191 1 1 1 0.0031988272410767298 1 1 1 1 1 1 1 1 1 1 1 1 1 1 1 0.0095264781801272964 1 1 1 1 1 1 1 1 1 1 1 1 1 1 1 1 1 1 1 1 1 0.0092549316713982227 1 1 0.010075518212443204 1 1 1 1 1 1 1 1 0.0086850554437255725 1 1 1 1 1 1 1 1 1 1 0.0078396413550750315 0.0031156910367358751 1 1 1 1 0.0089773626687315051 1 0.0024834710261293566 1 1 1 1 1 0.0096434483123648204 1 1 1 1 1 0.0087098606217970841 1 1 1 1 1 1 1 1 0.0074079862123152766 1 1 0.0047695311148090568 0.011068045968209964 1 0.0048032464162745519 1 0.0067654211089096979 1 1 1 1 0.0043936928262878067 0.0056248811302446258 1 1 0.006732793847945685 1 0.009400847446490574 1 1 1 1 1 0.0089163932550253323 1 1 1 1 -8.8935248054866634e-12 0.009111837549168493 1 1 0.0099382895146133306 0.0030214130526472135 1 1 1 1 0.010011392786419987 1 1 1 0.0078034187590128937 1 1 0.0098054998842013706 1 0.0062884554375268308 1 1 1 1 1 1 1 1 1 1 1 1 1 1 1 0.010141995523223576 1 1 1 1 1 0.010066477310780367 1 1 1 1 1 0.0080946230107472872 1 1 1 1 0.0050463284989017629 1 1 1 1 1 1 1 1 1 1 1 1 1 1 1 1 1 1 1 1 1 1 1 1 1 1 1 1 1 1 1 1 1 1 1 1 1 1 1 1 1 1 1 1 1 1 1 1 1 1 1 1 1 1 1 1 1 1 1 1 1 0.010180964697353105 1 1 1 1 1 0.0091461062953903279 1 1 0.010078954405732784 1 1 1 1 1 1 1 1 1 1 1 0.0089006919842617126 1 1 1 1 1 1 1 0.0093087570970406663 1 0.0075919253800777031 0.01011497469173684 1 1 1 1 1 1 1 1 0.0090991436556913247 1 1 1 1 1 1 0.0057226941451614319 1 1 1 0.0082903379516747165 1 1 1 1 1 1 1 0.010532909308276819 1 1 0.0099817990296628828 1 1 1 1 1 1 1 1 1 2.748978302803684e-09 0.0096629988010205909 1 1 1 1 0.008283519178756707 0.011344213121137448 0.0047366971061071532 0.014622121894359659 1 0.014151772178150368 1 1 1 1 1 1 1 1 1 1 1 1 1 1 1 0.0093905526575553937 1 1 0.0085118798636401923 1 1 1 1 1 1 1 1 1 0.0012489414561586368 1 1 1 1 1 1 1 1 0.0094301237723273517 1 1 1 1 1 1 1 1 1 1 1 1 1 1 1 1 1 1 1 1 1 1 1 1 0.0084740849236951341 1 1 1 1 1 0.010121804353389354 1 1 0.011270588337184452 0.0074542800502665606 0.0080077095178418302 1 1 0.0083740972337356424 1 1 0.0085525492087479421 1 1 0.011307580902336247 0.01034554974754848 1 1 0.010053573401315243 1 0.012599970229516066 1 1 1 1 1 1 1 1 1 1 1 1 1 1 1 0.0079453454854919552 1 1 1 1 1 1 1 1 0.0090371811037873138 1 1 1 1 0.0097333111356293842 1 0.009421942444966698 1 1 0.0081436076392832867 1 1 1 1 1 1 1 1 0.0093313964525644291 1 1 0.0096841224564929457 1 1 1 0.0099592405624823049 1 1 1 1 1 0.0053341388338493372 1 1 0.0082491281449904308 1 1 1 1 1 1 1 1 1 1 1 1 1 1 1 1 1 1 1 1 1 1 1 1 1 1 1 1 0.013843871761574983 0.0077262141026411858 1 1 1 1 1 0.014270748817032788 1 1 1 1 1 1 1 1 1 1 1 1 0.014254031761577048 1 1 1 1 1 1 1 1 1 1 1 1 1 1 1 1 1 0.0053187003353879778 1 1 0.011884804682463699 1 1 1 1 1 0.010043955726178862 1 1 1 1 1 0.010088307448337505 1 1 1 1 1 0.01416459070425858 1 1 1 1 1 1 1 1 1 1 1 1 1 1 1 1 1 1 1 1 1 0.014058717975053515 1 1 0.010218916424720432 1 1 1 1 1 1 1 0.010010630102944784 1 1 1 1 1 1 1 1 1 1 1 1 1 1 1 1 1 1 1 1 1 1 1 1 1 1 1 1 1 1 1 1 1 1 1 1 1 0.010015791433074867 1 1 0.010140051963415199 1 1 1 0.0059405096771820206 1 1 1 1 0.0099771918109226119 1 1 1 1 1 1 0.010530300487141693 1 1 1 1 1 1 1 1 1 1 0.01091124904652482 1 1 1 1 0.010381157199996004 1 0.0084710103605415716 1 1 1 1 0.011774399589718171 1 1 1 1 1 1 1 1 1 1 1 0.009074052346410939 1 1 1 1 1 1 1 1 0.010505012910352557 1 1 1 1 1 1 1 1 1 1 1 1 1 1 1 1 1 1 1 0.013054971112353105 1 1 1 1 1 1 1 1 1 0.0088958052541853027 1 1 1 1 1 0.0096850086156662959 1 1 1 1 1 0.0090950960789667103 0.0017143225993075739 0.009967248192010076 1 0.010153619728583078 1 1 1 1 1 1 1 1 1 0.0098662403309332149 1 1 1 0.0075408746140486101 1 1 1 1 1 1 1 1 1 1 1 1 1 1 1 1 1 1 1 1 1 1 1 0.0088465552494769728 1 1 1 1 1 1 1 0.008930837196597775 1 1 0.0062490851302103474 1 1 1 0.0095909455086989771 1 1 0.0039316520293613457 1 1 1 1 0.0034571867869438565 1 1 0.0083030862866931981 1 1 1 1 1 1 1 1 0.0068849749875520387 0.0082745717082818582 1 1 1 1 1 1 1 0.005432319191179473 1 1 1 0.0099877921647166142 1 1 1 1 1 1 1 1 1 1 1 1 0.0094516397849086671 1 1 1 1 0.0090856199689282689 1 1 1 0.0093594951381181721 0.010042770401900041 1 0.0082729353143408332 1 0.015985788881128431 1 1 1 1 0.0034643993982229858 1 0.014638330721257815 1 1 1 1 1 1 1 1 1 0.0071000430800101395 1 0.010395375640404336 0.008857436748982192 1 1 1 1 0.010291259918967767 0.0081262199188194655 0.010907587240135182 1 1 1 1 0.0070389268528443238 1 0.012192229852287798 1 1 0.011124716254168736 1 1 0.009998157090743337 1 1 1 1 1 1 0.0098282624519338731 1 0.009610009030165137 1 1 0.0099223226546072789 1 1 1 1 1 1 1 1 1 1 1 1 1 1 1 1 1 1 0.0097340486920147809 1 1 1 1 1 1 1 0.012536541747908934 0.012718203562589726 0.011245963946904212 1 0.0094217838870776296 1 1 1 0.0092795469436762271 1 0.013540506560126057 1 1 0.0074593165695458728 1 1 0.0095247083650226716 1 1 0.012176729894675846 0.012385980439202943 1 0.008266466384943329 1 0.011579317323890073 1 1 1 0.010940347928719207 0.0099505359815704811 1 1 1 0.0033112022374626451 1 1 1 1 0.009813753828723959 1 1 0.0091437443563457642 1 1 1 1 1 1 0.010643839525391809 1 1 1 1 1 1 1 1 1 1 1 1 1 1 1 1 1 0.010205946788938896 1 1 1 1 0.0043209772401779159 1 1 1 1 1 1 1 0.010173768539119188 1 1 1 1 1 1 1 1 1 1 1 1 1 1 1 1 1 0.010498374719596394 1 1 1 0.0069744024649234758 0.011976788092512708 1 0.0045903930030311464 1 0.0012920995060602472 1 1 1 1 1 1 1 1 1 0.011872774238117185 1 1 1 1 0.0040991746516469835 1 0.0032678228698080638 1 1 1 0.0068459274804954263 1 1 0.009942585812971064 0.0078640361617331924 1 1 1 1 0.0082528615529094372 1 1 0.0078343945638076739 1 1 1 1 1 0.010115835970435734 1 0.0054808615027032142 1 1 1 0.010445069635968376 1 1 0.0097308932668588605 0.013002702244624118 1 1 0.0042136026668564523 1 1 1 1 1 0.0045005289600612234 1 1 1 1 1 1 1 1 1 1 1 0.0096927343767455754 1 0.0058145784578351074 1 1 1 1 1 1 1 1 0.0096843253443420554 1 0.0042346695538616284 0.018918243549690721 1 0.018408709533899809 1 1 1 1 1 0.0030707374797092155 1 1 1 0.012842762793119227 1 1 1 0.010847904416150552 1 1 1 1 1 1 1 1 1 1 1 1 1 1 1 0.0099028331392043978 1 1 0.0099425882928849893 1 1 1 1 1 1 1 1 1 0.0079706816480680578 1 1 1 1 1 1 1 1 1 0.010039755153680587 1 1 1 1 1 1 1 1 1 1 1 0.010299116333548722 1 1 1 1 1 1 0.01052849612361377 1 0.010316735744230875 0.010087355954165832 1 1 1 1 1 0.0026296188130442788 1 1 1 1 1 1 1 1 1 1 1 1 1 1 1 1 0.0099383119908512708 1 1 1 1 1 1 0.0098238034440134153 1 1 1 1 1 1 1 1 1 1 1 0.0098520904026190726 1 1 1 1 1 1 0.010134887552922207 1 1 1 1 1 1 1 1 1 1 1 1 1 1 1 1 1 1 1 1 0.0098492294571810319 1 1 1 1 1 1 1 1 0.0099815620280244918 1 1 1 0.0099815095153917219 1 1 1 1 0.0095529494753181232 1 0.0098021180051122148 1 1 1 1 0.0099419263774966245 1 1 1 0.0093086042522272944 1 1 1 1 1 0.0095424503964239155 1 1 1 1 1 1 1 1 0.008774096657500223 1 1 0.010072315784536465 0.0096095974880741307 1 1 0.0083453922068609816 1 1 1 1 1 1 1 1 0.0095842051777351948 1 1 1 1 1 1 1 1 1 1 0.0099934858291270273 0.010010803642771321 1 1 1 1 1 1 1 1 0.0099890378295654399 1 1 0.010546693794664254 1 1 1 1 1 1 0.011249251490268676 1 1 1 1 1 0.0095610189511766749 1 1 1 1 1 1 0.010568560503642525 1 1 1 0.0099341832496237844 0.0086572740717906563 1 1 1 1 1 1 1 0.010013118985972133 1 1 0.010559552086756671 1 1 1 1 1 0.0088952931246745817 1 1 1 1 1 1 1 1 1 1 1 0.005632453015019221 1 1 1 1 1 1 1 1 1 1 1 0.0089295820997203901 1 1 1 1 1 1 1 1 1 1 1 1 0.0099979124553398815 1 1 1 0.010649655461383495 0.008989339513253633 1 0.0067958245467676787 1 1 1 0.0061637698598434182 0.0097313836354320782 1 1 1 1 0.0087841821755191962 0.0083891874370146877 1 1 0.0090280831921098759 1 1 0.0096336435643864151 1 1 1 1 1 1 0.007084840156059511 1 0.0070357091666407509 1 1 0.0054872683741172268 0.010295429336298218 0.0081647272932065945 1 1 0.0070073720935039073 1 0.0091603657215366067 1 1 0.007987476470161757 0.0082307867062167001 1 1 1 0.0093915547859074605 0.0098128278219918735 1 1 0.0091528222090480598 1 0.0084900066088684258 1 1 1 1 1 1 0.0095799416531744744 0.0089104076305254343 1 1 1 1 0.0095121238809593618 0.010212576524771108 1 1 1 1 1 0.0098769194641853339 1 1 1 1 1 1 1 1 1 0.0099574285111453179 0.0083552626437762879 1 1 1 1 1 1 0.0085103120511244319 1 1 1 1 1 0.008649736060688553 1 1 1 0.0096447606254878113 1 1 1 1 1 0.0090202155275353121 1 0.0065693857658523144 1 1 1 0.0093190097772322608 1 1 1 1 0.0045908552253737852 1 1 1 0.0099424773126533771 1 1 1 1 1 0.0050476497584556589 1 0.0099608759540584495 1 1 0.010603807292501313 1 1 1 0.0052099711150029593 1 1 0.0095518084442716977 1 1 1 1 0.0050846910498027614 1 1 1 1 1 1 1 1 0.0061414885306416908 1 1 1 1 1 1 0.0089815840182829627 0.010270286547490858 0.0081123519813424277 0.007733117838798707 1 1 0.0086758595924068711 1 1 1 0.009098436062790774 0.0063537889316046172 1 1 1 1 1 1 1 1 1 0.0092924733404929922 1 1 1 1 1 1 0.010790221138444444 1 1 0.0069505775001969059 1 0.010969833740317939 0.0099857855408591947 1 1 1 0.010106460300475951 1 0.0076160735472554017 1 1 1 0.0080140220244132518 0.0099296509202088656 1 0.010003082512949076 1 1 1 1 0.0082345892541853035 1 1 1 1 0.009980961645799636 1 1 1 1 1 1 0.00668307260976885 1 1 1 1 1 1 1 1 1 1 1 1 1 1 1 1 1 1 1 1 1 1 1 1 1 0.0093387538491324015 1 1 0.0089124704337650035 1 1 0.0099715693759483762 0.0061708053960573411 0.007604284234885246 1 1 1 0.0098862448122638072 1 0.0063476197232374548 0.0098459909396953899 1 0.0058745202552068273 1 1 1 1 1 1 0.0078005148290437865 1 1 1 0.0055677980840927177 1 0.0068014569053259644 1 1 1 1 0.0089468057676648088 1 1 1 1 0.010137995371574324 1 0.0073128572117068802 1 1 0.0050894119058818715 0.0088450166223236273 1 1 1 1 1 1 1 1 0.0077556182710626226 0.0065687649666449424 1 0.0080168924119727002 1 1 1 1 0.007076347261246764 1 0.0081354373466911937 1 1 1 0.0086143702314349611 1 1 1 1 1 1 1 0.0098700018678028814 1 1 1 1 1 0.0096900628257987117 1 1 1 0.0082156243052623097 0.0096432032843674631 1 0.0074206554951892281 0.0049669402824418646 1 1 1 1 1 1 0.0049968957460062927 1 1 0.0094711982740941988 1 0.010187968559704715 1 1 1 0.0104269757813339 0.0099992298591842915 1 1 0.0047154274410967159 1 0.0087745966652141155 1 0.009736287150446811 1 1 1 1 1 1 0.0095641322105952751 0.0069981636799717889 1 1 0.0093983810355591658 1 1 0.010005534607438695 1 1 0.0099710734388048072 0.0091969266990251826 1 1 1 1 1 1 0.0093202975687879299 1 1 1 1 0.0098743400137845487 1 0.0094843696855559205 1 1 0.0099622518153604407 1 1 1 1 1 1 1 1 1 1 1 1 1 1 1 1 1 1 1 1 1 0.0092931496086454939 1 1 1 1 1 1 1 1 1 1 1 1 1 0.0097242195177438401 1 0.0091760878470383209 1 1 1 1 1 1 1 0.0086160562458914638 1 0.010048525096515409 1 0.0096984403880886888 1 1 1 1 1 1 0.0095825826774192102 1 1 1 1 1 1 1 1 1 1 1 0.0099809838531185816 1 0.0091311810792056927 1 1 1 0.0088622703621567336 1 1 0.010140052933649051 1 1 1 1 0.010027428302798361 1 1 0.0099224454503169229 1 0.01001648013911839 1 1 1 1 1 0.0097077219053837011 1 1 1 1 0.0074506484528337608 1 0.007751298304614903 1 1 0.010075112111362918 1 1 0.0091699722436865971 1 0.0092157772080575136 1 1 0.0097354953413018482 1 1 0.0093423055746736164 1 0.0099997893961090781 1 1 1 1 1 1 1 1 1 1 1 1 1 1 1 1 1 1 1 1 1 1 1 1 1 1 1 1 1 1 1 1 1 1 1 1 1 1 0.010005984928634816 1 1 0.010062142455479657 0.0085363822789293192 1 1 1 0.0091598103271839718 0.010395046921483027 0.0094848605374594948 0.0087993328066902146 1 1 1 1 0.010002930924667629 1 1 1 1 0.01011093604001667 1 1 1 1 1 0.0108744806638904 1 1 1 1 0.0094148453491819523 1 1 1 1 1 1 1 1 1 1 1 1 1 1 0.0096095952627410983 1 1 1 1 1 1 1 0.0097234666624910204 1 1 1 1 1 1 0.0086287810096412169 1 1 1 1 1 1 1 1 1 1 1 1 1 1 1 1 1 1 1 1 1 1 1 1 1 1 1 1 0.0076529951498590099 1 1 1 1 0.0073310695886318004 1 1 1 1 1 0.0099819015065160735 1 1 1 0.011690477359461838 1 0.013056368563632749 1 1 0.014206382930442078 1 1 1 1 1 0.0094717869974284049 1 1 1 0.010129451991703994 1 1 0.0055577420393613866 1 0.0065744094680639173 1 1 1 1 1 1 0.0085926653868061489 1 1 1 1 1 1 0.0071048708582602885 1 1 1 1 1 1 1 1 1 1 1 1 1 0.0091840526209743725 1 1 1 0.0093003949723973744 1 1 1 1 1 1 1 1 1 0.0018044973882677222 1 0.0097184451743751055 1 1 1 1 1 1 1 1 1 0.015296820313634576 1 1 1 1 1 1 1 1 0.014755567631308881 1 1 1 1 1 1 1 1 1 1 1 1 1 1 1 1 1 1 1 1 1 1 1 1 1 1 1 1 1 1 0.0083082584938799272 1 0.0081829603556653856 1 1 1 1 1 1 1 1 0.010049608219861041 0.010054811996293362 1 1 1 1 1 1 1 1 1 1 1 1 1 1 1 1 1 1 1 1 0.010015024068136015 1 1 1 0.0093909779494728857 1 0.0093407573029564844 1 1 1 1 1 1 1 1 1 0.0090295348799273763 1 1 0.010105229536978498 0.0092255266443748499 1 0.010402522065608469 1 1 1 0.0096877636030824471 1 1 1 1 1 1 1 1 0.01000191074189917 1 1 1 1 1 1 1 1 1 1 1 1 0.009666803014535881 1 1 1 0.0096007435802441081 1 1 1 1 1 1 1 1 1 0.0098936189996575979 1 0.0096600988603885649 1 1 0.011633264428291504 1 1 0.012334506513644362 1 1 1 1 1 0.0094391917541218045 1 1 1 1 1 1 1 1 1 1 0.0099191909376096926 0.010406587562165118 1 1 1 1 0.010077558612922217 1 1 1 1 1 1 1 1 1 1 1 0.0086352559054312591 1 1 1 1 1 1 1 1 1 1 1 0.0094416681986350896 1 1 0.010015267032800423 1 1 0.0104739828438447 1 1 0.0094321320814173687 1 1 0.010273471448312222 1 1 1 0.0098146092038512676 1 1 1 1 1 1 0.0098408025449261919 1 1 1 1 1 0.0098560695777266186 1 1 1 1 1 1 1 1 1 0.0098651258199491613 1 1 1 1 1 1 1 1 0.0082153153236572095 1 1 1 1 1 1 1 1 1 1 1 1 1 0.0085953018399211097 1 1 1 1 1 1 0.0092922717844568618 1 1 1 1 1 1 1 1 0.010891735677764403 1 1 1 1 1 0.010016714779447211 0.0099703508426189913 0.0060996671863235569 1 1 1 1 1 1 1 1 1 1 1 1 1 1 1 1 1 1 1 1 0.0095370922323295901 1 1 1 0.0097151931538972426 1 1 1 1 1 0.0098000171619739666 1 1 1 0.013820120658157324 1 1 1 1 1 1 1 1 1 1 0.0073084118518359428 1 1 1 1 0.0024555363720103899 0.0078059426471884432 1 0.016226909042902485 1 0.0099528695605715332 0.0099009149975143994 1 1 1 1 1 1 1 1 1 1 1 1 1 1 1 1 1 1 1 1 1 1 0.0056980470565413076 1 0.0048440152850475707 1 1 0.0048314750613485911 0.004238597760968953 1 1 1 1 1 0.010101898662102052 1 0.0037525513254798993 0.0043388293778570354 1 1 0.012145718943464348 0.010971106222163043 1 1 1 1 1 1 1 1 0.0049657770215025508 0.010113714463507461 1 1 1 0.0094012519683070485 1 0.011260533996287249 1 1 0.0022973971410266097 1 1 1 0.010575207936829895 0.0094845107185936341 1 1 0.010560805507195898 1 1 1 1 1 1 1 1 1 1 1 1 1 1 1 1 1 1 0.010980251628026485 1 1 0.0010818781733669272 1 1 1 0.012989033436034445 1 1 0.0069348386101223247 1 1 1 1 1 1 0.010931090362257343 1 1 1 1 1 1 1 1 0.011930385686377278 1 0.0057339439452994412 1 1 1 1 1 1 1 1 1 0.0068128901113777528 1 1 1 1 1 1 1 1 1 1 1 1 1 1 1 1 1 1 1 0.0076269857777459746 1 1 1 1 1 1 1 1 1 1 1 1 1 1 0.010201037742430544 1 1 1 1 1 1 0.0044032830120779871 1 1 1 0.0098306374243068047 1 -3.1760808046066291e-09 1 0.0004553474995659286 0.013014305348531166 1 1 1 1 1 1 1 1 1 1 1 1 1 0.0023756005842131677 1 1 1 1 0.0028144646235456288 1 1 1 0.0050583047027971412 1 0.011206289187313468 1 1 1 1 1 4.5234716215813986e-09 1 1 1 1 1 1 1 1 1 1 0.018723741627238617 0.00049554783726432627 1 1 0.0028573455515313456 0.0003141826818575319 1 1 1 1 1 1 1 1 1 1 1 1 1 1 1 1 0.0090104444134586712 1 1 1 1 1 1 1 0.0065922945605885221 1 1 1 1 1 0.0035591233267014064 0.01003622257760103 1 1 1 0.0073739362739751856 1 1 1 1 1 0.0023037280114268782 1 1 1 1 1 1.7868679088456352e-09 0.01029007986873072 1 1 1 1 0.010018349964452356 1 1 0.0017262916816470578 1 1 1 1 1 1 1 1 1 1 1 1 1 1 1 0.0084109750249855356 1 1 1 1 0.0069070790244411765 1 1 1 1 1 1 1 1 1 1 1 1 1 1 1 1 1 1 1 1 1 1 1 1 1 1 1 1 1 1 1 1 1 1 1 1 0.0076382814862821693 1 1 1 1 0.0091421774868265179 1 1 1 0.0087099681094223481 1 1 1 1 1 1 1 1 1 1 1 1 1 1 1 0.0089536404141994565 1 0.0092497633708356584 1 1 1 1 0.0095474390297446039 0.0096854102868366154 1 1 1 1 1 1 1 1 1 1 1 1 1 0.0062216701944372618 1 1 1 1 0.0063888331683629443 1 0.0099620574144290968 1 1 1 1 0.0058079261532846312 1 1 0.0070675384286274217 0.0073603116107577556 1 1 1 1 0.0073729109186630327 1 1 0.0094845260603227677 1 1 1 1 0.0095867518345342153 1 1 1 1 1 1 1 1 1 1 0.0094784560017840656 0.0073416455191993545 0.0090098826613615769 1 1 0.0079613097540741119 1 1 1 1 1 1 0.0084268097260438365 0.007919667224963638 1 0.0080599223973253017 1 1 0.0085879700709266156 1 1 1 1 0.0097855503545759975 1 1 1 1 1 1 1 1 1 0.0086120208999303661 0.0088981981627357602 1 1 1 1 1 1 1 1 1 1 1 0.0082927182533105385 1 0.0081700031257258814 1 1 1 1 1 1 1 1 1 1 1 1 1 1 1 1 1 0.0092563457040895046 1 1 1 1 1 0.010094437795634502 1 0.0088378900460458158 1 1 1 1 0.010563283926846224 1 0.010370456144685443 1 1 1 0.0097644567224452489 0.0079251761672270229 1 1 1 1 1 1 0.0076312465156597922 1 1 1 1 1 1 1 0.0089826272172195253 1 1 1 1 1 1 1 1 1 0.0098563752352410824 1 0.0095273412787881297 1 1 1 1 1 0.0087247074921882016 1 1 1 1 1 0.010504816265517572 1 0.00794926375696655 1 0.0081660872034953411 1 1 1 0.0097236866272887457 1 1 1 1 0.010369451852398655 1 1 1 1 1 1 1 1 1 1 1 0.0093397764390996275 1 1 0.0089953697649844799 1 1 1 1 1 1 1 1 1 1 1 0.010003287627340145 1 1 1 1 1 0.010042670736877701 1 0.010121623484845551 0.009936083726507965 1 1 0.0089540588956384393 1 0.0088781350346006944 1 1 1 1 1 1 1 1 1 1 1 1 1 1 1 1 1 1 1 1 1 1 0.0091625457099958688 1 1 1 1 1 1 1 1 1 1 1 1 1 1 1 1 1 1 1 1 1 1 1 1 1 1 1 1 1 1 0.0096001776891331044 1 1 1 1 1 1 0.0093183070797494445 1 1 1 1 1 1 1 1 1 1 1 1 1 1 1 1 0.006070948486842323 1 1 1 1 1 1 1 1 1 1 1 1 1 1 1 1 1 1 1 1 1 1 0.0097204190750006161 1 1 1 1 1 1 1 1 1 0.0099934414009219662 1 1 1 1 1 1 1 1 0.012099700641243197 1 1 1 1 1 1 1 0.0034132138757013899 0.01030879175914131 1 1 1 1 1 0.014888932564475859 1 -1.0080468144241239e-09 1 1 0.0010813594318807157 1 1 1 1 1 1 1 1 1 1 1 1 1 1 1 1 1 1 0.0026819386470725015 1 1 1 1 1 1 1 1 1 1 0.0090400727477246857 1 0.0042684514482683317 1 0.014430150316045489 1 1 1 1 1 1 1 1 1 1 1 1 1 1 1 1 1 1 1 1 1 1 1 1 1 1 1 1 1 1 1 1 1 1 1 1 1 1 1 1 1 1 1 1 1 1 1 1 1 1 0.0098721922493988506 1 1 1 0.009694315979055363 1 1 1 1 0.010964557167666797 1 0.0023463536207963924 1 1 1 1 0.0080241515466942248 1 1 1 1 1 1 1 1 1 1 1 0.0045019667555494438 0.012554113340208381 1 1 1 1 0.0036047052896195867 0.0098706166218788319 1 1 1 1 1 1 1 1 1 1 1 1 1 1 1 1 1 0.0079909448526549326 1 1 1 1 1 1 1 1 1 1 1 1 1 1 1 1 1 1 1 1 1 1 1 1 1 1 1 1 1 1 1 1 1 1 1 1 1 1 1 0.0097774940182762515 1 1 0.010686336735693802 1 1 1 1 1 1 1 1 1 1 1 1 1 1 1 1 1 1 1 1 1 1 1 1 1 1 1 1 1 1 1 1 1 1 1 1 1 1 1 1 1 1 1 1 1 1 1 1 1 1 1 1 1 0.0099719404807128709 1 1 1 0.0080893892167310435 1 1 1 1 1 0.0085096709238363221 1 1 1 0.0081326475203957055 1 1 1 1 1 0.0077444193875361809 0.0097120554545005525 1 0.0099784809675905577 1 1 1 1 1 0.0077373860100976482 1 1 1 1 0.0099036555858507246 1 1 1 1 0.0085625193346216162 1 1 1 1 1 1 1 1 1 1 1 1 1 1 1 1 1 1 1 1 0.0042631712351290929 0.004935380245600994 1 1 1 1 1 1 1 0.00071566915323523043 0.0076375837125031822 1 1 1 0.0099591748979446105 1 0.010042907362270037 1 1 1 0.0094209786596921793 1 1 1 1 1 1 1 1 1 1 1 1 1 1 1 1 0.009550262580347222 1 1 1 1 0.0078744596206133822 1 1 1 1 1 0.006724723905412797 1 1 1 1 1 1 0.0028853248193657036 1 1 1 0.0015741117908333949 0.010237818900408258 0.0069525734064164388 1 1 1 0.0092946745410961516 1 1 1 1 0.006103421966480017 1 0.00641461292193014 1 1 0.0069622714453446673 1 1 1 1 1 1 1 0.0095874734066973815 1 1 1 1 1 0.0070202268759067595 1 1 1 1 0.0066962210604215406 1 1 1 1 1 1 1 1 0.006470921943886784 1 1 0.0082071399699832868 0.0077842124978703894 1 1 1 0.0050846394231523311 1 0.0069335482449125845 1 1 1 1 0.0075473005553560301 0.0099523159450617717 1 1 1 1 1 0.005423906139691282 1 1 1 1 1 1 1 1 1 0.0081944976194942322 0.0075785276668229023 1 1 1 1 1 0.0071247161493046655 1 0.010690772531197632 1 1 1 1 1 1 1 1 1 1 1 1 1 1 1 1 1 0.0070062044559780715 1 1 0.0098258940062018411 1 0.0071918391528059469 1 0.0073268665516358373 1 0.0093257444234903196 1 1 0.0077494158174099461 0.0093889701453881182 1 1 0.0075410841109379255 1 0.0080637944782854243 1 0.010015203663089119 1 1 1 0.0075650383359207266 0.0086025382387628167 1 1 1 0.0083958568641192728 1 1 1 0.0077185073152264572 0.0099793559140078092 1 1 1 1 1 0.007626384268002542 1 1 1 0.0025122986571163783 1 1 0.00534786866333695 1 1 0.0087622261279921548 1 1 1 0.009965730426387643 1 1 1 1 0.010064013052106083 1 1 0.0083037996542258078 0.0078742565417495025 1 1 1 1 0.0081700950981942813 0.0096956658066382397 1 0.0043607591115571599 1 1 1 0.011122712050178195 1 1 0.0096822832639595104 1 1 0.0075418772504390556 0.0096868343800243697 1 1 0.0066495309853396717 1 0.008603589842457772 0.0091646636335145585 1 0.008492007200638807 0.008342863844360747 1 1 1 1 0.0067211725074018801 1 1 1 1 1 1 1 0.009913239754261307 1 1 0.0091195361271240259 1 1 1 1 1 1 1 0.0099841957483911108 1 0.0042111636856652663 1 1 1 1 1 1 0.010004384546518631 0.0097020928913254742 1 0.0083402732716853605 1 0.0068504086634472282 0.0082931608503932566 1 0.0098685414492108992 1 1 1 0.008990151601565027 1 1 1 1 0.0069876534941693373 1 1 0.0089651351034995361 1 1 0.0097080241086109111 1 1 1 0.0099575713898930971 1 1 1 1 1 0.01009867322055868 1 1 1 1 1 1 1 1 1 1 1 1 1 0.0086708558924147115 0.0089695990831022403 1 1 1 0.0036371253575864515 1 1 1 0.00014160056287864558 0.010004176990764016 1 1 1 1 1 1 1 1 3.0801286347859058e-10 1 1 1 1 9.387740504395066e-05 1 1 1 1 1 1 1 1 1 1 1 1 1 1 1 1 1 1 1 1 1 1 1 1 1 1 1 1 1 1 1 0.0096313491419445559 1 1 1 1 1 1 1 1 1 1 1 1 1 1 1 1 1 1 1 0.0097340233529808681 1 1 1 0.0099712810789391853 1 1 0.0099998791937833537 1 0.010000322017350505 1 1 1 1 1 1 1 1 1 1 1 0.0099664140692678604 1 1 1 1 1 1 0.0090752344359886026 1 0.0097461605717074386 1 1 0.0097629728629095788 0.0099034504620262934 1 1 1 1 0.0099067129263072165 1 0.010034022235924292 1 1 1 1 0.0084342415601238174 1 1 1 1 0.0089823328213532935 0.0099996485011147017 1 1 0.00972246756188129 1 1 0.0090287537912472904 1 1 1 1 0.0098919118222968519 1 1 1 0.0096582934899634588 1 1 1 1 1 1 1 1 1 1 1 1 1 1 1 1 1 0.009678606867033375 1 1 0.0077309274895163323 1 0.0041862856338919369 1 1 0.0099503653040676661 1 0.0047243671986677629 1 0.0085157094284186892 1 1 0.0094875105763451081 1 1 1 1 1 1 1 1 1 1 1 1 1 1 1 1 0.0084553650001087596 1 0.0078708404978287388 1 1 1 1 1 1 1 1 1 1 0.0083745806385426384 1 0.010012462546234053 1 1 1 0.0095734606578281277 1 1 1 1 0.0080245856921547266 0.0076881504971016805 1 1 1 1 1 1 1 0.0077868351356007188 1 0.0076866132586778796 1 1 1 1 1 1 1 1 0.0083182339731691177 1 1 1 1 0.0075593252987609973 1 1 0.0089414450893824157 1 1 1 1 1 1 1 1 1 1 1 0.0065024379470700437 1 1 1 1 1 0.0063261630148437192 1 1 1 1 1 1 1 1 0.0093618798913995931 1 1 1 0.0084391990360826747 1 1 1 1 1 1 1 0.0094659148599440454 1 1 1 1 1 1 1 1 1 1 0.0070654097465470168 1 1 0.0096884790026217412 1 0.0090636841067148737 1 1 1 1 1 0.0079668127967743013 0.0084332573280522655 1 1 1 0.0082828839574397971 1 0.0067374005883917426 1 1 1 1 1 1 1 1 0.0071183578908673717 0.0066415064912649265 1 1 0.006560488784755715 1 1 0.0099969765836406335 0.0044734486329404809 1 1 1 0.0080731786511741427 1 1 1 1 1 1 0.0072195817808836556 1 1 1 1 1 1 1 1 1 1 1 1 1 1 1 0.010005982855856625 1 1 1 1 1 1 1 1 0.0065853640210219565 1 1 1 1 1 1 1 1 0.010232383142327151 1 1 1 1 1 1 1 1 1 0.007779394151810351 1 1 1 0.0085184910886679736 0.011525235946361302 0.01078579723345675 0.0098835134496794499 1 1 1 1 1 1 0.0084463153283599931 1 1 1 1 1 1 1 1 1 1 1 1 1 0.0099300485525208905 0.0078451723483022595 0.0061891665816125666 1 1 1 1 1 1 1 0.0086534936436809123 0.0082485082628024203 1 1 1 0.0075500117686663395 0.0076527339953729838 1 1 1 1 1 1 1 1 1 1 1 1 1 1 1 1 0.010785957693981319 1 0.013218600788741902 1 1 1 1 1 0.0065960210719764323 0.0089522880395575734 0.0095137220488476695 1 1 0.01098096486546382 0.0078535691704652803 1 0.0070810342894334841 1 0.0091694238033645358 0.010098354305426691 0.0069066055411411767 1 0.0098287900160490826 1 1 1 1 1 1 0.0095594569826697347 1 0.0093764031761148572 1 1 1 1 1 1 1 1 1 1 1 0.0074142934826912522 1 1 1 0.0095573892714093459 1 1 1 1 1 0.0094881847094759886 1 1 0.00825720251731152 1 1 0.0099636615323151646 1 1 1 0.0099139715150498228 1 1 1 1 1 1 1 1 0.010080776612946221 1 1 1 0.010027644027063451 1 1 1 1 0.0097437603960232773 1 1 1 1 1 1 1 1 1 1 1 1 1 1 1 1 1 1 1 1 1 1 1 1 1 1 0.010304572345800851 1 1 1 1 0.0094192665592715483 1 1 1 1 1 1 0.0084526366133897066 1 1 1 1 1 1 1 1 1 0.0077373020849045154 1 1 1 1 1 1 1 1 1 1 1 1 1 1 1 1 1 1 1 1 1 1 1 0.010034027776818864 1 1 1 1 0.010007851980673815 1 1 1 1 1 1 1 1 1 1 1 1 1 0.010153620219162579 1 1 0.0096873812521213465 0.0095249814323129511 1 1 1 0.0092095079935848867 0.0099103579680830268 1 0.008953902979333947 1 0.0091216696449440277 1 1 1 1 1 0.0099731733840642441 1 1 0.0099939012699643212 1 0.010084768899142681 1 1 0.0074623823110555702 0.0099994216876869227 1 1 1 1 1 1 1 1 0.0096433054296298504 1 0.0099878304032019749 1 1 1 1 1 0.0095317235539559772 1 1 1 1 1 1 1 1 1 1 1 1 1 0.0096347784065173685 1 1 0.0098805728449048169 1 1 1 1 1 1 1 1 1 1 1 1 1 1 0.0094291886130685176 1 1 1 1 0.009918116111737792 1 1 1 1 1 0.010059794644966528 1 1 0.009980061338217331 1 1 1 0.010165057883427846 1 1 1 0.0095336259471439418 1 1 1 1 1 1 1 1 1 1 1 1 1 1 1 1 1 1 1 1 1 1 1 0.0089867181626089795 1 1 1 1 1 1 1 1 1 1 1 1 0.006505707023526007 1 1 0.0066226457406617575 1 1 1 1 1 1 1 1 1 1 1 1 1 1 1 1 1 0.002377759159026431 1 1 1 1 1 1 1 1 1 1 0.0092831843231299359 1 1 1 0.0079112809424907605 1 1 0.0017093808654793791 1 1 1 1 1 1 1 1 1 1 1 1 1 1 1 1 1 1 1 1 1 1 1 1 1 1 1 1 1 1 1 1 1 1 1 1 1 1 1 1 1 1 1 1 1 1 1 1 1 1 1 1 1 1 1 1 1 0.010014357875342363 1 1 0.0062386491402793148 1 0.010731585363685407 1 1 1 1 1 1 1 1 0.0059145129142271907 1 1 0.010001621420206334 1 0.0067765684487113148 1 1 1 1 1 1 1 1 1 0.0076845912500632853 1 1 1 0.0099757450989364158 1 0.011717015086834861 1 1 1 1 0.008687968220546894 1 1 1 1 0.010142716358761513 1 1 1 1 1 1 1 0.0089729600614610102 0.0011825764612497999 1 1 1 1 1 1 1 1 1 1 1 1 1 1 1 1 1 1 0.0069803941996400901 1 1 1 0.0089322846830372418 1 1 0.002543167760758816 1 1 1 1 1 1 1 1 1 1 1 1 1 1 1 1 1 1 1 1 1 1 1 1 1 0.0068517800378943491 1 1 1 1 1 1 1 1 1 1 1 0.010095284203977017 1 1 0.010462306312524138 1 1 0.0053996376137796578 1 1 1 1 1 1 1 1 1 1 1 1 1 1 1 1 1 1 1 1 0.0082810584906290088 1 1 1 1 1 1 1 1 1 1 1 1 1 1 0.0088347684744598323 1 1 1 1 0.0068023095157067007 1 1 1 1 1 0.0099397471857195028 1 1 1 1 1 1 1 1 1 1 1 1 1 1 1 1 1 1 1 1 1 1 1 1 0.011511735491187428 1 1 1 1 1 1 1 1 1 1 1 1 1 1 1 0.010007819138958993 1 1 1 1 0.010380370364579802 1 1 1 1 1 1 1 1 1 1 1 1 1 1 1 1 1 1 1 1 1 1 1 1 1 1 1 1 1 0.0092162445327967635 1 1 1 1 1 0.0089021653764033912 1 1 1 1 1 1 1 1 1 1 1 1 1 1 1 1 1 1 1 1 1 1 1 1 1 1 1 1 1 1 1 1 1 1 1 1 1 1 1 1 1 1 1 1 1 1 1 1 1 1 1 1 1 1 1 1 1 1 1 1 1 1 1 1 1 1 1 1 1 1 1 1 1 1 1 0.0092328047160339915 1 1 1 1 1 0.0092348098477726057 1 1 1 1 1 1 1 1 1 1 1 1 1 1 1 1 1 1 1 1 1 1 0.010816340460379879 1 1 1 1 1 1 1 1 1 1 1 1 1 1 1 1 1 0.0084431546333107385 1 1 0.012149924856154293 1 1 0.0093686695366531417 1 0.0099304225547508715 1 1 1 1 0.0050207475230394927 1 1 0.0069846965351155407 1 1 1 1 1 1 1 1 1 1 1 1 0.0089709409918825207 1 1 1 1 1 1 1 1 1 1 1 1 1 1 1 1 1 1 1 1 1 0.0034202172301622327 1 1 1 1 1 1 1 1 1 1 1 0.0074696747372948388 1 1 1 1 1 1 1 1 1 1 1 1 1 1 1 1 1 1 1 1 0.013759474088003529 1 1 1 1 1 1 1 1 1 1 1 1 0.0065564690241114235 1 0.0050828705177593733 1 1 1 0.0013918646228494244 1 1 0.0099981323247871554 1 1 0.0099049647611644653 1 1 0.014181114761525386 1 1 1 1 1 1 0.0095867217760797242 0.0058679271928301566 1 1 1 1 0.0093123351799404112 1 1 1 1 1 1 1 1 1 1 1 1 0.0068773547737289061 1 1 1 1 0.005835429677691184 1 1 1 1 1 1 1 1 1 0.01000000686652614 1 1 1 1 1 1 1 1 1 1 1 1 1 1 1 0.0084850262645845033 1 1 1 1 0.0065851041562993342 0.012541006122607069 1 1 1 1 1 1 1 1 0.010870672583192938 1 1 1 1 1 1 1 1 1 1 1 1 1 1 1 1 1 1 1 0.0098392487156021332 1 1 1 1 1 1 1 1 1 1 1 1 1 1 1 1 1 1 1 1 1 1 1 0.010231657677029653 1 1 1 0.01058504085670307 1 1 1 0.010765327051461345 1 0.009013627393336417 1 1 0.0095163525809978181 1 1 1 1 0.010011084569279568 1 1 1 1 1 1 1 1 1 1 1 1 1 1 1 1 0.0096276050617386012 1 1 1 1 1 1 1 1 1 1 1 1 1 1 1 1 1 1 0.0096710489846949035 1 1 1 1 1 1 1 1 1 1 1 0.0087273946923963203 1 0.0097017846754912651 1 1 1 0.009883817452923117 1 1 1 0.010120639954251677 0.008424520542991332 1 1 1 1 1 0.0091571098187726331 1 0.010040215799779954 1 1 1 0.0088035966718088086 1 1 1 1 1 0.0095434636344554295 1 1 1 1 1 1 1 1 1 1 1 1 1 1 1 1 1 1 1 1 1 0.0073612663595055321 1 1 1 1 1 1 1 0.0096691422948116633 1 1 1 1 0.010016672158320042 0.00747461873407833 1 1 0.0083030366097704995 0.0098489496998794036 1 1 1 1 1 1 1 1 1 1 1 1 1 1 1 1 1 1 1 1 1 1 1 1 1 1 1 1 1 1 1 0.0047613430954096501 1 0.003907439309045059 1 1 1 1 1 1 1 1 1 1 1 1 0.005520436993519934 1 1 4.5993346266953727e-09 1 0.0093795077867870821 1 1 0.0058645497893678369 0.0080665203697994244 1 1 0.0084651680859281157 0.0086734170658350936 1 1 1 1 0.0067485156370430295 0.0060169440051779065 1 0.0091602426196878348 1 1 1 0.0084064509481801969 0.0087252550219601259 1 1 1 1 0.0094700876075683674 1 1 1 1 1 1 0.0084803550706902767 1 1 1 1 1 1 1 1 1 1 1 1 1 1 1 1 1 0.0088235887926808847 1 1 1 0.0057476446860042565 1 1 1 0.0098875358378541049 1 1 1 0.0056751440110276181 1 1 1 1 0.010053802494121652 1 1 0.0099003017343766708 1 1 1 1 0.0075441917518153101 1 1 0.0058874878345721096 1 1 1 1 1 1 1 1 1 1 1 1 0.0091949969419481293 1 1 1 1 0.0046620995094389332 1 1 0.0085691620186838929 1 1 1 0.0087244110596547929 1 1 1 0.0040349702561705766 1 1 1 1 0.007447408451892539 1 0.0056932472583227992 1 1 1 1 1 1 1 1 1 0.0096329468925618299 1 1 1 1 1 1 1 1 1 1 1 0.0028444127180254643 1 1 0.0094674789916494619 1 1 0.0084521941188039056 1 1 1 1 1 1 1 1 1 1 1 0.0094211973804592813 1 1 1 1 1 1 0.0021462261806492744 1 1 0.0033896183962492344 1 1 1 1 1 1 1 1 1 1 1 1 0.0093774671673795742 1 1 1 1 1 1 1 0.004172831420536028 1 1 1 0.0030580990342782381 1 1 1 1 1 1 1 1 1 0.0097095767196611477 1 1 1 1 1 1 1 1 1 1 1 0.0044977701517578657 1 1 1 0.0050507553527653608 1 1 1 1 0.0099624710282886584 1 0.0097931973439439116 0.0082387084143301266 0.001270895297318983 1 1 1 1 1 1 0.0050061283295137551 1 1 1 1 0.0067125951073123309 0.0062394494879350268 1 1 1 1 1 1 1 0.0065325005744099659 1 1 1 1 1 1 1 1 1 1 0.008369840642987238 1 1 1 1 1 1 1 1 1 1 1 1 0.008834075613693388 1 1 1 1 1 1 0.006933243008320494 1 0.0097805726503071583 1 1 1 1 1 1 1 1 1 1 0.0082310457312602409 1 1 1 1 1 1 1 1 0.0099780997351940556 1 1 1 1 1 1 1 1 0.0098913572712759374 1 1 0.0099003178548127922 1 1 1 1 1 0.0080796644444398238 1 1 1 0.0096808905051199469 1 1 1 1 1 1 1 1 1 1 1 1 1 1 1 0.010325213112641955 1 1 1 0.0084622446362999024 0.0065148193312185645 1 0.0084398846815062316 1 1 1 1 1 1 0.0021906513455726782 1 1 1 1 1 1 1 1 1 1 1 1 1 1 1 1 1 1 1 1 1 1 1 1 1 1 1 1 1 1 1 1 1 1 1 1 1 0.0096484924764110008 0.011500353691674093 1 1 1 1 1 0.0089377530832071457 1 0.001072847636864882 1 0.010150606699251795 1 1 0.0099986036428497925 1 0.012556131752536046 1 1 0.0083729313885431787 1 1 0.010199445877560576 1 0.010850533550533489 1 1 1 1 1 1 0.01028923404871044 1 1 1 1 1 1 1 1 1 1 1 1 1 1 1 1 1 1 1 1 1 1 1 1 1 1 1 1 1 1 1 1 1 1 1 1 1 1 1 1 1 1 1 1 1 1 1 1 1 1 1 1 1 1 1 1 1 1 1 1 1 1 1 1 1 1 1 1 1 1 1 1 1 1 1 1 1 1 1 1 0.0090598594584016656 1 1 1 1 1 0.0088386190315676294 1 1 1 0.0078484892035065746 1 1 1 1 0.0099944354074605144 1 0.0093553475536047315 1 0.0050791973021144642 1 1 1 0.0085462589115360005 1 1 1 1 1 1 1 1 1 1 1 1 1 1 1 1 1 1 1 1 1 1 1 1 0.0091760817459859683 1 1 1 1 0.0091685744551970733 1 0.0090312406827809544 1 1 0.0083456616377857833 1 1 1 1 1 1 1 0.0099526219315601572 1 1 0.0044738146142803102 0.0076984560838298209 1 1 1 1 1 1 1 1 0.014840631952536871 1 0.0027560321693586463 0.008758474477443606 0.0098447443908486077 1 1 1 1 1 1.0651801561015889e-09 1 1 1 1 1 1 1 1 1 1 1 1 1 1 0.0090860493541168041 1 1 1 1 1 1 0.0073786608942703578 0.01106115048358678 1 1 0.0101948492845231 0.0064277701069433268 1 1 1 1 2.5168522301000085e-09 1 1 1 1 1 1 1 0.0093049771592211838 1 1 1 0.008517046977346638 1 1 1 1 1 1 1 1 1 1 1 0.010399543403185961 1 1 1 1 1 1 1 1 1 1 1 1 1 1 1 1 1 1 1 1 0.0097342028885493165 1 1 1 1 1 1 1 1 1 1 1 1 1 1 1 1 1 1 1 1 1 1 1 1 1 1 0.0096044501705957273 1 1 1 1 1 1 1 1 1 1 1 1 1 1 1 1 1 1 1 1 1 1 1 1 1 1 1 1 3.9397373887556375e-09 1 1 1 0.010277270522059484 1 1 1 1 1 1 1 1 1 1 1 1 1 1 0.0095594319345718246 1 1 0.0096850224779168621 1 1 1 1 1 1 1 1 1 1 1 0.0088501960280977978 1 1 0.010026822110800054 1 1 1 1 1 1 1 1 1 1 1 1 1 1 1 1 1 1 1 1 1 1 1 0.010867355110396056 1 1 0.0085882468457717555 1 1 0.0092985412314689937 1 0.007568395864612951 1 1 0.0076705078799935971 0.0066858417267583667 1 1 1 1 1 1 0.0080663721578191766 0.0086521855355697567 1 1 1 1 1 0.0075043083820619501 0.0092857366945849409 1 1 1 1 1 1 1 1 1 1 1 1 1 1 1 0.010019363260416201 1 1 0.0098487645923700622 1 1 1 1 1 0.0096944589920671363 1 1 1 1 1 1 1 1 1 1 1 1 1 0.0091657261805504556 0.0090991273664512828 1 1 1 1 1 1 0.0095124792085461776 1 1 1 1 1 1 1 1 0.009016009368918311 1 1 1 1 1 1 1 1 0.011286651110926768 1 0.010454312084208581 1 1 1 1 1 0.010135633883039166 0.0081791560676425235 1 1 1 0.0084353404765072759 1 0.008010194583376453 1 0.0084035462417164884 1 1 1 1 1 1 0.0097653192488022025 0.00087952291173877366 1 1 1 1 1 0.0099001107621398896 1 1 1 0.0096982345699603099 1 1 0.0044197083501228522 1 1 1 1 0.004552690610962566 0.010037312960825589 1 1 1 1 1 1 1 1 1 1 0.0045656693594778395 0.0095421681458624872 1 1 0.0041377104857085248 1 0.0054210001575675125 1 0.0015719768034992958 1 1 1 1 1 1 1 1 1 1 0.0067029035120531738 1 1 1 1 0.005505743085490393 1 1 1 1 1 0.0060542055535902223 1 1 1 1 1 1 1 1 1 1 1 0.0035755079979347855 1 1 1 1 1 0.00094755724940786992 0.0096674683387636615 1 1 1 1 1 1 1 1 1 1 1 1 1 0.00054417972432704853 1 1 1 1 1 1 1 1 1 0.003280236227402188 1 1 1 1 1 1 1 1 0.0049733652201294498 1 1 1 1 1 1 1 0.0098952350869841894 1 1 0.0048891452710715239 1 1 1 1 0.0042809103291277257 1 1 1 1 1 1 1 1 0.0096537087875708093 1 1 1 1 1 0.003593620409648713 1 1 0.010095479330235288 0.0070869265868665297 1 1 1 1 1 1 1 1 0.0089302877213368378 1 1 1 1 1 1 1 1 1 1 1 1 0.0071261076680453721 1 1 1 1 0.0060874162113869722 1 1 1 1 1 1 1 1 1 1 1 1 1 1 1 1 1 1 0.0079777751315058543 1 1 1 1 1 1 1 1 1 1 1 1 1 1 0.0085934952909157807 1 1 1 1 1 1 1 1 1 1 1 1 1 0.011453263850714185 1 1 1 1 1 1 0.0094375180321998129 1 1 1 1 1 1 1 0.0095136621184591149 1 1 1 1 1 0.0084872833781633496 1 1 1 1 1 1 1 1 1 1 1 1 1 1 1 1 1 1 1 1 1 0.006352252680924755 1 1 1 1 1 1 1 0.012679124191310225 1 1 1 1 1 1 1 0.0068531718157227341 0.010639097014593944 1 1 1 1 1 1 1 1 1 0.0086429754909947368 1 1 1 1 1 1 1 -3.2144642815590263e-09 1 1 1 0.0011842968398910608 1 1 1 1 1 1 0.013365622260013085 1 1 1 1 1 1 0.014006845686628985 1 1 1 1 1 1 0.0088788204114421815 1 0.0088256767291955487 1 0.010618592385939721 1 1 0.0071777036038346079 1 1 0.0067838654877627105 0.0076004994397457313 1 0.0092495358800549592 1 0.010192336124409422 1 1 1 1 1 1 1 1 1 1 1 1 1 1 1 1 1 1 1 1 1 1 1 1 1 1 1 0.0081833734001434677 1 1 1 0.01037600440260217 1 1 1 1 1 1 1 1 1 0.010537862598161843 1 1 1 1 1 1 1 1 0.011622841793845389 0.0051341421569290162 1 0.0080166433708478389 1 1 1 1 1 1 1 1 1 1 1 1 1 1 1 1 1 1 1 1 1 1 1 1 1 1 1 1 1 1 1 1 1 1 1 0.0080423598168035126 1 0.0063405806387099028 1 1 1 1 1 1 1 1 1 1 1 1 1 1 1 1 1 1 1 1 1 1 1 1 1 1 1 1 1 1 1 1 1 1 1 1 1 1 1 1 1 1 1 1 1 1 1 1 1 0.0095307924833991295 1 1 1 1 0.0087452234299410792 1 0.009211168556623843 1 1 1 1 1 1 1 1 1 1 0.0083274423164904961 1 1 1 1 1 1 1 1 1 1 1 1 1 1 0.0092414064578077559 1 1 1 0.010187299094111478 1 1 1 1 1 1 1 1 1 1 1 1 1 1 1 1 1 1 1 1 1 1 1 1 0.0082952046896560307 1 1 1 1 1 1 0.0092091688309732904 1 1 1 1 1 1 1 1 1 1 1 1 1 1 0.0096165581382976206 1 0.010029761526806184 1 0.010622930921523836 1 1 1 1 1 0.0099543793265651284 1 1 1 1 1 1 0.0086595487089366555 1 1 1 1 1 1 1 1 1 1 1 0.0098124356099344515 1 0.0068222622984370901 1 0.005589740623416585 1 1 1 1 1 0.0097872271191087705 1 1 1 1 1 1 1 1 1 1 1 1 1 1 1 1 1 1 1 0.0096830921576296219 1 1 1 1 1 1 1 0.0092036467261208538 1 1 1 1 1 1 1 1 1 1 1 1 1 1 1 1 1 1 1 0.0058465730782026604 1 1 1 1 1 0.010110113920216986 0.0064156958533940767 1 1 1 0.0085037438660273551 1 1 1 0.0090706374650276061 1 1 1 1 1 1 1 0.0098104291655864151 1 1 1 0.0096787730878187261 1 0.011402093516075983 1 1 1 1 1 1 1 0.012027370715538383 1 1 1 1 1 1 1 1 1 1 1 1 0.0082982208219063956 1 1 1 1 1 1 1 1 1 1 1 1 1 1 1 1 0.010559718197897649 1 1 1 1 1 1 1 1 1 1 1 1 1 1 1 1 1 1 1 1 1 1 1 1 1 1 1 1 1 1 1 1 0.01000830545619006 1 1 1 1 1 1 1 1 1 1 1 1 1 1 1 1 1 1 1 1 1 1 1 0.0033086336950245085 1 1 1 1 1 0.0030057927090697614 1 1 1 1 1 0.0023678035518309715 1 1 1 1 1 1 1 1 0.0016441991509484749 1 1 1 1 1 1 1 1 1 0.010295449918258879 1 1 0.0012240993028212396 1 1 1 1 1 1 1 1 1 1 1 1 1 1 0.010074354254089486 1 1 1 1 0.0086282696978463233 1 1 1 0.0084117247132027024 1 1 1 1 1 1 1 1 1 1 1 1 1 1 0.010195217158592836 1 1 1 1 0.0084145810843977847 1 0.0098788768855345484 1 1 1 0.0096259463062587699 1 1 1 0.0082808590420848181 0.0089432311012403731 0.0087899790488864919 1 1 1 1 0.0099139861742294291 1 0.0088929769654202233 1 0.011350684965202373 0.0099982651797430322 1 1 1 1 1 0.0087623350592906796 1 1 1 1 1 1 0.0043480670454522294 1 0.0031002702660415868 1 0.0070315598777497806 1 1 1 1 0.0069903898867469429 0.0099275766887854857 1 1 1 1 1 1 1 1 1 1 1 1 0.010110977627666141 1 1 1 1 1 1 1 1 0.010501281981659795 1 1 1 0.0099883986986404015 1 0.0042210777842616315 1 1 1 1 0.008786661607742172 0.0093835679492513188 0.0038803712822260104 1 1 0.0089682417676777704 1 1 0.0098839079000334722 1 1 1 0.010318142948427792 1 1 1 1 1 0.0099758170670778065 1 1 1 1 1 1 1 0.0099294164723487399 1 1 0.0079324819092225669 0.0074379459417642305 1 1 1 0.010321899728937822 0.0099838787035415773 1 1 1 1 1 1 0.0055488663883326503 1 1 1 1 1 0.0058125899300111132 1 1 1 1 1 1 1 1 1 1 1 1 1 1 1 1 1 1 1 1 1 1 0.009922172425404165 1 0.0089468121198129254 1 1 0.009787359083665674 1 1 1 1 0.010006699680810117 1 1 1 1 1 1 1 1 1 1 0.0086539280416011929 1 0.009069614010403371 1 0.0066019494793385786 1 0.009749028354055311 1 1 0.0061698787718920539 1 1 1 1 1 1 1 1 1 0.0099100131463671064 1 1 1 1 1 1 1 1 1 1 1 1 1 1 1 1 1 1 1 1 1 1 1 1 1 1 1 1 1 1 1 1 1 1 1 1 0.0099799283881038519 1 1 1 1 0.010097465204181448 1 1 1 1 1 1 1 1 1 1 1 1 1 0.010418763422427244 1 1 1 1 1 1 1 1 1 1 0.010147057313930077 1 1 1 1 1 0.010424155729734916 1 1 1 1 1 1 1 1 1 1 1 0.008368932580714257 1 1 1 1 1 1 0.0099638013490283145 1 1 1 0.007739550161256846 1 0.0098508783869446868 0.010189803925696852 1 1 1 1 1 1 1 1 0.0095191381412988822 1 1 1 0.0097905231134493356 1 1 1 0.0086335912362904034 1 1 1 1 1 1 1 1 1 0.009354655489902039 0.010230234165432298 1 1 1 1 1 1 1 1 1 1 1 1 1 1 1 1 1 1 1 1 0.0079115656428411316 0.010482764590483272 1 1 1 1 1 1 1 1 1 1 1 1 1 1 1 0.009955583841912273 1 1 1 1 0.010108963378994544 1 1 1 1 1 1 1 1 1 1 1 1 1 1 1 1 1 1 1 1 1 1 1 0.0022785117645946276 1 1 1 1 1 0.010293600849155388 1 1 1 1 0.010834332026537731 0.011248196218260644 1 1 1 1 0.0099655594604769575 1 0.0052192064350475176 1 0.012155315314139659 0.00096590592983301915 1 1 1 1 0.011794903027892899 1 0.012675059964279129 1 1 7.0829591497512112e-10 1 0.0089402367483416116 1 0.010799541098015298 1 1 1 1 1 1 1 1 1 1 1 1 1 1 1 1 1 0.0018720286445366302 1 1 1 1 0.0038772729177712767 0.0037890114147970076 1 1 1 1 1 1 1 3.2776647992949215e-09 1 1 0.0099437247066041373 1 0.009039579741718401 1 1 1 1 1 1 0.0054574935983245573 1 1 1 1 1 1 1 1 1 1 1 1 0.0098272692506895382 1 1 2.8725990336431195e-09 1 1 1 1 1 1 1 1 1 1 1 1 1 1 1 1 1 1 1 0.010092869006982981 1 1 1 1 0.0081665508581559697 0.009141800586013802 1 1 1 1 1 1 1 1 1 0.010183031260160251 1 1 0.0098988780426725251 1 0.0043865607617526014 1 1 1 1 0.010137443961002211 1 1 1 1 1 1 1 1 1 1 1 1 1 1 0.0094742233370143699 1 1 1 0.0090785496848262651 1 1 1 1 1 1 1 1 1 1 1 1 0.0085685541046814223 1 0.0087811253945320935 1 1 1 1 0.0096680240080509339 1 1 1 0.0024991680479792173 1 1 1 1 1 1 1 1 1 1 1 0.011398508911224521 0.0017572133890279198 1 1 1 1 1 1 1 1 1 0.010507250108612256 1 1 1 1 1 1 1 1 1.5251892578754811e-09 1 1 1 1 0.0044016465678032909 1 1 1 1 0.010032433512827336 1 0.0093923555889467766 1 1 1 1 1 1 1 1 1 1 1 1 1 1 1 1 1 0.0059946978863378627 1 1 1 1 1 1 1 0.010837494604895812 1 1 1 1 1 1 1 1 1 1 1 1 1 0.00022474573833584921 0.0086639962252518903 1 1 1 1 0.0095753894550492952 1 1 1 1 1 0.0048414146810755714 1 1 1 1 1 1 0.0020011459735282027 1 1 0.0098419924646198677 1 0.0088602510543799116 1 1 0.0098669794918789522 1 1 1 1 1 1 1 0.0076355923768996652 1 1 1 1 1 1 1 1 0.0080000964817493973 0.0038926435757503509 0.0057141380645353967 1 1 1 1 1 1 1 1 1 9.3301873011451819e-09 1 1 1 1 1 1 1 0.009780576353344712 1 1 1 0.0073813643719168294 1 1 0.001922423467778607 1 1 1 1 0.009577419558902775 1 1 1 1 1 1 1 1 0.013531296647759756 1 0.012555623388946748 1 1 1 1 1 1 8.5170077318910686e-09 1 1 0.0089905483703209207 1 1 1 1 1 1 1 1 1 0.0034754564930145459 1 1 1 1 1 1 0.00091216888146276529 1 1 1 1 0.0094158023306896797 1 1 1 1 1 1 1 1 1 1 1 1 1 1 1 1 1 1 1 1 1 1 1 1 1 1 1 1 1 1 1 1 1 1 1 1 1 1 1 1 1 1 1 1 1 1 1 1 1 1 1 1 0.0060794276889482596 1 1 0.0099949800295273394 1 0.009242210279521176 0.0083644072341099406 1 1 0.0095440613090685203 1 0.0072587134338112968 1 1 1 1 0.009466497406049117 1 1 0.010426969622611963 1 1 1 1 1 1 0.0098464600610672498 0.0049466663654551867 1 1 1 1 1 1 0.0059167302594671373 1 0.0064362057859279672 1 0.0068392863597730134 0.0079764625408589047 1 0.0071074169908250879 1 0.0097894458407959458 0.0063691327770939721 1 1 1 1 1 1 1 1 1 0.0069447356604539611 1 0.0077556684659571135 1 1 1 1 1 1 1 0.010073705795089474 0.0083630212072128129 1 1 1 1 0.010149302987062056 1 0.0099870814464631738 1 1 0.0037186634677442727 1 0.010154286368727667 1 1 1 0.010704794796104028 1 0.0037535104896467032 0.0050283582755757446 1 1 1 0.0074287814465854394 1 0.005605905909499654 0.0098651161032187774 1 1 1 0.0052185260818581524 1 1 0.0073535840614381105 1 1 1 1 1 1 1 0.010025728136854567 1 1 1 1 1 1 1 1 1 1 1 1 1 1 1 1 1 1 1 1 1 1 1 1 1 1 1 1 1 1 1 0.0093438487396390272 1 1 1 0.0073875061457384806 1 1 1 0.0081889817862032931 0.0098823566354860858 1 1 1 1 0.0073558528341684561 1 1 1 1 1 1 1 1 1 1 1 1 1 1 1 1 1 1 1 0.0053851276799768855 1 0.010010449996961709 1 1 1 1 0.0061412581943216717 1 1 0.0058744219185838161 1 1 1 1 1 1 1 0.0076607401778806816 1 1 1 1 0.0084385253459092133 1 1 1 0.0098533551619303904 1 0.0059987353816410779 0.0064427369943420593 1 1 0.0078872509365665398 1 1 1 1 1 1 0.0076759507023002301 1 1 1 1 1 0.0098193998792120048 1 1 1 0.010068583160963169 1 0.0056753248689230609 1 1 1 1 1 0.010249378554575014 1 0.0067696644772584896 0.0065940561529427288 1 0.011477333281986782 1 1 0.0090809956832975328 1 1 0.0042488996573601702 1 1 1 0.0088899990600225572 1 0.009619971023673804 1 1 1 0.0024631187078485856 1 1 1 1 1 1 1 1 1 0.0095204553348490293 1 1 1 1 1 1 1 1 1 0.008803454850870876 1 1 1 1 0.0095818027576584676 1 1 1 0.0088232131152281793 1 1 1 1 1 1 1 1 0.011623003864918801 1 1 0.011701478485318384 1 1 1 1 1 1 0.01133882086052726 0.0087243923723862391 1 1 0.0095364441952256584 1 1 1 1 1 1 1 1 1 0.0098085784377668715 1 1 1 1 1 0.0041095746100965405 1 0.0040441060456352217 1 1 1 1 1 1 1 1 1 1 0.0043672200306081148 1 0.009393645892068354 1 1 1 
</DataArray>
</CellData>
</Piece>
</UnstructuredGrid>
</VTKFile>
